% Sparse benchmark instance
% Generated with seed=12004 locations=10 parts=4 transports=2 routes=71

% ---- locations ----
location(l1).
location(l2).
location(l3).
location(l4).
location(l5).
location(l6).
location(l7).
location(l8).
location(l9).
location(l10).

% ---- transport resources ----
transportCapacity(tr1,15).
transportCO2(tr1,51).
transportCost(tr1,46).
transportSpeed(tr1,5).
transportCapacity(tr2,12).
transportCO2(tr2,21).
transportCost(tr2,54).
transportSpeed(tr2,4).

% ---- parts ----
part(p1).
partSize(p1,4).
partVal(p1,731).
partTR(p1,tr1).
partTR(p1,tr2).
part(p2).
partSize(p2,4).
partVal(p2,459).
partTR(p2,tr1).
partTR(p2,tr2).
part(p3).
partSize(p3,4).
partVal(p3,831).
partTR(p3,tr1).
partTR(p3,tr2).
part(p4).
partSize(p4,4).
partVal(p4,905).
partTR(p4,tr1).
partTR(p4,tr2).

% ---- demand and supply ----
demandOffer(p1,l1,20).
demandOffer(p2,l1,21).
demandOffer(p3,l1,17).
demandOffer(p4,l1,12).
demandOffer(p1,l10,-1).
demandOffer(p2,l10,-9).
demandOffer(p3,l10,-7).
demandOffer(p4,l10,-5).
demandOffer(p1,l2,10).
demandOffer(p2,l2,9).
demandOffer(p3,l2,13).
demandOffer(p4,l2,18).
demandOffer(p1,l7,-9).
demandOffer(p2,l7,-14).
demandOffer(p3,l7,-10).
demandOffer(p4,l7,-9).
demandOffer(p1,l8,-9).
demandOffer(p2,l8,-1).
demandOffer(p3,l8,-8).
demandOffer(p4,l8,-8).
demandOffer(p1,l9,-11).
demandOffer(p2,l9,-6).
demandOffer(p3,l9,-5).
demandOffer(p4,l9,-8).

% ---- routes ----
route(l1,l3,tr1,9,414).
route(l1,l3,tr2,1,54).
route(l1,l4,tr1,6,276).
route(l1,l4,tr2,8,432).
route(l1,l5,tr1,2,92).
route(l1,l5,tr2,1,54).
route(l1,l6,tr1,10,460).
route(l1,l6,tr2,8,432).
route(l1,l7,tr1,5,230).
route(l1,l7,tr2,7,378).
route(l2,l3,tr1,6,276).
route(l2,l3,tr2,4,216).
route(l2,l4,tr1,10,460).
route(l2,l4,tr2,8,432).
route(l2,l5,tr1,10,460).
route(l2,l5,tr2,8,432).
route(l2,l6,tr1,5,230).
route(l2,l6,tr2,2,108).
route(l2,l7,tr1,1,46).
route(l2,l7,tr2,10,540).
route(l2,l8,tr1,8,368).
route(l2,l8,tr2,6,324).
route(l2,l9,tr1,4,184).
route(l2,l9,tr2,7,378).
route(l3,l10,tr2,8,432).
route(l3,l4,tr1,7,322).
route(l3,l4,tr2,3,162).
route(l3,l6,tr1,7,322).
route(l3,l7,tr1,3,138).
route(l3,l7,tr2,8,432).
route(l3,l8,tr1,10,460).
route(l3,l8,tr2,5,270).
route(l3,l9,tr1,1,46).
route(l3,l9,tr2,9,486).
route(l4,l10,tr1,10,460).
route(l4,l10,tr2,9,486).
route(l4,l3,tr1,3,138).
route(l4,l3,tr2,1,54).
route(l4,l5,tr1,9,414).
route(l4,l5,tr2,6,324).
route(l4,l6,tr2,6,324).
route(l4,l7,tr1,10,460).
route(l4,l7,tr2,9,486).
route(l4,l8,tr1,2,92).
route(l4,l8,tr2,5,270).
route(l4,l9,tr1,8,368).
route(l4,l9,tr2,3,162).
route(l5,l10,tr1,1,46).
route(l5,l10,tr2,8,432).
route(l5,l4,tr1,9,414).
route(l5,l4,tr2,7,378).
route(l5,l7,tr1,5,230).
route(l5,l7,tr2,8,432).
route(l5,l8,tr1,1,46).
route(l5,l8,tr2,3,162).
route(l5,l9,tr1,8,368).
route(l5,l9,tr2,7,378).
route(l6,l10,tr1,3,138).
route(l6,l10,tr2,1,54).
route(l6,l3,tr1,5,230).
route(l6,l3,tr2,6,324).
route(l6,l4,tr1,3,138).
route(l6,l4,tr2,9,486).
route(l6,l5,tr1,6,276).
route(l6,l5,tr2,2,108).
route(l6,l7,tr1,7,322).
route(l6,l7,tr2,4,216).
route(l6,l8,tr1,6,276).
route(l6,l8,tr2,8,432).
route(l6,l9,tr1,2,92).
route(l6,l9,tr2,3,162).
