% Multibatching benchmark instance
% Generated with seed=4005 locations=8 parts=5 transports=2

% ---- locations ----
location(l1).
location(l2).
location(l3).
location(l4).
location(l5).
location(l6).
location(l7).
location(l8).

% ---- transport resources ----
transportCapacity(tr1,19).
transportCO2(tr1,99).
transportCost(tr1,98).
transportSpeed(tr1,8).
transportCapacity(tr2,14).
transportCO2(tr2,29).
transportCost(tr2,85).
transportSpeed(tr2,7).

% ---- parts ----
part(p1).
partSize(p1,2).
partVal(p1,846).
partTR(p1,tr1).
part(p2).
partSize(p2,1).
partVal(p2,815).
partTR(p2,tr1).
partTR(p2,tr2).
part(p3).
partSize(p3,4).
partVal(p3,658).
partTR(p3,tr1).
partTR(p3,tr2).
part(p4).
partSize(p4,1).
partVal(p4,696).
partTR(p4,tr1).
partTR(p4,tr2).
part(p5).
partSize(p5,1).
partVal(p5,152).
partTR(p5,tr1).
partTR(p5,tr2).

% ---- demand and supply ----
demandOffer(p1,l1,20).
demandOffer(p2,l1,-13).
demandOffer(p4,l1,10).
demandOffer(p5,l1,23).
demandOffer(p1,l2,21).
demandOffer(p2,l2,-29).
demandOffer(p3,l2,2).
demandOffer(p4,l2,16).
demandOffer(p5,l2,-1).
demandOffer(p1,l3,-6).
demandOffer(p2,l3,21).
demandOffer(p4,l3,-3).
demandOffer(p5,l3,-14).
demandOffer(p2,l4,-3).
demandOffer(p3,l4,24).
demandOffer(p4,l4,26).
demandOffer(p2,l5,-5).
demandOffer(p3,l5,-12).
demandOffer(p4,l5,7).
demandOffer(p5,l5,5).
demandOffer(p1,l6,-30).
demandOffer(p2,l6,-2).
demandOffer(p3,l6,-13).
demandOffer(p4,l6,12).
demandOffer(p5,l6,3).
demandOffer(p1,l7,19).
demandOffer(p3,l7,18).
demandOffer(p4,l7,-7).
demandOffer(p5,l7,7).
demandOffer(p1,l8,-24).
demandOffer(p2,l8,31).
demandOffer(p3,l8,-19).
demandOffer(p4,l8,-61).
demandOffer(p5,l8,-23).

% ---- routes ----
route(l1,l2,tr2,7,595).
route(l1,l2,tr1,6,588).
route(l1,l3,tr1,4,392).
route(l1,l3,tr2,6,510).
route(l1,l4,tr1,5,490).
route(l1,l4,tr2,4,340).
route(l1,l5,tr2,7,595).
route(l1,l5,tr1,5,490).
route(l1,l6,tr2,4,340).
route(l1,l6,tr1,1,98).
route(l1,l7,tr1,3,294).
route(l1,l7,tr2,1,85).
route(l1,l8,tr1,8,784).
route(l1,l8,tr2,1,85).
route(l2,l1,tr1,3,294).
route(l2,l1,tr2,7,595).
route(l2,l3,tr1,3,294).
route(l2,l3,tr2,1,85).
route(l2,l4,tr2,6,510).
route(l2,l4,tr1,6,588).
route(l2,l5,tr2,6,510).
route(l2,l5,tr1,9,882).
route(l2,l6,tr1,1,98).
route(l2,l6,tr2,6,510).
route(l2,l7,tr1,3,294).
route(l2,l7,tr2,3,255).
route(l2,l8,tr2,2,170).
route(l2,l8,tr1,8,784).
route(l3,l1,tr1,1,98).
route(l3,l1,tr2,3,255).
route(l3,l2,tr2,4,340).
route(l3,l2,tr1,2,196).
route(l3,l4,tr1,7,686).
route(l3,l4,tr2,6,510).
route(l3,l5,tr2,9,765).
route(l3,l5,tr1,5,490).
route(l3,l6,tr2,6,510).
route(l3,l6,tr1,5,490).
route(l3,l7,tr1,7,686).
route(l3,l7,tr2,9,765).
route(l3,l8,tr2,1,85).
route(l3,l8,tr1,6,588).
route(l4,l1,tr1,5,490).
route(l4,l1,tr2,2,170).
route(l4,l2,tr1,4,392).
route(l4,l2,tr2,5,425).
route(l4,l3,tr1,9,882).
route(l4,l3,tr2,1,85).
route(l4,l5,tr2,6,510).
route(l4,l5,tr1,9,882).
route(l4,l6,tr2,6,510).
route(l4,l6,tr1,10,980).
route(l4,l7,tr2,10,850).
route(l4,l7,tr1,8,784).
route(l4,l8,tr1,9,882).
route(l4,l8,tr2,10,850).
route(l5,l1,tr2,1,85).
route(l5,l1,tr1,1,98).
route(l5,l2,tr1,8,784).
route(l5,l2,tr2,2,170).
route(l5,l3,tr2,8,680).
route(l5,l3,tr1,4,392).
route(l5,l4,tr1,7,686).
route(l5,l4,tr2,2,170).
route(l5,l6,tr2,1,85).
route(l5,l6,tr1,8,784).
route(l5,l7,tr1,10,980).
route(l5,l7,tr2,8,680).
route(l5,l8,tr2,6,510).
route(l5,l8,tr1,1,98).
route(l6,l1,tr1,4,392).
route(l6,l1,tr2,8,680).
route(l6,l2,tr2,8,680).
route(l6,l2,tr1,6,588).
route(l6,l3,tr2,9,765).
route(l6,l3,tr1,6,588).
route(l6,l4,tr2,6,510).
route(l6,l4,tr1,2,196).
route(l6,l5,tr1,7,686).
route(l6,l5,tr2,5,425).
route(l6,l7,tr2,10,850).
route(l6,l7,tr1,3,294).
route(l6,l8,tr2,9,765).
route(l6,l8,tr1,6,588).
route(l7,l1,tr1,10,980).
route(l7,l1,tr2,1,85).
route(l7,l2,tr2,10,850).
route(l7,l2,tr1,7,686).
route(l7,l3,tr1,5,490).
route(l7,l3,tr2,8,680).
route(l7,l4,tr2,9,765).
route(l7,l4,tr1,2,196).
route(l7,l5,tr1,2,196).
route(l7,l5,tr2,2,170).
route(l7,l6,tr1,3,294).
route(l7,l6,tr2,6,510).
route(l7,l8,tr2,10,850).
route(l7,l8,tr1,5,490).
route(l8,l1,tr2,6,510).
route(l8,l1,tr1,2,196).
route(l8,l2,tr2,3,255).
route(l8,l2,tr1,4,392).
route(l8,l3,tr1,3,294).
route(l8,l3,tr2,5,425).
route(l8,l4,tr2,1,85).
route(l8,l4,tr1,3,294).
route(l8,l5,tr2,4,340).
route(l8,l5,tr1,4,392).
route(l8,l6,tr1,8,784).
route(l8,l6,tr2,1,85).
route(l8,l7,tr2,1,85).
route(l8,l7,tr1,5,490).
