% Multibatching benchmark instance
% Source: instances.lp
% seed=77  harbors=3  prodlocs=8  hubs=2  disruptions=0

% ---- locations ----
location(harbor0).
location(harbor1).
location(harbor2).
location(prodloc0).
location(prodloc1).
location(prodloc2).
location(prodloc3).
location(prodloc4).
location(prodloc5).
location(prodloc6).
location(prodloc7).

% ---- transport resources ----
transportCapacity(tr0,1800).
transportCO2(tr0,1680).
transportCost(tr0,26).
transportSpeed(tr0,12).
transportCapacity(tr1,65).
transportCO2(tr1,90).
transportCost(tr1,1).
transportSpeed(tr1,35).
transportCapacity(tr10,1).
transportCO2(tr10,700).
transportCost(tr10,4).
transportSpeed(tr10,40).
transportCapacity(tr11,65).
transportCO2(tr11,62).
transportCost(tr11,1).
transportSpeed(tr11,25).
transportCapacity(tr12,65).
transportCO2(tr12,709).
transportCost(tr12,3).
transportSpeed(tr12,55).
transportCapacity(tr13,68).
transportCO2(tr13,160).
transportCost(tr13,6).
transportSpeed(tr13,25).
transportCapacity(tr14,146).
transportCO2(tr14,780).
transportCost(tr14,4).
transportSpeed(tr14,50).
transportCapacity(tr15,2217).
transportCO2(tr15,49470).
transportCost(tr15,32).
transportSpeed(tr15,625).
transportCapacity(tr2,96).
transportCO2(tr2,709).
transportCost(tr2,3).
transportSpeed(tr2,55).
transportCapacity(tr3,1).
transportCO2(tr3,6250).
transportCost(tr3,108).
transportSpeed(tr3,25).
transportCapacity(tr4,148).
transportCO2(tr4,780).
transportCost(tr4,4).
transportSpeed(tr4,50).
transportCapacity(tr5,65).
transportCO2(tr5,780).
transportCost(tr5,3).
transportSpeed(tr5,50).
transportCapacity(tr6,1).
transportCO2(tr6,100).
transportCost(tr6,40).
transportSpeed(tr6,25).
transportCapacity(tr7,1).
transportCO2(tr7,18000).
transportCost(tr7,278).
transportSpeed(tr7,10).
transportCapacity(tr8,1).
transportCO2(tr8,14400).
transportCost(tr8,107).
transportSpeed(tr8,25).
transportCapacity(tr9,65).
transportCO2(tr9,708).
transportCost(tr9,2).
transportSpeed(tr9,60).

% ---- parts ----
part(part0).
partSize(part0,21).
partVal(part0,2098).
valid_transport(part0,tr0).
valid_transport(part0,tr15).
valid_transport(part0,tr14).
valid_transport(part0,tr13).
valid_transport(part0,tr4).
part(part1).
partSize(part1,1).
partVal(part1,5898).
valid_transport(part1,tr0).
valid_transport(part1,tr2).
valid_transport(part1,tr15).
valid_transport(part1,tr9).
valid_transport(part1,tr12).
valid_transport(part1,tr13).
valid_transport(part1,tr11).
part(part10).
partSize(part10,1).
partVal(part10,3323).
valid_transport(part10,tr0).
valid_transport(part10,tr2).
valid_transport(part10,tr15).
valid_transport(part10,tr9).
valid_transport(part10,tr12).
valid_transport(part10,tr13).
valid_transport(part10,tr11).
part(part11).
partSize(part11,83).
partVal(part11,268).
valid_transport(part11,tr0).
valid_transport(part11,tr7).
valid_transport(part11,tr8).
valid_transport(part11,tr15).
valid_transport(part11,tr3).
valid_transport(part11,tr13).
part(part12).
partSize(part12,273).
partVal(part12,252).
valid_transport(part12,tr0).
valid_transport(part12,tr7).
valid_transport(part12,tr8).
valid_transport(part12,tr15).
valid_transport(part12,tr3).
valid_transport(part12,tr13).
part(part13).
partSize(part13,1).
partVal(part13,2205).
valid_transport(part13,tr0).
valid_transport(part13,tr2).
valid_transport(part13,tr15).
valid_transport(part13,tr9).
valid_transport(part13,tr12).
valid_transport(part13,tr13).
valid_transport(part13,tr11).
part(part14).
partSize(part14,68).
partVal(part14,151).
valid_transport(part14,tr0).
valid_transport(part14,tr15).
valid_transport(part14,tr13).
part(part15).
partSize(part15,4).
partVal(part15,3911).
valid_transport(part15,tr0).
valid_transport(part15,tr2).
valid_transport(part15,tr15).
valid_transport(part15,tr9).
valid_transport(part15,tr12).
valid_transport(part15,tr13).
valid_transport(part15,tr11).
part(part16).
partSize(part16,4).
partVal(part16,7492).
valid_transport(part16,tr0).
valid_transport(part16,tr2).
valid_transport(part16,tr15).
valid_transport(part16,tr9).
valid_transport(part16,tr12).
valid_transport(part16,tr13).
valid_transport(part16,tr11).
part(part17).
partSize(part17,8).
partVal(part17,2554).
valid_transport(part17,tr0).
valid_transport(part17,tr15).
valid_transport(part17,tr14).
valid_transport(part17,tr13).
valid_transport(part17,tr4).
part(part18).
partSize(part18,24).
partVal(part18,2053).
valid_transport(part18,tr0).
valid_transport(part18,tr15).
valid_transport(part18,tr14).
valid_transport(part18,tr13).
valid_transport(part18,tr4).
part(part19).
partSize(part19,6).
partVal(part19,2861).
valid_transport(part19,tr0).
valid_transport(part19,tr2).
valid_transport(part19,tr15).
valid_transport(part19,tr9).
valid_transport(part19,tr12).
valid_transport(part19,tr13).
valid_transport(part19,tr11).
part(part2).
partSize(part2,19).
partVal(part2,922).
valid_transport(part2,tr0).
valid_transport(part2,tr15).
valid_transport(part2,tr14).
valid_transport(part2,tr13).
valid_transport(part2,tr4).
part(part20).
partSize(part20,128).
partVal(part20,829).
valid_transport(part20,tr0).
valid_transport(part20,tr7).
valid_transport(part20,tr8).
valid_transport(part20,tr15).
valid_transport(part20,tr3).
valid_transport(part20,tr13).
part(part21).
partSize(part21,25).
partVal(part21,2962).
valid_transport(part21,tr0).
valid_transport(part21,tr15).
valid_transport(part21,tr14).
valid_transport(part21,tr13).
valid_transport(part21,tr4).
part(part22).
partSize(part22,7).
partVal(part22,2209).
valid_transport(part22,tr0).
valid_transport(part22,tr2).
valid_transport(part22,tr15).
valid_transport(part22,tr9).
valid_transport(part22,tr12).
valid_transport(part22,tr13).
valid_transport(part22,tr11).
part(part23).
partSize(part23,5).
partVal(part23,6010).
valid_transport(part23,tr0).
valid_transport(part23,tr15).
valid_transport(part23,tr14).
valid_transport(part23,tr13).
valid_transport(part23,tr4).
part(part24).
partSize(part24,55).
partVal(part24,618).
valid_transport(part24,tr0).
valid_transport(part24,tr7).
valid_transport(part24,tr8).
valid_transport(part24,tr15).
valid_transport(part24,tr3).
valid_transport(part24,tr13).
part(part25).
partSize(part25,5).
partVal(part25,4193).
valid_transport(part25,tr0).
valid_transport(part25,tr4).
valid_transport(part25,tr2).
valid_transport(part25,tr15).
valid_transport(part25,tr13).
part(part26).
partSize(part26,32).
partVal(part26,2950).
valid_transport(part26,tr0).
valid_transport(part26,tr7).
valid_transport(part26,tr8).
valid_transport(part26,tr15).
valid_transport(part26,tr3).
valid_transport(part26,tr13).
part(part27).
partSize(part27,5).
partVal(part27,2844).
valid_transport(part27,tr0).
valid_transport(part27,tr2).
valid_transport(part27,tr15).
valid_transport(part27,tr9).
valid_transport(part27,tr12).
valid_transport(part27,tr13).
valid_transport(part27,tr11).
part(part28).
partSize(part28,3).
partVal(part28,5862).
valid_transport(part28,tr0).
valid_transport(part28,tr4).
valid_transport(part28,tr2).
valid_transport(part28,tr15).
valid_transport(part28,tr14).
valid_transport(part28,tr13).
part(part29).
partSize(part29,627).
partVal(part29,736).
part(part3).
partSize(part3,48).
partVal(part3,1055).
valid_transport(part3,tr0).
valid_transport(part3,tr7).
valid_transport(part3,tr8).
valid_transport(part3,tr15).
valid_transport(part3,tr3).
valid_transport(part3,tr13).
part(part30).
partSize(part30,2).
partVal(part30,5399).
valid_transport(part30,tr0).
valid_transport(part30,tr2).
valid_transport(part30,tr15).
valid_transport(part30,tr9).
valid_transport(part30,tr12).
valid_transport(part30,tr13).
valid_transport(part30,tr11).
part(part31).
partSize(part31,144).
partVal(part31,402).
valid_transport(part31,tr0).
valid_transport(part31,tr7).
valid_transport(part31,tr8).
valid_transport(part31,tr15).
valid_transport(part31,tr3).
valid_transport(part31,tr13).
part(part32).
partSize(part32,16).
partVal(part32,2715).
valid_transport(part32,tr0).
valid_transport(part32,tr4).
valid_transport(part32,tr2).
valid_transport(part32,tr15).
valid_transport(part32,tr14).
valid_transport(part32,tr13).
part(part33).
partSize(part33,7).
partVal(part33,1631).
valid_transport(part33,tr0).
valid_transport(part33,tr2).
valid_transport(part33,tr15).
valid_transport(part33,tr9).
valid_transport(part33,tr12).
valid_transport(part33,tr13).
valid_transport(part33,tr11).
part(part3345).
partSize(part3345,353).
partVal(part3345,890).
valid_transport(part3345,tr0).
valid_transport(part3345,tr7).
valid_transport(part3345,tr8).
valid_transport(part3345,tr15).
valid_transport(part3345,tr3).
valid_transport(part3345,tr13).
part(part34).
partSize(part34,2).
partVal(part34,4356).
valid_transport(part34,tr0).
valid_transport(part34,tr2).
valid_transport(part34,tr15).
valid_transport(part34,tr9).
valid_transport(part34,tr12).
valid_transport(part34,tr13).
valid_transport(part34,tr11).
part(part4).
partSize(part4,2).
partVal(part4,3960).
valid_transport(part4,tr0).
valid_transport(part4,tr2).
valid_transport(part4,tr15).
valid_transport(part4,tr9).
valid_transport(part4,tr12).
valid_transport(part4,tr13).
valid_transport(part4,tr11).
part(part5).
partSize(part5,2).
partVal(part5,4142).
valid_transport(part5,tr0).
valid_transport(part5,tr2).
valid_transport(part5,tr15).
valid_transport(part5,tr9).
valid_transport(part5,tr12).
valid_transport(part5,tr14).
valid_transport(part5,tr13).
valid_transport(part5,tr11).
part(part6).
partSize(part6,111).
partVal(part6,314).
valid_transport(part6,tr0).
valid_transport(part6,tr7).
valid_transport(part6,tr8).
valid_transport(part6,tr15).
valid_transport(part6,tr3).
valid_transport(part6,tr13).
part(part8).
partSize(part8,163).
partVal(part8,957).
valid_transport(part8,tr0).
valid_transport(part8,tr7).
valid_transport(part8,tr8).
valid_transport(part8,tr15).
valid_transport(part8,tr3).
valid_transport(part8,tr13).
part(part9).
partSize(part9,2).
partVal(part9,2704).
valid_transport(part9,tr0).
valid_transport(part9,tr2).
valid_transport(part9,tr15).
valid_transport(part9,tr9).
valid_transport(part9,tr12).
valid_transport(part9,tr13).
valid_transport(part9,tr11).

% ---- demand ----
demandOffer(part0,prodloc4,40).
demandOffer(part0,prodloc2,40).
demandOffer(part0,prodloc1,-27).
demandOffer(part0,prodloc5,-53).
demandOffer(part1,prodloc3,20).
demandOffer(part1,prodloc6,20).
demandOffer(part1,prodloc0,-20).
demandOffer(part1,prodloc2,-20).
demandOffer(part10,prodloc7,20).
demandOffer(part10,prodloc4,20).
demandOffer(part10,prodloc6,-20).
demandOffer(part10,prodloc1,-20).
demandOffer(part12,prodloc2,10).
demandOffer(part12,prodloc4,20).
demandOffer(part12,prodloc5,-10).
demandOffer(part12,prodloc6,-10).
demandOffer(part12,prodloc0,-10).
demandOffer(part13,prodloc4,20).
demandOffer(part13,prodloc0,20).
demandOffer(part13,prodloc3,-20).
demandOffer(part13,prodloc1,-20).
demandOffer(part14,prodloc3,26).
demandOffer(part14,prodloc4,-26).
demandOffer(part15,prodloc6,53).
demandOffer(part15,prodloc1,27).
demandOffer(part15,prodloc2,-53).
demandOffer(part15,prodloc5,-27).
demandOffer(part16,prodloc1,53).
demandOffer(part16,prodloc0,27).
demandOffer(part16,prodloc4,-53).
demandOffer(part16,prodloc2,-27).
demandOffer(part17,prodloc7,20).
demandOffer(part17,prodloc1,-20).
demandOffer(part18,prodloc3,40).
demandOffer(part18,prodloc1,40).
demandOffer(part18,prodloc0,-27).
demandOffer(part18,prodloc5,-53).
demandOffer(part19,prodloc3,26).
demandOffer(part19,prodloc5,-26).
demandOffer(part2,prodloc7,40).
demandOffer(part2,prodloc4,40).
demandOffer(part2,prodloc5,-27).
demandOffer(part2,prodloc6,-53).
demandOffer(part20,prodloc1,53).
demandOffer(part20,prodloc0,27).
demandOffer(part20,prodloc5,-14).
demandOffer(part20,prodloc7,-46).
demandOffer(part20,prodloc2,-20).
demandOffer(part21,prodloc1,26).
demandOffer(part21,prodloc0,-26).
demandOffer(part22,prodloc7,53).
demandOffer(part22,prodloc6,27).
demandOffer(part22,prodloc0,-53).
demandOffer(part22,prodloc4,-27).
demandOffer(part23,prodloc1,20).
demandOffer(part23,prodloc2,20).
demandOffer(part23,prodloc3,-20).
demandOffer(part23,prodloc4,-20).
demandOffer(part25,prodloc1,20).
demandOffer(part25,prodloc2,-20).
demandOffer(part26,prodloc0,20).
demandOffer(part26,prodloc6,20).
demandOffer(part26,prodloc3,-14).
demandOffer(part26,prodloc4,-26).
demandOffer(part27,prodloc3,53).
demandOffer(part27,prodloc1,27).
demandOffer(part27,prodloc4,-53).
demandOffer(part27,prodloc7,-27).
demandOffer(part28,prodloc6,20).
demandOffer(part28,prodloc5,20).
demandOffer(part28,prodloc1,-20).
demandOffer(part28,prodloc3,-20).
demandOffer(part3,prodloc0,40).
demandOffer(part3,prodloc7,-14).
demandOffer(part3,prodloc6,-26).
demandOffer(part30,prodloc7,40).
demandOffer(part30,prodloc5,40).
demandOffer(part30,prodloc0,-27).
demandOffer(part30,prodloc2,-53).
demandOffer(part31,prodloc6,7).
demandOffer(part31,prodloc0,7).
demandOffer(part31,prodloc2,-14).
demandOffer(part32,prodloc7,53).
demandOffer(part32,prodloc0,27).
demandOffer(part32,prodloc5,-53).
demandOffer(part32,prodloc3,-27).
demandOffer(part33,prodloc1,53).
demandOffer(part33,prodloc7,27).
demandOffer(part33,prodloc2,-53).
demandOffer(part33,prodloc4,-27).
demandOffer(part34,prodloc1,20).
demandOffer(part34,prodloc0,-20).
demandOffer(part4,prodloc7,26).
demandOffer(part4,prodloc2,-26).
demandOffer(part5,prodloc6,20).
demandOffer(part5,prodloc4,-20).
demandOffer(part6,prodloc0,27).
demandOffer(part6,prodloc7,53).
demandOffer(part6,prodloc3,-24).
demandOffer(part6,prodloc1,-36).
demandOffer(part6,prodloc6,-10).
demandOffer(part6,prodloc2,-10).
demandOffer(part8,prodloc0,3).
demandOffer(part8,prodloc1,17).
demandOffer(part8,prodloc7,-10).
demandOffer(part8,prodloc3,-10).
demandOffer(part9,prodloc1,20).
demandOffer(part9,prodloc6,-20).

% ---- network (ASP-generated) ----
hub(harbor1).
hub(prodloc0).
route(harbor0,harbor1,tr13,14898,89388).
route(harbor0,harbor1,tr2,14898,44694).
route(harbor0,harbor2,tr13,28665,171990).
route(harbor0,harbor2,tr2,28665,85995).
route(harbor0,prodloc0,tr0,6198,161148).
route(harbor0,prodloc0,tr13,6198,37188).
route(harbor0,prodloc1,tr0,601,15626).
route(harbor0,prodloc1,tr13,601,3606).
route(harbor0,prodloc2,tr0,19395,504270).
route(harbor0,prodloc2,tr13,19395,116370).
route(harbor0,prodloc3,tr0,15943,414518).
route(harbor0,prodloc3,tr13,15943,95658).
route(harbor0,prodloc4,tr0,2320,60320).
route(harbor0,prodloc4,tr13,2320,13920).
route(harbor0,prodloc5,tr0,1170,30420).
route(harbor0,prodloc5,tr13,1170,7020).
route(harbor0,prodloc6,tr0,618,16068).
route(harbor0,prodloc6,tr13,618,3708).
route(harbor0,prodloc7,tr0,24090,626340).
route(harbor0,prodloc7,tr13,24090,144540).
route(harbor1,harbor0,tr13,4660,27960).
route(harbor1,harbor0,tr2,4660,13980).
route(harbor1,harbor2,tr13,319,1914).
route(harbor1,harbor2,tr2,319,957).
route(harbor1,prodloc0,tr0,2949,76674).
route(harbor1,prodloc0,tr13,2949,17694).
route(harbor1,prodloc1,tr0,21584,561184).
route(harbor1,prodloc1,tr13,21584,129504).
route(harbor1,prodloc2,tr0,28780,748280).
route(harbor1,prodloc2,tr13,28780,172680).
route(harbor1,prodloc3,tr0,3583,93158).
route(harbor1,prodloc3,tr13,3583,21498).
route(harbor1,prodloc4,tr0,16726,434876).
route(harbor1,prodloc4,tr13,16726,100356).
route(harbor1,prodloc5,tr0,6687,173862).
route(harbor1,prodloc5,tr13,6687,40122).
route(harbor1,prodloc6,tr0,22242,578292).
route(harbor1,prodloc6,tr13,22242,133452).
route(harbor1,prodloc7,tr0,2724,70824).
route(harbor1,prodloc7,tr13,2724,16344).
route(harbor2,harbor0,tr13,25557,153342).
route(harbor2,harbor0,tr2,25557,76671).
route(harbor2,harbor1,tr13,13961,83766).
route(harbor2,harbor1,tr2,13961,41883).
route(harbor2,prodloc0,tr0,5420,140920).
route(harbor2,prodloc0,tr13,5420,32520).
route(harbor2,prodloc1,tr0,3556,92456).
route(harbor2,prodloc1,tr13,3556,21336).
route(harbor2,prodloc2,tr0,21764,565864).
route(harbor2,prodloc2,tr13,21764,130584).
route(harbor2,prodloc3,tr0,12594,327444).
route(harbor2,prodloc3,tr13,12594,75564).
route(harbor2,prodloc4,tr0,9301,241826).
route(harbor2,prodloc4,tr13,9301,55806).
route(harbor2,prodloc5,tr0,15083,392158).
route(harbor2,prodloc5,tr13,15083,90498).
route(harbor2,prodloc6,tr0,28747,747422).
route(harbor2,prodloc6,tr13,28747,172482).
route(harbor2,prodloc7,tr0,16003,416078).
route(harbor2,prodloc7,tr13,16003,96018).
route(prodloc0,harbor0,tr0,17451,453726).
route(prodloc0,harbor0,tr13,17451,104706).
route(prodloc0,harbor1,tr0,22784,592384).
route(prodloc0,harbor1,tr13,22784,136704).
route(prodloc0,harbor2,tr0,26802,696852).
route(prodloc0,harbor2,tr13,26802,160812).
route(prodloc0,prodloc1,tr0,25180,654680).
route(prodloc0,prodloc1,tr13,25180,151080).
route(prodloc0,prodloc2,tr0,13182,342732).
route(prodloc0,prodloc2,tr13,13182,79092).
route(prodloc0,prodloc3,tr0,6358,165308).
route(prodloc0,prodloc3,tr13,6358,38148).
route(prodloc0,prodloc4,tr0,28748,747448).
route(prodloc0,prodloc4,tr13,28748,172488).
route(prodloc0,prodloc5,tr0,27143,705718).
route(prodloc0,prodloc5,tr13,27143,162858).
route(prodloc0,prodloc6,tr0,21299,553774).
route(prodloc0,prodloc6,tr13,21299,127794).
route(prodloc0,prodloc7,tr0,14030,364780).
route(prodloc0,prodloc7,tr13,14030,84180).
route(prodloc1,harbor0,tr0,27705,720330).
route(prodloc1,harbor0,tr13,27705,166230).
route(prodloc1,harbor1,tr0,8227,213902).
route(prodloc1,harbor1,tr13,8227,49362).
route(prodloc1,harbor2,tr0,9292,241592).
route(prodloc1,harbor2,tr13,9292,55752).
route(prodloc1,prodloc0,tr0,28323,736398).
route(prodloc1,prodloc0,tr13,28323,169938).
route(prodloc1,prodloc2,tr0,28575,742950).
route(prodloc1,prodloc2,tr13,28575,171450).
route(prodloc1,prodloc3,tr13,2824,16944).
route(prodloc1,prodloc3,tr15,2824,90368).
route(prodloc1,prodloc4,tr0,28117,731042).
route(prodloc1,prodloc4,tr13,28117,168702).
route(prodloc1,prodloc5,tr0,17159,446134).
route(prodloc1,prodloc5,tr15,17159,549088).
route(prodloc1,prodloc6,tr0,10601,275626).
route(prodloc1,prodloc6,tr13,10601,63606).
route(prodloc1,prodloc7,tr0,10324,268424).
route(prodloc1,prodloc7,tr13,10324,61944).
route(prodloc2,harbor0,tr0,6353,165178).
route(prodloc2,harbor0,tr13,6353,38118).
route(prodloc2,harbor1,tr0,25425,661050).
route(prodloc2,harbor1,tr13,25425,152550).
route(prodloc2,harbor2,tr0,9211,239486).
route(prodloc2,harbor2,tr13,9211,55266).
route(prodloc2,prodloc0,tr0,12066,313716).
route(prodloc2,prodloc0,tr13,12066,72396).
route(prodloc2,prodloc1,tr0,24737,643162).
route(prodloc2,prodloc1,tr13,24737,148422).
route(prodloc2,prodloc3,tr0,23746,617396).
route(prodloc2,prodloc3,tr13,23746,142476).
route(prodloc2,prodloc4,tr0,22321,580346).
route(prodloc2,prodloc4,tr13,22321,133926).
route(prodloc2,prodloc5,tr0,15667,407342).
route(prodloc2,prodloc5,tr13,15667,94002).
route(prodloc2,prodloc6,tr13,24553,147318).
route(prodloc2,prodloc6,tr15,24553,785696).
route(prodloc2,prodloc7,tr0,25158,654108).
route(prodloc2,prodloc7,tr13,25158,150948).
route(prodloc3,harbor0,tr0,25599,665574).
route(prodloc3,harbor0,tr13,25599,153594).
route(prodloc3,harbor1,tr0,21480,558480).
route(prodloc3,harbor1,tr13,21480,128880).
route(prodloc3,harbor2,tr0,17186,446836).
route(prodloc3,harbor2,tr13,17186,103116).
route(prodloc3,prodloc0,tr0,12908,335608).
route(prodloc3,prodloc0,tr13,12908,77448).
route(prodloc3,prodloc1,tr0,16527,429702).
route(prodloc3,prodloc1,tr13,16527,99162).
route(prodloc3,prodloc2,tr0,17516,455416).
route(prodloc3,prodloc2,tr13,17516,105096).
route(prodloc3,prodloc4,tr0,13122,341172).
route(prodloc3,prodloc4,tr13,13122,78732).
route(prodloc3,prodloc5,tr13,28461,170766).
route(prodloc3,prodloc5,tr15,28461,910752).
route(prodloc3,prodloc6,tr0,8354,217204).
route(prodloc3,prodloc6,tr13,8354,50124).
route(prodloc3,prodloc7,tr0,12405,322530).
route(prodloc3,prodloc7,tr15,12405,396960).
route(prodloc4,harbor0,tr0,24464,636064).
route(prodloc4,harbor0,tr13,24464,146784).
route(prodloc4,harbor1,tr0,28686,745836).
route(prodloc4,harbor1,tr13,28686,172116).
route(prodloc4,harbor2,tr0,18412,478712).
route(prodloc4,harbor2,tr13,18412,110472).
route(prodloc4,prodloc0,tr0,27640,718640).
route(prodloc4,prodloc0,tr13,27640,165840).
route(prodloc4,prodloc1,tr0,23166,602316).
route(prodloc4,prodloc1,tr15,23166,741312).
route(prodloc4,prodloc2,tr0,21587,561262).
route(prodloc4,prodloc2,tr13,21587,129522).
route(prodloc4,prodloc3,tr0,10133,263458).
route(prodloc4,prodloc3,tr13,10133,60798).
route(prodloc4,prodloc5,tr0,2587,67262).
route(prodloc4,prodloc5,tr15,2587,82784).
route(prodloc4,prodloc6,tr0,8989,233714).
route(prodloc4,prodloc6,tr13,8989,53934).
route(prodloc4,prodloc7,tr0,22124,575224).
route(prodloc4,prodloc7,tr13,22124,132744).
route(prodloc5,harbor0,tr0,3380,87880).
route(prodloc5,harbor0,tr13,3380,20280).
route(prodloc5,harbor1,tr0,4754,123604).
route(prodloc5,harbor1,tr13,4754,28524).
route(prodloc5,harbor2,tr0,4509,117234).
route(prodloc5,harbor2,tr13,4509,27054).
route(prodloc5,prodloc0,tr13,11784,70704).
route(prodloc5,prodloc0,tr15,11784,377088).
route(prodloc5,prodloc1,tr0,25611,665886).
route(prodloc5,prodloc1,tr13,25611,153666).
route(prodloc5,prodloc2,tr0,22809,593034).
route(prodloc5,prodloc2,tr13,22809,136854).
route(prodloc5,prodloc3,tr0,1607,41782).
route(prodloc5,prodloc3,tr13,1607,9642).
route(prodloc5,prodloc4,tr0,6952,180752).
route(prodloc5,prodloc4,tr13,6952,41712).
route(prodloc5,prodloc6,tr0,27010,702260).
route(prodloc5,prodloc6,tr13,27010,162060).
route(prodloc5,prodloc7,tr0,19297,501722).
route(prodloc5,prodloc7,tr13,19297,115782).
route(prodloc6,harbor0,tr0,20421,530946).
route(prodloc6,harbor0,tr13,20421,122526).
route(prodloc6,harbor1,tr0,18385,478010).
route(prodloc6,harbor1,tr13,18385,110310).
route(prodloc6,harbor2,tr0,19830,515580).
route(prodloc6,harbor2,tr13,19830,118980).
route(prodloc6,prodloc0,tr0,22189,576914).
route(prodloc6,prodloc0,tr13,22189,133134).
route(prodloc6,prodloc1,tr0,18999,493974).
route(prodloc6,prodloc1,tr13,18999,113994).
route(prodloc6,prodloc2,tr0,1868,48568).
route(prodloc6,prodloc2,tr13,1868,11208).
route(prodloc6,prodloc3,tr0,17293,449618).
route(prodloc6,prodloc3,tr15,17293,553376).
route(prodloc6,prodloc4,tr0,726,18876).
route(prodloc6,prodloc4,tr13,726,4356).
route(prodloc6,prodloc5,tr13,28052,168312).
route(prodloc6,prodloc5,tr15,28052,897664).
route(prodloc6,prodloc7,tr0,23613,613938).
route(prodloc6,prodloc7,tr13,23613,141678).
route(prodloc7,harbor0,tr0,19221,499746).
route(prodloc7,harbor0,tr13,19221,115326).
route(prodloc7,harbor1,tr0,3930,102180).
route(prodloc7,harbor1,tr13,3930,23580).
route(prodloc7,harbor2,tr0,20955,544830).
route(prodloc7,harbor2,tr13,20955,125730).
route(prodloc7,prodloc0,tr0,22670,589420).
route(prodloc7,prodloc0,tr13,22670,136020).
route(prodloc7,prodloc1,tr0,26975,701350).
route(prodloc7,prodloc1,tr13,26975,161850).
route(prodloc7,prodloc2,tr0,4190,108940).
route(prodloc7,prodloc2,tr15,4190,134080).
route(prodloc7,prodloc3,tr0,8880,230880).
route(prodloc7,prodloc3,tr13,8880,53280).
route(prodloc7,prodloc4,tr0,26031,676806).
route(prodloc7,prodloc4,tr13,26031,156186).
route(prodloc7,prodloc5,tr0,5275,137150).
route(prodloc7,prodloc5,tr13,5275,31650).
route(prodloc7,prodloc6,tr0,21389,556114).
route(prodloc7,prodloc6,tr13,21389,128334).
