% Multibatching benchmark instance
% Generated with seed=3001 locations=10 parts=5 transports=3

% ---- locations ----
location(l1).
location(l2).
location(l3).
location(l4).
location(l5).
location(l6).
location(l7).
location(l8).
location(l9).
location(l10).

% ---- transport resources ----
transportCapacity(tr1,17).
transportCO2(tr1,28).
transportCost(tr1,47).
transportSpeed(tr1,7).
transportCapacity(tr2,22).
transportCO2(tr2,55).
transportCost(tr2,41).
transportSpeed(tr2,10).
transportCapacity(tr3,24).
transportCO2(tr3,59).
transportCost(tr3,52).
transportSpeed(tr3,5).

% ---- parts ----
part(p1).
partSize(p1,1).
partVal(p1,712).
partTR(p1,tr1).
partTR(p1,tr2).
partTR(p1,tr3).
part(p2).
partSize(p2,4).
partVal(p2,980).
partTR(p2,tr1).
partTR(p2,tr2).
partTR(p2,tr3).
part(p3).
partSize(p3,4).
partVal(p3,914).
partTR(p3,tr2).
part(p4).
partSize(p4,3).
partVal(p4,602).
partTR(p4,tr1).
partTR(p4,tr2).
part(p5).
partSize(p5,3).
partVal(p5,857).
partTR(p5,tr2).

% ---- demand and supply ----
demandOffer(p1,l1,21).
demandOffer(p2,l1,2).
demandOffer(p3,l1,19).
demandOffer(p4,l1,-7).
demandOffer(p5,l1,-2).
demandOffer(p4,l2,14).
demandOffer(p5,l2,14).
demandOffer(p1,l3,-16).
demandOffer(p2,l3,-6).
demandOffer(p3,l3,19).
demandOffer(p5,l3,21).
demandOffer(p1,l4,-15).
demandOffer(p2,l4,20).
demandOffer(p3,l4,-3).
demandOffer(p5,l4,-21).
demandOffer(p1,l5,-11).
demandOffer(p3,l5,-10).
demandOffer(p4,l5,5).
demandOffer(p5,l5,10).
demandOffer(p2,l6,-11).
demandOffer(p3,l6,-4).
demandOffer(p5,l6,-12).
demandOffer(p1,l7,6).
demandOffer(p2,l7,13).
demandOffer(p3,l7,-14).
demandOffer(p4,l7,2).
demandOffer(p5,l7,14).
demandOffer(p2,l8,-13).
demandOffer(p4,l8,3).
demandOffer(p5,l8,-3).
demandOffer(p1,l9,19).
demandOffer(p2,l9,-5).
demandOffer(p4,l9,24).
demandOffer(p3,l10,-7).
demandOffer(p1,l10,-4).
demandOffer(p4,l10,-41).
demandOffer(p5,l10,-21).

% ---- routes ----
route(l1,l2,tr2,9,369).
route(l1,l2,tr3,1,52).
route(l1,l3,tr2,2,82).
route(l1,l3,tr3,1,52).
route(l1,l4,tr3,6,312).
route(l1,l4,tr1,9,423).
route(l1,l5,tr2,5,205).
route(l1,l5,tr3,5,260).
route(l1,l6,tr2,2,82).
route(l1,l6,tr1,3,141).
route(l1,l7,tr3,2,104).
route(l1,l7,tr2,9,369).
route(l1,l8,tr3,4,208).
route(l1,l8,tr2,3,123).
route(l1,l9,tr1,2,94).
route(l1,l9,tr2,8,328).
route(l1,l10,tr1,7,329).
route(l1,l10,tr3,10,520).
route(l2,l1,tr2,2,82).
route(l2,l1,tr1,5,235).
route(l2,l3,tr2,9,369).
route(l2,l3,tr3,3,156).
route(l2,l4,tr2,10,410).
route(l2,l4,tr1,4,188).
route(l2,l5,tr2,1,41).
route(l2,l5,tr3,10,520).
route(l2,l6,tr2,2,82).
route(l2,l6,tr3,5,260).
route(l2,l7,tr1,9,423).
route(l2,l7,tr2,7,287).
route(l2,l8,tr2,7,287).
route(l2,l8,tr1,9,423).
route(l2,l9,tr2,8,328).
route(l2,l9,tr3,9,468).
route(l2,l10,tr3,7,364).
route(l2,l10,tr1,8,376).
route(l3,l1,tr2,1,41).
route(l3,l1,tr1,2,94).
route(l3,l2,tr3,1,52).
route(l3,l2,tr2,5,205).
route(l3,l4,tr2,8,328).
route(l3,l4,tr3,2,104).
route(l3,l5,tr3,3,156).
route(l3,l5,tr2,1,41).
route(l3,l6,tr2,1,41).
route(l3,l6,tr1,10,470).
route(l3,l7,tr1,9,423).
route(l3,l7,tr2,2,82).
route(l3,l8,tr2,9,369).
route(l3,l8,tr3,10,520).
route(l3,l9,tr2,9,369).
route(l3,l9,tr1,8,376).
route(l3,l10,tr1,1,47).
route(l3,l10,tr3,6,312).
route(l4,l1,tr1,9,423).
route(l4,l1,tr3,4,208).
route(l4,l2,tr1,8,376).
route(l4,l2,tr3,8,416).
route(l4,l3,tr1,10,470).
route(l4,l3,tr2,9,369).
route(l4,l5,tr2,1,41).
route(l4,l5,tr3,10,520).
route(l4,l6,tr3,7,364).
route(l4,l6,tr1,4,188).
route(l4,l7,tr2,8,328).
route(l4,l7,tr1,5,235).
route(l4,l8,tr2,10,410).
route(l4,l8,tr3,7,364).
route(l4,l9,tr2,4,164).
route(l4,l9,tr3,2,104).
route(l4,l10,tr1,4,188).
route(l4,l10,tr2,7,287).
route(l5,l1,tr3,3,156).
route(l5,l1,tr1,5,235).
route(l5,l2,tr3,3,156).
route(l5,l2,tr2,9,369).
route(l5,l3,tr1,2,94).
route(l5,l3,tr3,1,52).
route(l5,l4,tr2,8,328).
route(l5,l4,tr3,2,104).
route(l5,l6,tr3,2,104).
route(l5,l6,tr2,3,123).
route(l5,l7,tr1,5,235).
route(l5,l7,tr3,4,208).
route(l5,l8,tr2,8,328).
route(l5,l8,tr3,6,312).
route(l5,l9,tr2,10,410).
route(l5,l9,tr1,9,423).
route(l5,l10,tr1,10,470).
route(l5,l10,tr2,4,164).
route(l6,l1,tr1,7,329).
route(l6,l1,tr2,8,328).
route(l6,l2,tr1,4,188).
route(l6,l2,tr3,1,52).
route(l6,l3,tr2,10,410).
route(l6,l3,tr3,5,260).
route(l6,l4,tr1,2,94).
route(l6,l4,tr2,5,205).
route(l6,l5,tr3,9,468).
route(l6,l5,tr2,5,205).
route(l6,l7,tr2,2,82).
route(l6,l7,tr1,6,282).
route(l6,l8,tr3,4,208).
route(l6,l8,tr2,9,369).
route(l6,l9,tr3,5,260).
route(l6,l9,tr2,2,82).
route(l6,l10,tr3,4,208).
route(l6,l10,tr1,5,235).
route(l7,l1,tr1,7,329).
route(l7,l1,tr3,7,364).
route(l7,l2,tr1,3,141).
route(l7,l2,tr2,1,41).
route(l7,l3,tr1,9,423).
route(l7,l3,tr2,9,369).
route(l7,l4,tr1,8,376).
route(l7,l4,tr2,8,328).
route(l7,l5,tr1,5,235).
route(l7,l5,tr3,10,520).
route(l7,l6,tr2,4,164).
route(l7,l6,tr3,7,364).
route(l7,l8,tr2,9,369).
route(l7,l8,tr3,1,52).
route(l7,l9,tr3,6,312).
route(l7,l9,tr2,9,369).
route(l7,l10,tr3,10,520).
route(l7,l10,tr1,8,376).
route(l8,l1,tr3,5,260).
route(l8,l1,tr2,5,205).
route(l8,l2,tr1,6,282).
route(l8,l2,tr2,10,410).
route(l8,l3,tr2,8,328).
route(l8,l3,tr1,9,423).
route(l8,l4,tr1,2,94).
route(l8,l4,tr2,10,410).
route(l8,l5,tr3,8,416).
route(l8,l5,tr2,4,164).
route(l8,l6,tr1,3,141).
route(l8,l6,tr2,3,123).
route(l8,l7,tr3,5,260).
route(l8,l7,tr1,2,94).
route(l8,l9,tr2,5,205).
route(l8,l9,tr3,10,520).
route(l8,l10,tr2,3,123).
route(l8,l10,tr3,3,156).
route(l9,l1,tr3,5,260).
route(l9,l1,tr2,3,123).
route(l9,l2,tr1,5,235).
route(l9,l2,tr3,6,312).
route(l9,l3,tr3,9,468).
route(l9,l3,tr1,6,282).
route(l9,l4,tr1,5,235).
route(l9,l4,tr2,7,287).
route(l9,l5,tr1,1,47).
route(l9,l5,tr3,4,208).
route(l9,l6,tr1,10,470).
route(l9,l6,tr2,5,205).
route(l9,l7,tr1,7,329).
route(l9,l7,tr2,3,123).
route(l9,l8,tr2,4,164).
route(l9,l8,tr3,1,52).
route(l9,l10,tr3,1,52).
route(l9,l10,tr1,9,423).
route(l10,l1,tr3,4,208).
route(l10,l1,tr2,8,328).
route(l10,l2,tr2,10,410).
route(l10,l2,tr1,5,235).
route(l10,l3,tr2,5,205).
route(l10,l3,tr3,2,104).
route(l10,l4,tr2,2,82).
route(l10,l4,tr3,4,208).
route(l10,l5,tr3,10,520).
route(l10,l5,tr1,1,47).
route(l10,l6,tr3,7,364).
route(l10,l6,tr2,3,123).
route(l10,l7,tr3,10,520).
route(l10,l7,tr1,5,235).
route(l10,l8,tr1,3,141).
route(l10,l8,tr3,2,104).
route(l10,l9,tr3,6,312).
route(l10,l9,tr1,3,141).
