% Multibatching benchmark instance
% Generated with seed=3001 locations=8 parts=5 transports=2

% ---- locations ----
location(l1).
location(l2).
location(l3).
location(l4).
location(l5).
location(l6).
location(l7).
location(l8).

% ---- transport resources ----
transportCapacity(tr1,15).
transportCO2(tr1,28).
transportCost(tr1,47).
transportSpeed(tr1,7).
transportCapacity(tr2,20).
transportCO2(tr2,55).
transportCost(tr2,41).
transportSpeed(tr2,10).

% ---- parts ----
part(p1).
partSize(p1,4).
partVal(p1,928).
partTR(p1,tr1).
partTR(p1,tr2).
part(p2).
partSize(p2,5).
partVal(p2,765).
partTR(p2,tr1).
partTR(p2,tr2).
part(p3).
partSize(p3,4).
partVal(p3,553).
partTR(p3,tr1).
part(p4).
partSize(p4,4).
partVal(p4,914).
partTR(p4,tr2).
part(p5).
partSize(p5,3).
partVal(p5,602).
partTR(p5,tr1).
partTR(p5,tr2).

% ---- demand and supply ----
demandOffer(p1,l1,30).
demandOffer(p5,l1,-3).
demandOffer(p1,l2,14).
demandOffer(p2,l2,-12).
demandOffer(p3,l2,-7).
demandOffer(p2,l3,9).
demandOffer(p3,l3,9).
demandOffer(p4,l3,28).
demandOffer(p1,l4,8).
demandOffer(p2,l4,14).
demandOffer(p4,l4,16).
demandOffer(p5,l4,-20).
demandOffer(p1,l5,15).
demandOffer(p2,l5,-8).
demandOffer(p4,l5,-26).
demandOffer(p5,l5,-16).
demandOffer(p2,l6,-15).
demandOffer(p4,l6,5).
demandOffer(p1,l7,-16).
demandOffer(p2,l7,-9).
demandOffer(p4,l7,-17).
demandOffer(p5,l7,1).
demandOffer(p1,l8,-51).
demandOffer(p2,l8,21).
demandOffer(p3,l8,-2).
demandOffer(p4,l8,-6).
demandOffer(p5,l8,38).

% ---- routes ----
route(l1,l2,tr2,1,41).
route(l1,l2,tr1,8,376).
route(l1,l3,tr1,3,141).
route(l1,l3,tr2,1,41).
route(l1,l4,tr1,3,141).
route(l1,l4,tr2,6,246).
route(l1,l5,tr1,8,376).
route(l1,l5,tr2,1,41).
route(l1,l6,tr2,3,123).
route(l1,l6,tr1,9,423).
route(l1,l7,tr2,2,82).
route(l1,l7,tr1,1,47).
route(l1,l8,tr2,9,369).
route(l1,l8,tr1,1,47).
route(l2,l1,tr2,10,410).
route(l2,l1,tr1,4,188).
route(l2,l3,tr2,1,41).
route(l2,l3,tr1,7,329).
route(l2,l4,tr2,6,246).
route(l2,l4,tr1,9,423).
route(l2,l5,tr2,4,164).
route(l2,l5,tr1,5,235).
route(l2,l6,tr1,10,470).
route(l2,l6,tr2,9,369).
route(l2,l7,tr2,2,82).
route(l2,l7,tr1,3,141).
route(l2,l8,tr2,5,205).
route(l2,l8,tr1,2,94).
route(l3,l1,tr2,6,246).
route(l3,l1,tr1,4,188).
route(l3,l2,tr2,8,328).
route(l3,l2,tr1,2,94).
route(l3,l4,tr1,7,329).
route(l3,l4,tr2,5,205).
route(l3,l5,tr1,10,470).
route(l3,l5,tr2,3,123).
route(l3,l6,tr2,5,205).
route(l3,l6,tr1,1,47).
route(l3,l7,tr2,9,369).
route(l3,l7,tr1,3,141).
route(l3,l8,tr2,10,410).
route(l3,l8,tr1,4,188).
route(l4,l1,tr2,2,82).
route(l4,l1,tr1,1,47).
route(l4,l2,tr2,1,41).
route(l4,l2,tr1,2,94).
route(l4,l3,tr1,7,329).
route(l4,l3,tr2,9,369).
route(l4,l5,tr1,3,141).
route(l4,l5,tr2,7,287).
route(l4,l6,tr2,3,123).
route(l4,l6,tr1,8,376).
route(l4,l7,tr1,3,141).
route(l4,l7,tr2,7,287).
route(l4,l8,tr1,9,423).
route(l4,l8,tr2,1,41).
route(l5,l1,tr2,2,82).
route(l5,l1,tr1,4,188).
route(l5,l2,tr1,1,47).
route(l5,l2,tr2,5,205).
route(l5,l3,tr2,2,82).
route(l5,l3,tr1,8,376).
route(l5,l4,tr2,3,123).
route(l5,l4,tr1,5,235).
route(l5,l6,tr2,1,41).
route(l5,l6,tr1,10,470).
route(l5,l7,tr2,1,41).
route(l5,l7,tr1,10,470).
route(l5,l8,tr1,9,423).
route(l5,l8,tr2,2,82).
route(l6,l1,tr2,1,41).
route(l6,l1,tr1,9,423).
route(l6,l2,tr2,9,369).
route(l6,l2,tr1,8,376).
route(l6,l3,tr1,5,235).
route(l6,l3,tr2,1,41).
route(l6,l4,tr1,8,376).
route(l6,l4,tr2,10,410).
route(l6,l5,tr1,9,423).
route(l6,l5,tr2,4,164).
route(l6,l7,tr1,8,376).
route(l6,l7,tr2,8,328).
route(l6,l8,tr1,9,423).
route(l6,l8,tr2,6,246).
route(l7,l1,tr2,9,369).
route(l7,l1,tr1,9,423).
route(l7,l2,tr2,1,41).
route(l7,l2,tr1,10,470).
route(l7,l3,tr1,2,94).
route(l7,l3,tr2,7,287).
route(l7,l4,tr2,9,369).
route(l7,l4,tr1,4,188).
route(l7,l5,tr1,5,235).
route(l7,l5,tr2,3,123).
route(l7,l6,tr2,10,410).
route(l7,l6,tr1,7,329).
route(l7,l8,tr2,9,369).
route(l7,l8,tr1,1,47).
route(l8,l1,tr2,2,82).
route(l8,l1,tr1,9,423).
route(l8,l2,tr1,4,188).
route(l8,l2,tr2,7,287).
route(l8,l3,tr1,1,47).
route(l8,l3,tr2,3,123).
route(l8,l4,tr1,4,188).
route(l8,l4,tr2,8,328).
route(l8,l5,tr2,9,369).
route(l8,l5,tr1,6,282).
route(l8,l6,tr1,2,94).
route(l8,l6,tr2,1,41).
route(l8,l7,tr2,9,369).
route(l8,l7,tr1,4,188).
