% Sparse benchmark instance
% Generated with seed=13000 locations=15 parts=6 transports=3 routes=213

% ---- locations ----
location(l1).
location(l2).
location(l3).
location(l4).
location(l5).
location(l6).
location(l7).
location(l8).
location(l9).
location(l10).
location(l11).
location(l12).
location(l13).
location(l14).
location(l15).

% ---- transport resources ----
transportCapacity(tr1,11).
transportCO2(tr1,43).
transportCost(tr1,47).
transportSpeed(tr1,8).
transportCapacity(tr2,11).
transportCO2(tr2,29).
transportCost(tr2,76).
transportSpeed(tr2,7).
transportCapacity(tr3,15).
transportCO2(tr3,34).
transportCost(tr3,53).
transportSpeed(tr3,4).

% ---- parts ----
part(p1).
partSize(p1,2).
partVal(p1,839).
partTR(p1,tr1).
partTR(p1,tr2).
partTR(p1,tr3).
part(p2).
partSize(p2,3).
partVal(p2,910).
partTR(p2,tr1).
partTR(p2,tr2).
partTR(p2,tr3).
part(p3).
partSize(p3,4).
partVal(p3,625).
partTR(p3,tr1).
partTR(p3,tr2).
partTR(p3,tr3).
part(p4).
partSize(p4,3).
partVal(p4,806).
partTR(p4,tr1).
partTR(p4,tr2).
partTR(p4,tr3).
part(p5).
partSize(p5,3).
partVal(p5,434).
partTR(p5,tr1).
partTR(p5,tr2).
partTR(p5,tr3).
part(p6).
partSize(p6,2).
partVal(p6,565).
partTR(p6,tr1).
partTR(p6,tr2).
partTR(p6,tr3).

% ---- demand and supply ----
demandOffer(p1,l1,12).
demandOffer(p2,l1,7).
demandOffer(p3,l1,1).
demandOffer(p4,l1,17).
demandOffer(p5,l1,1).
demandOffer(p6,l1,6).
demandOffer(p1,l10,-4).
demandOffer(p2,l10,-9).
demandOffer(p3,l10,-5).
demandOffer(p4,l10,-10).
demandOffer(p5,l10,-5).
demandOffer(p6,l10,-7).
demandOffer(p1,l11,-1).
demandOffer(p2,l11,-2).
demandOffer(p3,l11,-3).
demandOffer(p4,l11,-4).
demandOffer(p5,l11,-4).
demandOffer(p6,l11,-7).
demandOffer(p1,l12,-4).
demandOffer(p2,l12,-1).
demandOffer(p3,l12,-5).
demandOffer(p4,l12,-1).
demandOffer(p5,l12,-4).
demandOffer(p6,l12,-4).
demandOffer(p1,l13,-6).
demandOffer(p2,l13,-6).
demandOffer(p3,l13,-7).
demandOffer(p4,l13,-8).
demandOffer(p5,l13,-6).
demandOffer(p6,l13,-4).
demandOffer(p1,l14,-8).
demandOffer(p2,l14,-5).
demandOffer(p3,l14,-4).
demandOffer(p4,l14,-6).
demandOffer(p5,l14,-5).
demandOffer(p6,l14,-1).
demandOffer(p1,l15,-7).
demandOffer(p2,l15,-7).
demandOffer(p3,l15,-6).
demandOffer(p4,l15,-1).
demandOffer(p5,l15,-6).
demandOffer(p6,l15,-7).
demandOffer(p1,l2,7).
demandOffer(p2,l2,12).
demandOffer(p3,l2,12).
demandOffer(p4,l2,1).
demandOffer(p5,l2,16).
demandOffer(p6,l2,12).
demandOffer(p1,l3,11).
demandOffer(p2,l3,11).
demandOffer(p3,l3,17).
demandOffer(p4,l3,12).
demandOffer(p5,l3,13).
demandOffer(p6,l3,12).

% ---- routes ----
route(l1,l10,tr1,3,141).
route(l1,l10,tr2,7,532).
route(l1,l10,tr3,10,530).
route(l1,l11,tr1,3,141).
route(l1,l11,tr2,9,684).
route(l1,l11,tr3,4,212).
route(l1,l12,tr1,5,235).
route(l1,l13,tr1,2,94).
route(l1,l13,tr2,2,152).
route(l1,l13,tr3,2,106).
route(l1,l4,tr1,6,282).
route(l1,l4,tr2,6,456).
route(l1,l4,tr3,1,53).
route(l1,l5,tr2,9,684).
route(l1,l6,tr1,3,141).
route(l1,l6,tr2,4,304).
route(l1,l6,tr3,3,159).
route(l1,l7,tr1,9,423).
route(l1,l7,tr2,1,76).
route(l1,l7,tr3,3,159).
route(l1,l8,tr1,2,94).
route(l1,l8,tr2,3,228).
route(l1,l8,tr3,4,212).
route(l1,l9,tr3,2,106).
route(l2,l11,tr1,10,470).
route(l2,l11,tr2,7,532).
route(l2,l11,tr3,5,265).
route(l2,l14,tr1,3,141).
route(l2,l14,tr2,6,456).
route(l2,l14,tr3,2,106).
route(l2,l4,tr1,6,282).
route(l2,l4,tr2,4,304).
route(l2,l4,tr3,10,530).
route(l2,l5,tr1,1,47).
route(l2,l5,tr2,2,152).
route(l2,l5,tr3,5,265).
route(l2,l6,tr1,2,94).
route(l2,l6,tr2,8,608).
route(l2,l6,tr3,8,424).
route(l2,l7,tr1,7,329).
route(l2,l7,tr2,2,152).
route(l2,l7,tr3,3,159).
route(l2,l8,tr1,6,282).
route(l2,l8,tr2,2,152).
route(l2,l8,tr3,5,265).
route(l2,l9,tr1,4,188).
route(l2,l9,tr2,8,608).
route(l2,l9,tr3,9,477).
route(l3,l10,tr2,6,456).
route(l3,l11,tr1,1,47).
route(l3,l11,tr2,10,760).
route(l3,l11,tr3,8,424).
route(l3,l13,tr3,3,159).
route(l3,l15,tr3,1,53).
route(l3,l4,tr1,6,282).
route(l3,l4,tr2,4,304).
route(l3,l4,tr3,4,212).
route(l3,l5,tr1,10,470).
route(l3,l5,tr2,7,532).
route(l3,l5,tr3,3,159).
route(l3,l6,tr1,9,423).
route(l3,l6,tr2,4,304).
route(l3,l6,tr3,4,212).
route(l3,l7,tr1,4,188).
route(l3,l7,tr2,4,304).
route(l3,l7,tr3,2,106).
route(l3,l8,tr1,2,94).
route(l3,l8,tr2,10,760).
route(l3,l8,tr3,9,477).
route(l3,l9,tr1,6,282).
route(l3,l9,tr2,1,76).
route(l3,l9,tr3,5,265).
route(l4,l10,tr1,10,470).
route(l4,l10,tr2,4,304).
route(l4,l10,tr3,4,212).
route(l4,l11,tr1,7,329).
route(l4,l11,tr2,8,608).
route(l4,l11,tr3,2,106).
route(l4,l12,tr1,9,423).
route(l4,l12,tr2,1,76).
route(l4,l12,tr3,8,424).
route(l4,l13,tr1,7,329).
route(l4,l13,tr2,7,532).
route(l4,l13,tr3,5,265).
route(l4,l14,tr1,8,376).
route(l4,l14,tr2,5,380).
route(l4,l14,tr3,4,212).
route(l4,l15,tr1,10,470).
route(l4,l15,tr2,8,608).
route(l4,l15,tr3,4,212).
route(l4,l9,tr1,7,329).
route(l4,l9,tr2,7,532).
route(l4,l9,tr3,8,424).
route(l5,l10,tr1,4,188).
route(l5,l10,tr2,3,228).
route(l5,l10,tr3,5,265).
route(l5,l11,tr1,3,141).
route(l5,l11,tr2,10,760).
route(l5,l11,tr3,7,371).
route(l5,l12,tr1,10,470).
route(l5,l12,tr2,10,760).
route(l5,l12,tr3,3,159).
route(l5,l13,tr1,6,282).
route(l5,l13,tr2,2,152).
route(l5,l13,tr3,2,106).
route(l5,l14,tr1,6,282).
route(l5,l14,tr2,2,152).
route(l5,l14,tr3,2,106).
route(l5,l15,tr1,3,141).
route(l5,l15,tr2,2,152).
route(l5,l15,tr3,1,53).
route(l5,l4,tr1,8,376).
route(l5,l4,tr2,8,608).
route(l5,l4,tr3,7,371).
route(l5,l8,tr1,5,235).
route(l5,l8,tr2,5,380).
route(l5,l8,tr3,7,371).
route(l6,l10,tr1,9,423).
route(l6,l10,tr2,9,684).
route(l6,l10,tr3,9,477).
route(l6,l11,tr1,3,141).
route(l6,l11,tr2,1,76).
route(l6,l11,tr3,3,159).
route(l6,l12,tr1,2,94).
route(l6,l12,tr2,2,152).
route(l6,l12,tr3,3,159).
route(l6,l13,tr1,9,423).
route(l6,l13,tr2,6,456).
route(l6,l13,tr3,5,265).
route(l6,l14,tr1,8,376).
route(l6,l14,tr2,7,532).
route(l6,l14,tr3,2,106).
route(l6,l15,tr2,10,760).
route(l6,l7,tr1,2,94).
route(l6,l7,tr2,6,456).
route(l6,l7,tr3,4,212).
route(l7,l10,tr1,1,47).
route(l7,l10,tr2,2,152).
route(l7,l10,tr3,8,424).
route(l7,l11,tr1,6,282).
route(l7,l11,tr2,5,380).
route(l7,l11,tr3,9,477).
route(l7,l12,tr1,8,376).
route(l7,l12,tr2,8,608).
route(l7,l12,tr3,8,424).
route(l7,l13,tr1,8,376).
route(l7,l13,tr2,5,380).
route(l7,l13,tr3,6,318).
route(l7,l14,tr1,8,376).
route(l7,l14,tr2,2,152).
route(l7,l14,tr3,2,106).
route(l7,l15,tr1,9,423).
route(l7,l15,tr2,4,304).
route(l7,l15,tr3,8,424).
route(l7,l4,tr1,2,94).
route(l7,l4,tr2,10,760).
route(l7,l4,tr3,10,530).
route(l7,l5,tr1,2,94).
route(l7,l5,tr2,8,608).
route(l7,l5,tr3,5,265).
route(l7,l6,tr1,1,47).
route(l7,l6,tr2,6,456).
route(l7,l6,tr3,10,530).
route(l7,l8,tr1,5,235).
route(l7,l8,tr2,5,380).
route(l7,l8,tr3,5,265).
route(l7,l9,tr1,9,423).
route(l7,l9,tr2,4,304).
route(l7,l9,tr3,5,265).
route(l8,l10,tr1,4,188).
route(l8,l10,tr2,8,608).
route(l8,l10,tr3,2,106).
route(l8,l11,tr1,4,188).
route(l8,l11,tr2,5,380).
route(l8,l11,tr3,8,424).
route(l8,l12,tr1,10,470).
route(l8,l12,tr2,7,532).
route(l8,l12,tr3,8,424).
route(l8,l13,tr2,10,760).
route(l8,l14,tr1,10,470).
route(l8,l14,tr2,7,532).
route(l8,l14,tr3,5,265).
route(l8,l15,tr1,7,329).
route(l8,l15,tr2,2,152).
route(l8,l15,tr3,10,530).
route(l8,l5,tr1,4,188).
route(l8,l5,tr2,5,380).
route(l8,l5,tr3,10,530).
route(l8,l7,tr2,5,380).
route(l8,l9,tr1,5,235).
route(l8,l9,tr2,2,152).
route(l8,l9,tr3,2,106).
route(l9,l10,tr1,3,141).
route(l9,l10,tr2,8,608).
route(l9,l10,tr3,10,530).
route(l9,l11,tr1,10,470).
route(l9,l11,tr2,5,380).
route(l9,l11,tr3,10,530).
route(l9,l12,tr1,8,376).
route(l9,l12,tr2,1,76).
route(l9,l12,tr3,8,424).
route(l9,l13,tr1,5,235).
route(l9,l13,tr2,1,76).
route(l9,l13,tr3,7,371).
route(l9,l14,tr1,2,94).
route(l9,l14,tr2,2,152).
route(l9,l14,tr3,9,477).
route(l9,l15,tr1,9,423).
route(l9,l15,tr2,1,76).
route(l9,l15,tr3,5,265).
route(l9,l7,tr1,5,235).
route(l9,l7,tr2,7,532).
route(l9,l7,tr3,9,477).
