% Sparse benchmark instance
% Generated with seed=14004 locations=20 parts=10 transports=4 routes=477

% ---- locations ----
location(l1).
location(l2).
location(l3).
location(l4).
location(l5).
location(l6).
location(l7).
location(l8).
location(l9).
location(l10).
location(l11).
location(l12).
location(l13).
location(l14).
location(l15).
location(l16).
location(l17).
location(l18).
location(l19).
location(l20).

% ---- transport resources ----
transportCapacity(tr1,13).
transportCO2(tr1,55).
transportCost(tr1,37).
transportSpeed(tr1,5).
transportCapacity(tr2,14).
transportCO2(tr2,37).
transportCost(tr2,75).
transportSpeed(tr2,6).
transportCapacity(tr3,19).
transportCO2(tr3,46).
transportCost(tr3,41).
transportSpeed(tr3,8).
transportCapacity(tr4,14).
transportCO2(tr4,39).
transportCost(tr4,56).
transportSpeed(tr4,8).

% ---- parts ----
part(p1).
partSize(p1,2).
partVal(p1,785).
partTR(p1,tr1).
partTR(p1,tr2).
partTR(p1,tr3).
partTR(p1,tr4).
part(p2).
partSize(p2,3).
partVal(p2,483).
partTR(p2,tr1).
partTR(p2,tr2).
partTR(p2,tr3).
partTR(p2,tr4).
part(p3).
partSize(p3,3).
partVal(p3,987).
partTR(p3,tr1).
partTR(p3,tr2).
partTR(p3,tr3).
partTR(p3,tr4).
part(p4).
partSize(p4,4).
partVal(p4,492).
partTR(p4,tr1).
partTR(p4,tr2).
partTR(p4,tr3).
partTR(p4,tr4).
part(p5).
partSize(p5,4).
partVal(p5,713).
partTR(p5,tr1).
partTR(p5,tr2).
partTR(p5,tr3).
partTR(p5,tr4).
part(p6).
partSize(p6,2).
partVal(p6,983).
partTR(p6,tr1).
partTR(p6,tr2).
partTR(p6,tr3).
partTR(p6,tr4).
part(p7).
partSize(p7,4).
partVal(p7,927).
partTR(p7,tr1).
partTR(p7,tr2).
partTR(p7,tr3).
partTR(p7,tr4).
part(p8).
partSize(p8,2).
partVal(p8,687).
partTR(p8,tr1).
partTR(p8,tr2).
partTR(p8,tr3).
partTR(p8,tr4).
part(p9).
partSize(p9,2).
partVal(p9,968).
partTR(p9,tr1).
partTR(p9,tr2).
partTR(p9,tr3).
partTR(p9,tr4).
part(p10).
partSize(p10,3).
partVal(p10,708).
partTR(p10,tr1).
partTR(p10,tr2).
partTR(p10,tr3).
partTR(p10,tr4).

% ---- demand and supply ----
demandOffer(p1,l1,8).
demandOffer(p10,l1,3).
demandOffer(p2,l1,3).
demandOffer(p3,l1,9).
demandOffer(p4,l1,1).
demandOffer(p5,l1,4).
demandOffer(p6,l1,5).
demandOffer(p7,l1,5).
demandOffer(p8,l1,17).
demandOffer(p9,l1,2).
demandOffer(p1,l13,-1).
demandOffer(p10,l13,-2).
demandOffer(p2,l13,-5).
demandOffer(p3,l13,-1).
demandOffer(p4,l13,-2).
demandOffer(p5,l13,-6).
demandOffer(p6,l13,-5).
demandOffer(p7,l13,-6).
demandOffer(p8,l13,-2).
demandOffer(p9,l13,-1).
demandOffer(p1,l14,-4).
demandOffer(p10,l14,-5).
demandOffer(p2,l14,-3).
demandOffer(p3,l14,-5).
demandOffer(p4,l14,-3).
demandOffer(p5,l14,-3).
demandOffer(p6,l14,-3).
demandOffer(p7,l14,-6).
demandOffer(p8,l14,-2).
demandOffer(p9,l14,-1).
demandOffer(p1,l15,-6).
demandOffer(p10,l15,-6).
demandOffer(p2,l15,-2).
demandOffer(p3,l15,-2).
demandOffer(p4,l15,-4).
demandOffer(p5,l15,-4).
demandOffer(p6,l15,-3).
demandOffer(p7,l15,-5).
demandOffer(p8,l15,-7).
demandOffer(p9,l15,-5).
demandOffer(p1,l16,-5).
demandOffer(p10,l16,-2).
demandOffer(p2,l16,-3).
demandOffer(p3,l16,-3).
demandOffer(p4,l16,-1).
demandOffer(p5,l16,-1).
demandOffer(p6,l16,-4).
demandOffer(p7,l16,-3).
demandOffer(p8,l16,-2).
demandOffer(p9,l16,-2).
demandOffer(p1,l17,-5).
demandOffer(p10,l17,-3).
demandOffer(p2,l17,-5).
demandOffer(p3,l17,-4).
demandOffer(p4,l17,-6).
demandOffer(p5,l17,-5).
demandOffer(p6,l17,-6).
demandOffer(p7,l17,-7).
demandOffer(p8,l17,-2).
demandOffer(p9,l17,-8).
demandOffer(p1,l18,-1).
demandOffer(p10,l18,-2).
demandOffer(p2,l18,-3).
demandOffer(p3,l18,-4).
demandOffer(p4,l18,-5).
demandOffer(p5,l18,-6).
demandOffer(p6,l18,-3).
demandOffer(p7,l18,-1).
demandOffer(p8,l18,-6).
demandOffer(p9,l18,-2).
demandOffer(p1,l19,-4).
demandOffer(p10,l19,-1).
demandOffer(p2,l19,-4).
demandOffer(p3,l19,-6).
demandOffer(p4,l19,-3).
demandOffer(p5,l19,-2).
demandOffer(p6,l19,-2).
demandOffer(p7,l19,-1).
demandOffer(p8,l19,-6).
demandOffer(p9,l19,-5).
demandOffer(p1,l2,3).
demandOffer(p10,l2,12).
demandOffer(p2,l2,11).
demandOffer(p3,l2,3).
demandOffer(p4,l2,10).
demandOffer(p5,l2,2).
demandOffer(p6,l2,2).
demandOffer(p7,l2,5).
demandOffer(p8,l2,8).
demandOffer(p9,l2,2).
demandOffer(p1,l20,-4).
demandOffer(p10,l20,-9).
demandOffer(p2,l20,-5).
demandOffer(p3,l20,-5).
demandOffer(p4,l20,-6).
demandOffer(p5,l20,-3).
demandOffer(p6,l20,-4).
demandOffer(p7,l20,-1).
demandOffer(p8,l20,-3).
demandOffer(p9,l20,-6).
demandOffer(p1,l3,4).
demandOffer(p10,l3,12).
demandOffer(p2,l3,4).
demandOffer(p3,l3,17).
demandOffer(p4,l3,8).
demandOffer(p5,l3,14).
demandOffer(p6,l3,9).
demandOffer(p7,l3,10).
demandOffer(p8,l3,3).
demandOffer(p9,l3,12).
demandOffer(p1,l4,15).
demandOffer(p10,l4,3).
demandOffer(p2,l4,12).
demandOffer(p3,l4,1).
demandOffer(p4,l4,11).
demandOffer(p5,l4,10).
demandOffer(p6,l4,14).
demandOffer(p7,l4,10).
demandOffer(p8,l4,2).
demandOffer(p9,l4,14).

% ---- routes ----
route(l1,l10,tr1,8,296).
route(l1,l10,tr2,2,150).
route(l1,l10,tr3,6,246).
route(l1,l10,tr4,1,56).
route(l1,l11,tr1,5,185).
route(l1,l11,tr2,5,375).
route(l1,l11,tr3,7,287).
route(l1,l11,tr4,3,168).
route(l1,l12,tr1,6,222).
route(l1,l12,tr2,5,375).
route(l1,l12,tr3,9,369).
route(l1,l12,tr4,3,168).
route(l1,l14,tr1,8,296).
route(l1,l14,tr2,4,300).
route(l1,l14,tr3,3,123).
route(l1,l14,tr4,4,224).
route(l1,l16,tr1,7,259).
route(l1,l16,tr2,7,525).
route(l1,l16,tr3,5,205).
route(l1,l16,tr4,10,560).
route(l1,l17,tr3,6,246).
route(l1,l18,tr1,8,296).
route(l1,l18,tr2,7,525).
route(l1,l18,tr3,1,41).
route(l1,l18,tr4,7,392).
route(l1,l19,tr1,2,74).
route(l1,l19,tr2,4,300).
route(l1,l19,tr3,8,328).
route(l1,l19,tr4,6,336).
route(l1,l5,tr3,3,123).
route(l1,l6,tr1,7,259).
route(l1,l6,tr2,8,600).
route(l1,l6,tr3,10,410).
route(l1,l6,tr4,10,560).
route(l1,l7,tr1,7,259).
route(l1,l7,tr2,9,675).
route(l1,l7,tr3,8,328).
route(l1,l7,tr4,5,280).
route(l1,l8,tr1,10,370).
route(l1,l8,tr2,10,750).
route(l1,l8,tr3,6,246).
route(l1,l8,tr4,10,560).
route(l1,l9,tr1,1,37).
route(l1,l9,tr2,2,150).
route(l1,l9,tr3,2,82).
route(l1,l9,tr4,8,448).
route(l10,l13,tr1,2,74).
route(l10,l13,tr2,9,675).
route(l10,l13,tr3,2,82).
route(l10,l13,tr4,7,392).
route(l10,l14,tr1,4,148).
route(l10,l14,tr2,8,600).
route(l10,l14,tr3,1,41).
route(l10,l14,tr4,7,392).
route(l10,l15,tr1,6,222).
route(l10,l15,tr2,3,225).
route(l10,l15,tr3,7,287).
route(l10,l15,tr4,5,280).
route(l10,l16,tr1,2,74).
route(l10,l16,tr2,4,300).
route(l10,l16,tr3,3,123).
route(l10,l16,tr4,7,392).
route(l10,l17,tr1,7,259).
route(l10,l17,tr2,10,750).
route(l10,l17,tr3,10,410).
route(l10,l17,tr4,5,280).
route(l10,l18,tr1,3,111).
route(l10,l18,tr2,9,675).
route(l10,l18,tr3,2,82).
route(l10,l18,tr4,8,448).
route(l10,l19,tr1,4,148).
route(l10,l19,tr2,8,600).
route(l10,l19,tr3,6,246).
route(l10,l19,tr4,8,448).
route(l10,l20,tr1,10,370).
route(l10,l20,tr2,6,450).
route(l10,l20,tr3,10,410).
route(l10,l20,tr4,8,448).
route(l10,l8,tr1,3,111).
route(l10,l8,tr2,5,375).
route(l10,l8,tr3,4,164).
route(l10,l8,tr4,7,392).
route(l10,l9,tr1,8,296).
route(l10,l9,tr2,1,75).
route(l10,l9,tr3,3,123).
route(l10,l9,tr4,3,168).
route(l11,l13,tr1,2,74).
route(l11,l13,tr2,3,225).
route(l11,l13,tr3,2,82).
route(l11,l13,tr4,8,448).
route(l11,l14,tr1,1,37).
route(l11,l14,tr2,2,150).
route(l11,l14,tr3,9,369).
route(l11,l14,tr4,2,112).
route(l11,l15,tr1,10,370).
route(l11,l15,tr2,7,525).
route(l11,l15,tr3,5,205).
route(l11,l15,tr4,5,280).
route(l11,l16,tr1,1,37).
route(l11,l16,tr2,7,525).
route(l11,l16,tr3,8,328).
route(l11,l16,tr4,4,224).
route(l11,l17,tr1,7,259).
route(l11,l17,tr2,8,600).
route(l11,l17,tr3,5,205).
route(l11,l17,tr4,1,56).
route(l11,l18,tr1,1,37).
route(l11,l18,tr2,5,375).
route(l11,l18,tr3,9,369).
route(l11,l18,tr4,2,112).
route(l11,l19,tr1,6,222).
route(l11,l19,tr2,5,375).
route(l11,l19,tr3,3,123).
route(l11,l19,tr4,4,224).
route(l11,l20,tr1,2,74).
route(l11,l20,tr2,3,225).
route(l11,l20,tr3,3,123).
route(l11,l20,tr4,10,560).
route(l11,l7,tr1,8,296).
route(l11,l7,tr2,3,225).
route(l11,l7,tr3,4,164).
route(l11,l7,tr4,6,336).
route(l11,l9,tr1,8,296).
route(l11,l9,tr2,10,750).
route(l11,l9,tr3,2,82).
route(l11,l9,tr4,4,224).
route(l12,l10,tr1,7,259).
route(l12,l10,tr2,10,750).
route(l12,l10,tr3,6,246).
route(l12,l10,tr4,3,168).
route(l12,l13,tr1,3,111).
route(l12,l13,tr2,6,450).
route(l12,l13,tr3,1,41).
route(l12,l13,tr4,10,560).
route(l12,l14,tr1,6,222).
route(l12,l15,tr1,4,148).
route(l12,l15,tr2,4,300).
route(l12,l15,tr3,2,82).
route(l12,l15,tr4,2,112).
route(l12,l16,tr1,2,74).
route(l12,l16,tr2,5,375).
route(l12,l16,tr3,7,287).
route(l12,l16,tr4,1,56).
route(l12,l17,tr1,10,370).
route(l12,l17,tr2,8,600).
route(l12,l17,tr3,9,369).
route(l12,l17,tr4,2,112).
route(l12,l18,tr1,7,259).
route(l12,l18,tr2,1,75).
route(l12,l18,tr3,1,41).
route(l12,l18,tr4,5,280).
route(l12,l19,tr1,6,222).
route(l12,l19,tr2,9,675).
route(l12,l19,tr3,10,410).
route(l12,l19,tr4,1,56).
route(l12,l20,tr1,6,222).
route(l12,l20,tr2,5,375).
route(l12,l20,tr3,9,369).
route(l12,l20,tr4,8,448).
route(l2,l10,tr1,2,74).
route(l2,l10,tr2,1,75).
route(l2,l10,tr3,3,123).
route(l2,l10,tr4,6,336).
route(l2,l11,tr1,9,333).
route(l2,l11,tr2,5,375).
route(l2,l11,tr3,8,328).
route(l2,l11,tr4,10,560).
route(l2,l12,tr1,7,259).
route(l2,l12,tr2,9,675).
route(l2,l12,tr3,2,82).
route(l2,l12,tr4,9,504).
route(l2,l15,tr1,1,37).
route(l2,l15,tr2,7,525).
route(l2,l15,tr3,7,287).
route(l2,l15,tr4,2,112).
route(l2,l16,tr1,8,296).
route(l2,l16,tr2,7,525).
route(l2,l16,tr3,1,41).
route(l2,l16,tr4,2,112).
route(l2,l20,tr1,4,148).
route(l2,l20,tr2,3,225).
route(l2,l20,tr3,4,164).
route(l2,l20,tr4,9,504).
route(l2,l5,tr1,10,370).
route(l2,l5,tr2,5,375).
route(l2,l5,tr3,6,246).
route(l2,l5,tr4,1,56).
route(l2,l6,tr1,2,74).
route(l2,l6,tr2,10,750).
route(l2,l6,tr3,6,246).
route(l2,l6,tr4,6,336).
route(l2,l7,tr1,4,148).
route(l2,l7,tr2,6,450).
route(l2,l7,tr3,10,410).
route(l2,l7,tr4,8,448).
route(l2,l8,tr1,8,296).
route(l2,l8,tr2,10,750).
route(l2,l8,tr3,1,41).
route(l2,l8,tr4,7,392).
route(l2,l9,tr1,10,370).
route(l2,l9,tr2,6,450).
route(l2,l9,tr3,10,410).
route(l2,l9,tr4,3,168).
route(l3,l10,tr1,8,296).
route(l3,l10,tr2,7,525).
route(l3,l10,tr3,1,41).
route(l3,l10,tr4,4,224).
route(l3,l11,tr1,3,111).
route(l3,l11,tr2,10,750).
route(l3,l11,tr3,5,205).
route(l3,l11,tr4,3,168).
route(l3,l12,tr4,7,392).
route(l3,l16,tr1,5,185).
route(l3,l16,tr2,4,300).
route(l3,l16,tr3,7,287).
route(l3,l16,tr4,6,336).
route(l3,l19,tr1,6,222).
route(l3,l19,tr2,9,675).
route(l3,l19,tr3,7,287).
route(l3,l19,tr4,4,224).
route(l3,l20,tr1,6,222).
route(l3,l20,tr2,5,375).
route(l3,l20,tr3,5,205).
route(l3,l20,tr4,7,392).
route(l3,l5,tr1,10,370).
route(l3,l5,tr2,1,75).
route(l3,l5,tr3,1,41).
route(l3,l5,tr4,1,56).
route(l3,l6,tr1,6,222).
route(l3,l6,tr2,6,450).
route(l3,l6,tr3,9,369).
route(l3,l6,tr4,9,504).
route(l3,l7,tr1,3,111).
route(l3,l7,tr2,9,675).
route(l3,l7,tr3,9,369).
route(l3,l7,tr4,6,336).
route(l3,l8,tr1,1,37).
route(l3,l8,tr2,3,225).
route(l3,l8,tr3,3,123).
route(l3,l8,tr4,3,168).
route(l3,l9,tr1,10,370).
route(l4,l10,tr1,4,148).
route(l4,l10,tr2,2,150).
route(l4,l10,tr3,6,246).
route(l4,l10,tr4,7,392).
route(l4,l11,tr1,8,296).
route(l4,l11,tr2,8,600).
route(l4,l11,tr3,8,328).
route(l4,l11,tr4,5,280).
route(l4,l12,tr1,9,333).
route(l4,l12,tr2,4,300).
route(l4,l12,tr3,10,410).
route(l4,l12,tr4,9,504).
route(l4,l13,tr1,6,222).
route(l4,l13,tr2,7,525).
route(l4,l13,tr3,1,41).
route(l4,l13,tr4,10,560).
route(l4,l15,tr1,1,37).
route(l4,l15,tr2,8,600).
route(l4,l15,tr3,6,246).
route(l4,l15,tr4,5,280).
route(l4,l19,tr1,2,74).
route(l4,l19,tr2,7,525).
route(l4,l19,tr3,9,369).
route(l4,l19,tr4,6,336).
route(l4,l20,tr1,1,37).
route(l4,l20,tr2,10,750).
route(l4,l20,tr3,8,328).
route(l4,l20,tr4,6,336).
route(l4,l5,tr1,9,333).
route(l4,l5,tr2,6,450).
route(l4,l5,tr3,9,369).
route(l4,l5,tr4,9,504).
route(l4,l6,tr1,3,111).
route(l4,l6,tr2,5,375).
route(l4,l6,tr3,9,369).
route(l4,l6,tr4,2,112).
route(l4,l7,tr1,10,370).
route(l4,l7,tr2,6,450).
route(l4,l7,tr3,8,328).
route(l4,l7,tr4,5,280).
route(l4,l8,tr1,3,111).
route(l4,l8,tr2,5,375).
route(l4,l8,tr3,10,410).
route(l4,l8,tr4,6,336).
route(l4,l9,tr1,1,37).
route(l4,l9,tr2,8,600).
route(l4,l9,tr3,8,328).
route(l4,l9,tr4,8,448).
route(l5,l12,tr1,1,37).
route(l5,l12,tr2,6,450).
route(l5,l12,tr3,6,246).
route(l5,l12,tr4,8,448).
route(l5,l13,tr1,10,370).
route(l5,l13,tr2,2,150).
route(l5,l13,tr3,9,369).
route(l5,l13,tr4,3,168).
route(l5,l14,tr1,2,74).
route(l5,l14,tr2,9,675).
route(l5,l14,tr3,5,205).
route(l5,l14,tr4,2,112).
route(l5,l15,tr1,2,74).
route(l5,l15,tr2,4,300).
route(l5,l15,tr3,4,164).
route(l5,l15,tr4,1,56).
route(l5,l16,tr3,3,123).
route(l5,l17,tr1,3,111).
route(l5,l17,tr2,5,375).
route(l5,l17,tr3,7,287).
route(l5,l17,tr4,4,224).
route(l5,l18,tr1,1,37).
route(l5,l18,tr2,2,150).
route(l5,l18,tr3,3,123).
route(l5,l18,tr4,5,280).
route(l5,l19,tr1,5,185).
route(l5,l19,tr2,3,225).
route(l5,l19,tr3,5,205).
route(l5,l19,tr4,2,112).
route(l5,l20,tr1,10,370).
route(l5,l20,tr2,7,525).
route(l5,l20,tr3,6,246).
route(l5,l20,tr4,9,504).
route(l5,l6,tr1,2,74).
route(l5,l6,tr2,4,300).
route(l5,l6,tr3,7,287).
route(l5,l6,tr4,1,56).
route(l5,l8,tr1,2,74).
route(l5,l8,tr2,9,675).
route(l5,l8,tr3,9,369).
route(l5,l8,tr4,8,448).
route(l5,l9,tr1,2,74).
route(l5,l9,tr2,2,150).
route(l5,l9,tr3,2,82).
route(l5,l9,tr4,4,224).
route(l6,l13,tr1,8,296).
route(l6,l13,tr2,9,675).
route(l6,l13,tr3,10,410).
route(l6,l13,tr4,9,504).
route(l6,l14,tr1,6,222).
route(l6,l14,tr2,5,375).
route(l6,l14,tr3,8,328).
route(l6,l14,tr4,4,224).
route(l6,l15,tr1,6,222).
route(l6,l15,tr2,5,375).
route(l6,l15,tr3,10,410).
route(l6,l15,tr4,9,504).
route(l6,l16,tr1,8,296).
route(l6,l16,tr2,6,450).
route(l6,l16,tr3,10,410).
route(l6,l16,tr4,3,168).
route(l6,l17,tr1,7,259).
route(l6,l17,tr2,6,450).
route(l6,l17,tr3,8,328).
route(l6,l17,tr4,3,168).
route(l6,l18,tr1,1,37).
route(l6,l18,tr2,4,300).
route(l6,l18,tr3,5,205).
route(l6,l18,tr4,10,560).
route(l6,l19,tr3,6,246).
route(l6,l20,tr1,5,185).
route(l6,l20,tr2,6,450).
route(l6,l20,tr3,6,246).
route(l6,l20,tr4,9,504).
route(l6,l5,tr1,2,74).
route(l6,l5,tr2,9,675).
route(l6,l5,tr3,1,41).
route(l6,l5,tr4,4,224).
route(l6,l9,tr2,4,300).
route(l7,l10,tr1,5,185).
route(l7,l10,tr2,2,150).
route(l7,l10,tr3,10,410).
route(l7,l10,tr4,4,224).
route(l7,l11,tr1,2,74).
route(l7,l11,tr2,5,375).
route(l7,l11,tr3,2,82).
route(l7,l11,tr4,10,560).
route(l7,l13,tr1,5,185).
route(l7,l13,tr2,8,600).
route(l7,l13,tr3,7,287).
route(l7,l13,tr4,6,336).
route(l7,l14,tr1,5,185).
route(l7,l14,tr2,7,525).
route(l7,l14,tr3,9,369).
route(l7,l14,tr4,1,56).
route(l7,l15,tr1,8,296).
route(l7,l15,tr2,6,450).
route(l7,l15,tr3,10,410).
route(l7,l15,tr4,10,560).
route(l7,l16,tr4,2,112).
route(l7,l17,tr1,10,370).
route(l7,l17,tr2,9,675).
route(l7,l17,tr3,3,123).
route(l7,l17,tr4,9,504).
route(l7,l18,tr2,6,450).
route(l7,l19,tr3,3,123).
route(l7,l20,tr1,9,333).
route(l7,l20,tr2,1,75).
route(l7,l20,tr3,3,123).
route(l7,l20,tr4,6,336).
route(l7,l5,tr1,2,74).
route(l7,l5,tr2,10,750).
route(l7,l5,tr3,9,369).
route(l7,l5,tr4,3,168).
route(l8,l10,tr1,10,370).
route(l8,l10,tr2,10,750).
route(l8,l10,tr3,10,410).
route(l8,l10,tr4,7,392).
route(l8,l13,tr1,1,37).
route(l8,l13,tr2,9,675).
route(l8,l13,tr3,4,164).
route(l8,l13,tr4,1,56).
route(l8,l14,tr1,4,148).
route(l8,l14,tr2,9,675).
route(l8,l14,tr3,7,287).
route(l8,l14,tr4,1,56).
route(l8,l15,tr1,5,185).
route(l8,l15,tr2,2,150).
route(l8,l15,tr3,7,287).
route(l8,l15,tr4,2,112).
route(l8,l16,tr1,4,148).
route(l8,l16,tr2,8,600).
route(l8,l16,tr3,7,287).
route(l8,l16,tr4,6,336).
route(l8,l17,tr1,3,111).
route(l8,l17,tr2,6,450).
route(l8,l17,tr3,4,164).
route(l8,l17,tr4,10,560).
route(l8,l18,tr1,2,74).
route(l8,l18,tr2,9,675).
route(l8,l18,tr3,3,123).
route(l8,l18,tr4,7,392).
route(l8,l19,tr1,3,111).
route(l8,l19,tr2,1,75).
route(l8,l19,tr3,8,328).
route(l8,l19,tr4,6,336).
route(l8,l20,tr1,10,370).
route(l8,l20,tr2,5,375).
route(l8,l20,tr3,8,328).
route(l8,l20,tr4,4,224).
route(l8,l6,tr1,4,148).
route(l8,l6,tr2,10,750).
route(l8,l6,tr3,6,246).
route(l8,l6,tr4,6,336).
route(l9,l11,tr1,10,370).
route(l9,l11,tr2,3,225).
route(l9,l11,tr3,3,123).
route(l9,l11,tr4,9,504).
route(l9,l12,tr1,2,74).
route(l9,l12,tr2,3,225).
route(l9,l12,tr3,6,246).
route(l9,l12,tr4,3,168).
route(l9,l13,tr2,4,300).
route(l9,l14,tr1,7,259).
route(l9,l14,tr2,5,375).
route(l9,l14,tr3,7,287).
route(l9,l14,tr4,4,224).
route(l9,l15,tr1,3,111).
route(l9,l15,tr2,1,75).
route(l9,l15,tr3,8,328).
route(l9,l15,tr4,1,56).
route(l9,l16,tr1,1,37).
route(l9,l16,tr2,5,375).
route(l9,l16,tr3,9,369).
route(l9,l16,tr4,3,168).
route(l9,l17,tr1,6,222).
route(l9,l17,tr2,4,300).
route(l9,l17,tr3,10,410).
route(l9,l17,tr4,5,280).
route(l9,l18,tr1,1,37).
route(l9,l19,tr1,5,185).
route(l9,l19,tr2,10,750).
route(l9,l19,tr3,1,41).
route(l9,l19,tr4,9,504).
route(l9,l20,tr1,8,296).
route(l9,l20,tr2,8,600).
route(l9,l20,tr3,4,164).
route(l9,l20,tr4,5,280).
