% Sparse benchmark instance
% Generated with seed=14001 locations=20 parts=10 transports=4 routes=524

% ---- locations ----
location(l1).
location(l2).
location(l3).
location(l4).
location(l5).
location(l6).
location(l7).
location(l8).
location(l9).
location(l10).
location(l11).
location(l12).
location(l13).
location(l14).
location(l15).
location(l16).
location(l17).
location(l18).
location(l19).
location(l20).

% ---- transport resources ----
transportCapacity(tr1,16).
transportCO2(tr1,19).
transportCost(tr1,62).
transportSpeed(tr1,2).
transportCapacity(tr2,14).
transportCO2(tr2,61).
transportCost(tr2,70).
transportSpeed(tr2,3).
transportCapacity(tr3,14).
transportCO2(tr3,55).
transportCost(tr3,47).
transportSpeed(tr3,3).
transportCapacity(tr4,13).
transportCO2(tr4,36).
transportCost(tr4,77).
transportSpeed(tr4,8).

% ---- parts ----
part(p1).
partSize(p1,4).
partVal(p1,481).
partTR(p1,tr1).
partTR(p1,tr2).
partTR(p1,tr3).
partTR(p1,tr4).
part(p2).
partSize(p2,2).
partVal(p2,328).
partTR(p2,tr1).
partTR(p2,tr2).
partTR(p2,tr3).
partTR(p2,tr4).
part(p3).
partSize(p3,2).
partVal(p3,553).
partTR(p3,tr1).
partTR(p3,tr2).
partTR(p3,tr3).
partTR(p3,tr4).
part(p4).
partSize(p4,4).
partVal(p4,409).
partTR(p4,tr1).
partTR(p4,tr2).
partTR(p4,tr3).
partTR(p4,tr4).
part(p5).
partSize(p5,3).
partVal(p5,419).
partTR(p5,tr1).
partTR(p5,tr2).
partTR(p5,tr3).
partTR(p5,tr4).
part(p6).
partSize(p6,2).
partVal(p6,991).
partTR(p6,tr1).
partTR(p6,tr2).
partTR(p6,tr3).
partTR(p6,tr4).
part(p7).
partSize(p7,2).
partVal(p7,866).
partTR(p7,tr1).
partTR(p7,tr2).
partTR(p7,tr3).
partTR(p7,tr4).
part(p8).
partSize(p8,2).
partVal(p8,955).
partTR(p8,tr1).
partTR(p8,tr2).
partTR(p8,tr3).
partTR(p8,tr4).
part(p9).
partSize(p9,2).
partVal(p9,365).
partTR(p9,tr1).
partTR(p9,tr2).
partTR(p9,tr3).
partTR(p9,tr4).
part(p10).
partSize(p10,2).
partVal(p10,768).
partTR(p10,tr1).
partTR(p10,tr2).
partTR(p10,tr3).
partTR(p10,tr4).

% ---- demand and supply ----
demandOffer(p1,l1,4).
demandOffer(p10,l1,6).
demandOffer(p2,l1,8).
demandOffer(p3,l1,1).
demandOffer(p4,l1,9).
demandOffer(p5,l1,8).
demandOffer(p6,l1,7).
demandOffer(p7,l1,7).
demandOffer(p8,l1,4).
demandOffer(p9,l1,11).
demandOffer(p1,l13,-4).
demandOffer(p10,l13,-6).
demandOffer(p2,l13,-5).
demandOffer(p3,l13,-1).
demandOffer(p4,l13,-1).
demandOffer(p5,l13,-3).
demandOffer(p6,l13,-2).
demandOffer(p7,l13,-2).
demandOffer(p8,l13,-4).
demandOffer(p9,l13,-5).
demandOffer(p1,l14,-9).
demandOffer(p10,l14,-4).
demandOffer(p2,l14,-2).
demandOffer(p3,l14,-1).
demandOffer(p4,l14,-7).
demandOffer(p5,l14,-5).
demandOffer(p6,l14,-3).
demandOffer(p7,l14,-1).
demandOffer(p8,l14,-5).
demandOffer(p9,l14,-5).
demandOffer(p1,l15,-6).
demandOffer(p10,l15,-4).
demandOffer(p2,l15,-3).
demandOffer(p3,l15,-2).
demandOffer(p4,l15,-6).
demandOffer(p5,l15,-1).
demandOffer(p6,l15,-3).
demandOffer(p7,l15,-7).
demandOffer(p8,l15,-3).
demandOffer(p9,l15,-1).
demandOffer(p1,l16,-3).
demandOffer(p10,l16,-2).
demandOffer(p2,l16,-4).
demandOffer(p3,l16,-7).
demandOffer(p4,l16,-5).
demandOffer(p5,l16,-4).
demandOffer(p6,l16,-5).
demandOffer(p7,l16,-5).
demandOffer(p8,l16,-3).
demandOffer(p9,l16,-2).
demandOffer(p1,l17,-4).
demandOffer(p10,l17,-2).
demandOffer(p2,l17,-3).
demandOffer(p3,l17,-1).
demandOffer(p4,l17,-1).
demandOffer(p5,l17,-5).
demandOffer(p6,l17,-2).
demandOffer(p7,l17,-6).
demandOffer(p8,l17,-3).
demandOffer(p9,l17,-2).
demandOffer(p1,l18,-2).
demandOffer(p10,l18,-2).
demandOffer(p2,l18,-5).
demandOffer(p3,l18,-3).
demandOffer(p4,l18,-1).
demandOffer(p5,l18,-4).
demandOffer(p6,l18,-7).
demandOffer(p7,l18,-6).
demandOffer(p8,l18,-3).
demandOffer(p9,l18,-5).
demandOffer(p1,l19,-1).
demandOffer(p10,l19,-5).
demandOffer(p2,l19,-2).
demandOffer(p3,l19,-7).
demandOffer(p4,l19,-3).
demandOffer(p5,l19,-2).
demandOffer(p6,l19,-2).
demandOffer(p7,l19,-2).
demandOffer(p8,l19,-4).
demandOffer(p9,l19,-7).
demandOffer(p1,l2,12).
demandOffer(p10,l2,11).
demandOffer(p2,l2,6).
demandOffer(p3,l2,15).
demandOffer(p4,l2,7).
demandOffer(p5,l2,4).
demandOffer(p6,l2,8).
demandOffer(p7,l2,8).
demandOffer(p8,l2,6).
demandOffer(p9,l2,6).
demandOffer(p1,l20,-1).
demandOffer(p10,l20,-5).
demandOffer(p2,l20,-6).
demandOffer(p3,l20,-8).
demandOffer(p4,l20,-6).
demandOffer(p5,l20,-6).
demandOffer(p6,l20,-6).
demandOffer(p7,l20,-1).
demandOffer(p8,l20,-5).
demandOffer(p9,l20,-3).
demandOffer(p1,l3,11).
demandOffer(p10,l3,2).
demandOffer(p2,l3,1).
demandOffer(p3,l3,2).
demandOffer(p4,l3,9).
demandOffer(p5,l3,8).
demandOffer(p6,l3,6).
demandOffer(p7,l3,6).
demandOffer(p8,l3,9).
demandOffer(p9,l3,12).
demandOffer(p1,l4,3).
demandOffer(p10,l4,11).
demandOffer(p2,l4,15).
demandOffer(p3,l4,12).
demandOffer(p4,l4,5).
demandOffer(p5,l4,10).
demandOffer(p6,l4,9).
demandOffer(p7,l4,9).
demandOffer(p8,l4,11).
demandOffer(p9,l4,1).

% ---- routes ----
route(l1,l10,tr1,7,434).
route(l1,l10,tr2,7,490).
route(l1,l10,tr3,10,470).
route(l1,l10,tr4,8,616).
route(l1,l11,tr1,10,620).
route(l1,l11,tr2,9,630).
route(l1,l11,tr3,9,423).
route(l1,l11,tr4,10,770).
route(l1,l12,tr1,9,558).
route(l1,l12,tr2,2,140).
route(l1,l12,tr3,7,329).
route(l1,l12,tr4,5,385).
route(l1,l13,tr1,6,372).
route(l1,l13,tr2,1,70).
route(l1,l13,tr3,4,188).
route(l1,l13,tr4,9,693).
route(l1,l14,tr1,1,62).
route(l1,l14,tr2,7,490).
route(l1,l14,tr3,5,235).
route(l1,l14,tr4,10,770).
route(l1,l15,tr1,4,248).
route(l1,l15,tr2,1,70).
route(l1,l15,tr3,2,94).
route(l1,l15,tr4,8,616).
route(l1,l16,tr1,8,496).
route(l1,l16,tr2,1,70).
route(l1,l16,tr3,9,423).
route(l1,l16,tr4,6,462).
route(l1,l17,tr1,9,558).
route(l1,l17,tr2,9,630).
route(l1,l17,tr3,6,282).
route(l1,l17,tr4,3,231).
route(l1,l19,tr1,4,248).
route(l1,l19,tr2,1,70).
route(l1,l19,tr3,9,423).
route(l1,l19,tr4,3,231).
route(l1,l20,tr1,9,558).
route(l1,l20,tr2,8,560).
route(l1,l20,tr3,10,470).
route(l1,l20,tr4,9,693).
route(l1,l5,tr1,3,186).
route(l1,l5,tr2,2,140).
route(l1,l5,tr3,2,94).
route(l1,l5,tr4,4,308).
route(l1,l6,tr1,5,310).
route(l1,l6,tr2,9,630).
route(l1,l6,tr3,7,329).
route(l1,l6,tr4,5,385).
route(l1,l7,tr1,8,496).
route(l1,l7,tr2,6,420).
route(l1,l7,tr3,4,188).
route(l1,l7,tr4,6,462).
route(l1,l8,tr1,8,496).
route(l1,l8,tr2,3,210).
route(l1,l8,tr3,7,329).
route(l1,l8,tr4,7,539).
route(l1,l9,tr4,4,308).
route(l10,l12,tr1,6,372).
route(l10,l12,tr2,2,140).
route(l10,l12,tr3,5,235).
route(l10,l12,tr4,8,616).
route(l10,l13,tr1,2,124).
route(l10,l13,tr2,1,70).
route(l10,l13,tr3,2,94).
route(l10,l13,tr4,2,154).
route(l10,l14,tr1,7,434).
route(l10,l14,tr2,3,210).
route(l10,l14,tr3,4,188).
route(l10,l14,tr4,2,154).
route(l10,l15,tr1,5,310).
route(l10,l15,tr2,8,560).
route(l10,l15,tr3,4,188).
route(l10,l15,tr4,4,308).
route(l10,l16,tr4,4,308).
route(l10,l17,tr1,3,186).
route(l10,l17,tr2,8,560).
route(l10,l17,tr3,2,94).
route(l10,l17,tr4,4,308).
route(l10,l18,tr1,8,496).
route(l10,l18,tr2,6,420).
route(l10,l18,tr3,6,282).
route(l10,l18,tr4,9,693).
route(l10,l19,tr1,4,248).
route(l10,l19,tr2,7,490).
route(l10,l19,tr3,2,94).
route(l10,l19,tr4,1,77).
route(l10,l20,tr1,8,496).
route(l10,l20,tr2,9,630).
route(l10,l20,tr3,6,282).
route(l10,l20,tr4,4,308).
route(l11,l10,tr1,5,310).
route(l11,l10,tr2,10,700).
route(l11,l10,tr3,5,235).
route(l11,l10,tr4,4,308).
route(l11,l13,tr1,4,248).
route(l11,l13,tr2,1,70).
route(l11,l13,tr3,10,470).
route(l11,l13,tr4,6,462).
route(l11,l14,tr1,1,62).
route(l11,l14,tr2,7,490).
route(l11,l14,tr3,3,141).
route(l11,l14,tr4,10,770).
route(l11,l15,tr1,4,248).
route(l11,l15,tr2,9,630).
route(l11,l15,tr3,9,423).
route(l11,l15,tr4,9,693).
route(l11,l16,tr1,6,372).
route(l11,l16,tr2,5,350).
route(l11,l16,tr3,3,141).
route(l11,l16,tr4,8,616).
route(l11,l17,tr1,5,310).
route(l11,l17,tr2,6,420).
route(l11,l17,tr3,5,235).
route(l11,l17,tr4,1,77).
route(l11,l18,tr1,2,124).
route(l11,l18,tr2,2,140).
route(l11,l18,tr3,4,188).
route(l11,l18,tr4,4,308).
route(l11,l19,tr1,9,558).
route(l11,l19,tr2,6,420).
route(l11,l19,tr3,9,423).
route(l11,l19,tr4,9,693).
route(l11,l20,tr1,7,434).
route(l11,l20,tr2,1,70).
route(l11,l20,tr3,7,329).
route(l11,l20,tr4,1,77).
route(l11,l5,tr4,7,539).
route(l11,l8,tr1,2,124).
route(l11,l8,tr2,2,140).
route(l11,l8,tr3,10,470).
route(l11,l8,tr4,4,308).
route(l11,l9,tr1,2,124).
route(l11,l9,tr2,1,70).
route(l11,l9,tr3,6,282).
route(l11,l9,tr4,2,154).
route(l12,l10,tr1,1,62).
route(l12,l11,tr1,3,186).
route(l12,l11,tr2,5,350).
route(l12,l11,tr3,9,423).
route(l12,l11,tr4,9,693).
route(l12,l13,tr1,4,248).
route(l12,l13,tr2,10,700).
route(l12,l13,tr3,8,376).
route(l12,l13,tr4,3,231).
route(l12,l14,tr1,8,496).
route(l12,l14,tr2,1,70).
route(l12,l14,tr3,6,282).
route(l12,l14,tr4,10,770).
route(l12,l15,tr2,8,560).
route(l12,l16,tr1,2,124).
route(l12,l16,tr2,2,140).
route(l12,l16,tr3,6,282).
route(l12,l16,tr4,8,616).
route(l12,l17,tr1,9,558).
route(l12,l17,tr2,10,700).
route(l12,l17,tr3,2,94).
route(l12,l17,tr4,2,154).
route(l12,l18,tr1,9,558).
route(l12,l18,tr2,8,560).
route(l12,l18,tr3,6,282).
route(l12,l18,tr4,7,539).
route(l12,l19,tr1,8,496).
route(l12,l19,tr2,9,630).
route(l12,l19,tr3,8,376).
route(l12,l19,tr4,4,308).
route(l12,l20,tr1,9,558).
route(l12,l20,tr2,8,560).
route(l12,l20,tr3,4,188).
route(l12,l20,tr4,4,308).
route(l12,l6,tr1,7,434).
route(l12,l6,tr2,3,210).
route(l12,l6,tr3,10,470).
route(l12,l6,tr4,2,154).
route(l12,l7,tr1,7,434).
route(l12,l7,tr2,5,350).
route(l12,l7,tr3,3,141).
route(l12,l7,tr4,7,539).
route(l12,l9,tr1,2,124).
route(l12,l9,tr2,2,140).
route(l12,l9,tr3,2,94).
route(l12,l9,tr4,3,231).
route(l2,l10,tr1,9,558).
route(l2,l10,tr2,8,560).
route(l2,l10,tr3,1,47).
route(l2,l10,tr4,1,77).
route(l2,l11,tr1,9,558).
route(l2,l11,tr2,2,140).
route(l2,l11,tr3,2,94).
route(l2,l11,tr4,8,616).
route(l2,l12,tr1,7,434).
route(l2,l13,tr1,4,248).
route(l2,l13,tr2,2,140).
route(l2,l13,tr3,4,188).
route(l2,l13,tr4,5,385).
route(l2,l15,tr1,8,496).
route(l2,l15,tr2,1,70).
route(l2,l15,tr3,1,47).
route(l2,l15,tr4,2,154).
route(l2,l17,tr1,9,558).
route(l2,l17,tr2,8,560).
route(l2,l17,tr3,10,470).
route(l2,l17,tr4,4,308).
route(l2,l20,tr1,8,496).
route(l2,l20,tr2,3,210).
route(l2,l20,tr3,3,141).
route(l2,l20,tr4,5,385).
route(l2,l5,tr1,7,434).
route(l2,l5,tr2,10,700).
route(l2,l5,tr3,10,470).
route(l2,l5,tr4,1,77).
route(l2,l6,tr1,3,186).
route(l2,l6,tr2,7,490).
route(l2,l6,tr3,1,47).
route(l2,l6,tr4,5,385).
route(l2,l7,tr1,1,62).
route(l2,l7,tr2,8,560).
route(l2,l7,tr3,2,94).
route(l2,l7,tr4,6,462).
route(l2,l8,tr1,3,186).
route(l2,l8,tr2,10,700).
route(l2,l8,tr3,1,47).
route(l2,l8,tr4,10,770).
route(l2,l9,tr1,3,186).
route(l2,l9,tr2,10,700).
route(l2,l9,tr3,9,423).
route(l2,l9,tr4,9,693).
route(l3,l10,tr1,5,310).
route(l3,l10,tr2,2,140).
route(l3,l10,tr3,1,47).
route(l3,l10,tr4,10,770).
route(l3,l11,tr1,2,124).
route(l3,l11,tr2,5,350).
route(l3,l11,tr3,4,188).
route(l3,l11,tr4,9,693).
route(l3,l12,tr1,7,434).
route(l3,l12,tr2,9,630).
route(l3,l12,tr3,2,94).
route(l3,l12,tr4,5,385).
route(l3,l15,tr1,7,434).
route(l3,l15,tr2,10,700).
route(l3,l15,tr3,6,282).
route(l3,l15,tr4,9,693).
route(l3,l17,tr1,9,558).
route(l3,l17,tr2,6,420).
route(l3,l17,tr3,9,423).
route(l3,l17,tr4,9,693).
route(l3,l18,tr1,10,620).
route(l3,l18,tr2,4,280).
route(l3,l18,tr3,5,235).
route(l3,l18,tr4,4,308).
route(l3,l19,tr1,7,434).
route(l3,l19,tr2,10,700).
route(l3,l19,tr3,5,235).
route(l3,l19,tr4,6,462).
route(l3,l5,tr1,7,434).
route(l3,l5,tr2,5,350).
route(l3,l5,tr3,10,470).
route(l3,l5,tr4,6,462).
route(l3,l6,tr1,3,186).
route(l3,l6,tr2,6,420).
route(l3,l6,tr3,5,235).
route(l3,l6,tr4,8,616).
route(l3,l7,tr1,3,186).
route(l3,l7,tr2,1,70).
route(l3,l7,tr3,4,188).
route(l3,l7,tr4,5,385).
route(l3,l8,tr1,7,434).
route(l3,l8,tr2,10,700).
route(l3,l8,tr3,9,423).
route(l3,l8,tr4,2,154).
route(l3,l9,tr2,5,350).
route(l4,l10,tr1,8,496).
route(l4,l10,tr2,1,70).
route(l4,l10,tr3,7,329).
route(l4,l10,tr4,9,693).
route(l4,l11,tr4,6,462).
route(l4,l12,tr1,10,620).
route(l4,l12,tr2,2,140).
route(l4,l12,tr3,5,235).
route(l4,l12,tr4,9,693).
route(l4,l13,tr1,9,558).
route(l4,l13,tr2,4,280).
route(l4,l13,tr3,8,376).
route(l4,l13,tr4,2,154).
route(l4,l14,tr1,2,124).
route(l4,l14,tr2,4,280).
route(l4,l14,tr3,10,470).
route(l4,l14,tr4,2,154).
route(l4,l17,tr1,1,62).
route(l4,l17,tr2,9,630).
route(l4,l17,tr3,7,329).
route(l4,l17,tr4,7,539).
route(l4,l19,tr1,9,558).
route(l4,l19,tr2,9,630).
route(l4,l19,tr3,3,141).
route(l4,l19,tr4,2,154).
route(l4,l20,tr1,3,186).
route(l4,l20,tr2,1,70).
route(l4,l20,tr3,1,47).
route(l4,l20,tr4,3,231).
route(l4,l5,tr1,8,496).
route(l4,l5,tr2,9,630).
route(l4,l5,tr3,10,470).
route(l4,l5,tr4,8,616).
route(l4,l6,tr1,5,310).
route(l4,l6,tr2,1,70).
route(l4,l6,tr3,7,329).
route(l4,l6,tr4,7,539).
route(l4,l7,tr1,2,124).
route(l4,l7,tr2,7,490).
route(l4,l7,tr3,1,47).
route(l4,l7,tr4,1,77).
route(l4,l8,tr1,6,372).
route(l4,l8,tr2,6,420).
route(l4,l8,tr3,8,376).
route(l4,l8,tr4,10,770).
route(l4,l9,tr1,4,248).
route(l4,l9,tr2,4,280).
route(l4,l9,tr3,6,282).
route(l4,l9,tr4,8,616).
route(l5,l10,tr1,10,620).
route(l5,l10,tr2,5,350).
route(l5,l10,tr3,3,141).
route(l5,l10,tr4,4,308).
route(l5,l11,tr1,7,434).
route(l5,l11,tr2,8,560).
route(l5,l11,tr3,9,423).
route(l5,l11,tr4,1,77).
route(l5,l13,tr1,9,558).
route(l5,l13,tr2,4,280).
route(l5,l13,tr3,4,188).
route(l5,l13,tr4,7,539).
route(l5,l14,tr1,6,372).
route(l5,l14,tr2,5,350).
route(l5,l14,tr3,6,282).
route(l5,l14,tr4,4,308).
route(l5,l15,tr1,7,434).
route(l5,l15,tr2,5,350).
route(l5,l15,tr3,8,376).
route(l5,l15,tr4,3,231).
route(l5,l16,tr1,9,558).
route(l5,l16,tr2,7,490).
route(l5,l16,tr3,2,94).
route(l5,l16,tr4,8,616).
route(l5,l17,tr1,3,186).
route(l5,l17,tr2,10,700).
route(l5,l17,tr3,5,235).
route(l5,l17,tr4,2,154).
route(l5,l18,tr1,8,496).
route(l5,l18,tr2,10,700).
route(l5,l18,tr3,3,141).
route(l5,l18,tr4,8,616).
route(l5,l19,tr1,10,620).
route(l5,l19,tr2,1,70).
route(l5,l19,tr3,2,94).
route(l5,l19,tr4,6,462).
route(l5,l20,tr1,1,62).
route(l5,l20,tr2,2,140).
route(l5,l20,tr3,6,282).
route(l5,l20,tr4,8,616).
route(l5,l8,tr1,2,124).
route(l5,l8,tr2,7,490).
route(l5,l8,tr3,9,423).
route(l5,l8,tr4,5,385).
route(l6,l10,tr1,3,186).
route(l6,l10,tr2,9,630).
route(l6,l10,tr3,5,235).
route(l6,l10,tr4,4,308).
route(l6,l11,tr1,9,558).
route(l6,l11,tr2,9,630).
route(l6,l11,tr3,4,188).
route(l6,l11,tr4,1,77).
route(l6,l13,tr1,1,62).
route(l6,l13,tr2,5,350).
route(l6,l13,tr3,6,282).
route(l6,l13,tr4,10,770).
route(l6,l14,tr1,9,558).
route(l6,l14,tr2,5,350).
route(l6,l14,tr3,10,470).
route(l6,l14,tr4,1,77).
route(l6,l15,tr1,9,558).
route(l6,l15,tr2,7,490).
route(l6,l15,tr3,10,470).
route(l6,l15,tr4,5,385).
route(l6,l16,tr1,1,62).
route(l6,l16,tr2,2,140).
route(l6,l16,tr3,1,47).
route(l6,l16,tr4,8,616).
route(l6,l17,tr1,9,558).
route(l6,l17,tr2,1,70).
route(l6,l17,tr3,1,47).
route(l6,l17,tr4,1,77).
route(l6,l18,tr1,3,186).
route(l6,l18,tr2,1,70).
route(l6,l18,tr3,2,94).
route(l6,l18,tr4,4,308).
route(l6,l19,tr1,2,124).
route(l6,l19,tr2,10,700).
route(l6,l19,tr3,3,141).
route(l6,l19,tr4,6,462).
route(l6,l20,tr1,6,372).
route(l6,l20,tr2,4,280).
route(l6,l20,tr3,7,329).
route(l6,l20,tr4,10,770).
route(l6,l5,tr1,8,496).
route(l6,l5,tr2,5,350).
route(l6,l5,tr3,9,423).
route(l6,l5,tr4,7,539).
route(l6,l7,tr1,7,434).
route(l6,l7,tr2,1,70).
route(l6,l7,tr3,7,329).
route(l6,l7,tr4,10,770).
route(l6,l8,tr1,2,124).
route(l6,l8,tr2,4,280).
route(l6,l8,tr3,1,47).
route(l6,l8,tr4,8,616).
route(l7,l10,tr2,10,700).
route(l7,l13,tr1,8,496).
route(l7,l13,tr2,4,280).
route(l7,l13,tr3,1,47).
route(l7,l13,tr4,10,770).
route(l7,l14,tr1,4,248).
route(l7,l14,tr2,5,350).
route(l7,l14,tr3,8,376).
route(l7,l14,tr4,5,385).
route(l7,l15,tr1,3,186).
route(l7,l15,tr2,1,70).
route(l7,l15,tr3,1,47).
route(l7,l15,tr4,1,77).
route(l7,l16,tr1,6,372).
route(l7,l16,tr2,6,420).
route(l7,l16,tr3,10,470).
route(l7,l16,tr4,7,539).
route(l7,l17,tr1,7,434).
route(l7,l17,tr2,8,560).
route(l7,l17,tr3,3,141).
route(l7,l17,tr4,8,616).
route(l7,l18,tr1,7,434).
route(l7,l18,tr2,2,140).
route(l7,l18,tr3,3,141).
route(l7,l18,tr4,10,770).
route(l7,l19,tr1,9,558).
route(l7,l19,tr2,5,350).
route(l7,l19,tr3,6,282).
route(l7,l19,tr4,3,231).
route(l7,l20,tr1,7,434).
route(l7,l20,tr2,6,420).
route(l7,l20,tr3,1,47).
route(l7,l20,tr4,5,385).
route(l7,l9,tr1,8,496).
route(l7,l9,tr2,7,490).
route(l7,l9,tr3,4,188).
route(l7,l9,tr4,8,616).
route(l8,l13,tr1,7,434).
route(l8,l13,tr2,5,350).
route(l8,l13,tr3,8,376).
route(l8,l13,tr4,2,154).
route(l8,l14,tr1,3,186).
route(l8,l14,tr2,6,420).
route(l8,l14,tr3,8,376).
route(l8,l14,tr4,4,308).
route(l8,l15,tr3,4,188).
route(l8,l16,tr1,5,310).
route(l8,l16,tr2,9,630).
route(l8,l16,tr3,1,47).
route(l8,l16,tr4,2,154).
route(l8,l17,tr1,7,434).
route(l8,l17,tr2,1,70).
route(l8,l17,tr3,4,188).
route(l8,l17,tr4,4,308).
route(l8,l18,tr1,10,620).
route(l8,l18,tr2,8,560).
route(l8,l18,tr3,8,376).
route(l8,l18,tr4,8,616).
route(l8,l19,tr1,10,620).
route(l8,l19,tr2,9,630).
route(l8,l19,tr3,9,423).
route(l8,l19,tr4,3,231).
route(l8,l20,tr2,1,70).
route(l8,l6,tr1,2,124).
route(l8,l6,tr2,1,70).
route(l8,l6,tr3,8,376).
route(l8,l6,tr4,6,462).
route(l9,l11,tr1,9,558).
route(l9,l11,tr2,10,700).
route(l9,l11,tr3,4,188).
route(l9,l11,tr4,4,308).
route(l9,l13,tr1,8,496).
route(l9,l13,tr2,10,700).
route(l9,l13,tr3,5,235).
route(l9,l13,tr4,6,462).
route(l9,l14,tr1,3,186).
route(l9,l14,tr2,7,490).
route(l9,l14,tr3,3,141).
route(l9,l14,tr4,10,770).
route(l9,l15,tr1,6,372).
route(l9,l15,tr2,9,630).
route(l9,l15,tr3,7,329).
route(l9,l15,tr4,6,462).
route(l9,l16,tr4,6,462).
route(l9,l17,tr1,10,620).
route(l9,l17,tr2,9,630).
route(l9,l17,tr3,4,188).
route(l9,l17,tr4,4,308).
route(l9,l18,tr1,10,620).
route(l9,l18,tr2,5,350).
route(l9,l18,tr3,8,376).
route(l9,l18,tr4,9,693).
route(l9,l19,tr1,5,310).
route(l9,l19,tr2,2,140).
route(l9,l19,tr3,4,188).
route(l9,l19,tr4,1,77).
route(l9,l20,tr1,5,310).
route(l9,l20,tr2,5,350).
route(l9,l20,tr3,2,94).
route(l9,l20,tr4,3,231).
route(l9,l5,tr1,3,186).
route(l9,l5,tr2,10,700).
route(l9,l5,tr3,10,470).
route(l9,l5,tr4,4,308).
route(l9,l8,tr1,9,558).
route(l9,l8,tr2,8,560).
route(l9,l8,tr3,9,423).
route(l9,l8,tr4,5,385).
