% Sparse benchmark instance
% Generated with seed=13002 locations=15 parts=6 transports=3 routes=220

% ---- locations ----
location(l1).
location(l2).
location(l3).
location(l4).
location(l5).
location(l6).
location(l7).
location(l8).
location(l9).
location(l10).
location(l11).
location(l12).
location(l13).
location(l14).
location(l15).

% ---- transport resources ----
transportCapacity(tr1,17).
transportCO2(tr1,36).
transportCost(tr1,60).
transportSpeed(tr1,7).
transportCapacity(tr2,12).
transportCO2(tr2,31).
transportCost(tr2,34).
transportSpeed(tr2,4).
transportCapacity(tr3,19).
transportCO2(tr3,39).
transportCost(tr3,56).
transportSpeed(tr3,2).

% ---- parts ----
part(p1).
partSize(p1,2).
partVal(p1,438).
partTR(p1,tr1).
partTR(p1,tr2).
partTR(p1,tr3).
part(p2).
partSize(p2,3).
partVal(p2,517).
partTR(p2,tr1).
partTR(p2,tr2).
partTR(p2,tr3).
part(p3).
partSize(p3,3).
partVal(p3,427).
partTR(p3,tr1).
partTR(p3,tr2).
partTR(p3,tr3).
part(p4).
partSize(p4,3).
partVal(p4,628).
partTR(p4,tr1).
partTR(p4,tr2).
partTR(p4,tr3).
part(p5).
partSize(p5,3).
partVal(p5,958).
partTR(p5,tr1).
partTR(p5,tr2).
partTR(p5,tr3).
part(p6).
partSize(p6,4).
partVal(p6,393).
partTR(p6,tr1).
partTR(p6,tr2).
partTR(p6,tr3).

% ---- demand and supply ----
demandOffer(p1,l1,10).
demandOffer(p2,l1,12).
demandOffer(p3,l1,8).
demandOffer(p4,l1,11).
demandOffer(p5,l1,19).
demandOffer(p6,l1,18).
demandOffer(p1,l10,-9).
demandOffer(p2,l10,-7).
demandOffer(p3,l10,-2).
demandOffer(p4,l10,-5).
demandOffer(p5,l10,-2).
demandOffer(p6,l10,-5).
demandOffer(p1,l11,-5).
demandOffer(p2,l11,-7).
demandOffer(p3,l11,-8).
demandOffer(p4,l11,-6).
demandOffer(p5,l11,-1).
demandOffer(p6,l11,-4).
demandOffer(p1,l12,-1).
demandOffer(p2,l12,-4).
demandOffer(p3,l12,-4).
demandOffer(p4,l12,-4).
demandOffer(p5,l12,-10).
demandOffer(p6,l12,-2).
demandOffer(p1,l13,-4).
demandOffer(p2,l13,-6).
demandOffer(p3,l13,-6).
demandOffer(p4,l13,-2).
demandOffer(p5,l13,-7).
demandOffer(p6,l13,-12).
demandOffer(p1,l14,-8).
demandOffer(p2,l14,-5).
demandOffer(p3,l14,-1).
demandOffer(p4,l14,-7).
demandOffer(p5,l14,-6).
demandOffer(p6,l14,-6).
demandOffer(p1,l15,-3).
demandOffer(p2,l15,-1).
demandOffer(p3,l15,-9).
demandOffer(p4,l15,-6).
demandOffer(p5,l15,-4).
demandOffer(p6,l15,-1).
demandOffer(p1,l2,11).
demandOffer(p2,l2,3).
demandOffer(p3,l2,13).
demandOffer(p4,l2,2).
demandOffer(p5,l2,10).
demandOffer(p6,l2,1).
demandOffer(p1,l3,9).
demandOffer(p2,l3,15).
demandOffer(p3,l3,9).
demandOffer(p4,l3,17).
demandOffer(p5,l3,1).
demandOffer(p6,l3,11).

% ---- routes ----
route(l1,l10,tr1,2,120).
route(l1,l10,tr2,7,238).
route(l1,l10,tr3,5,280).
route(l1,l12,tr1,8,480).
route(l1,l12,tr2,2,68).
route(l1,l12,tr3,6,336).
route(l1,l13,tr1,5,300).
route(l1,l13,tr2,6,204).
route(l1,l13,tr3,2,112).
route(l1,l14,tr1,4,240).
route(l1,l14,tr2,6,204).
route(l1,l14,tr3,6,336).
route(l1,l15,tr1,9,540).
route(l1,l15,tr2,9,306).
route(l1,l15,tr3,2,112).
route(l1,l4,tr2,4,136).
route(l1,l5,tr1,6,360).
route(l1,l5,tr2,8,272).
route(l1,l5,tr3,6,336).
route(l1,l6,tr1,10,600).
route(l1,l6,tr2,6,204).
route(l1,l6,tr3,8,448).
route(l1,l7,tr1,1,60).
route(l1,l7,tr2,4,136).
route(l1,l7,tr3,9,504).
route(l1,l8,tr1,10,600).
route(l1,l8,tr2,9,306).
route(l1,l8,tr3,6,336).
route(l1,l9,tr1,8,480).
route(l2,l10,tr1,5,300).
route(l2,l10,tr2,3,102).
route(l2,l10,tr3,1,56).
route(l2,l13,tr1,8,480).
route(l2,l13,tr2,5,170).
route(l2,l13,tr3,3,168).
route(l2,l4,tr1,9,540).
route(l2,l4,tr2,4,136).
route(l2,l4,tr3,1,56).
route(l2,l5,tr1,5,300).
route(l2,l5,tr2,3,102).
route(l2,l5,tr3,4,224).
route(l2,l6,tr1,9,540).
route(l2,l6,tr2,4,136).
route(l2,l6,tr3,7,392).
route(l2,l7,tr1,3,180).
route(l2,l7,tr2,10,340).
route(l2,l7,tr3,1,56).
route(l2,l8,tr1,5,300).
route(l2,l8,tr2,7,238).
route(l2,l8,tr3,8,448).
route(l2,l9,tr1,2,120).
route(l2,l9,tr2,10,340).
route(l2,l9,tr3,7,392).
route(l3,l11,tr1,5,300).
route(l3,l11,tr2,9,306).
route(l3,l11,tr3,8,448).
route(l3,l13,tr1,8,480).
route(l3,l13,tr2,10,340).
route(l3,l13,tr3,1,56).
route(l3,l14,tr1,5,300).
route(l3,l14,tr2,10,340).
route(l3,l14,tr3,6,336).
route(l3,l4,tr1,6,360).
route(l3,l4,tr2,2,68).
route(l3,l4,tr3,3,168).
route(l3,l5,tr1,7,420).
route(l3,l5,tr2,8,272).
route(l3,l5,tr3,1,56).
route(l3,l6,tr1,9,540).
route(l3,l6,tr2,4,136).
route(l3,l6,tr3,10,560).
route(l3,l7,tr1,6,360).
route(l3,l7,tr2,8,272).
route(l3,l7,tr3,9,504).
route(l3,l8,tr1,2,120).
route(l3,l8,tr2,4,136).
route(l3,l8,tr3,9,504).
route(l3,l9,tr1,10,600).
route(l3,l9,tr2,4,136).
route(l3,l9,tr3,5,280).
route(l4,l10,tr1,1,60).
route(l4,l10,tr2,8,272).
route(l4,l10,tr3,9,504).
route(l4,l11,tr1,9,540).
route(l4,l11,tr2,4,136).
route(l4,l11,tr3,8,448).
route(l4,l12,tr2,9,306).
route(l4,l13,tr1,10,600).
route(l4,l13,tr2,4,136).
route(l4,l13,tr3,3,168).
route(l4,l14,tr1,9,540).
route(l4,l15,tr1,3,180).
route(l4,l15,tr2,4,136).
route(l4,l15,tr3,9,504).
route(l4,l5,tr1,10,600).
route(l4,l5,tr2,5,170).
route(l4,l5,tr3,9,504).
route(l4,l6,tr1,8,480).
route(l4,l6,tr2,7,238).
route(l4,l6,tr3,3,168).
route(l4,l7,tr1,1,60).
route(l4,l7,tr2,10,340).
route(l4,l7,tr3,4,224).
route(l5,l10,tr1,5,300).
route(l5,l10,tr2,7,238).
route(l5,l10,tr3,3,168).
route(l5,l11,tr3,4,224).
route(l5,l12,tr1,2,120).
route(l5,l12,tr2,10,340).
route(l5,l12,tr3,6,336).
route(l5,l13,tr1,1,60).
route(l5,l13,tr2,2,68).
route(l5,l13,tr3,4,224).
route(l5,l14,tr1,6,360).
route(l5,l14,tr2,5,170).
route(l5,l14,tr3,4,224).
route(l5,l15,tr1,2,120).
route(l5,l15,tr2,4,136).
route(l5,l15,tr3,7,392).
route(l5,l4,tr1,5,300).
route(l5,l4,tr2,8,272).
route(l5,l4,tr3,6,336).
route(l5,l6,tr1,6,360).
route(l5,l7,tr1,7,420).
route(l5,l7,tr2,9,306).
route(l5,l7,tr3,4,224).
route(l6,l10,tr1,9,540).
route(l6,l10,tr2,3,102).
route(l6,l10,tr3,5,280).
route(l6,l11,tr1,10,600).
route(l6,l11,tr2,10,340).
route(l6,l11,tr3,7,392).
route(l6,l12,tr1,3,180).
route(l6,l12,tr2,1,34).
route(l6,l12,tr3,5,280).
route(l6,l13,tr1,5,300).
route(l6,l13,tr2,5,170).
route(l6,l13,tr3,3,168).
route(l6,l14,tr1,7,420).
route(l6,l14,tr2,7,238).
route(l6,l14,tr3,9,504).
route(l6,l15,tr1,3,180).
route(l6,l15,tr2,4,136).
route(l6,l15,tr3,4,224).
route(l6,l4,tr1,6,360).
route(l6,l8,tr1,2,120).
route(l6,l8,tr2,6,204).
route(l6,l8,tr3,10,560).
route(l7,l10,tr1,4,240).
route(l7,l10,tr2,9,306).
route(l7,l10,tr3,9,504).
route(l7,l11,tr1,1,60).
route(l7,l11,tr2,10,340).
route(l7,l11,tr3,8,448).
route(l7,l12,tr1,6,360).
route(l7,l12,tr2,5,170).
route(l7,l12,tr3,4,224).
route(l7,l13,tr1,10,600).
route(l7,l13,tr2,1,34).
route(l7,l13,tr3,1,56).
route(l7,l14,tr1,2,120).
route(l7,l14,tr2,6,204).
route(l7,l14,tr3,8,448).
route(l7,l15,tr1,6,360).
route(l7,l15,tr2,6,204).
route(l7,l15,tr3,5,280).
route(l7,l5,tr1,2,120).
route(l7,l5,tr2,8,272).
route(l7,l5,tr3,2,112).
route(l7,l6,tr1,6,360).
route(l7,l6,tr2,1,34).
route(l7,l6,tr3,5,280).
route(l7,l9,tr1,2,120).
route(l7,l9,tr2,10,340).
route(l7,l9,tr3,6,336).
route(l8,l10,tr1,4,240).
route(l8,l10,tr2,6,204).
route(l8,l10,tr3,4,224).
route(l8,l11,tr1,7,420).
route(l8,l11,tr2,9,306).
route(l8,l11,tr3,4,224).
route(l8,l12,tr1,9,540).
route(l8,l12,tr2,7,238).
route(l8,l12,tr3,9,504).
route(l8,l13,tr1,6,360).
route(l8,l13,tr2,1,34).
route(l8,l13,tr3,6,336).
route(l8,l14,tr1,9,540).
route(l8,l14,tr2,8,272).
route(l8,l14,tr3,8,448).
route(l8,l15,tr1,10,600).
route(l8,l15,tr2,4,136).
route(l8,l15,tr3,1,56).
route(l8,l5,tr1,4,240).
route(l8,l5,tr2,5,170).
route(l8,l5,tr3,3,168).
route(l8,l6,tr1,2,120).
route(l8,l6,tr2,3,102).
route(l8,l6,tr3,8,448).
route(l9,l10,tr1,10,600).
route(l9,l10,tr2,1,34).
route(l9,l10,tr3,7,392).
route(l9,l11,tr1,5,300).
route(l9,l11,tr2,6,204).
route(l9,l11,tr3,1,56).
route(l9,l12,tr1,6,360).
route(l9,l12,tr2,8,272).
route(l9,l12,tr3,3,168).
route(l9,l13,tr1,2,120).
route(l9,l13,tr2,8,272).
route(l9,l13,tr3,1,56).
route(l9,l14,tr1,7,420).
route(l9,l14,tr2,1,34).
route(l9,l14,tr3,7,392).
route(l9,l15,tr1,6,360).
route(l9,l15,tr2,3,102).
route(l9,l15,tr3,7,392).
route(l9,l7,tr1,6,360).
route(l9,l7,tr2,7,238).
route(l9,l7,tr3,4,224).
