% Sparse benchmark instance
% Generated with seed=13001 locations=15 parts=6 transports=3 routes=201

% ---- locations ----
location(l1).
location(l2).
location(l3).
location(l4).
location(l5).
location(l6).
location(l7).
location(l8).
location(l9).
location(l10).
location(l11).
location(l12).
location(l13).
location(l14).
location(l15).

% ---- transport resources ----
transportCapacity(tr1,18).
transportCO2(tr1,20).
transportCost(tr1,45).
transportSpeed(tr1,7).
transportCapacity(tr2,17).
transportCO2(tr2,65).
transportCost(tr2,39).
transportSpeed(tr2,7).
transportCapacity(tr3,12).
transportCO2(tr3,60).
transportCost(tr3,80).
transportSpeed(tr3,6).

% ---- parts ----
part(p1).
partSize(p1,3).
partVal(p1,492).
partTR(p1,tr1).
partTR(p1,tr2).
partTR(p1,tr3).
part(p2).
partSize(p2,3).
partVal(p2,732).
partTR(p2,tr1).
partTR(p2,tr2).
partTR(p2,tr3).
part(p3).
partSize(p3,4).
partVal(p3,546).
partTR(p3,tr1).
partTR(p3,tr2).
partTR(p3,tr3).
part(p4).
partSize(p4,3).
partVal(p4,878).
partTR(p4,tr1).
partTR(p4,tr2).
partTR(p4,tr3).
part(p5).
partSize(p5,3).
partVal(p5,473).
partTR(p5,tr1).
partTR(p5,tr2).
partTR(p5,tr3).
part(p6).
partSize(p6,2).
partVal(p6,331).
partTR(p6,tr1).
partTR(p6,tr2).
partTR(p6,tr3).

% ---- demand and supply ----
demandOffer(p1,l1,1).
demandOffer(p2,l1,13).
demandOffer(p3,l1,12).
demandOffer(p4,l1,11).
demandOffer(p5,l1,17).
demandOffer(p6,l1,14).
demandOffer(p1,l10,-5).
demandOffer(p2,l10,-3).
demandOffer(p3,l10,-5).
demandOffer(p4,l10,-6).
demandOffer(p5,l10,-4).
demandOffer(p6,l10,-2).
demandOffer(p1,l11,-3).
demandOffer(p2,l11,-9).
demandOffer(p3,l11,-3).
demandOffer(p4,l11,-5).
demandOffer(p5,l11,-5).
demandOffer(p6,l11,-3).
demandOffer(p1,l12,-1).
demandOffer(p2,l12,-10).
demandOffer(p3,l12,-9).
demandOffer(p4,l12,-3).
demandOffer(p5,l12,-5).
demandOffer(p6,l12,-5).
demandOffer(p1,l13,-9).
demandOffer(p2,l13,-3).
demandOffer(p3,l13,-5).
demandOffer(p4,l13,-8).
demandOffer(p5,l13,-2).
demandOffer(p6,l13,-8).
demandOffer(p1,l14,-9).
demandOffer(p2,l14,-2).
demandOffer(p3,l14,-1).
demandOffer(p4,l14,-6).
demandOffer(p5,l14,-7).
demandOffer(p6,l14,-3).
demandOffer(p1,l15,-3).
demandOffer(p2,l15,-3).
demandOffer(p3,l15,-7).
demandOffer(p4,l15,-2).
demandOffer(p5,l15,-7).
demandOffer(p6,l15,-9).
demandOffer(p1,l2,19).
demandOffer(p2,l2,8).
demandOffer(p3,l2,4).
demandOffer(p4,l2,14).
demandOffer(p5,l2,10).
demandOffer(p6,l2,7).
demandOffer(p1,l3,10).
demandOffer(p2,l3,9).
demandOffer(p3,l3,14).
demandOffer(p4,l3,5).
demandOffer(p5,l3,3).
demandOffer(p6,l3,9).

% ---- routes ----
route(l1,l12,tr1,3,135).
route(l1,l12,tr2,8,312).
route(l1,l12,tr3,6,480).
route(l1,l4,tr1,2,90).
route(l1,l4,tr2,1,39).
route(l1,l4,tr3,2,160).
route(l1,l5,tr1,10,450).
route(l1,l5,tr2,7,273).
route(l1,l5,tr3,8,640).
route(l1,l6,tr1,10,450).
route(l1,l6,tr2,7,273).
route(l1,l6,tr3,6,480).
route(l1,l7,tr1,3,135).
route(l1,l7,tr2,6,234).
route(l1,l7,tr3,1,80).
route(l1,l8,tr1,1,45).
route(l1,l8,tr2,8,312).
route(l1,l8,tr3,5,400).
route(l1,l9,tr1,10,450).
route(l1,l9,tr2,5,195).
route(l1,l9,tr3,5,400).
route(l2,l10,tr3,6,480).
route(l2,l12,tr1,6,270).
route(l2,l12,tr2,7,273).
route(l2,l12,tr3,2,160).
route(l2,l13,tr1,9,405).
route(l2,l13,tr2,1,39).
route(l2,l13,tr3,7,560).
route(l2,l14,tr1,9,405).
route(l2,l14,tr2,3,117).
route(l2,l14,tr3,7,560).
route(l2,l15,tr1,7,315).
route(l2,l15,tr2,7,273).
route(l2,l15,tr3,4,320).
route(l2,l4,tr1,7,315).
route(l2,l4,tr2,3,117).
route(l2,l4,tr3,3,240).
route(l2,l5,tr1,10,450).
route(l2,l5,tr2,6,234).
route(l2,l5,tr3,5,400).
route(l2,l6,tr1,5,225).
route(l2,l6,tr2,10,390).
route(l2,l6,tr3,4,320).
route(l2,l7,tr1,7,315).
route(l2,l7,tr2,3,117).
route(l2,l7,tr3,6,480).
route(l2,l8,tr1,3,135).
route(l2,l8,tr2,3,117).
route(l2,l8,tr3,8,640).
route(l2,l9,tr1,8,360).
route(l2,l9,tr2,5,195).
route(l2,l9,tr3,3,240).
route(l3,l10,tr1,5,225).
route(l3,l10,tr2,1,39).
route(l3,l10,tr3,7,560).
route(l3,l4,tr1,7,315).
route(l3,l4,tr2,5,195).
route(l3,l4,tr3,10,800).
route(l3,l5,tr1,6,270).
route(l3,l5,tr2,7,273).
route(l3,l5,tr3,6,480).
route(l3,l6,tr1,7,315).
route(l3,l6,tr2,5,195).
route(l3,l6,tr3,4,320).
route(l3,l7,tr1,2,90).
route(l3,l7,tr2,7,273).
route(l3,l7,tr3,6,480).
route(l3,l8,tr3,2,160).
route(l3,l9,tr1,3,135).
route(l3,l9,tr2,4,156).
route(l3,l9,tr3,9,720).
route(l4,l10,tr1,9,405).
route(l4,l10,tr2,8,312).
route(l4,l10,tr3,1,80).
route(l4,l11,tr1,6,270).
route(l4,l11,tr2,2,78).
route(l4,l11,tr3,1,80).
route(l4,l12,tr1,1,45).
route(l4,l12,tr2,7,273).
route(l4,l12,tr3,2,160).
route(l4,l13,tr1,7,315).
route(l4,l13,tr2,5,195).
route(l4,l13,tr3,7,560).
route(l4,l14,tr1,8,360).
route(l4,l14,tr2,4,156).
route(l4,l14,tr3,7,560).
route(l4,l15,tr1,7,315).
route(l4,l15,tr2,2,78).
route(l4,l15,tr3,2,160).
route(l4,l6,tr1,10,450).
route(l4,l6,tr2,7,273).
route(l4,l6,tr3,3,240).
route(l4,l7,tr2,10,390).
route(l5,l10,tr1,9,405).
route(l5,l10,tr2,2,78).
route(l5,l10,tr3,8,640).
route(l5,l11,tr1,7,315).
route(l5,l11,tr2,5,195).
route(l5,l11,tr3,6,480).
route(l5,l12,tr1,8,360).
route(l5,l12,tr2,8,312).
route(l5,l12,tr3,3,240).
route(l5,l13,tr1,7,315).
route(l5,l13,tr2,9,351).
route(l5,l13,tr3,1,80).
route(l5,l14,tr1,8,360).
route(l5,l14,tr2,10,390).
route(l5,l14,tr3,2,160).
route(l5,l15,tr1,3,135).
route(l5,l8,tr1,6,270).
route(l5,l8,tr2,8,312).
route(l5,l8,tr3,6,480).
route(l5,l9,tr1,1,45).
route(l5,l9,tr2,1,39).
route(l5,l9,tr3,6,480).
route(l6,l10,tr1,3,135).
route(l6,l10,tr2,9,351).
route(l6,l10,tr3,2,160).
route(l6,l11,tr1,8,360).
route(l6,l11,tr2,9,351).
route(l6,l11,tr3,8,640).
route(l6,l12,tr1,8,360).
route(l6,l12,tr2,10,390).
route(l6,l12,tr3,6,480).
route(l6,l13,tr1,3,135).
route(l6,l13,tr2,6,234).
route(l6,l13,tr3,5,400).
route(l6,l14,tr1,3,135).
route(l6,l14,tr2,4,156).
route(l6,l14,tr3,6,480).
route(l6,l15,tr1,6,270).
route(l6,l15,tr2,3,117).
route(l6,l15,tr3,2,160).
route(l7,l10,tr1,7,315).
route(l7,l10,tr2,5,195).
route(l7,l10,tr3,9,720).
route(l7,l11,tr1,4,180).
route(l7,l12,tr1,8,360).
route(l7,l12,tr2,9,351).
route(l7,l12,tr3,7,560).
route(l7,l13,tr1,2,90).
route(l7,l14,tr1,10,450).
route(l7,l14,tr2,1,39).
route(l7,l14,tr3,8,640).
route(l7,l15,tr1,1,45).
route(l7,l15,tr2,2,78).
route(l7,l15,tr3,3,240).
route(l7,l4,tr1,10,450).
route(l7,l4,tr2,9,351).
route(l7,l4,tr3,3,240).
route(l7,l5,tr1,8,360).
route(l7,l5,tr2,7,273).
route(l7,l5,tr3,10,800).
route(l7,l6,tr1,6,270).
route(l7,l6,tr2,1,39).
route(l7,l6,tr3,1,80).
route(l7,l8,tr1,6,270).
route(l7,l8,tr2,10,390).
route(l7,l8,tr3,1,80).
route(l8,l10,tr1,4,180).
route(l8,l10,tr2,7,273).
route(l8,l10,tr3,3,240).
route(l8,l11,tr1,9,405).
route(l8,l11,tr2,7,273).
route(l8,l11,tr3,8,640).
route(l8,l12,tr1,5,225).
route(l8,l12,tr2,3,117).
route(l8,l12,tr3,3,240).
route(l8,l13,tr1,4,180).
route(l8,l13,tr2,8,312).
route(l8,l13,tr3,6,480).
route(l8,l14,tr1,10,450).
route(l8,l14,tr2,2,78).
route(l8,l14,tr3,6,480).
route(l8,l15,tr1,2,90).
route(l8,l15,tr2,2,78).
route(l8,l15,tr3,9,720).
route(l8,l5,tr2,10,390).
route(l9,l10,tr3,3,240).
route(l9,l11,tr1,1,45).
route(l9,l11,tr2,3,117).
route(l9,l11,tr3,1,80).
route(l9,l12,tr1,5,225).
route(l9,l12,tr2,3,117).
route(l9,l12,tr3,7,560).
route(l9,l13,tr1,3,135).
route(l9,l13,tr2,9,351).
route(l9,l13,tr3,10,800).
route(l9,l14,tr1,7,315).
route(l9,l14,tr2,5,195).
route(l9,l14,tr3,2,160).
route(l9,l15,tr1,5,225).
route(l9,l15,tr2,2,78).
route(l9,l15,tr3,9,720).
route(l9,l5,tr1,4,180).
route(l9,l7,tr1,9,405).
route(l9,l7,tr2,6,234).
route(l9,l7,tr3,1,80).
route(l9,l8,tr1,10,450).
route(l9,l8,tr2,10,390).
route(l9,l8,tr3,4,320).
