% Multibatching benchmark instance
% Generated with seed=2001 locations=8 parts=5 transports=2

% ---- locations ----
location(l1).
location(l2).
location(l3).
location(l4).
location(l5).
location(l6).
location(l7).
location(l8).

% ---- transport resources ----
transportCapacity(tr1,11).
transportCO2(tr1,16).
transportCost(tr1,85).
transportSpeed(tr1,1).
transportCapacity(tr2,10).
transportCO2(tr2,85).
transportCost(tr2,93).
transportSpeed(tr2,6).

% ---- parts ----
part(p1).
partSize(p1,3).
partVal(p1,574).
partTR(p1,tr1).
part(p2).
partSize(p2,4).
partVal(p2,187).
partTR(p2,tr1).
part(p3).
partSize(p3,4).
partVal(p3,776).
partTR(p3,tr1).
partTR(p3,tr2).
part(p4).
partSize(p4,4).
partVal(p4,265).
partTR(p4,tr1).
partTR(p4,tr2).
part(p5).
partSize(p5,1).
partVal(p5,572).
partTR(p5,tr1).
partTR(p5,tr2).

% ---- demand and supply ----
demandOffer(p1,l1,12).
demandOffer(p2,l1,-22).
demandOffer(p4,l1,3).
demandOffer(p5,l1,-17).
demandOffer(p1,l2,3).
demandOffer(p2,l2,21).
demandOffer(p3,l2,28).
demandOffer(p4,l2,14).
demandOffer(p5,l2,-4).
demandOffer(p1,l3,22).
demandOffer(p3,l3,10).
demandOffer(p4,l3,30).
demandOffer(p5,l3,26).
demandOffer(p3,l4,-8).
demandOffer(p4,l4,-28).
demandOffer(p1,l5,17).
demandOffer(p2,l5,-2).
demandOffer(p3,l5,18).
demandOffer(p1,l6,16).
demandOffer(p2,l6,-7).
demandOffer(p3,l6,-18).
demandOffer(p4,l6,-6).
demandOffer(p5,l6,16).
demandOffer(p1,l7,-24).
demandOffer(p2,l7,6).
demandOffer(p3,l7,-26).
demandOffer(p1,l8,-46).
demandOffer(p4,l8,-13).
demandOffer(p5,l8,-21).
demandOffer(p2,l8,4).
demandOffer(p3,l8,-4).

% ---- routes ----
route(l1,l2,tr1,6,510).
route(l1,l2,tr2,8,744).
route(l1,l3,tr2,4,372).
route(l1,l3,tr1,6,510).
route(l1,l4,tr2,10,930).
route(l1,l4,tr1,6,510).
route(l1,l5,tr1,4,340).
route(l1,l5,tr2,8,744).
route(l1,l6,tr2,3,279).
route(l1,l6,tr1,4,340).
route(l1,l7,tr2,9,837).
route(l1,l7,tr1,2,170).
route(l1,l8,tr2,4,372).
route(l1,l8,tr1,4,340).
route(l2,l1,tr1,4,340).
route(l2,l1,tr2,7,651).
route(l2,l3,tr2,8,744).
route(l2,l3,tr1,7,595).
route(l2,l4,tr2,4,372).
route(l2,l4,tr1,2,170).
route(l2,l5,tr2,7,651).
route(l2,l5,tr1,6,510).
route(l2,l6,tr1,1,85).
route(l2,l6,tr2,6,558).
route(l2,l7,tr2,7,651).
route(l2,l7,tr1,8,680).
route(l2,l8,tr2,2,186).
route(l2,l8,tr1,2,170).
route(l3,l1,tr1,2,170).
route(l3,l1,tr2,7,651).
route(l3,l2,tr2,10,930).
route(l3,l2,tr1,2,170).
route(l3,l4,tr1,3,255).
route(l3,l4,tr2,10,930).
route(l3,l5,tr1,10,850).
route(l3,l5,tr2,8,744).
route(l3,l6,tr2,6,558).
route(l3,l6,tr1,7,595).
route(l3,l7,tr2,7,651).
route(l3,l7,tr1,2,170).
route(l3,l8,tr1,9,765).
route(l3,l8,tr2,5,465).
route(l4,l1,tr2,9,837).
route(l4,l1,tr1,5,425).
route(l4,l2,tr2,5,465).
route(l4,l2,tr1,4,340).
route(l4,l3,tr1,6,510).
route(l4,l3,tr2,1,93).
route(l4,l5,tr1,9,765).
route(l4,l5,tr2,10,930).
route(l4,l6,tr1,1,85).
route(l4,l6,tr2,2,186).
route(l4,l7,tr1,5,425).
route(l4,l7,tr2,10,930).
route(l4,l8,tr2,5,465).
route(l4,l8,tr1,4,340).
route(l5,l1,tr2,1,93).
route(l5,l1,tr1,7,595).
route(l5,l2,tr2,8,744).
route(l5,l2,tr1,9,765).
route(l5,l3,tr1,3,255).
route(l5,l3,tr2,5,465).
route(l5,l4,tr1,5,425).
route(l5,l4,tr2,9,837).
route(l5,l6,tr2,6,558).
route(l5,l6,tr1,10,850).
route(l5,l7,tr2,8,744).
route(l5,l7,tr1,7,595).
route(l5,l8,tr1,9,765).
route(l5,l8,tr2,10,930).
route(l6,l1,tr2,10,930).
route(l6,l1,tr1,2,170).
route(l6,l2,tr1,10,850).
route(l6,l2,tr2,8,744).
route(l6,l3,tr2,5,465).
route(l6,l3,tr1,2,170).
route(l6,l4,tr2,10,930).
route(l6,l4,tr1,6,510).
route(l6,l5,tr2,10,930).
route(l6,l5,tr1,2,170).
route(l6,l7,tr1,9,765).
route(l6,l7,tr2,1,93).
route(l6,l8,tr1,9,765).
route(l6,l8,tr2,7,651).
route(l7,l1,tr2,2,186).
route(l7,l1,tr1,10,850).
route(l7,l2,tr1,6,510).
route(l7,l2,tr2,1,93).
route(l7,l3,tr1,3,255).
route(l7,l3,tr2,7,651).
route(l7,l4,tr1,1,85).
route(l7,l4,tr2,1,93).
route(l7,l5,tr2,7,651).
route(l7,l5,tr1,5,425).
route(l7,l6,tr2,9,837).
route(l7,l6,tr1,1,85).
route(l7,l8,tr2,10,930).
route(l7,l8,tr1,6,510).
route(l8,l1,tr2,8,744).
route(l8,l1,tr1,7,595).
route(l8,l2,tr1,5,425).
route(l8,l2,tr2,7,651).
route(l8,l3,tr2,2,186).
route(l8,l3,tr1,2,170).
route(l8,l4,tr2,9,837).
route(l8,l4,tr1,5,425).
route(l8,l5,tr2,2,186).
route(l8,l5,tr1,7,595).
route(l8,l6,tr2,5,465).
route(l8,l6,tr1,6,510).
route(l8,l7,tr2,2,186).
route(l8,l7,tr1,2,170).
