% Multibatching benchmark instance
% Generated with seed=5017 locations=8 parts=5 transports=2

% ---- locations ----
location(l1).
location(l2).
location(l3).
location(l4).
location(l5).
location(l6).
location(l7).
location(l8).

% ---- transport resources ----
transportCapacity(tr1,13).
transportCO2(tr1,55).
transportCost(tr1,97).
transportSpeed(tr1,6).
transportCapacity(tr2,12).
transportCO2(tr2,11).
transportCost(tr2,22).
transportSpeed(tr2,5).

% ---- parts ----
part(p1).
partSize(p1,2).
partVal(p1,584).
partTR(p1,tr2).
part(p2).
partSize(p2,3).
partVal(p2,744).
partTR(p2,tr1).
partTR(p2,tr2).
part(p3).
partSize(p3,2).
partVal(p3,758).
partTR(p3,tr2).
part(p4).
partSize(p4,4).
partVal(p4,454).
partTR(p4,tr1).
part(p5).
partSize(p5,3).
partVal(p5,261).
partTR(p5,tr1).

% ---- demand and supply ----
demandOffer(p1,l1,-27).
demandOffer(p4,l1,-33).
demandOffer(p5,l1,6).
demandOffer(p2,l2,8).
demandOffer(p3,l2,17).
demandOffer(p4,l2,18).
demandOffer(p3,l3,-19).
demandOffer(p4,l3,30).
demandOffer(p5,l3,36).
demandOffer(p1,l4,13).
demandOffer(p3,l4,7).
demandOffer(p2,l5,-37).
demandOffer(p5,l5,-43).
demandOffer(p1,l6,28).
demandOffer(p2,l6,24).
demandOffer(p5,l6,-12).
demandOffer(p1,l7,21).
demandOffer(p4,l7,7).
demandOffer(p1,l8,-35).
demandOffer(p2,l8,5).
demandOffer(p3,l8,-5).
demandOffer(p4,l8,-22).
demandOffer(p5,l8,13).

% ---- routes ----
route(l1,l2,tr2,10,220).
route(l1,l2,tr1,8,776).
route(l1,l3,tr1,2,194).
route(l1,l3,tr2,3,66).
route(l1,l4,tr1,5,485).
route(l1,l4,tr2,6,132).
route(l1,l5,tr1,1,97).
route(l1,l5,tr2,10,220).
route(l1,l6,tr2,6,132).
route(l1,l6,tr1,8,776).
route(l1,l7,tr2,4,88).
route(l1,l7,tr1,3,291).
route(l1,l8,tr1,6,582).
route(l1,l8,tr2,5,110).
route(l2,l1,tr1,6,582).
route(l2,l1,tr2,9,198).
route(l2,l3,tr1,2,194).
route(l2,l3,tr2,6,132).
route(l2,l4,tr1,1,97).
route(l2,l4,tr2,5,110).
route(l2,l5,tr2,4,88).
route(l2,l5,tr1,5,485).
route(l2,l6,tr2,6,132).
route(l2,l6,tr1,7,679).
route(l2,l7,tr2,3,66).
route(l2,l7,tr1,4,388).
route(l2,l8,tr2,9,198).
route(l2,l8,tr1,8,776).
route(l3,l1,tr2,10,220).
route(l3,l1,tr1,4,388).
route(l3,l2,tr1,9,873).
route(l3,l2,tr2,4,88).
route(l3,l4,tr1,4,388).
route(l3,l4,tr2,10,220).
route(l3,l5,tr2,9,198).
route(l3,l5,tr1,3,291).
route(l3,l6,tr2,5,110).
route(l3,l6,tr1,10,970).
route(l3,l7,tr1,8,776).
route(l3,l7,tr2,3,66).
route(l3,l8,tr2,2,44).
route(l3,l8,tr1,7,679).
route(l4,l1,tr1,10,970).
route(l4,l1,tr2,7,154).
route(l4,l2,tr1,5,485).
route(l4,l2,tr2,8,176).
route(l4,l3,tr1,1,97).
route(l4,l3,tr2,3,66).
route(l4,l5,tr2,2,44).
route(l4,l5,tr1,1,97).
route(l4,l6,tr2,2,44).
route(l4,l6,tr1,6,582).
route(l4,l7,tr1,7,679).
route(l4,l7,tr2,5,110).
route(l4,l8,tr1,5,485).
route(l4,l8,tr2,2,44).
route(l5,l1,tr2,5,110).
route(l5,l1,tr1,8,776).
route(l5,l2,tr2,5,110).
route(l5,l2,tr1,10,970).
route(l5,l3,tr1,9,873).
route(l5,l3,tr2,2,44).
route(l5,l4,tr2,9,198).
route(l5,l4,tr1,6,582).
route(l5,l6,tr2,8,176).
route(l5,l6,tr1,5,485).
route(l5,l7,tr2,5,110).
route(l5,l7,tr1,5,485).
route(l5,l8,tr2,7,154).
route(l5,l8,tr1,8,776).
route(l6,l1,tr2,7,154).
route(l6,l1,tr1,3,291).
route(l6,l2,tr2,1,22).
route(l6,l2,tr1,3,291).
route(l6,l3,tr2,9,198).
route(l6,l3,tr1,5,485).
route(l6,l4,tr2,3,66).
route(l6,l4,tr1,4,388).
route(l6,l5,tr2,10,220).
route(l6,l5,tr1,9,873).
route(l6,l7,tr2,1,22).
route(l6,l7,tr1,2,194).
route(l6,l8,tr1,1,97).
route(l6,l8,tr2,7,154).
route(l7,l1,tr1,4,388).
route(l7,l1,tr2,1,22).
route(l7,l2,tr1,3,291).
route(l7,l2,tr2,3,66).
route(l7,l3,tr1,5,485).
route(l7,l3,tr2,6,132).
route(l7,l4,tr1,3,291).
route(l7,l4,tr2,1,22).
route(l7,l5,tr1,10,970).
route(l7,l5,tr2,2,44).
route(l7,l6,tr2,5,110).
route(l7,l6,tr1,5,485).
route(l7,l8,tr1,1,97).
route(l7,l8,tr2,10,220).
route(l8,l1,tr1,10,970).
route(l8,l1,tr2,6,132).
route(l8,l2,tr2,9,198).
route(l8,l2,tr1,5,485).
route(l8,l3,tr1,7,679).
route(l8,l3,tr2,10,220).
route(l8,l4,tr1,2,194).
route(l8,l4,tr2,5,110).
route(l8,l5,tr1,10,970).
route(l8,l5,tr2,8,176).
route(l8,l6,tr1,5,485).
route(l8,l6,tr2,5,110).
route(l8,l7,tr1,4,388).
route(l8,l7,tr2,4,88).
