% Multibatching benchmark instance
% Generated with seed=5004 locations=10 parts=5 transports=3

% ---- locations ----
location(l1).
location(l2).
location(l3).
location(l4).
location(l5).
location(l6).
location(l7).
location(l8).
location(l9).
location(l10).

% ---- transport resources ----
transportCapacity(tr1,21).
transportCO2(tr1,52).
transportCost(tr1,52).
transportSpeed(tr1,9).
transportCapacity(tr2,12).
transportCO2(tr2,43).
transportCost(tr2,84).
transportSpeed(tr2,2).
transportCapacity(tr3,13).
transportCO2(tr3,33).
transportCost(tr3,36).
transportSpeed(tr3,7).

% ---- parts ----
part(p1).
partSize(p1,1).
partVal(p1,419).
partTR(p1,tr1).
part(p2).
partSize(p2,3).
partVal(p2,730).
partTR(p2,tr1).
partTR(p2,tr3).
part(p3).
partSize(p3,1).
partVal(p3,118).
partTR(p3,tr1).
partTR(p3,tr3).
part(p4).
partSize(p4,2).
partVal(p4,131).
partTR(p4,tr1).
partTR(p4,tr2).
part(p5).
partSize(p5,5).
partVal(p5,105).
partTR(p5,tr2).

% ---- demand and supply ----
demandOffer(p2,l1,-15).
demandOffer(p3,l1,23).
demandOffer(p4,l1,-13).
demandOffer(p5,l1,2).
demandOffer(p1,l2,-9).
demandOffer(p2,l2,17).
demandOffer(p3,l2,-3).
demandOffer(p5,l2,-2).
demandOffer(p1,l3,20).
demandOffer(p3,l3,12).
demandOffer(p4,l3,16).
demandOffer(p5,l3,25).
demandOffer(p1,l4,12).
demandOffer(p4,l4,-3).
demandOffer(p5,l4,4).
demandOffer(p3,l5,6).
demandOffer(p5,l5,-17).
demandOffer(p2,l6,2).
demandOffer(p3,l6,-4).
demandOffer(p4,l6,-24).
demandOffer(p2,l7,-18).
demandOffer(p4,l7,-8).
demandOffer(p5,l7,2).
demandOffer(p1,l8,-19).
demandOffer(p3,l8,-6).
demandOffer(p5,l8,-6).
demandOffer(p2,l9,-16).
demandOffer(p3,l9,-23).
demandOffer(p5,l9,-24).
demandOffer(p3,l10,-5).
demandOffer(p4,l10,32).
demandOffer(p5,l10,16).
demandOffer(p1,l10,-4).
demandOffer(p2,l10,30).

% ---- routes ----
route(l1,l2,tr1,9,468).
route(l1,l2,tr3,10,360).
route(l1,l3,tr3,4,144).
route(l1,l3,tr1,9,468).
route(l1,l4,tr3,4,144).
route(l1,l4,tr1,2,104).
route(l1,l5,tr3,6,216).
route(l1,l5,tr2,5,420).
route(l1,l6,tr3,3,108).
route(l1,l6,tr2,1,84).
route(l1,l7,tr3,4,144).
route(l1,l7,tr2,5,420).
route(l1,l8,tr1,9,468).
route(l1,l8,tr3,6,216).
route(l1,l9,tr1,7,364).
route(l1,l9,tr2,9,756).
route(l1,l10,tr1,1,52).
route(l1,l10,tr3,2,72).
route(l2,l1,tr1,3,156).
route(l2,l1,tr2,10,840).
route(l2,l3,tr3,2,72).
route(l2,l3,tr1,5,260).
route(l2,l4,tr1,6,312).
route(l2,l4,tr3,7,252).
route(l2,l5,tr2,2,168).
route(l2,l5,tr3,9,324).
route(l2,l6,tr3,2,72).
route(l2,l6,tr1,8,416).
route(l2,l7,tr1,4,208).
route(l2,l7,tr3,9,324).
route(l2,l8,tr1,2,104).
route(l2,l8,tr2,2,168).
route(l2,l9,tr1,2,104).
route(l2,l9,tr3,2,72).
route(l2,l10,tr1,8,416).
route(l2,l10,tr3,7,252).
route(l3,l1,tr3,4,144).
route(l3,l1,tr1,6,312).
route(l3,l2,tr1,3,156).
route(l3,l2,tr3,8,288).
route(l3,l4,tr1,10,520).
route(l3,l4,tr3,10,360).
route(l3,l5,tr1,2,104).
route(l3,l5,tr2,6,504).
route(l3,l6,tr3,6,216).
route(l3,l6,tr1,10,520).
route(l3,l7,tr3,4,144).
route(l3,l7,tr1,7,364).
route(l3,l8,tr1,2,104).
route(l3,l8,tr2,4,336).
route(l3,l9,tr1,9,468).
route(l3,l9,tr3,1,36).
route(l3,l10,tr2,2,168).
route(l3,l10,tr3,2,72).
route(l4,l1,tr3,1,36).
route(l4,l1,tr1,9,468).
route(l4,l2,tr2,4,336).
route(l4,l2,tr3,1,36).
route(l4,l3,tr1,9,468).
route(l4,l3,tr3,5,180).
route(l4,l5,tr2,5,420).
route(l4,l5,tr3,10,360).
route(l4,l6,tr2,4,336).
route(l4,l6,tr1,2,104).
route(l4,l7,tr1,3,156).
route(l4,l7,tr2,1,84).
route(l4,l8,tr3,9,324).
route(l4,l8,tr1,7,364).
route(l4,l9,tr3,5,180).
route(l4,l9,tr1,5,260).
route(l4,l10,tr3,4,144).
route(l4,l10,tr1,4,208).
route(l5,l1,tr1,1,52).
route(l5,l1,tr3,1,36).
route(l5,l2,tr3,10,360).
route(l5,l2,tr2,4,336).
route(l5,l3,tr2,10,840).
route(l5,l3,tr3,9,324).
route(l5,l4,tr3,2,72).
route(l5,l4,tr2,6,504).
route(l5,l6,tr2,5,420).
route(l5,l6,tr1,9,468).
route(l5,l7,tr1,4,208).
route(l5,l7,tr2,1,84).
route(l5,l8,tr2,4,336).
route(l5,l8,tr3,6,216).
route(l5,l9,tr3,5,180).
route(l5,l9,tr2,9,756).
route(l5,l10,tr1,6,312).
route(l5,l10,tr3,3,108).
route(l6,l1,tr2,7,588).
route(l6,l1,tr3,3,108).
route(l6,l2,tr2,7,588).
route(l6,l2,tr3,3,108).
route(l6,l3,tr1,3,156).
route(l6,l3,tr3,2,72).
route(l6,l4,tr3,6,216).
route(l6,l4,tr2,5,420).
route(l6,l5,tr2,5,420).
route(l6,l5,tr3,9,324).
route(l6,l7,tr3,6,216).
route(l6,l7,tr2,7,588).
route(l6,l8,tr3,6,216).
route(l6,l8,tr2,9,756).
route(l6,l9,tr2,2,168).
route(l6,l9,tr1,1,52).
route(l6,l10,tr1,10,520).
route(l6,l10,tr2,3,252).
route(l7,l1,tr1,5,260).
route(l7,l1,tr3,3,108).
route(l7,l2,tr3,5,180).
route(l7,l2,tr1,10,520).
route(l7,l3,tr2,7,588).
route(l7,l3,tr3,3,108).
route(l7,l4,tr3,10,360).
route(l7,l4,tr2,5,420).
route(l7,l5,tr3,8,288).
route(l7,l5,tr2,5,420).
route(l7,l6,tr1,1,52).
route(l7,l6,tr3,4,144).
route(l7,l8,tr3,7,252).
route(l7,l8,tr2,4,336).
route(l7,l9,tr3,6,216).
route(l7,l9,tr2,9,756).
route(l7,l10,tr1,4,208).
route(l7,l10,tr3,8,288).
route(l8,l1,tr1,3,156).
route(l8,l1,tr2,10,840).
route(l8,l2,tr1,7,364).
route(l8,l2,tr3,8,288).
route(l8,l3,tr2,3,252).
route(l8,l3,tr3,7,252).
route(l8,l4,tr3,2,72).
route(l8,l4,tr2,2,168).
route(l8,l5,tr1,1,52).
route(l8,l5,tr3,9,324).
route(l8,l6,tr1,7,364).
route(l8,l6,tr2,5,420).
route(l8,l7,tr1,8,416).
route(l8,l7,tr3,9,324).
route(l8,l9,tr1,5,260).
route(l8,l9,tr2,9,756).
route(l8,l10,tr1,1,52).
route(l8,l10,tr3,8,288).
route(l9,l1,tr2,8,672).
route(l9,l1,tr3,9,324).
route(l9,l2,tr3,2,72).
route(l9,l2,tr1,2,104).
route(l9,l3,tr3,1,36).
route(l9,l3,tr1,2,104).
route(l9,l4,tr2,8,672).
route(l9,l4,tr3,7,252).
route(l9,l5,tr3,6,216).
route(l9,l5,tr1,8,416).
route(l9,l6,tr2,9,756).
route(l9,l6,tr3,4,144).
route(l9,l7,tr3,8,288).
route(l9,l7,tr2,2,168).
route(l9,l8,tr1,3,156).
route(l9,l8,tr2,7,588).
route(l9,l10,tr2,7,588).
route(l9,l10,tr1,3,156).
route(l10,l1,tr3,1,36).
route(l10,l1,tr1,1,52).
route(l10,l2,tr1,3,156).
route(l10,l2,tr2,6,504).
route(l10,l3,tr2,5,420).
route(l10,l3,tr1,5,260).
route(l10,l4,tr3,5,180).
route(l10,l4,tr1,5,260).
route(l10,l5,tr1,6,312).
route(l10,l5,tr3,4,144).
route(l10,l6,tr2,8,672).
route(l10,l6,tr1,9,468).
route(l10,l7,tr3,5,180).
route(l10,l7,tr2,6,504).
route(l10,l8,tr1,7,364).
route(l10,l8,tr2,6,504).
route(l10,l9,tr1,7,364).
route(l10,l9,tr2,10,840).
