% Multibatching benchmark instance
% Generated with seed=1002 locations=8 parts=5 transports=2

% ---- locations ----
location(l1).
location(l2).
location(l3).
location(l4).
location(l5).
location(l6).
location(l7).
location(l8).

% ---- transport resources ----
transportCapacity(tr1,12).
transportCO2(tr1,38).
transportCost(tr1,76).
transportSpeed(tr1,6).
transportCapacity(tr2,20).
transportCO2(tr2,26).
transportCost(tr2,26).
transportSpeed(tr2,3).

% ---- parts ----
part(p1).
partSize(p1,5).
partVal(p1,149).
partTR(p1,tr2).
part(p2).
partSize(p2,1).
partVal(p2,531).
partTR(p2,tr1).
part(p3).
partSize(p3,5).
partVal(p3,266).
partTR(p3,tr1).
part(p4).
partSize(p4,1).
partVal(p4,977).
partTR(p4,tr1).
partTR(p4,tr2).
part(p5).
partSize(p5,1).
partVal(p5,538).
partTR(p5,tr1).
partTR(p5,tr2).

% ---- demand and supply ----
demandOffer(p2,l1,-5).
demandOffer(p3,l1,21).
demandOffer(p4,l1,-21).
demandOffer(p5,l1,-26).
demandOffer(p2,l2,21).
demandOffer(p4,l2,-28).
demandOffer(p1,l3,-3).
demandOffer(p2,l3,-27).
demandOffer(p3,l3,23).
demandOffer(p4,l3,-17).
demandOffer(p5,l3,18).
demandOffer(p1,l4,7).
demandOffer(p3,l4,22).
demandOffer(p4,l4,-15).
demandOffer(p1,l5,28).
demandOffer(p2,l5,-5).
demandOffer(p3,l5,-20).
demandOffer(p4,l5,-18).
demandOffer(p5,l5,30).
demandOffer(p2,l6,-21).
demandOffer(p3,l6,-13).
demandOffer(p4,l6,16).
demandOffer(p5,l6,-28).
demandOffer(p1,l7,-9).
demandOffer(p5,l7,2).
demandOffer(p2,l8,37).
demandOffer(p3,l8,-33).
demandOffer(p4,l8,83).
demandOffer(p1,l8,-23).
demandOffer(p5,l8,4).

% ---- routes ----
route(l1,l2,tr1,2,152).
route(l1,l2,tr2,1,26).
route(l1,l3,tr2,10,260).
route(l1,l3,tr1,7,532).
route(l1,l4,tr1,5,380).
route(l1,l4,tr2,5,130).
route(l1,l5,tr1,8,608).
route(l1,l5,tr2,4,104).
route(l1,l6,tr2,5,130).
route(l1,l6,tr1,3,228).
route(l1,l7,tr2,7,182).
route(l1,l7,tr1,5,380).
route(l1,l8,tr2,6,156).
route(l1,l8,tr1,9,684).
route(l2,l1,tr1,7,532).
route(l2,l1,tr2,8,208).
route(l2,l3,tr2,6,156).
route(l2,l3,tr1,6,456).
route(l2,l4,tr2,8,208).
route(l2,l4,tr1,2,152).
route(l2,l5,tr1,9,684).
route(l2,l5,tr2,2,52).
route(l2,l6,tr2,3,78).
route(l2,l6,tr1,10,760).
route(l2,l7,tr2,3,78).
route(l2,l7,tr1,6,456).
route(l2,l8,tr1,5,380).
route(l2,l8,tr2,5,130).
route(l3,l1,tr2,1,26).
route(l3,l1,tr1,10,760).
route(l3,l2,tr1,2,152).
route(l3,l2,tr2,5,130).
route(l3,l4,tr2,2,52).
route(l3,l4,tr1,9,684).
route(l3,l5,tr2,2,52).
route(l3,l5,tr1,3,228).
route(l3,l6,tr2,6,156).
route(l3,l6,tr1,7,532).
route(l3,l7,tr1,7,532).
route(l3,l7,tr2,4,104).
route(l3,l8,tr1,8,608).
route(l3,l8,tr2,1,26).
route(l4,l1,tr1,10,760).
route(l4,l1,tr2,6,156).
route(l4,l2,tr2,9,234).
route(l4,l2,tr1,2,152).
route(l4,l3,tr1,6,456).
route(l4,l3,tr2,10,260).
route(l4,l5,tr2,9,234).
route(l4,l5,tr1,10,760).
route(l4,l6,tr2,7,182).
route(l4,l6,tr1,2,152).
route(l4,l7,tr1,7,532).
route(l4,l7,tr2,3,78).
route(l4,l8,tr2,8,208).
route(l4,l8,tr1,8,608).
route(l5,l1,tr2,1,26).
route(l5,l1,tr1,9,684).
route(l5,l2,tr1,10,760).
route(l5,l2,tr2,5,130).
route(l5,l3,tr2,10,260).
route(l5,l3,tr1,7,532).
route(l5,l4,tr2,1,26).
route(l5,l4,tr1,1,76).
route(l5,l6,tr2,10,260).
route(l5,l6,tr1,8,608).
route(l5,l7,tr1,6,456).
route(l5,l7,tr2,8,208).
route(l5,l8,tr2,8,208).
route(l5,l8,tr1,4,304).
route(l6,l1,tr2,7,182).
route(l6,l1,tr1,6,456).
route(l6,l2,tr1,2,152).
route(l6,l2,tr2,9,234).
route(l6,l3,tr1,1,76).
route(l6,l3,tr2,9,234).
route(l6,l4,tr1,5,380).
route(l6,l4,tr2,2,52).
route(l6,l5,tr2,5,130).
route(l6,l5,tr1,5,380).
route(l6,l7,tr2,7,182).
route(l6,l7,tr1,8,608).
route(l6,l8,tr2,4,104).
route(l6,l8,tr1,9,684).
route(l7,l1,tr2,9,234).
route(l7,l1,tr1,8,608).
route(l7,l2,tr2,4,104).
route(l7,l2,tr1,9,684).
route(l7,l3,tr1,7,532).
route(l7,l3,tr2,10,260).
route(l7,l4,tr2,5,130).
route(l7,l4,tr1,2,152).
route(l7,l5,tr1,1,76).
route(l7,l5,tr2,10,260).
route(l7,l6,tr2,2,52).
route(l7,l6,tr1,2,152).
route(l7,l8,tr1,5,380).
route(l7,l8,tr2,1,26).
route(l8,l1,tr2,3,78).
route(l8,l1,tr1,9,684).
route(l8,l2,tr2,10,260).
route(l8,l2,tr1,5,380).
route(l8,l3,tr1,10,760).
route(l8,l3,tr2,1,26).
route(l8,l4,tr2,1,26).
route(l8,l4,tr1,1,76).
route(l8,l5,tr1,8,608).
route(l8,l5,tr2,6,156).
route(l8,l6,tr2,4,104).
route(l8,l6,tr1,1,76).
route(l8,l7,tr2,4,104).
route(l8,l7,tr1,2,152).
