% Multibatching benchmark instance
% Generated with seed=2009 locations=10 parts=5 transports=3

% ---- locations ----
location(l1).
location(l2).
location(l3).
location(l4).
location(l5).
location(l6).
location(l7).
location(l8).
location(l9).
location(l10).

% ---- transport resources ----
transportCapacity(tr1,21).
transportCO2(tr1,94).
transportCost(tr1,44).
transportSpeed(tr1,7).
transportCapacity(tr2,17).
transportCO2(tr2,99).
transportCost(tr2,30).
transportSpeed(tr2,5).
transportCapacity(tr3,13).
transportCO2(tr3,89).
transportCost(tr3,32).
transportSpeed(tr3,8).

% ---- parts ----
part(p1).
partSize(p1,2).
partVal(p1,795).
partTR(p1,tr1).
part(p2).
partSize(p2,5).
partVal(p2,160).
partTR(p2,tr3).
part(p3).
partSize(p3,1).
partVal(p3,735).
partTR(p3,tr1).
partTR(p3,tr2).
partTR(p3,tr3).
part(p4).
partSize(p4,3).
partVal(p4,933).
partTR(p4,tr1).
partTR(p4,tr2).
partTR(p4,tr3).
part(p5).
partSize(p5,5).
partVal(p5,679).
partTR(p5,tr2).

% ---- demand and supply ----
demandOffer(p2,l1,-23).
demandOffer(p3,l1,-11).
demandOffer(p5,l1,8).
demandOffer(p1,l2,17).
demandOffer(p4,l2,-6).
demandOffer(p5,l2,-5).
demandOffer(p4,l3,-7).
demandOffer(p5,l3,-5).
demandOffer(p1,l4,-21).
demandOffer(p2,l4,17).
demandOffer(p3,l4,20).
demandOffer(p5,l4,21).
demandOffer(p3,l5,20).
demandOffer(p5,l5,5).
demandOffer(p1,l6,-10).
demandOffer(p2,l6,20).
demandOffer(p3,l6,-15).
demandOffer(p4,l6,9).
demandOffer(p5,l6,-16).
demandOffer(p2,l7,13).
demandOffer(p3,l7,-18).
demandOffer(p4,l7,-10).
demandOffer(p5,l7,19).
demandOffer(p1,l8,-12).
demandOffer(p4,l8,-19).
demandOffer(p5,l8,10).
demandOffer(p4,l9,16).
demandOffer(p5,l9,-22).
demandOffer(p1,l10,26).
demandOffer(p2,l10,-27).
demandOffer(p3,l10,4).
demandOffer(p4,l10,17).
demandOffer(p5,l10,-15).

% ---- routes ----
route(l1,l2,tr2,1,30).
route(l1,l2,tr3,9,288).
route(l1,l3,tr3,10,320).
route(l1,l3,tr2,3,90).
route(l1,l4,tr3,1,32).
route(l1,l4,tr1,8,352).
route(l1,l5,tr1,6,264).
route(l1,l5,tr3,1,32).
route(l1,l6,tr2,9,270).
route(l1,l6,tr3,5,160).
route(l1,l7,tr3,7,224).
route(l1,l7,tr1,7,308).
route(l1,l8,tr1,2,88).
route(l1,l8,tr2,9,270).
route(l1,l9,tr3,8,256).
route(l1,l9,tr2,4,120).
route(l1,l10,tr2,8,240).
route(l1,l10,tr3,9,288).
route(l2,l1,tr3,9,288).
route(l2,l1,tr2,1,30).
route(l2,l3,tr3,6,192).
route(l2,l3,tr1,8,352).
route(l2,l4,tr1,7,308).
route(l2,l4,tr3,7,224).
route(l2,l5,tr1,5,220).
route(l2,l5,tr2,2,60).
route(l2,l6,tr2,3,90).
route(l2,l6,tr1,6,264).
route(l2,l7,tr1,3,132).
route(l2,l7,tr3,8,256).
route(l2,l8,tr3,6,192).
route(l2,l8,tr1,2,88).
route(l2,l9,tr2,5,150).
route(l2,l9,tr3,9,288).
route(l2,l10,tr1,10,440).
route(l2,l10,tr3,8,256).
route(l3,l1,tr1,7,308).
route(l3,l1,tr2,4,120).
route(l3,l2,tr2,7,210).
route(l3,l2,tr1,4,176).
route(l3,l4,tr2,5,150).
route(l3,l4,tr1,4,176).
route(l3,l5,tr1,5,220).
route(l3,l5,tr3,6,192).
route(l3,l6,tr2,9,270).
route(l3,l6,tr1,9,396).
route(l3,l7,tr2,7,210).
route(l3,l7,tr1,7,308).
route(l3,l8,tr1,6,264).
route(l3,l8,tr3,10,320).
route(l3,l9,tr3,4,128).
route(l3,l9,tr2,10,300).
route(l3,l10,tr2,1,30).
route(l3,l10,tr3,7,224).
route(l4,l1,tr3,4,128).
route(l4,l1,tr1,3,132).
route(l4,l2,tr1,6,264).
route(l4,l2,tr3,2,64).
route(l4,l3,tr3,3,96).
route(l4,l3,tr1,10,440).
route(l4,l5,tr3,7,224).
route(l4,l5,tr2,5,150).
route(l4,l6,tr3,7,224).
route(l4,l6,tr2,3,90).
route(l4,l7,tr3,1,32).
route(l4,l7,tr1,5,220).
route(l4,l8,tr2,3,90).
route(l4,l8,tr3,2,64).
route(l4,l9,tr2,8,240).
route(l4,l9,tr3,6,192).
route(l4,l10,tr2,3,90).
route(l4,l10,tr3,9,288).
route(l5,l1,tr1,4,176).
route(l5,l1,tr2,4,120).
route(l5,l2,tr2,6,180).
route(l5,l2,tr1,8,352).
route(l5,l3,tr1,7,308).
route(l5,l3,tr3,2,64).
route(l5,l4,tr1,7,308).
route(l5,l4,tr2,8,240).
route(l5,l6,tr1,2,88).
route(l5,l6,tr3,3,96).
route(l5,l7,tr1,8,352).
route(l5,l7,tr2,2,60).
route(l5,l8,tr1,1,44).
route(l5,l8,tr3,6,192).
route(l5,l9,tr3,10,320).
route(l5,l9,tr2,2,60).
route(l5,l10,tr3,6,192).
route(l5,l10,tr2,6,180).
route(l6,l1,tr3,7,224).
route(l6,l1,tr1,7,308).
route(l6,l2,tr3,5,160).
route(l6,l2,tr1,5,220).
route(l6,l3,tr3,6,192).
route(l6,l3,tr2,2,60).
route(l6,l4,tr1,6,264).
route(l6,l4,tr2,5,150).
route(l6,l5,tr1,9,396).
route(l6,l5,tr2,10,300).
route(l6,l7,tr1,1,44).
route(l6,l7,tr2,4,120).
route(l6,l8,tr1,4,176).
route(l6,l8,tr3,2,64).
route(l6,l9,tr2,8,240).
route(l6,l9,tr1,6,264).
route(l6,l10,tr3,6,192).
route(l6,l10,tr2,2,60).
route(l7,l1,tr2,2,60).
route(l7,l1,tr3,4,128).
route(l7,l2,tr2,3,90).
route(l7,l2,tr3,8,256).
route(l7,l3,tr3,1,32).
route(l7,l3,tr2,1,30).
route(l7,l4,tr3,2,64).
route(l7,l4,tr2,4,120).
route(l7,l5,tr1,8,352).
route(l7,l5,tr2,4,120).
route(l7,l6,tr2,3,90).
route(l7,l6,tr3,1,32).
route(l7,l8,tr1,4,176).
route(l7,l8,tr2,10,300).
route(l7,l9,tr2,3,90).
route(l7,l9,tr3,2,64).
route(l7,l10,tr3,4,128).
route(l7,l10,tr2,7,210).
route(l8,l1,tr1,1,44).
route(l8,l1,tr2,3,90).
route(l8,l2,tr2,2,60).
route(l8,l2,tr1,7,308).
route(l8,l3,tr2,4,120).
route(l8,l3,tr1,4,176).
route(l8,l4,tr1,3,132).
route(l8,l4,tr2,6,180).
route(l8,l5,tr3,10,320).
route(l8,l5,tr1,4,176).
route(l8,l6,tr1,1,44).
route(l8,l6,tr2,10,300).
route(l8,l7,tr1,8,352).
route(l8,l7,tr3,10,320).
route(l8,l9,tr1,7,308).
route(l8,l9,tr3,10,320).
route(l8,l10,tr3,5,160).
route(l8,l10,tr1,2,88).
route(l9,l1,tr3,1,32).
route(l9,l1,tr1,3,132).
route(l9,l2,tr3,5,160).
route(l9,l2,tr2,7,210).
route(l9,l3,tr3,10,320).
route(l9,l3,tr1,7,308).
route(l9,l4,tr1,9,396).
route(l9,l4,tr3,6,192).
route(l9,l5,tr1,7,308).
route(l9,l5,tr3,7,224).
route(l9,l6,tr1,5,220).
route(l9,l6,tr3,2,64).
route(l9,l7,tr2,6,180).
route(l9,l7,tr1,2,88).
route(l9,l8,tr1,5,220).
route(l9,l8,tr3,1,32).
route(l9,l10,tr1,7,308).
route(l9,l10,tr2,2,60).
route(l10,l1,tr2,4,120).
route(l10,l1,tr3,5,160).
route(l10,l2,tr2,1,30).
route(l10,l2,tr1,1,44).
route(l10,l3,tr2,8,240).
route(l10,l3,tr3,5,160).
route(l10,l4,tr2,9,270).
route(l10,l4,tr3,4,128).
route(l10,l5,tr3,3,96).
route(l10,l5,tr2,7,210).
route(l10,l6,tr2,5,150).
route(l10,l6,tr1,3,132).
route(l10,l7,tr1,3,132).
route(l10,l7,tr3,9,288).
route(l10,l8,tr2,6,180).
route(l10,l8,tr1,5,220).
route(l10,l9,tr2,7,210).
route(l10,l9,tr1,1,44).
