% Multibatching benchmark instance
% Generated with seed=4011 locations=10 parts=5 transports=3

% ---- locations ----
location(l1).
location(l2).
location(l3).
location(l4).
location(l5).
location(l6).
location(l7).
location(l8).
location(l9).
location(l10).

% ---- transport resources ----
transportCapacity(tr1,15).
transportCO2(tr1,26).
transportCost(tr1,16).
transportSpeed(tr1,5).
transportCapacity(tr2,25).
transportCO2(tr2,21).
transportCost(tr2,70).
transportSpeed(tr2,7).
transportCapacity(tr3,25).
transportCO2(tr3,85).
transportCost(tr3,51).
transportSpeed(tr3,8).

% ---- parts ----
part(p1).
partSize(p1,3).
partVal(p1,640).
partTR(p1,tr1).
partTR(p1,tr2).
partTR(p1,tr3).
part(p2).
partSize(p2,3).
partVal(p2,400).
partTR(p2,tr2).
partTR(p2,tr3).
part(p3).
partSize(p3,3).
partVal(p3,152).
partTR(p3,tr1).
partTR(p3,tr2).
partTR(p3,tr3).
part(p4).
partSize(p4,4).
partVal(p4,812).
partTR(p4,tr2).
part(p5).
partSize(p5,1).
partVal(p5,643).
partTR(p5,tr1).
partTR(p5,tr2).

% ---- demand and supply ----
demandOffer(p1,l1,10).
demandOffer(p2,l1,17).
demandOffer(p5,l1,16).
demandOffer(p3,l2,18).
demandOffer(p4,l2,-2).
demandOffer(p5,l2,4).
demandOffer(p1,l3,9).
demandOffer(p2,l3,5).
demandOffer(p4,l3,14).
demandOffer(p5,l3,-16).
demandOffer(p2,l4,-4).
demandOffer(p3,l4,-16).
demandOffer(p4,l4,15).
demandOffer(p5,l4,4).
demandOffer(p2,l5,4).
demandOffer(p1,l6,16).
demandOffer(p2,l6,-13).
demandOffer(p3,l6,-8).
demandOffer(p4,l6,1).
demandOffer(p5,l6,23).
demandOffer(p1,l7,-4).
demandOffer(p2,l7,-1).
demandOffer(p3,l7,-11).
demandOffer(p5,l7,-3).
demandOffer(p4,l8,-9).
demandOffer(p1,l9,6).
demandOffer(p4,l9,-16).
demandOffer(p5,l9,20).
demandOffer(p1,l10,-37).
demandOffer(p2,l10,-8).
demandOffer(p3,l10,17).
demandOffer(p4,l10,-3).
demandOffer(p5,l10,-48).

% ---- routes ----
route(l1,l2,tr3,2,102).
route(l1,l2,tr1,8,128).
route(l1,l3,tr1,3,48).
route(l1,l3,tr2,2,140).
route(l1,l4,tr3,1,51).
route(l1,l4,tr2,7,490).
route(l1,l5,tr3,10,510).
route(l1,l5,tr2,3,210).
route(l1,l6,tr2,10,700).
route(l1,l6,tr3,4,204).
route(l1,l7,tr1,5,80).
route(l1,l7,tr3,3,153).
route(l1,l8,tr1,9,144).
route(l1,l8,tr2,1,70).
route(l1,l9,tr2,6,420).
route(l1,l9,tr3,3,153).
route(l1,l10,tr2,10,700).
route(l1,l10,tr1,5,80).
route(l2,l1,tr1,8,128).
route(l2,l1,tr3,10,510).
route(l2,l3,tr2,6,420).
route(l2,l3,tr3,10,510).
route(l2,l4,tr3,1,51).
route(l2,l4,tr1,10,160).
route(l2,l5,tr3,6,306).
route(l2,l5,tr1,3,48).
route(l2,l6,tr3,6,306).
route(l2,l6,tr1,9,144).
route(l2,l7,tr2,4,280).
route(l2,l7,tr1,4,64).
route(l2,l8,tr1,4,64).
route(l2,l8,tr2,9,630).
route(l2,l9,tr2,7,490).
route(l2,l9,tr3,1,51).
route(l2,l10,tr2,9,630).
route(l2,l10,tr3,6,306).
route(l3,l1,tr3,8,408).
route(l3,l1,tr1,10,160).
route(l3,l2,tr2,5,350).
route(l3,l2,tr1,10,160).
route(l3,l4,tr2,6,420).
route(l3,l4,tr1,4,64).
route(l3,l5,tr3,1,51).
route(l3,l5,tr2,5,350).
route(l3,l6,tr3,7,357).
route(l3,l6,tr2,3,210).
route(l3,l7,tr2,5,350).
route(l3,l7,tr3,9,459).
route(l3,l8,tr1,2,32).
route(l3,l8,tr2,7,490).
route(l3,l9,tr2,3,210).
route(l3,l9,tr1,3,48).
route(l3,l10,tr3,6,306).
route(l3,l10,tr1,1,16).
route(l4,l1,tr2,5,350).
route(l4,l1,tr1,4,64).
route(l4,l2,tr1,10,160).
route(l4,l2,tr2,8,560).
route(l4,l3,tr2,5,350).
route(l4,l3,tr1,2,32).
route(l4,l5,tr2,1,70).
route(l4,l5,tr3,6,306).
route(l4,l6,tr1,8,128).
route(l4,l6,tr2,3,210).
route(l4,l7,tr1,2,32).
route(l4,l7,tr2,8,560).
route(l4,l8,tr2,7,490).
route(l4,l8,tr3,7,357).
route(l4,l9,tr1,5,80).
route(l4,l9,tr3,10,510).
route(l4,l10,tr2,5,350).
route(l4,l10,tr1,4,64).
route(l5,l1,tr1,10,160).
route(l5,l1,tr3,9,459).
route(l5,l2,tr1,4,64).
route(l5,l2,tr3,4,204).
route(l5,l3,tr3,9,459).
route(l5,l3,tr2,9,630).
route(l5,l4,tr1,3,48).
route(l5,l4,tr2,7,490).
route(l5,l6,tr1,4,64).
route(l5,l6,tr3,10,510).
route(l5,l7,tr1,3,48).
route(l5,l7,tr2,7,490).
route(l5,l8,tr3,10,510).
route(l5,l8,tr1,1,16).
route(l5,l9,tr1,8,128).
route(l5,l9,tr3,1,51).
route(l5,l10,tr2,6,420).
route(l5,l10,tr3,3,153).
route(l6,l1,tr1,8,128).
route(l6,l1,tr2,1,70).
route(l6,l2,tr1,9,144).
route(l6,l2,tr3,10,510).
route(l6,l3,tr3,6,306).
route(l6,l3,tr1,7,112).
route(l6,l4,tr1,3,48).
route(l6,l4,tr2,2,140).
route(l6,l5,tr2,9,630).
route(l6,l5,tr3,3,153).
route(l6,l7,tr2,7,490).
route(l6,l7,tr1,7,112).
route(l6,l8,tr1,10,160).
route(l6,l8,tr3,9,459).
route(l6,l9,tr2,9,630).
route(l6,l9,tr3,6,306).
route(l6,l10,tr2,5,350).
route(l6,l10,tr1,5,80).
route(l7,l1,tr1,3,48).
route(l7,l1,tr2,8,560).
route(l7,l2,tr3,3,153).
route(l7,l2,tr1,10,160).
route(l7,l3,tr2,3,210).
route(l7,l3,tr3,6,306).
route(l7,l4,tr2,4,280).
route(l7,l4,tr1,10,160).
route(l7,l5,tr3,8,408).
route(l7,l5,tr1,5,80).
route(l7,l6,tr3,5,255).
route(l7,l6,tr1,6,96).
route(l7,l8,tr3,10,510).
route(l7,l8,tr2,10,700).
route(l7,l9,tr1,4,64).
route(l7,l9,tr2,2,140).
route(l7,l10,tr2,3,210).
route(l7,l10,tr1,9,144).
route(l8,l1,tr1,1,16).
route(l8,l1,tr3,10,510).
route(l8,l2,tr1,4,64).
route(l8,l2,tr2,6,420).
route(l8,l3,tr3,8,408).
route(l8,l3,tr2,8,560).
route(l8,l4,tr3,9,459).
route(l8,l4,tr2,2,140).
route(l8,l5,tr1,7,112).
route(l8,l5,tr3,3,153).
route(l8,l6,tr3,8,408).
route(l8,l6,tr1,4,64).
route(l8,l7,tr1,9,144).
route(l8,l7,tr3,1,51).
route(l8,l9,tr2,7,490).
route(l8,l9,tr1,7,112).
route(l8,l10,tr1,7,112).
route(l8,l10,tr3,8,408).
route(l9,l1,tr1,5,80).
route(l9,l1,tr3,2,102).
route(l9,l2,tr1,2,32).
route(l9,l2,tr2,10,700).
route(l9,l3,tr2,4,280).
route(l9,l3,tr3,1,51).
route(l9,l4,tr2,3,210).
route(l9,l4,tr3,10,510).
route(l9,l5,tr1,1,16).
route(l9,l5,tr3,2,102).
route(l9,l6,tr3,8,408).
route(l9,l6,tr2,5,350).
route(l9,l7,tr1,1,16).
route(l9,l7,tr3,6,306).
route(l9,l8,tr2,4,280).
route(l9,l8,tr1,8,128).
route(l9,l10,tr3,3,153).
route(l9,l10,tr2,5,350).
route(l10,l1,tr3,6,306).
route(l10,l1,tr2,9,630).
route(l10,l2,tr1,2,32).
route(l10,l2,tr3,10,510).
route(l10,l3,tr2,2,140).
route(l10,l3,tr3,3,153).
route(l10,l4,tr3,7,357).
route(l10,l4,tr2,8,560).
route(l10,l5,tr3,3,153).
route(l10,l5,tr1,9,144).
route(l10,l6,tr2,4,280).
route(l10,l6,tr3,10,510).
route(l10,l7,tr1,3,48).
route(l10,l7,tr2,5,350).
route(l10,l8,tr3,2,102).
route(l10,l8,tr2,7,490).
route(l10,l9,tr1,2,32).
route(l10,l9,tr3,8,408).
