% Sparse benchmark instance
% Generated with seed=12002 locations=10 parts=4 transports=2 routes=59

% ---- locations ----
location(l1).
location(l2).
location(l3).
location(l4).
location(l5).
location(l6).
location(l7).
location(l8).
location(l9).
location(l10).

% ---- transport resources ----
transportCapacity(tr1,14).
transportCO2(tr1,30).
transportCost(tr1,66).
transportSpeed(tr1,3).
transportCapacity(tr2,19).
transportCO2(tr2,36).
transportCost(tr2,79).
transportSpeed(tr2,5).

% ---- parts ----
part(p1).
partSize(p1,4).
partVal(p1,424).
partTR(p1,tr1).
partTR(p1,tr2).
part(p2).
partSize(p2,4).
partVal(p2,940).
partTR(p2,tr1).
partTR(p2,tr2).
part(p3).
partSize(p3,3).
partVal(p3,825).
partTR(p3,tr1).
partTR(p3,tr2).
part(p4).
partSize(p4,3).
partVal(p4,679).
partTR(p4,tr1).
partTR(p4,tr2).

% ---- demand and supply ----
demandOffer(p1,l1,28).
demandOffer(p2,l1,17).
demandOffer(p3,l1,12).
demandOffer(p4,l1,15).
demandOffer(p1,l10,-6).
demandOffer(p2,l10,-3).
demandOffer(p3,l10,-2).
demandOffer(p4,l10,-6).
demandOffer(p1,l2,2).
demandOffer(p2,l2,13).
demandOffer(p3,l2,18).
demandOffer(p4,l2,15).
demandOffer(p1,l7,-11).
demandOffer(p2,l7,-4).
demandOffer(p3,l7,-9).
demandOffer(p4,l7,-4).
demandOffer(p1,l8,-3).
demandOffer(p2,l8,-2).
demandOffer(p3,l8,-5).
demandOffer(p4,l8,-11).
demandOffer(p1,l9,-10).
demandOffer(p2,l9,-21).
demandOffer(p3,l9,-14).
demandOffer(p4,l9,-9).

% ---- routes ----
route(l1,l10,tr1,1,66).
route(l1,l10,tr2,3,237).
route(l1,l3,tr1,4,264).
route(l1,l3,tr2,6,474).
route(l1,l4,tr1,2,132).
route(l1,l4,tr2,4,316).
route(l1,l5,tr1,7,462).
route(l1,l6,tr1,1,66).
route(l1,l6,tr2,9,711).
route(l2,l3,tr1,3,198).
route(l2,l3,tr2,10,790).
route(l2,l4,tr1,9,594).
route(l2,l4,tr2,1,79).
route(l2,l5,tr1,6,396).
route(l2,l5,tr2,2,158).
route(l2,l6,tr1,10,660).
route(l2,l6,tr2,2,158).
route(l2,l9,tr1,3,198).
route(l2,l9,tr2,9,711).
route(l3,l10,tr1,5,330).
route(l3,l10,tr2,6,474).
route(l3,l4,tr1,1,66).
route(l3,l4,tr2,1,79).
route(l3,l7,tr1,1,66).
route(l3,l7,tr2,3,237).
route(l3,l8,tr1,4,264).
route(l3,l8,tr2,8,632).
route(l3,l9,tr1,10,660).
route(l3,l9,tr2,7,553).
route(l4,l10,tr1,8,528).
route(l4,l10,tr2,1,79).
route(l4,l5,tr1,9,594).
route(l4,l5,tr2,3,237).
route(l4,l7,tr1,1,66).
route(l4,l7,tr2,5,395).
route(l4,l8,tr1,10,660).
route(l4,l8,tr2,10,790).
route(l4,l9,tr1,9,594).
route(l4,l9,tr2,10,790).
route(l5,l10,tr1,9,594).
route(l5,l10,tr2,6,474).
route(l5,l6,tr1,10,660).
route(l5,l6,tr2,2,158).
route(l5,l7,tr1,4,264).
route(l5,l7,tr2,4,316).
route(l5,l8,tr1,6,396).
route(l5,l8,tr2,5,395).
route(l5,l9,tr1,2,132).
route(l5,l9,tr2,8,632).
route(l6,l10,tr1,2,132).
route(l6,l10,tr2,10,790).
route(l6,l5,tr1,2,132).
route(l6,l5,tr2,9,711).
route(l6,l7,tr1,7,462).
route(l6,l7,tr2,2,158).
route(l6,l8,tr1,9,594).
route(l6,l8,tr2,4,316).
route(l6,l9,tr1,4,264).
route(l6,l9,tr2,8,632).
