% Sparse benchmark instance
% Generated with seed=14000 locations=20 parts=10 transports=4 routes=503

% ---- locations ----
location(l1).
location(l2).
location(l3).
location(l4).
location(l5).
location(l6).
location(l7).
location(l8).
location(l9).
location(l10).
location(l11).
location(l12).
location(l13).
location(l14).
location(l15).
location(l16).
location(l17).
location(l18).
location(l19).
location(l20).

% ---- transport resources ----
transportCapacity(tr1,12).
transportCO2(tr1,64).
transportCost(tr1,42).
transportSpeed(tr1,7).
transportCapacity(tr2,13).
transportCO2(tr2,58).
transportCost(tr2,79).
transportSpeed(tr2,3).
transportCapacity(tr3,13).
transportCO2(tr3,18).
transportCost(tr3,74).
transportSpeed(tr3,5).
transportCapacity(tr4,15).
transportCO2(tr4,50).
transportCost(tr4,46).
transportSpeed(tr4,3).

% ---- parts ----
part(p1).
partSize(p1,2).
partVal(p1,360).
partTR(p1,tr1).
partTR(p1,tr2).
partTR(p1,tr3).
partTR(p1,tr4).
part(p2).
partSize(p2,2).
partVal(p2,752).
partTR(p2,tr1).
partTR(p2,tr2).
partTR(p2,tr3).
partTR(p2,tr4).
part(p3).
partSize(p3,4).
partVal(p3,730).
partTR(p3,tr1).
partTR(p3,tr2).
partTR(p3,tr3).
partTR(p3,tr4).
part(p4).
partSize(p4,2).
partVal(p4,901).
partTR(p4,tr1).
partTR(p4,tr2).
partTR(p4,tr3).
partTR(p4,tr4).
part(p5).
partSize(p5,4).
partVal(p5,363).
partTR(p5,tr1).
partTR(p5,tr2).
partTR(p5,tr3).
partTR(p5,tr4).
part(p6).
partSize(p6,4).
partVal(p6,947).
partTR(p6,tr1).
partTR(p6,tr2).
partTR(p6,tr3).
partTR(p6,tr4).
part(p7).
partSize(p7,3).
partVal(p7,764).
partTR(p7,tr1).
partTR(p7,tr2).
partTR(p7,tr3).
partTR(p7,tr4).
part(p8).
partSize(p8,3).
partVal(p8,962).
partTR(p8,tr1).
partTR(p8,tr2).
partTR(p8,tr3).
partTR(p8,tr4).
part(p9).
partSize(p9,3).
partVal(p9,713).
partTR(p9,tr1).
partTR(p9,tr2).
partTR(p9,tr3).
partTR(p9,tr4).
part(p10).
partSize(p10,3).
partVal(p10,462).
partTR(p10,tr1).
partTR(p10,tr2).
partTR(p10,tr3).
partTR(p10,tr4).

% ---- demand and supply ----
demandOffer(p1,l1,4).
demandOffer(p10,l1,10).
demandOffer(p2,l1,8).
demandOffer(p3,l1,5).
demandOffer(p4,l1,12).
demandOffer(p5,l1,10).
demandOffer(p6,l1,2).
demandOffer(p7,l1,13).
demandOffer(p8,l1,10).
demandOffer(p9,l1,6).
demandOffer(p1,l13,-9).
demandOffer(p10,l13,-6).
demandOffer(p2,l13,-3).
demandOffer(p3,l13,-7).
demandOffer(p4,l13,-1).
demandOffer(p5,l13,-2).
demandOffer(p6,l13,-4).
demandOffer(p7,l13,-4).
demandOffer(p8,l13,-3).
demandOffer(p9,l13,-6).
demandOffer(p1,l14,-4).
demandOffer(p10,l14,-2).
demandOffer(p2,l14,-7).
demandOffer(p3,l14,-3).
demandOffer(p4,l14,-8).
demandOffer(p5,l14,-1).
demandOffer(p6,l14,-6).
demandOffer(p7,l14,-4).
demandOffer(p8,l14,-7).
demandOffer(p9,l14,-6).
demandOffer(p1,l15,-1).
demandOffer(p10,l15,-3).
demandOffer(p2,l15,-2).
demandOffer(p3,l15,-1).
demandOffer(p4,l15,-3).
demandOffer(p5,l15,-1).
demandOffer(p6,l15,-1).
demandOffer(p7,l15,-5).
demandOffer(p8,l15,-3).
demandOffer(p9,l15,-2).
demandOffer(p1,l16,-2).
demandOffer(p10,l16,-5).
demandOffer(p2,l16,-2).
demandOffer(p3,l16,-3).
demandOffer(p4,l16,-5).
demandOffer(p5,l16,-9).
demandOffer(p6,l16,-1).
demandOffer(p7,l16,-3).
demandOffer(p8,l16,-3).
demandOffer(p9,l16,-3).
demandOffer(p1,l17,-1).
demandOffer(p10,l17,-3).
demandOffer(p2,l17,-2).
demandOffer(p3,l17,-6).
demandOffer(p4,l17,-4).
demandOffer(p5,l17,-2).
demandOffer(p6,l17,-1).
demandOffer(p7,l17,-2).
demandOffer(p8,l17,-3).
demandOffer(p9,l17,-2).
demandOffer(p1,l18,-2).
demandOffer(p10,l18,-3).
demandOffer(p2,l18,-5).
demandOffer(p3,l18,-1).
demandOffer(p4,l18,-5).
demandOffer(p5,l18,-1).
demandOffer(p6,l18,-6).
demandOffer(p7,l18,-5).
demandOffer(p8,l18,-2).
demandOffer(p9,l18,-2).
demandOffer(p1,l19,-2).
demandOffer(p10,l19,-3).
demandOffer(p2,l19,-4).
demandOffer(p3,l19,-1).
demandOffer(p4,l19,-3).
demandOffer(p5,l19,-6).
demandOffer(p6,l19,-6).
demandOffer(p7,l19,-4).
demandOffer(p8,l19,-7).
demandOffer(p9,l19,-4).
demandOffer(p1,l2,5).
demandOffer(p10,l2,8).
demandOffer(p2,l2,2).
demandOffer(p3,l2,19).
demandOffer(p4,l2,3).
demandOffer(p5,l2,3).
demandOffer(p6,l2,14).
demandOffer(p7,l2,9).
demandOffer(p8,l2,8).
demandOffer(p9,l2,9).
demandOffer(p1,l20,-9).
demandOffer(p10,l20,-5).
demandOffer(p2,l20,-5).
demandOffer(p3,l20,-8).
demandOffer(p4,l20,-1).
demandOffer(p5,l20,-8).
demandOffer(p6,l20,-5).
demandOffer(p7,l20,-3).
demandOffer(p8,l20,-2).
demandOffer(p9,l20,-5).
demandOffer(p1,l3,15).
demandOffer(p10,l3,7).
demandOffer(p2,l3,6).
demandOffer(p3,l3,3).
demandOffer(p4,l3,8).
demandOffer(p5,l3,15).
demandOffer(p6,l3,2).
demandOffer(p7,l3,5).
demandOffer(p8,l3,3).
demandOffer(p9,l3,10).
demandOffer(p1,l4,6).
demandOffer(p10,l4,5).
demandOffer(p2,l4,14).
demandOffer(p3,l4,3).
demandOffer(p4,l4,7).
demandOffer(p5,l4,2).
demandOffer(p6,l4,12).
demandOffer(p7,l4,3).
demandOffer(p8,l4,9).
demandOffer(p9,l4,5).

% ---- routes ----
route(l1,l10,tr1,2,84).
route(l1,l10,tr2,3,237).
route(l1,l10,tr3,1,74).
route(l1,l10,tr4,5,230).
route(l1,l11,tr1,6,252).
route(l1,l11,tr2,9,711).
route(l1,l11,tr3,10,740).
route(l1,l11,tr4,1,46).
route(l1,l12,tr1,8,336).
route(l1,l12,tr2,9,711).
route(l1,l12,tr3,7,518).
route(l1,l12,tr4,7,322).
route(l1,l13,tr1,2,84).
route(l1,l18,tr1,1,42).
route(l1,l18,tr2,10,790).
route(l1,l18,tr3,8,592).
route(l1,l18,tr4,10,460).
route(l1,l19,tr1,10,420).
route(l1,l19,tr2,9,711).
route(l1,l19,tr3,9,666).
route(l1,l19,tr4,10,460).
route(l1,l5,tr1,10,420).
route(l1,l5,tr2,1,79).
route(l1,l5,tr3,5,370).
route(l1,l5,tr4,8,368).
route(l1,l6,tr1,5,210).
route(l1,l6,tr2,8,632).
route(l1,l6,tr3,10,740).
route(l1,l6,tr4,8,368).
route(l1,l7,tr1,9,378).
route(l1,l7,tr2,3,237).
route(l1,l7,tr3,1,74).
route(l1,l7,tr4,7,322).
route(l1,l8,tr1,6,252).
route(l1,l8,tr2,3,237).
route(l1,l8,tr3,9,666).
route(l1,l8,tr4,5,230).
route(l1,l9,tr1,4,168).
route(l1,l9,tr2,6,474).
route(l1,l9,tr3,4,296).
route(l1,l9,tr4,9,414).
route(l10,l12,tr1,8,336).
route(l10,l12,tr2,2,158).
route(l10,l12,tr3,6,444).
route(l10,l12,tr4,6,276).
route(l10,l13,tr1,1,42).
route(l10,l13,tr2,9,711).
route(l10,l13,tr3,4,296).
route(l10,l13,tr4,5,230).
route(l10,l14,tr1,4,168).
route(l10,l14,tr2,8,632).
route(l10,l14,tr3,7,518).
route(l10,l14,tr4,8,368).
route(l10,l15,tr1,4,168).
route(l10,l15,tr2,1,79).
route(l10,l15,tr3,1,74).
route(l10,l15,tr4,1,46).
route(l10,l16,tr1,1,42).
route(l10,l16,tr2,5,395).
route(l10,l16,tr3,10,740).
route(l10,l16,tr4,4,184).
route(l10,l17,tr1,8,336).
route(l10,l17,tr2,5,395).
route(l10,l17,tr3,1,74).
route(l10,l17,tr4,5,230).
route(l10,l18,tr3,3,222).
route(l10,l19,tr1,2,84).
route(l10,l19,tr2,3,237).
route(l10,l19,tr3,8,592).
route(l10,l19,tr4,1,46).
route(l10,l20,tr1,5,210).
route(l10,l20,tr2,5,395).
route(l10,l20,tr3,9,666).
route(l10,l20,tr4,1,46).
route(l10,l5,tr1,3,126).
route(l10,l5,tr2,7,553).
route(l10,l5,tr3,7,518).
route(l10,l5,tr4,2,92).
route(l10,l6,tr3,6,444).
route(l10,l7,tr1,7,294).
route(l10,l7,tr2,3,237).
route(l10,l7,tr3,2,148).
route(l10,l7,tr4,10,460).
route(l10,l9,tr1,6,252).
route(l10,l9,tr2,8,632).
route(l10,l9,tr3,6,444).
route(l10,l9,tr4,4,184).
route(l11,l12,tr1,7,294).
route(l11,l12,tr2,1,79).
route(l11,l12,tr3,10,740).
route(l11,l12,tr4,6,276).
route(l11,l13,tr1,9,378).
route(l11,l13,tr2,3,237).
route(l11,l13,tr3,9,666).
route(l11,l13,tr4,8,368).
route(l11,l14,tr1,2,84).
route(l11,l14,tr2,7,553).
route(l11,l14,tr3,8,592).
route(l11,l14,tr4,2,92).
route(l11,l15,tr1,6,252).
route(l11,l15,tr2,2,158).
route(l11,l15,tr3,8,592).
route(l11,l15,tr4,8,368).
route(l11,l16,tr1,4,168).
route(l11,l16,tr2,5,395).
route(l11,l16,tr3,10,740).
route(l11,l16,tr4,2,92).
route(l11,l17,tr1,5,210).
route(l11,l17,tr2,8,632).
route(l11,l17,tr3,9,666).
route(l11,l17,tr4,7,322).
route(l11,l18,tr1,3,126).
route(l11,l18,tr2,4,316).
route(l11,l18,tr3,2,148).
route(l11,l18,tr4,7,322).
route(l11,l19,tr1,10,420).
route(l11,l19,tr2,9,711).
route(l11,l19,tr3,7,518).
route(l11,l19,tr4,9,414).
route(l11,l20,tr1,4,168).
route(l11,l20,tr2,2,158).
route(l11,l20,tr3,10,740).
route(l11,l20,tr4,5,230).
route(l11,l5,tr1,8,336).
route(l11,l5,tr2,7,553).
route(l11,l5,tr3,9,666).
route(l11,l5,tr4,2,92).
route(l11,l9,tr1,1,42).
route(l11,l9,tr2,4,316).
route(l11,l9,tr3,3,222).
route(l11,l9,tr4,5,230).
route(l12,l11,tr1,9,378).
route(l12,l11,tr2,9,711).
route(l12,l11,tr3,7,518).
route(l12,l11,tr4,10,460).
route(l12,l13,tr1,10,420).
route(l12,l13,tr2,6,474).
route(l12,l13,tr3,7,518).
route(l12,l13,tr4,2,92).
route(l12,l14,tr1,8,336).
route(l12,l14,tr2,10,790).
route(l12,l14,tr3,4,296).
route(l12,l14,tr4,7,322).
route(l12,l15,tr1,2,84).
route(l12,l15,tr2,10,790).
route(l12,l15,tr3,6,444).
route(l12,l15,tr4,5,230).
route(l12,l16,tr4,8,368).
route(l12,l17,tr1,5,210).
route(l12,l17,tr2,4,316).
route(l12,l17,tr3,7,518).
route(l12,l17,tr4,1,46).
route(l12,l18,tr1,9,378).
route(l12,l18,tr2,10,790).
route(l12,l18,tr3,4,296).
route(l12,l18,tr4,8,368).
route(l12,l19,tr1,8,336).
route(l12,l19,tr2,9,711).
route(l12,l19,tr3,2,148).
route(l12,l19,tr4,9,414).
route(l12,l20,tr1,3,126).
route(l12,l20,tr2,6,474).
route(l12,l20,tr3,3,222).
route(l12,l20,tr4,2,92).
route(l12,l7,tr1,4,168).
route(l12,l7,tr2,3,237).
route(l12,l7,tr3,3,222).
route(l12,l7,tr4,7,322).
route(l2,l10,tr1,9,378).
route(l2,l10,tr2,2,158).
route(l2,l10,tr3,10,740).
route(l2,l10,tr4,7,322).
route(l2,l11,tr1,2,84).
route(l2,l11,tr2,5,395).
route(l2,l11,tr3,9,666).
route(l2,l11,tr4,2,92).
route(l2,l12,tr1,2,84).
route(l2,l12,tr2,5,395).
route(l2,l12,tr3,3,222).
route(l2,l12,tr4,7,322).
route(l2,l13,tr2,4,316).
route(l2,l16,tr1,4,168).
route(l2,l20,tr1,6,252).
route(l2,l20,tr2,3,237).
route(l2,l20,tr3,9,666).
route(l2,l20,tr4,7,322).
route(l2,l5,tr1,4,168).
route(l2,l5,tr2,9,711).
route(l2,l5,tr3,4,296).
route(l2,l5,tr4,6,276).
route(l2,l6,tr1,9,378).
route(l2,l6,tr2,4,316).
route(l2,l6,tr3,9,666).
route(l2,l6,tr4,2,92).
route(l2,l7,tr1,3,126).
route(l2,l7,tr2,4,316).
route(l2,l7,tr3,1,74).
route(l2,l7,tr4,8,368).
route(l2,l8,tr1,9,378).
route(l2,l8,tr2,8,632).
route(l2,l8,tr3,3,222).
route(l2,l8,tr4,2,92).
route(l2,l9,tr1,1,42).
route(l2,l9,tr2,4,316).
route(l2,l9,tr3,5,370).
route(l2,l9,tr4,10,460).
route(l3,l10,tr1,4,168).
route(l3,l10,tr2,4,316).
route(l3,l10,tr3,1,74).
route(l3,l10,tr4,6,276).
route(l3,l11,tr1,6,252).
route(l3,l11,tr2,10,790).
route(l3,l11,tr3,5,370).
route(l3,l11,tr4,3,138).
route(l3,l12,tr1,10,420).
route(l3,l12,tr2,9,711).
route(l3,l12,tr3,2,148).
route(l3,l12,tr4,1,46).
route(l3,l13,tr1,7,294).
route(l3,l13,tr2,2,158).
route(l3,l13,tr3,5,370).
route(l3,l13,tr4,1,46).
route(l3,l14,tr1,1,42).
route(l3,l14,tr2,6,474).
route(l3,l14,tr3,6,444).
route(l3,l14,tr4,8,368).
route(l3,l18,tr1,5,210).
route(l3,l18,tr2,2,158).
route(l3,l18,tr3,6,444).
route(l3,l18,tr4,5,230).
route(l3,l19,tr1,10,420).
route(l3,l19,tr2,8,632).
route(l3,l19,tr3,7,518).
route(l3,l19,tr4,9,414).
route(l3,l5,tr1,4,168).
route(l3,l5,tr2,3,237).
route(l3,l5,tr3,1,74).
route(l3,l5,tr4,6,276).
route(l3,l6,tr1,2,84).
route(l3,l6,tr2,9,711).
route(l3,l6,tr3,9,666).
route(l3,l6,tr4,8,368).
route(l3,l7,tr1,7,294).
route(l3,l7,tr2,2,158).
route(l3,l7,tr3,4,296).
route(l3,l7,tr4,9,414).
route(l3,l8,tr1,6,252).
route(l3,l8,tr2,10,790).
route(l3,l8,tr3,4,296).
route(l3,l8,tr4,2,92).
route(l3,l9,tr1,1,42).
route(l3,l9,tr2,4,316).
route(l3,l9,tr3,9,666).
route(l3,l9,tr4,1,46).
route(l4,l10,tr1,10,420).
route(l4,l10,tr2,5,395).
route(l4,l10,tr3,2,148).
route(l4,l10,tr4,8,368).
route(l4,l11,tr1,5,210).
route(l4,l11,tr2,10,790).
route(l4,l11,tr3,9,666).
route(l4,l11,tr4,3,138).
route(l4,l12,tr1,6,252).
route(l4,l12,tr2,6,474).
route(l4,l12,tr3,9,666).
route(l4,l12,tr4,1,46).
route(l4,l15,tr1,3,126).
route(l4,l15,tr2,8,632).
route(l4,l15,tr3,2,148).
route(l4,l15,tr4,7,322).
route(l4,l16,tr1,10,420).
route(l4,l16,tr2,5,395).
route(l4,l16,tr3,5,370).
route(l4,l16,tr4,10,460).
route(l4,l17,tr1,7,294).
route(l4,l17,tr2,5,395).
route(l4,l17,tr3,3,222).
route(l4,l17,tr4,1,46).
route(l4,l5,tr1,1,42).
route(l4,l5,tr2,5,395).
route(l4,l5,tr3,10,740).
route(l4,l5,tr4,8,368).
route(l4,l6,tr1,10,420).
route(l4,l6,tr2,8,632).
route(l4,l6,tr3,10,740).
route(l4,l6,tr4,8,368).
route(l4,l7,tr1,2,84).
route(l4,l7,tr2,6,474).
route(l4,l7,tr3,4,296).
route(l4,l7,tr4,6,276).
route(l4,l8,tr1,5,210).
route(l4,l8,tr2,4,316).
route(l4,l8,tr3,3,222).
route(l4,l8,tr4,8,368).
route(l4,l9,tr2,1,79).
route(l5,l12,tr1,3,126).
route(l5,l12,tr2,9,711).
route(l5,l12,tr3,2,148).
route(l5,l12,tr4,7,322).
route(l5,l13,tr1,3,126).
route(l5,l13,tr2,7,553).
route(l5,l13,tr3,1,74).
route(l5,l13,tr4,3,138).
route(l5,l14,tr1,8,336).
route(l5,l14,tr2,6,474).
route(l5,l14,tr3,9,666).
route(l5,l14,tr4,1,46).
route(l5,l15,tr1,1,42).
route(l5,l15,tr2,5,395).
route(l5,l15,tr3,2,148).
route(l5,l15,tr4,4,184).
route(l5,l16,tr1,4,168).
route(l5,l16,tr2,6,474).
route(l5,l16,tr3,5,370).
route(l5,l16,tr4,8,368).
route(l5,l17,tr1,3,126).
route(l5,l17,tr2,4,316).
route(l5,l17,tr3,2,148).
route(l5,l17,tr4,10,460).
route(l5,l18,tr1,1,42).
route(l5,l18,tr2,9,711).
route(l5,l18,tr3,7,518).
route(l5,l18,tr4,9,414).
route(l5,l19,tr1,7,294).
route(l5,l19,tr2,5,395).
route(l5,l19,tr3,1,74).
route(l5,l19,tr4,7,322).
route(l5,l20,tr1,6,252).
route(l5,l20,tr2,1,79).
route(l5,l20,tr3,9,666).
route(l5,l20,tr4,1,46).
route(l5,l6,tr1,2,84).
route(l5,l6,tr2,3,237).
route(l5,l6,tr3,1,74).
route(l5,l6,tr4,4,184).
route(l5,l7,tr1,8,336).
route(l5,l7,tr2,6,474).
route(l5,l7,tr3,6,444).
route(l5,l7,tr4,5,230).
route(l5,l8,tr1,9,378).
route(l5,l8,tr2,3,237).
route(l5,l8,tr3,7,518).
route(l5,l8,tr4,2,92).
route(l6,l13,tr1,3,126).
route(l6,l13,tr2,1,79).
route(l6,l13,tr3,2,148).
route(l6,l13,tr4,10,460).
route(l6,l14,tr1,6,252).
route(l6,l14,tr2,2,158).
route(l6,l14,tr3,4,296).
route(l6,l14,tr4,4,184).
route(l6,l15,tr4,6,276).
route(l6,l16,tr1,5,210).
route(l6,l16,tr2,2,158).
route(l6,l16,tr3,4,296).
route(l6,l16,tr4,1,46).
route(l6,l17,tr1,8,336).
route(l6,l17,tr2,9,711).
route(l6,l17,tr3,4,296).
route(l6,l17,tr4,8,368).
route(l6,l18,tr1,6,252).
route(l6,l18,tr2,3,237).
route(l6,l18,tr3,4,296).
route(l6,l18,tr4,3,138).
route(l6,l19,tr1,8,336).
route(l6,l19,tr2,5,395).
route(l6,l19,tr3,3,222).
route(l6,l19,tr4,3,138).
route(l6,l20,tr1,7,294).
route(l6,l20,tr2,9,711).
route(l6,l20,tr3,10,740).
route(l6,l20,tr4,2,92).
route(l6,l8,tr1,4,168).
route(l6,l8,tr2,4,316).
route(l6,l8,tr3,6,444).
route(l6,l8,tr4,7,322).
route(l7,l10,tr1,6,252).
route(l7,l10,tr2,3,237).
route(l7,l10,tr3,7,518).
route(l7,l10,tr4,7,322).
route(l7,l12,tr1,5,210).
route(l7,l12,tr2,6,474).
route(l7,l12,tr3,6,444).
route(l7,l12,tr4,10,460).
route(l7,l13,tr3,9,666).
route(l7,l14,tr1,5,210).
route(l7,l14,tr2,8,632).
route(l7,l14,tr3,10,740).
route(l7,l14,tr4,3,138).
route(l7,l15,tr1,10,420).
route(l7,l15,tr2,1,79).
route(l7,l15,tr3,9,666).
route(l7,l15,tr4,10,460).
route(l7,l16,tr1,4,168).
route(l7,l16,tr2,1,79).
route(l7,l16,tr3,7,518).
route(l7,l16,tr4,5,230).
route(l7,l17,tr4,4,184).
route(l7,l18,tr1,6,252).
route(l7,l18,tr2,2,158).
route(l7,l18,tr3,8,592).
route(l7,l18,tr4,9,414).
route(l7,l19,tr1,5,210).
route(l7,l19,tr2,10,790).
route(l7,l19,tr3,4,296).
route(l7,l19,tr4,6,276).
route(l7,l20,tr1,6,252).
route(l7,l20,tr2,2,158).
route(l7,l20,tr3,9,666).
route(l7,l20,tr4,8,368).
route(l7,l6,tr1,5,210).
route(l7,l6,tr2,2,158).
route(l7,l6,tr3,4,296).
route(l7,l6,tr4,1,46).
route(l8,l10,tr1,7,294).
route(l8,l10,tr2,5,395).
route(l8,l10,tr3,3,222).
route(l8,l10,tr4,1,46).
route(l8,l12,tr1,8,336).
route(l8,l12,tr2,4,316).
route(l8,l12,tr3,10,740).
route(l8,l12,tr4,10,460).
route(l8,l13,tr1,6,252).
route(l8,l13,tr2,8,632).
route(l8,l13,tr3,3,222).
route(l8,l13,tr4,6,276).
route(l8,l14,tr1,3,126).
route(l8,l14,tr2,5,395).
route(l8,l14,tr3,9,666).
route(l8,l14,tr4,5,230).
route(l8,l15,tr1,10,420).
route(l8,l15,tr2,10,790).
route(l8,l15,tr3,4,296).
route(l8,l15,tr4,5,230).
route(l8,l16,tr4,7,322).
route(l8,l17,tr1,8,336).
route(l8,l17,tr2,5,395).
route(l8,l17,tr3,8,592).
route(l8,l17,tr4,1,46).
route(l8,l18,tr1,4,168).
route(l8,l18,tr2,7,553).
route(l8,l18,tr3,10,740).
route(l8,l18,tr4,9,414).
route(l8,l19,tr1,6,252).
route(l8,l19,tr2,9,711).
route(l8,l19,tr3,7,518).
route(l8,l19,tr4,4,184).
route(l8,l20,tr1,6,252).
route(l8,l20,tr2,10,790).
route(l8,l20,tr3,8,592).
route(l8,l20,tr4,10,460).
route(l8,l5,tr1,9,378).
route(l8,l5,tr2,1,79).
route(l8,l5,tr3,1,74).
route(l8,l5,tr4,9,414).
route(l8,l9,tr1,1,42).
route(l8,l9,tr2,6,474).
route(l8,l9,tr3,4,296).
route(l8,l9,tr4,6,276).
route(l9,l10,tr1,1,42).
route(l9,l10,tr2,8,632).
route(l9,l10,tr3,1,74).
route(l9,l10,tr4,4,184).
route(l9,l13,tr1,3,126).
route(l9,l13,tr2,9,711).
route(l9,l13,tr3,6,444).
route(l9,l13,tr4,7,322).
route(l9,l14,tr1,3,126).
route(l9,l14,tr2,10,790).
route(l9,l14,tr3,3,222).
route(l9,l14,tr4,7,322).
route(l9,l15,tr1,2,84).
route(l9,l15,tr2,4,316).
route(l9,l15,tr3,10,740).
route(l9,l15,tr4,10,460).
route(l9,l16,tr1,10,420).
route(l9,l16,tr2,7,553).
route(l9,l16,tr3,2,148).
route(l9,l16,tr4,1,46).
route(l9,l17,tr1,1,42).
route(l9,l17,tr2,6,474).
route(l9,l17,tr3,7,518).
route(l9,l17,tr4,10,460).
route(l9,l18,tr1,9,378).
route(l9,l18,tr2,2,158).
route(l9,l18,tr3,2,148).
route(l9,l18,tr4,2,92).
route(l9,l19,tr1,9,378).
route(l9,l19,tr2,10,790).
route(l9,l19,tr3,2,148).
route(l9,l19,tr4,2,92).
route(l9,l20,tr1,9,378).
route(l9,l20,tr2,2,158).
route(l9,l20,tr3,8,592).
route(l9,l20,tr4,7,322).
route(l9,l5,tr1,10,420).
route(l9,l5,tr2,2,158).
route(l9,l5,tr3,8,592).
route(l9,l5,tr4,10,460).
route(l9,l7,tr1,4,168).
route(l9,l7,tr2,9,711).
route(l9,l7,tr3,6,444).
route(l9,l7,tr4,5,230).
