% Sparse benchmark instance
% Generated with seed=12003 locations=10 parts=4 transports=2 routes=65

% ---- locations ----
location(l1).
location(l2).
location(l3).
location(l4).
location(l5).
location(l6).
location(l7).
location(l8).
location(l9).
location(l10).

% ---- transport resources ----
transportCapacity(tr1,17).
transportCO2(tr1,51).
transportCost(tr1,65).
transportSpeed(tr1,7).
transportCapacity(tr2,13).
transportCO2(tr2,49).
transportCost(tr2,33).
transportSpeed(tr2,8).

% ---- parts ----
part(p1).
partSize(p1,3).
partVal(p1,634).
partTR(p1,tr1).
partTR(p1,tr2).
part(p2).
partSize(p2,4).
partVal(p2,703).
partTR(p2,tr1).
partTR(p2,tr2).
part(p3).
partSize(p3,4).
partVal(p3,688).
partTR(p3,tr1).
partTR(p3,tr2).
part(p4).
partSize(p4,2).
partVal(p4,613).
partTR(p4,tr1).
partTR(p4,tr2).

% ---- demand and supply ----
demandOffer(p1,l1,16).
demandOffer(p2,l1,13).
demandOffer(p3,l1,19).
demandOffer(p4,l1,29).
demandOffer(p1,l10,-6).
demandOffer(p2,l10,-11).
demandOffer(p3,l10,-10).
demandOffer(p4,l10,-5).
demandOffer(p1,l2,14).
demandOffer(p2,l2,17).
demandOffer(p3,l2,11).
demandOffer(p4,l2,1).
demandOffer(p1,l7,-3).
demandOffer(p2,l7,-8).
demandOffer(p3,l7,-7).
demandOffer(p4,l7,-8).
demandOffer(p1,l8,-9).
demandOffer(p2,l8,-8).
demandOffer(p3,l8,-9).
demandOffer(p4,l8,-8).
demandOffer(p1,l9,-12).
demandOffer(p2,l9,-3).
demandOffer(p3,l9,-4).
demandOffer(p4,l9,-9).

% ---- routes ----
route(l1,l3,tr1,10,650).
route(l1,l3,tr2,5,165).
route(l1,l4,tr1,2,130).
route(l1,l4,tr2,3,99).
route(l1,l5,tr1,8,520).
route(l1,l5,tr2,2,66).
route(l1,l6,tr1,3,195).
route(l1,l6,tr2,1,33).
route(l1,l9,tr1,4,260).
route(l1,l9,tr2,7,231).
route(l2,l10,tr1,8,520).
route(l2,l10,tr2,4,132).
route(l2,l3,tr1,10,650).
route(l2,l3,tr2,8,264).
route(l2,l4,tr1,5,325).
route(l2,l4,tr2,9,297).
route(l2,l5,tr1,2,130).
route(l2,l5,tr2,7,231).
route(l2,l6,tr1,6,390).
route(l2,l6,tr2,9,297).
route(l2,l7,tr1,3,195).
route(l2,l7,tr2,2,66).
route(l3,l10,tr1,9,585).
route(l3,l10,tr2,6,198).
route(l3,l5,tr1,10,650).
route(l3,l5,tr2,10,330).
route(l3,l6,tr1,4,260).
route(l3,l6,tr2,9,297).
route(l3,l7,tr1,3,195).
route(l3,l7,tr2,3,99).
route(l3,l8,tr1,10,650).
route(l3,l9,tr1,1,65).
route(l3,l9,tr2,2,66).
route(l4,l10,tr1,7,455).
route(l4,l10,tr2,4,132).
route(l4,l5,tr1,8,520).
route(l4,l5,tr2,9,297).
route(l4,l6,tr1,7,455).
route(l4,l6,tr2,4,132).
route(l4,l7,tr1,4,260).
route(l4,l7,tr2,10,330).
route(l4,l8,tr1,1,65).
route(l4,l8,tr2,8,264).
route(l4,l9,tr1,10,650).
route(l4,l9,tr2,6,198).
route(l5,l10,tr1,4,260).
route(l5,l10,tr2,3,99).
route(l5,l6,tr1,10,650).
route(l5,l6,tr2,3,99).
route(l5,l7,tr1,6,390).
route(l5,l7,tr2,4,132).
route(l5,l8,tr1,4,260).
route(l5,l8,tr2,8,264).
route(l5,l9,tr1,10,650).
route(l5,l9,tr2,3,99).
route(l6,l10,tr1,4,260).
route(l6,l10,tr2,1,33).
route(l6,l3,tr1,4,260).
route(l6,l3,tr2,6,198).
route(l6,l7,tr1,7,455).
route(l6,l7,tr2,3,99).
route(l6,l8,tr1,9,585).
route(l6,l8,tr2,2,66).
route(l6,l9,tr1,6,390).
route(l6,l9,tr2,4,132).
