% Sparse benchmark instance
% Generated with seed=14002 locations=20 parts=10 transports=4 routes=516

% ---- locations ----
location(l1).
location(l2).
location(l3).
location(l4).
location(l5).
location(l6).
location(l7).
location(l8).
location(l9).
location(l10).
location(l11).
location(l12).
location(l13).
location(l14).
location(l15).
location(l16).
location(l17).
location(l18).
location(l19).
location(l20).

% ---- transport resources ----
transportCapacity(tr1,10).
transportCO2(tr1,31).
transportCost(tr1,63).
transportSpeed(tr1,8).
transportCapacity(tr2,16).
transportCO2(tr2,44).
transportCost(tr2,56).
transportSpeed(tr2,4).
transportCapacity(tr3,12).
transportCO2(tr3,24).
transportCost(tr3,43).
transportSpeed(tr3,7).
transportCapacity(tr4,13).
transportCO2(tr4,47).
transportCost(tr4,38).
transportSpeed(tr4,4).

% ---- parts ----
part(p1).
partSize(p1,4).
partVal(p1,627).
partTR(p1,tr1).
partTR(p1,tr2).
partTR(p1,tr3).
partTR(p1,tr4).
part(p2).
partSize(p2,4).
partVal(p2,814).
partTR(p2,tr1).
partTR(p2,tr2).
partTR(p2,tr3).
partTR(p2,tr4).
part(p3).
partSize(p3,3).
partVal(p3,750).
partTR(p3,tr1).
partTR(p3,tr2).
partTR(p3,tr3).
partTR(p3,tr4).
part(p4).
partSize(p4,3).
partVal(p4,929).
partTR(p4,tr1).
partTR(p4,tr2).
partTR(p4,tr3).
partTR(p4,tr4).
part(p5).
partSize(p5,4).
partVal(p5,971).
partTR(p5,tr1).
partTR(p5,tr2).
partTR(p5,tr3).
partTR(p5,tr4).
part(p6).
partSize(p6,4).
partVal(p6,736).
partTR(p6,tr1).
partTR(p6,tr2).
partTR(p6,tr3).
partTR(p6,tr4).
part(p7).
partSize(p7,3).
partVal(p7,991).
partTR(p7,tr1).
partTR(p7,tr2).
partTR(p7,tr3).
partTR(p7,tr4).
part(p8).
partSize(p8,4).
partVal(p8,717).
partTR(p8,tr1).
partTR(p8,tr2).
partTR(p8,tr3).
partTR(p8,tr4).
part(p9).
partSize(p9,3).
partVal(p9,742).
partTR(p9,tr1).
partTR(p9,tr2).
partTR(p9,tr3).
partTR(p9,tr4).
part(p10).
partSize(p10,2).
partVal(p10,425).
partTR(p10,tr1).
partTR(p10,tr2).
partTR(p10,tr3).
partTR(p10,tr4).

% ---- demand and supply ----
demandOffer(p1,l1,5).
demandOffer(p10,l1,7).
demandOffer(p2,l1,9).
demandOffer(p3,l1,1).
demandOffer(p4,l1,9).
demandOffer(p5,l1,2).
demandOffer(p6,l1,10).
demandOffer(p7,l1,7).
demandOffer(p8,l1,3).
demandOffer(p9,l1,7).
demandOffer(p1,l13,-4).
demandOffer(p10,l13,-2).
demandOffer(p2,l13,-4).
demandOffer(p3,l13,-6).
demandOffer(p4,l13,-5).
demandOffer(p5,l13,-2).
demandOffer(p6,l13,-4).
demandOffer(p7,l13,-4).
demandOffer(p8,l13,-3).
demandOffer(p9,l13,-2).
demandOffer(p1,l14,-4).
demandOffer(p10,l14,-4).
demandOffer(p2,l14,-1).
demandOffer(p3,l14,-2).
demandOffer(p4,l14,-6).
demandOffer(p5,l14,-4).
demandOffer(p6,l14,-4).
demandOffer(p7,l14,-4).
demandOffer(p8,l14,-5).
demandOffer(p9,l14,-2).
demandOffer(p1,l15,-1).
demandOffer(p10,l15,-2).
demandOffer(p2,l15,-6).
demandOffer(p3,l15,-3).
demandOffer(p4,l15,-4).
demandOffer(p5,l15,-2).
demandOffer(p6,l15,-6).
demandOffer(p7,l15,-4).
demandOffer(p8,l15,-6).
demandOffer(p9,l15,-6).
demandOffer(p1,l16,-2).
demandOffer(p10,l16,-1).
demandOffer(p2,l16,-4).
demandOffer(p3,l16,-4).
demandOffer(p4,l16,-1).
demandOffer(p5,l16,-5).
demandOffer(p6,l16,-4).
demandOffer(p7,l16,-6).
demandOffer(p8,l16,-3).
demandOffer(p9,l16,-2).
demandOffer(p1,l17,-5).
demandOffer(p10,l17,-3).
demandOffer(p2,l17,-4).
demandOffer(p3,l17,-1).
demandOffer(p4,l17,-3).
demandOffer(p5,l17,-3).
demandOffer(p6,l17,-5).
demandOffer(p7,l17,-4).
demandOffer(p8,l17,-4).
demandOffer(p9,l17,-7).
demandOffer(p1,l18,-6).
demandOffer(p10,l18,-5).
demandOffer(p2,l18,-2).
demandOffer(p3,l18,-5).
demandOffer(p4,l18,-5).
demandOffer(p5,l18,-5).
demandOffer(p6,l18,-2).
demandOffer(p7,l18,-1).
demandOffer(p8,l18,-4).
demandOffer(p9,l18,-3).
demandOffer(p1,l19,-3).
demandOffer(p10,l19,-6).
demandOffer(p2,l19,-5).
demandOffer(p3,l19,-6).
demandOffer(p4,l19,-1).
demandOffer(p5,l19,-4).
demandOffer(p6,l19,-2).
demandOffer(p7,l19,-2).
demandOffer(p8,l19,-2).
demandOffer(p9,l19,-7).
demandOffer(p1,l2,7).
demandOffer(p10,l2,7).
demandOffer(p2,l2,16).
demandOffer(p3,l2,11).
demandOffer(p4,l2,9).
demandOffer(p5,l2,6).
demandOffer(p6,l2,4).
demandOffer(p7,l2,1).
demandOffer(p8,l2,1).
demandOffer(p9,l2,6).
demandOffer(p1,l20,-5).
demandOffer(p10,l20,-7).
demandOffer(p2,l20,-4).
demandOffer(p3,l20,-3).
demandOffer(p4,l20,-5).
demandOffer(p5,l20,-5).
demandOffer(p6,l20,-3).
demandOffer(p7,l20,-5).
demandOffer(p8,l20,-3).
demandOffer(p9,l20,-1).
demandOffer(p1,l3,9).
demandOffer(p10,l3,15).
demandOffer(p2,l3,4).
demandOffer(p3,l3,12).
demandOffer(p4,l3,10).
demandOffer(p5,l3,9).
demandOffer(p6,l3,9).
demandOffer(p7,l3,12).
demandOffer(p8,l3,16).
demandOffer(p9,l3,12).
demandOffer(p1,l4,9).
demandOffer(p10,l4,1).
demandOffer(p2,l4,1).
demandOffer(p3,l4,6).
demandOffer(p4,l4,2).
demandOffer(p5,l4,13).
demandOffer(p6,l4,7).
demandOffer(p7,l4,10).
demandOffer(p8,l4,10).
demandOffer(p9,l4,5).

% ---- routes ----
route(l1,l10,tr1,5,315).
route(l1,l10,tr2,4,224).
route(l1,l10,tr3,4,172).
route(l1,l10,tr4,8,304).
route(l1,l11,tr1,7,441).
route(l1,l11,tr2,9,504).
route(l1,l11,tr3,4,172).
route(l1,l11,tr4,3,114).
route(l1,l12,tr1,7,441).
route(l1,l12,tr2,10,560).
route(l1,l12,tr3,5,215).
route(l1,l12,tr4,9,342).
route(l1,l13,tr1,10,630).
route(l1,l13,tr2,6,336).
route(l1,l13,tr3,8,344).
route(l1,l13,tr4,10,380).
route(l1,l14,tr1,2,126).
route(l1,l14,tr2,8,448).
route(l1,l14,tr3,4,172).
route(l1,l14,tr4,8,304).
route(l1,l15,tr1,6,378).
route(l1,l15,tr2,6,336).
route(l1,l15,tr3,9,387).
route(l1,l15,tr4,9,342).
route(l1,l16,tr1,5,315).
route(l1,l16,tr2,8,448).
route(l1,l16,tr3,5,215).
route(l1,l16,tr4,1,38).
route(l1,l17,tr1,3,189).
route(l1,l17,tr2,4,224).
route(l1,l17,tr3,3,129).
route(l1,l17,tr4,6,228).
route(l1,l20,tr1,10,630).
route(l1,l20,tr2,10,560).
route(l1,l20,tr3,10,430).
route(l1,l20,tr4,2,76).
route(l1,l5,tr1,9,567).
route(l1,l5,tr2,5,280).
route(l1,l5,tr3,7,301).
route(l1,l5,tr4,3,114).
route(l1,l6,tr1,10,630).
route(l1,l6,tr2,8,448).
route(l1,l6,tr3,3,129).
route(l1,l6,tr4,1,38).
route(l1,l7,tr1,6,378).
route(l1,l7,tr2,2,112).
route(l1,l7,tr3,9,387).
route(l1,l7,tr4,4,152).
route(l1,l8,tr1,6,378).
route(l1,l8,tr2,9,504).
route(l1,l8,tr3,7,301).
route(l1,l8,tr4,9,342).
route(l1,l9,tr1,8,504).
route(l1,l9,tr2,8,448).
route(l1,l9,tr3,6,258).
route(l1,l9,tr4,10,380).
route(l10,l11,tr1,4,252).
route(l10,l11,tr2,8,448).
route(l10,l11,tr3,10,430).
route(l10,l11,tr4,7,266).
route(l10,l12,tr1,4,252).
route(l10,l12,tr2,1,56).
route(l10,l12,tr3,3,129).
route(l10,l12,tr4,5,190).
route(l10,l13,tr1,9,567).
route(l10,l13,tr2,1,56).
route(l10,l13,tr3,8,344).
route(l10,l13,tr4,4,152).
route(l10,l14,tr1,2,126).
route(l10,l14,tr2,6,336).
route(l10,l14,tr3,2,86).
route(l10,l14,tr4,5,190).
route(l10,l15,tr1,4,252).
route(l10,l15,tr2,3,168).
route(l10,l15,tr3,4,172).
route(l10,l15,tr4,2,76).
route(l10,l16,tr1,1,63).
route(l10,l16,tr2,4,224).
route(l10,l16,tr3,6,258).
route(l10,l16,tr4,1,38).
route(l10,l17,tr1,10,630).
route(l10,l17,tr2,2,112).
route(l10,l17,tr3,2,86).
route(l10,l17,tr4,8,304).
route(l10,l18,tr1,8,504).
route(l10,l18,tr2,8,448).
route(l10,l18,tr3,7,301).
route(l10,l18,tr4,5,190).
route(l10,l19,tr1,8,504).
route(l10,l19,tr2,9,504).
route(l10,l19,tr3,3,129).
route(l10,l19,tr4,8,304).
route(l10,l20,tr1,2,126).
route(l10,l20,tr2,7,392).
route(l10,l20,tr3,5,215).
route(l10,l20,tr4,4,152).
route(l10,l9,tr1,8,504).
route(l10,l9,tr2,1,56).
route(l10,l9,tr3,5,215).
route(l10,l9,tr4,10,380).
route(l11,l13,tr1,1,63).
route(l11,l13,tr2,7,392).
route(l11,l13,tr3,8,344).
route(l11,l13,tr4,1,38).
route(l11,l14,tr2,3,168).
route(l11,l15,tr1,8,504).
route(l11,l15,tr2,10,560).
route(l11,l15,tr3,3,129).
route(l11,l15,tr4,9,342).
route(l11,l16,tr1,6,378).
route(l11,l16,tr2,9,504).
route(l11,l16,tr3,3,129).
route(l11,l16,tr4,5,190).
route(l11,l17,tr4,3,114).
route(l11,l18,tr1,3,189).
route(l11,l18,tr2,7,392).
route(l11,l18,tr3,4,172).
route(l11,l18,tr4,3,114).
route(l11,l19,tr1,8,504).
route(l11,l19,tr2,10,560).
route(l11,l19,tr3,7,301).
route(l11,l19,tr4,3,114).
route(l11,l20,tr1,10,630).
route(l11,l20,tr2,2,112).
route(l11,l20,tr3,7,301).
route(l11,l20,tr4,3,114).
route(l11,l6,tr1,10,630).
route(l11,l6,tr2,3,168).
route(l11,l6,tr3,5,215).
route(l11,l6,tr4,4,152).
route(l11,l7,tr1,2,126).
route(l11,l7,tr2,10,560).
route(l11,l7,tr3,9,387).
route(l11,l7,tr4,7,266).
route(l11,l8,tr1,4,252).
route(l11,l8,tr2,10,560).
route(l11,l8,tr3,5,215).
route(l11,l8,tr4,7,266).
route(l11,l9,tr1,10,630).
route(l11,l9,tr2,6,336).
route(l11,l9,tr3,2,86).
route(l11,l9,tr4,7,266).
route(l12,l10,tr1,10,630).
route(l12,l10,tr2,10,560).
route(l12,l10,tr3,7,301).
route(l12,l10,tr4,6,228).
route(l12,l13,tr1,6,378).
route(l12,l13,tr2,9,504).
route(l12,l13,tr3,1,43).
route(l12,l13,tr4,10,380).
route(l12,l14,tr1,4,252).
route(l12,l14,tr2,4,224).
route(l12,l14,tr3,6,258).
route(l12,l14,tr4,2,76).
route(l12,l15,tr1,6,378).
route(l12,l15,tr2,2,112).
route(l12,l15,tr3,5,215).
route(l12,l15,tr4,7,266).
route(l12,l16,tr1,5,315).
route(l12,l16,tr2,9,504).
route(l12,l16,tr3,7,301).
route(l12,l16,tr4,8,304).
route(l12,l17,tr1,4,252).
route(l12,l17,tr2,7,392).
route(l12,l17,tr3,2,86).
route(l12,l17,tr4,3,114).
route(l12,l18,tr1,7,441).
route(l12,l18,tr2,1,56).
route(l12,l18,tr3,1,43).
route(l12,l18,tr4,9,342).
route(l12,l19,tr1,1,63).
route(l12,l19,tr2,5,280).
route(l12,l19,tr3,5,215).
route(l12,l19,tr4,7,266).
route(l12,l20,tr1,8,504).
route(l12,l20,tr2,2,112).
route(l12,l20,tr3,6,258).
route(l12,l20,tr4,1,38).
route(l12,l6,tr1,7,441).
route(l12,l6,tr2,5,280).
route(l12,l6,tr3,4,172).
route(l12,l6,tr4,1,38).
route(l12,l9,tr4,7,266).
route(l2,l10,tr1,5,315).
route(l2,l10,tr2,2,112).
route(l2,l10,tr3,2,86).
route(l2,l10,tr4,8,304).
route(l2,l11,tr3,1,43).
route(l2,l12,tr1,3,189).
route(l2,l12,tr2,3,168).
route(l2,l12,tr3,8,344).
route(l2,l12,tr4,4,152).
route(l2,l14,tr1,7,441).
route(l2,l14,tr2,4,224).
route(l2,l14,tr3,7,301).
route(l2,l14,tr4,8,304).
route(l2,l16,tr1,10,630).
route(l2,l16,tr2,3,168).
route(l2,l16,tr3,1,43).
route(l2,l16,tr4,5,190).
route(l2,l19,tr1,5,315).
route(l2,l19,tr2,4,224).
route(l2,l19,tr3,10,430).
route(l2,l19,tr4,7,266).
route(l2,l20,tr1,2,126).
route(l2,l20,tr2,6,336).
route(l2,l20,tr3,10,430).
route(l2,l20,tr4,3,114).
route(l2,l5,tr1,1,63).
route(l2,l5,tr2,9,504).
route(l2,l5,tr3,3,129).
route(l2,l5,tr4,8,304).
route(l2,l6,tr1,10,630).
route(l2,l6,tr2,9,504).
route(l2,l6,tr3,6,258).
route(l2,l6,tr4,8,304).
route(l2,l7,tr1,3,189).
route(l2,l7,tr2,10,560).
route(l2,l7,tr3,3,129).
route(l2,l7,tr4,4,152).
route(l2,l8,tr1,9,567).
route(l2,l8,tr2,6,336).
route(l2,l8,tr3,8,344).
route(l2,l8,tr4,2,76).
route(l2,l9,tr1,8,504).
route(l2,l9,tr2,6,336).
route(l2,l9,tr3,6,258).
route(l2,l9,tr4,3,114).
route(l3,l10,tr1,3,189).
route(l3,l10,tr2,7,392).
route(l3,l10,tr3,8,344).
route(l3,l10,tr4,9,342).
route(l3,l11,tr1,5,315).
route(l3,l11,tr2,9,504).
route(l3,l11,tr3,4,172).
route(l3,l11,tr4,8,304).
route(l3,l12,tr1,5,315).
route(l3,l12,tr2,1,56).
route(l3,l12,tr3,7,301).
route(l3,l12,tr4,1,38).
route(l3,l14,tr1,3,189).
route(l3,l14,tr2,8,448).
route(l3,l14,tr3,10,430).
route(l3,l14,tr4,9,342).
route(l3,l16,tr1,4,252).
route(l3,l16,tr2,10,560).
route(l3,l16,tr3,2,86).
route(l3,l16,tr4,9,342).
route(l3,l19,tr1,9,567).
route(l3,l19,tr2,4,224).
route(l3,l19,tr3,7,301).
route(l3,l19,tr4,3,114).
route(l3,l20,tr1,10,630).
route(l3,l20,tr2,1,56).
route(l3,l20,tr3,7,301).
route(l3,l20,tr4,5,190).
route(l3,l5,tr1,1,63).
route(l3,l5,tr2,6,336).
route(l3,l5,tr3,7,301).
route(l3,l5,tr4,10,380).
route(l3,l6,tr1,7,441).
route(l3,l6,tr2,1,56).
route(l3,l6,tr3,2,86).
route(l3,l6,tr4,3,114).
route(l3,l7,tr1,7,441).
route(l3,l7,tr2,3,168).
route(l3,l7,tr3,6,258).
route(l3,l7,tr4,2,76).
route(l3,l8,tr1,4,252).
route(l3,l8,tr2,8,448).
route(l3,l8,tr3,1,43).
route(l3,l8,tr4,9,342).
route(l3,l9,tr1,7,441).
route(l3,l9,tr2,10,560).
route(l3,l9,tr3,2,86).
route(l3,l9,tr4,4,152).
route(l4,l10,tr1,4,252).
route(l4,l11,tr1,1,63).
route(l4,l11,tr2,7,392).
route(l4,l11,tr3,8,344).
route(l4,l11,tr4,4,152).
route(l4,l12,tr1,8,504).
route(l4,l12,tr2,7,392).
route(l4,l12,tr3,2,86).
route(l4,l12,tr4,1,38).
route(l4,l13,tr1,5,315).
route(l4,l13,tr2,7,392).
route(l4,l13,tr3,9,387).
route(l4,l13,tr4,4,152).
route(l4,l14,tr1,8,504).
route(l4,l14,tr2,3,168).
route(l4,l14,tr3,1,43).
route(l4,l14,tr4,3,114).
route(l4,l15,tr1,6,378).
route(l4,l15,tr2,5,280).
route(l4,l15,tr3,10,430).
route(l4,l15,tr4,3,114).
route(l4,l16,tr1,1,63).
route(l4,l16,tr2,2,112).
route(l4,l16,tr3,4,172).
route(l4,l16,tr4,6,228).
route(l4,l5,tr1,3,189).
route(l4,l5,tr2,2,112).
route(l4,l5,tr3,5,215).
route(l4,l5,tr4,1,38).
route(l4,l6,tr1,2,126).
route(l4,l6,tr2,3,168).
route(l4,l6,tr3,5,215).
route(l4,l6,tr4,5,190).
route(l4,l7,tr1,4,252).
route(l4,l7,tr2,2,112).
route(l4,l7,tr3,6,258).
route(l4,l7,tr4,9,342).
route(l4,l8,tr1,3,189).
route(l4,l8,tr2,5,280).
route(l4,l8,tr3,7,301).
route(l4,l8,tr4,4,152).
route(l4,l9,tr1,8,504).
route(l4,l9,tr2,3,168).
route(l4,l9,tr3,7,301).
route(l4,l9,tr4,6,228).
route(l5,l11,tr1,5,315).
route(l5,l11,tr2,7,392).
route(l5,l11,tr3,4,172).
route(l5,l11,tr4,5,190).
route(l5,l12,tr1,10,630).
route(l5,l12,tr2,4,224).
route(l5,l12,tr3,4,172).
route(l5,l12,tr4,2,76).
route(l5,l13,tr1,9,567).
route(l5,l13,tr2,2,112).
route(l5,l13,tr3,1,43).
route(l5,l13,tr4,3,114).
route(l5,l14,tr1,5,315).
route(l5,l14,tr2,1,56).
route(l5,l14,tr3,10,430).
route(l5,l14,tr4,6,228).
route(l5,l15,tr1,8,504).
route(l5,l15,tr2,8,448).
route(l5,l15,tr3,7,301).
route(l5,l15,tr4,6,228).
route(l5,l16,tr1,5,315).
route(l5,l16,tr2,2,112).
route(l5,l16,tr3,7,301).
route(l5,l16,tr4,1,38).
route(l5,l17,tr1,1,63).
route(l5,l17,tr2,5,280).
route(l5,l17,tr3,8,344).
route(l5,l17,tr4,8,304).
route(l5,l18,tr1,2,126).
route(l5,l18,tr2,3,168).
route(l5,l18,tr3,9,387).
route(l5,l18,tr4,6,228).
route(l5,l19,tr1,3,189).
route(l5,l19,tr2,5,280).
route(l5,l19,tr3,10,430).
route(l5,l19,tr4,4,152).
route(l5,l20,tr1,4,252).
route(l5,l20,tr2,5,280).
route(l5,l20,tr3,4,172).
route(l5,l20,tr4,5,190).
route(l5,l6,tr1,8,504).
route(l5,l6,tr2,6,336).
route(l5,l6,tr3,4,172).
route(l5,l6,tr4,5,190).
route(l6,l13,tr1,9,567).
route(l6,l13,tr2,3,168).
route(l6,l13,tr3,1,43).
route(l6,l13,tr4,8,304).
route(l6,l14,tr1,9,567).
route(l6,l14,tr2,1,56).
route(l6,l14,tr3,6,258).
route(l6,l14,tr4,8,304).
route(l6,l15,tr1,3,189).
route(l6,l15,tr2,4,224).
route(l6,l15,tr3,3,129).
route(l6,l15,tr4,7,266).
route(l6,l16,tr1,8,504).
route(l6,l16,tr2,4,224).
route(l6,l16,tr3,6,258).
route(l6,l16,tr4,3,114).
route(l6,l17,tr4,2,76).
route(l6,l18,tr1,1,63).
route(l6,l18,tr2,6,336).
route(l6,l18,tr3,5,215).
route(l6,l18,tr4,9,342).
route(l6,l19,tr4,1,38).
route(l6,l20,tr1,2,126).
route(l6,l20,tr2,4,224).
route(l6,l20,tr3,2,86).
route(l6,l20,tr4,6,228).
route(l6,l5,tr1,2,126).
route(l6,l5,tr2,3,168).
route(l6,l5,tr3,10,430).
route(l6,l5,tr4,9,342).
route(l6,l9,tr1,6,378).
route(l6,l9,tr2,5,280).
route(l6,l9,tr3,8,344).
route(l6,l9,tr4,4,152).
route(l7,l10,tr1,3,189).
route(l7,l10,tr2,10,560).
route(l7,l10,tr3,9,387).
route(l7,l10,tr4,3,114).
route(l7,l13,tr1,3,189).
route(l7,l13,tr2,5,280).
route(l7,l13,tr3,8,344).
route(l7,l13,tr4,4,152).
route(l7,l14,tr2,2,112).
route(l7,l15,tr1,7,441).
route(l7,l15,tr2,1,56).
route(l7,l15,tr3,5,215).
route(l7,l15,tr4,8,304).
route(l7,l16,tr3,6,258).
route(l7,l17,tr2,7,392).
route(l7,l18,tr1,2,126).
route(l7,l18,tr2,1,56).
route(l7,l18,tr3,6,258).
route(l7,l18,tr4,6,228).
route(l7,l19,tr1,7,441).
route(l7,l19,tr2,9,504).
route(l7,l19,tr3,7,301).
route(l7,l19,tr4,3,114).
route(l7,l20,tr1,1,63).
route(l7,l20,tr2,4,224).
route(l7,l20,tr3,10,430).
route(l7,l20,tr4,2,76).
route(l7,l8,tr1,10,630).
route(l7,l8,tr2,6,336).
route(l7,l8,tr3,6,258).
route(l7,l8,tr4,10,380).
route(l7,l9,tr1,3,189).
route(l7,l9,tr2,2,112).
route(l7,l9,tr3,10,430).
route(l7,l9,tr4,8,304).
route(l8,l11,tr1,3,189).
route(l8,l11,tr2,10,560).
route(l8,l11,tr3,8,344).
route(l8,l11,tr4,7,266).
route(l8,l13,tr1,2,126).
route(l8,l13,tr2,5,280).
route(l8,l13,tr3,3,129).
route(l8,l13,tr4,9,342).
route(l8,l14,tr1,4,252).
route(l8,l14,tr2,2,112).
route(l8,l14,tr3,4,172).
route(l8,l14,tr4,5,190).
route(l8,l15,tr1,5,315).
route(l8,l15,tr2,6,336).
route(l8,l15,tr3,10,430).
route(l8,l15,tr4,7,266).
route(l8,l16,tr1,1,63).
route(l8,l16,tr2,7,392).
route(l8,l16,tr3,4,172).
route(l8,l16,tr4,5,190).
route(l8,l17,tr1,5,315).
route(l8,l17,tr2,3,168).
route(l8,l17,tr3,10,430).
route(l8,l17,tr4,4,152).
route(l8,l18,tr1,4,252).
route(l8,l18,tr2,9,504).
route(l8,l18,tr3,9,387).
route(l8,l18,tr4,3,114).
route(l8,l19,tr1,3,189).
route(l8,l19,tr2,7,392).
route(l8,l19,tr3,1,43).
route(l8,l19,tr4,8,304).
route(l8,l20,tr1,7,441).
route(l8,l20,tr2,1,56).
route(l8,l20,tr3,10,430).
route(l8,l20,tr4,8,304).
route(l8,l5,tr1,3,189).
route(l8,l5,tr2,9,504).
route(l8,l5,tr3,3,129).
route(l8,l5,tr4,8,304).
route(l8,l7,tr1,9,567).
route(l8,l7,tr2,6,336).
route(l8,l7,tr3,9,387).
route(l8,l7,tr4,10,380).
route(l9,l11,tr1,9,567).
route(l9,l11,tr2,1,56).
route(l9,l11,tr3,1,43).
route(l9,l11,tr4,9,342).
route(l9,l12,tr1,2,126).
route(l9,l12,tr2,7,392).
route(l9,l12,tr3,5,215).
route(l9,l12,tr4,4,152).
route(l9,l13,tr1,3,189).
route(l9,l13,tr2,1,56).
route(l9,l13,tr3,8,344).
route(l9,l13,tr4,5,190).
route(l9,l14,tr1,8,504).
route(l9,l14,tr2,5,280).
route(l9,l14,tr3,1,43).
route(l9,l14,tr4,3,114).
route(l9,l15,tr1,8,504).
route(l9,l15,tr2,8,448).
route(l9,l15,tr3,2,86).
route(l9,l15,tr4,2,76).
route(l9,l16,tr3,2,86).
route(l9,l17,tr1,8,504).
route(l9,l17,tr2,2,112).
route(l9,l17,tr3,9,387).
route(l9,l17,tr4,7,266).
route(l9,l18,tr1,3,189).
route(l9,l19,tr1,4,252).
route(l9,l19,tr2,2,112).
route(l9,l19,tr3,10,430).
route(l9,l19,tr4,5,190).
route(l9,l20,tr1,3,189).
route(l9,l20,tr2,10,560).
route(l9,l20,tr3,3,129).
route(l9,l20,tr4,9,342).
route(l9,l8,tr1,10,630).
route(l9,l8,tr2,4,224).
route(l9,l8,tr3,1,43).
route(l9,l8,tr4,7,266).
