% Sparse benchmark instance
% Generated with seed=12000 locations=10 parts=4 transports=2 routes=62

% ---- locations ----
location(l1).
location(l2).
location(l3).
location(l4).
location(l5).
location(l6).
location(l7).
location(l8).
location(l9).
location(l10).

% ---- transport resources ----
transportCapacity(tr1,10).
transportCO2(tr1,21).
transportCost(tr1,58).
transportSpeed(tr1,5).
transportCapacity(tr2,13).
transportCO2(tr2,63).
transportCost(tr2,53).
transportSpeed(tr2,4).

% ---- parts ----
part(p1).
partSize(p1,4).
partVal(p1,887).
partTR(p1,tr1).
partTR(p1,tr2).
part(p2).
partSize(p2,3).
partVal(p2,569).
partTR(p2,tr1).
partTR(p2,tr2).
part(p3).
partSize(p3,2).
partVal(p3,821).
partTR(p3,tr1).
partTR(p3,tr2).
part(p4).
partSize(p4,3).
partVal(p4,574).
partTR(p4,tr1).
partTR(p4,tr2).

% ---- demand and supply ----
demandOffer(p1,l1,18).
demandOffer(p2,l1,17).
demandOffer(p3,l1,15).
demandOffer(p4,l1,14).
demandOffer(p1,l10,-3).
demandOffer(p2,l10,-6).
demandOffer(p3,l10,-5).
demandOffer(p4,l10,-2).
demandOffer(p1,l2,12).
demandOffer(p2,l2,13).
demandOffer(p3,l2,15).
demandOffer(p4,l2,16).
demandOffer(p1,l7,-19).
demandOffer(p2,l7,-18).
demandOffer(p3,l7,-14).
demandOffer(p4,l7,-19).
demandOffer(p1,l8,-5).
demandOffer(p2,l8,-4).
demandOffer(p3,l8,-6).
demandOffer(p4,l8,-6).
demandOffer(p1,l9,-3).
demandOffer(p2,l9,-2).
demandOffer(p3,l9,-5).
demandOffer(p4,l9,-3).

% ---- routes ----
route(l1,l10,tr1,9,522).
route(l1,l10,tr2,6,318).
route(l1,l3,tr1,2,116).
route(l1,l3,tr2,7,371).
route(l1,l4,tr1,6,348).
route(l1,l4,tr2,3,159).
route(l1,l5,tr1,3,174).
route(l1,l5,tr2,8,424).
route(l1,l6,tr1,5,290).
route(l1,l6,tr2,6,318).
route(l1,l7,tr1,3,174).
route(l1,l7,tr2,8,424).
route(l1,l8,tr1,1,58).
route(l1,l8,tr2,1,53).
route(l1,l9,tr2,1,53).
route(l2,l3,tr1,2,116).
route(l2,l3,tr2,3,159).
route(l2,l4,tr1,10,580).
route(l2,l4,tr2,3,159).
route(l2,l5,tr1,6,348).
route(l2,l5,tr2,9,477).
route(l2,l6,tr1,4,232).
route(l2,l6,tr2,7,371).
route(l2,l7,tr1,9,522).
route(l2,l7,tr2,8,424).
route(l3,l10,tr1,4,232).
route(l3,l10,tr2,5,265).
route(l3,l4,tr1,3,174).
route(l3,l4,tr2,9,477).
route(l3,l7,tr1,9,522).
route(l3,l7,tr2,10,530).
route(l3,l8,tr1,2,116).
route(l3,l8,tr2,9,477).
route(l3,l9,tr2,1,53).
route(l4,l10,tr1,3,174).
route(l4,l10,tr2,6,318).
route(l4,l6,tr1,7,406).
route(l4,l6,tr2,5,265).
route(l4,l7,tr1,10,580).
route(l4,l7,tr2,10,530).
route(l4,l8,tr2,9,477).
route(l4,l9,tr1,4,232).
route(l4,l9,tr2,8,424).
route(l5,l10,tr1,6,348).
route(l5,l10,tr2,5,265).
route(l5,l3,tr1,3,174).
route(l5,l3,tr2,10,530).
route(l5,l7,tr1,5,290).
route(l5,l7,tr2,4,212).
route(l5,l8,tr1,9,522).
route(l5,l8,tr2,9,477).
route(l5,l9,tr1,1,58).
route(l6,l10,tr1,5,290).
route(l6,l10,tr2,9,477).
route(l6,l4,tr1,10,580).
route(l6,l4,tr2,5,265).
route(l6,l7,tr1,3,174).
route(l6,l7,tr2,1,53).
route(l6,l8,tr1,6,348).
route(l6,l8,tr2,10,530).
route(l6,l9,tr1,2,116).
route(l6,l9,tr2,6,318).
