% Sparse benchmark instance
% Generated with seed=7002 locations=10 parts=5 transports=2 routes=110

% ---- locations ----
location(l1).
location(l2).
location(l3).
location(l4).
location(l5).
location(l6).
location(l7).
location(l8).
location(l9).
location(l10).

% ---- transport resources ----
transportCapacity(tr1,18).
transportCO2(tr1,19).
transportCost(tr1,31).
transportSpeed(tr1,6).
transportCapacity(tr2,18).
transportCO2(tr2,58).
transportCost(tr2,87).
transportSpeed(tr2,7).

% ---- parts ----
part(p1).
partSize(p1,3).
partVal(p1,559).
partTR(p1,tr1).
partTR(p1,tr2).
part(p2).
partSize(p2,1).
partVal(p2,387).
partTR(p2,tr1).
partTR(p2,tr2).
part(p3).
partSize(p3,3).
partVal(p3,811).
partTR(p3,tr1).
partTR(p3,tr2).
part(p4).
partSize(p4,3).
partVal(p4,494).
partTR(p4,tr2).
part(p5).
partSize(p5,4).
partVal(p5,537).
partTR(p5,tr2).

% ---- demand and supply ----
demandOffer(p1,l3,-19).
demandOffer(p2,l3,-16).
demandOffer(p3,l3,-15).
demandOffer(p4,l3,-20).
demandOffer(p5,l3,-16).
demandOffer(p1,l5,-4).
demandOffer(p2,l5,-9).
demandOffer(p3,l5,-6).
demandOffer(p4,l5,-4).
demandOffer(p5,l5,-4).
demandOffer(p1,l6,-7).
demandOffer(p2,l6,-5).
demandOffer(p3,l6,-9).
demandOffer(p4,l6,-6).
demandOffer(p5,l6,-10).
demandOffer(p1,l7,14).
demandOffer(p2,l7,11).
demandOffer(p3,l7,17).
demandOffer(p4,l7,14).
demandOffer(p5,l7,18).
demandOffer(p1,l9,16).
demandOffer(p2,l9,19).
demandOffer(p3,l9,13).
demandOffer(p4,l9,16).
demandOffer(p5,l9,12).

% ---- routes ----
route(l1,l4,tr1,1,31).
route(l1,l4,tr2,8,696).
route(l1,l5,tr1,3,93).
route(l1,l5,tr2,7,609).
route(l1,l6,tr1,6,186).
route(l1,l6,tr2,3,261).
route(l1,l7,tr1,1,31).
route(l1,l7,tr2,9,783).
route(l10,l1,tr1,8,248).
route(l10,l1,tr2,7,609).
route(l10,l2,tr1,4,124).
route(l10,l2,tr2,3,261).
route(l10,l3,tr1,2,62).
route(l10,l3,tr2,1,87).
route(l10,l5,tr1,5,155).
route(l10,l5,tr2,3,261).
route(l10,l7,tr1,7,217).
route(l10,l7,tr2,6,522).
route(l10,l9,tr1,10,310).
route(l10,l9,tr2,2,174).
route(l2,l3,tr1,5,155).
route(l2,l3,tr2,1,87).
route(l2,l4,tr1,1,31).
route(l2,l4,tr2,3,261).
route(l2,l5,tr1,7,217).
route(l2,l6,tr1,2,62).
route(l2,l6,tr2,4,348).
route(l2,l9,tr1,9,279).
route(l2,l9,tr2,9,783).
route(l3,l2,tr1,7,217).
route(l3,l2,tr2,7,609).
route(l3,l4,tr1,1,31).
route(l3,l4,tr2,10,870).
route(l3,l6,tr1,3,93).
route(l3,l6,tr2,3,261).
route(l4,l10,tr1,9,279).
route(l4,l10,tr2,4,348).
route(l4,l2,tr1,3,93).
route(l4,l2,tr2,8,696).
route(l4,l3,tr1,9,279).
route(l4,l3,tr2,4,348).
route(l4,l5,tr1,9,279).
route(l4,l5,tr2,9,783).
route(l4,l6,tr1,7,217).
route(l4,l6,tr2,1,87).
route(l4,l7,tr1,8,248).
route(l4,l7,tr2,1,87).
route(l4,l8,tr1,10,310).
route(l4,l8,tr2,7,609).
route(l5,l10,tr1,3,93).
route(l5,l10,tr2,4,348).
route(l5,l4,tr1,9,279).
route(l5,l4,tr2,9,783).
route(l5,l9,tr1,3,93).
route(l5,l9,tr2,1,87).
route(l6,l1,tr1,2,62).
route(l6,l1,tr2,2,174).
route(l6,l10,tr1,10,310).
route(l6,l10,tr2,3,261).
route(l6,l2,tr1,3,93).
route(l6,l2,tr2,10,870).
route(l6,l3,tr1,8,248).
route(l6,l3,tr2,3,261).
route(l6,l4,tr1,3,93).
route(l6,l4,tr2,2,174).
route(l6,l8,tr1,6,186).
route(l6,l8,tr2,4,348).
route(l6,l9,tr2,2,174).
route(l7,l1,tr1,7,217).
route(l7,l1,tr2,5,435).
route(l7,l10,tr1,6,186).
route(l7,l10,tr2,2,174).
route(l7,l2,tr1,6,186).
route(l7,l2,tr2,8,696).
route(l7,l3,tr1,4,124).
route(l7,l4,tr1,5,155).
route(l7,l4,tr2,3,261).
route(l7,l5,tr1,3,93).
route(l7,l5,tr2,10,870).
route(l7,l6,tr1,6,186).
route(l7,l6,tr2,3,261).
route(l7,l8,tr1,1,31).
route(l7,l8,tr2,8,696).
route(l7,l9,tr1,2,62).
route(l8,l1,tr1,6,186).
route(l8,l1,tr2,8,696).
route(l8,l10,tr1,3,93).
route(l8,l10,tr2,3,261).
route(l8,l2,tr2,1,87).
route(l8,l3,tr1,5,155).
route(l8,l3,tr2,9,783).
route(l8,l4,tr1,6,186).
route(l8,l4,tr2,10,870).
route(l8,l5,tr1,4,124).
route(l8,l5,tr2,6,522).
route(l8,l6,tr1,2,62).
route(l8,l6,tr2,2,174).
route(l8,l7,tr1,3,93).
route(l8,l7,tr2,6,522).
route(l9,l10,tr1,7,217).
route(l9,l10,tr2,6,522).
route(l9,l2,tr1,6,186).
route(l9,l2,tr2,2,174).
route(l9,l4,tr1,1,31).
route(l9,l4,tr2,2,174).
route(l9,l6,tr1,9,279).
route(l9,l7,tr1,2,62).
route(l9,l7,tr2,7,609).
route(l9,l8,tr1,10,310).
route(l9,l8,tr2,6,522).
