% Sparse benchmark instance
% Generated with seed=7004 locations=10 parts=5 transports=2 routes=109

% ---- locations ----
location(l1).
location(l2).
location(l3).
location(l4).
location(l5).
location(l6).
location(l7).
location(l8).
location(l9).
location(l10).

% ---- transport resources ----
transportCapacity(tr1,12).
transportCO2(tr1,67).
transportCost(tr1,37).
transportSpeed(tr1,3).
transportCapacity(tr2,19).
transportCO2(tr2,27).
transportCost(tr2,45).
transportSpeed(tr2,8).

% ---- parts ----
part(p1).
partSize(p1,3).
partVal(p1,178).
partTR(p1,tr1).
partTR(p1,tr2).
part(p2).
partSize(p2,3).
partVal(p2,147).
partTR(p2,tr1).
partTR(p2,tr2).
part(p3).
partSize(p3,2).
partVal(p3,867).
partTR(p3,tr1).
partTR(p3,tr2).
part(p4).
partSize(p4,4).
partVal(p4,162).
partTR(p4,tr1).
partTR(p4,tr2).
part(p5).
partSize(p5,2).
partVal(p5,209).
partTR(p5,tr1).
partTR(p5,tr2).

% ---- demand and supply ----
demandOffer(p1,l10,-13).
demandOffer(p2,l10,-14).
demandOffer(p3,l10,-7).
demandOffer(p4,l10,-7).
demandOffer(p5,l10,-10).
demandOffer(p1,l3,-5).
demandOffer(p2,l3,-3).
demandOffer(p3,l3,-12).
demandOffer(p4,l3,-9).
demandOffer(p5,l3,-3).
demandOffer(p1,l6,13).
demandOffer(p2,l6,8).
demandOffer(p3,l6,16).
demandOffer(p4,l6,24).
demandOffer(p5,l6,4).
demandOffer(p1,l7,17).
demandOffer(p2,l7,22).
demandOffer(p3,l7,14).
demandOffer(p4,l7,6).
demandOffer(p5,l7,26).
demandOffer(p1,l8,-12).
demandOffer(p2,l8,-13).
demandOffer(p3,l8,-11).
demandOffer(p4,l8,-14).
demandOffer(p5,l8,-17).

% ---- routes ----
route(l1,l10,tr1,2,74).
route(l1,l10,tr2,4,180).
route(l1,l3,tr1,2,74).
route(l1,l3,tr2,10,450).
route(l1,l6,tr1,9,333).
route(l1,l6,tr2,2,90).
route(l1,l7,tr1,2,74).
route(l1,l7,tr2,8,360).
route(l1,l8,tr1,2,74).
route(l1,l8,tr2,9,405).
route(l10,l1,tr1,7,259).
route(l10,l1,tr2,6,270).
route(l10,l2,tr1,10,370).
route(l10,l2,tr2,10,450).
route(l10,l5,tr1,3,111).
route(l10,l5,tr2,9,405).
route(l10,l7,tr1,5,185).
route(l10,l7,tr2,3,135).
route(l10,l9,tr1,9,333).
route(l10,l9,tr2,9,405).
route(l2,l1,tr2,8,360).
route(l2,l10,tr1,9,333).
route(l2,l10,tr2,1,45).
route(l2,l3,tr1,9,333).
route(l2,l3,tr2,9,405).
route(l2,l4,tr1,7,259).
route(l2,l4,tr2,6,270).
route(l2,l5,tr1,2,74).
route(l2,l5,tr2,5,225).
route(l2,l6,tr1,2,74).
route(l2,l6,tr2,8,360).
route(l2,l7,tr2,10,450).
route(l2,l8,tr1,2,74).
route(l2,l8,tr2,2,90).
route(l3,l2,tr1,8,296).
route(l3,l4,tr1,2,74).
route(l3,l4,tr2,9,405).
route(l3,l5,tr1,6,222).
route(l3,l5,tr2,2,90).
route(l3,l6,tr1,7,259).
route(l3,l6,tr2,2,90).
route(l3,l9,tr1,2,74).
route(l3,l9,tr2,1,45).
route(l4,l3,tr1,2,74).
route(l4,l3,tr2,8,360).
route(l4,l5,tr1,4,148).
route(l4,l5,tr2,9,405).
route(l4,l6,tr1,2,74).
route(l4,l6,tr2,5,225).
route(l4,l7,tr1,7,259).
route(l4,l7,tr2,5,225).
route(l4,l8,tr1,6,222).
route(l4,l9,tr1,6,222).
route(l4,l9,tr2,9,405).
route(l5,l1,tr2,3,135).
route(l5,l10,tr1,1,37).
route(l5,l10,tr2,8,360).
route(l5,l2,tr1,5,185).
route(l5,l2,tr2,9,405).
route(l5,l3,tr1,10,370).
route(l5,l3,tr2,3,135).
route(l5,l4,tr1,7,259).
route(l5,l4,tr2,8,360).
route(l5,l6,tr1,4,148).
route(l5,l6,tr2,1,45).
route(l5,l8,tr1,5,185).
route(l5,l8,tr2,10,450).
route(l6,l1,tr1,5,185).
route(l6,l1,tr2,1,45).
route(l6,l10,tr1,2,74).
route(l6,l10,tr2,5,225).
route(l6,l2,tr1,1,37).
route(l6,l2,tr2,9,405).
route(l6,l3,tr1,1,37).
route(l6,l3,tr2,5,225).
route(l6,l5,tr1,10,370).
route(l6,l8,tr1,9,333).
route(l6,l8,tr2,7,315).
route(l7,l1,tr1,5,185).
route(l7,l1,tr2,8,360).
route(l7,l10,tr1,1,37).
route(l7,l10,tr2,2,90).
route(l7,l2,tr1,4,148).
route(l7,l2,tr2,3,135).
route(l7,l3,tr1,7,259).
route(l7,l3,tr2,9,405).
route(l7,l4,tr1,6,222).
route(l7,l4,tr2,6,270).
route(l7,l6,tr1,6,222).
route(l7,l6,tr2,9,405).
route(l7,l8,tr1,9,333).
route(l7,l8,tr2,2,90).
route(l8,l4,tr1,3,111).
route(l8,l4,tr2,8,360).
route(l8,l9,tr1,7,259).
route(l8,l9,tr2,1,45).
route(l9,l1,tr1,5,185).
route(l9,l1,tr2,4,180).
route(l9,l10,tr1,10,370).
route(l9,l2,tr1,8,296).
route(l9,l2,tr2,5,225).
route(l9,l3,tr1,5,185).
route(l9,l3,tr2,10,450).
route(l9,l6,tr1,8,296).
route(l9,l6,tr2,7,315).
route(l9,l7,tr1,1,37).
route(l9,l7,tr2,2,90).
route(l9,l8,tr1,6,222).
route(l9,l8,tr2,9,405).
