% Sparse benchmark instance
% Generated with seed=7000 locations=10 parts=5 transports=2 routes=99

% ---- locations ----
location(l1).
location(l2).
location(l3).
location(l4).
location(l5).
location(l6).
location(l7).
location(l8).
location(l9).
location(l10).

% ---- transport resources ----
transportCapacity(tr1,15).
transportCO2(tr1,29).
transportCost(tr1,51).
transportSpeed(tr1,6).
transportCapacity(tr2,10).
transportCO2(tr2,41).
transportCost(tr2,66).
transportSpeed(tr2,2).

% ---- parts ----
part(p1).
partSize(p1,2).
partVal(p1,920).
partTR(p1,tr1).
partTR(p1,tr2).
part(p2).
partSize(p2,4).
partVal(p2,132).
partTR(p2,tr1).
part(p3).
partSize(p3,4).
partVal(p3,227).
partTR(p3,tr1).
part(p4).
partSize(p4,3).
partVal(p4,781).
partTR(p4,tr2).
part(p5).
partSize(p5,1).
partVal(p5,311).
partTR(p5,tr1).

% ---- demand and supply ----
demandOffer(p1,l1,14).
demandOffer(p2,l1,18).
demandOffer(p3,l1,23).
demandOffer(p4,l1,19).
demandOffer(p5,l1,6).
demandOffer(p1,l3,16).
demandOffer(p2,l3,12).
demandOffer(p3,l3,7).
demandOffer(p4,l3,11).
demandOffer(p5,l3,24).
demandOffer(p1,l4,-20).
demandOffer(p2,l4,-2).
demandOffer(p3,l4,-17).
demandOffer(p4,l4,-6).
demandOffer(p5,l4,-3).
demandOffer(p1,l7,-9).
demandOffer(p2,l7,-18).
demandOffer(p3,l7,-12).
demandOffer(p4,l7,-10).
demandOffer(p5,l7,-17).
demandOffer(p1,l9,-1).
demandOffer(p2,l9,-10).
demandOffer(p3,l9,-1).
demandOffer(p4,l9,-14).
demandOffer(p5,l9,-10).

% ---- routes ----
route(l1,l2,tr1,5,255).
route(l1,l2,tr2,2,132).
route(l1,l4,tr1,4,204).
route(l1,l4,tr2,2,132).
route(l1,l5,tr1,5,255).
route(l1,l5,tr2,1,66).
route(l1,l6,tr1,7,357).
route(l1,l6,tr2,1,66).
route(l1,l7,tr1,9,459).
route(l1,l7,tr2,4,264).
route(l1,l8,tr1,6,306).
route(l1,l8,tr2,3,198).
route(l1,l9,tr1,7,357).
route(l1,l9,tr2,8,528).
route(l10,l2,tr1,2,102).
route(l10,l2,tr2,8,528).
route(l10,l3,tr1,4,204).
route(l10,l3,tr2,8,528).
route(l10,l5,tr2,8,528).
route(l10,l6,tr1,3,153).
route(l10,l6,tr2,5,330).
route(l10,l7,tr1,9,459).
route(l10,l7,tr2,5,330).
route(l10,l8,tr1,7,357).
route(l10,l8,tr2,1,66).
route(l2,l3,tr1,1,51).
route(l2,l3,tr2,10,660).
route(l2,l4,tr1,4,204).
route(l2,l4,tr2,4,264).
route(l2,l5,tr1,1,51).
route(l2,l5,tr2,10,660).
route(l2,l8,tr1,9,459).
route(l2,l8,tr2,10,660).
route(l2,l9,tr1,10,510).
route(l2,l9,tr2,7,462).
route(l3,l1,tr1,10,510).
route(l3,l1,tr2,10,660).
route(l3,l10,tr1,7,357).
route(l3,l10,tr2,4,264).
route(l3,l2,tr2,6,396).
route(l3,l4,tr2,8,528).
route(l3,l7,tr2,10,660).
route(l3,l8,tr1,4,204).
route(l3,l8,tr2,3,198).
route(l4,l10,tr1,10,510).
route(l4,l10,tr2,3,198).
route(l4,l2,tr1,4,204).
route(l4,l2,tr2,1,66).
route(l4,l3,tr1,1,51).
route(l4,l3,tr2,7,462).
route(l4,l6,tr1,1,51).
route(l4,l6,tr2,4,264).
route(l4,l8,tr1,7,357).
route(l4,l8,tr2,3,198).
route(l4,l9,tr1,2,102).
route(l5,l2,tr1,9,459).
route(l5,l3,tr1,9,459).
route(l5,l3,tr2,4,264).
route(l5,l4,tr2,2,132).
route(l5,l7,tr2,10,660).
route(l5,l8,tr2,8,528).
route(l5,l9,tr2,1,66).
route(l6,l1,tr1,6,306).
route(l6,l1,tr2,2,132).
route(l6,l10,tr1,3,153).
route(l6,l2,tr1,2,102).
route(l6,l5,tr1,1,51).
route(l6,l7,tr1,5,255).
route(l6,l8,tr1,5,255).
route(l6,l8,tr2,2,132).
route(l7,l1,tr1,2,102).
route(l7,l1,tr2,2,132).
route(l7,l3,tr1,5,255).
route(l7,l3,tr2,4,264).
route(l7,l4,tr1,6,306).
route(l7,l4,tr2,1,66).
route(l7,l5,tr1,10,510).
route(l7,l6,tr1,2,102).
route(l7,l6,tr2,3,198).
route(l7,l8,tr1,3,153).
route(l7,l8,tr2,3,198).
route(l7,l9,tr1,7,357).
route(l8,l1,tr1,4,204).
route(l8,l1,tr2,7,462).
route(l8,l10,tr1,10,510).
route(l8,l10,tr2,8,528).
route(l8,l2,tr1,7,357).
route(l8,l2,tr2,9,594).
route(l8,l4,tr1,2,102).
route(l8,l4,tr2,4,264).
route(l8,l6,tr1,6,306).
route(l8,l6,tr2,10,660).
route(l8,l7,tr1,9,459).
route(l8,l7,tr2,9,594).
route(l8,l9,tr1,7,357).
route(l8,l9,tr2,6,396).
route(l9,l6,tr1,3,153).
route(l9,l8,tr1,9,459).
route(l9,l8,tr2,3,198).
