% Sparse benchmark instance
% Generated with seed=7001 locations=10 parts=5 transports=2 routes=109

% ---- locations ----
location(l1).
location(l2).
location(l3).
location(l4).
location(l5).
location(l6).
location(l7).
location(l8).
location(l9).
location(l10).

% ---- transport resources ----
transportCapacity(tr1,11).
transportCO2(tr1,68).
transportCost(tr1,89).
transportSpeed(tr1,7).
transportCapacity(tr2,15).
transportCO2(tr2,38).
transportCost(tr2,72).
transportSpeed(tr2,7).

% ---- parts ----
part(p1).
partSize(p1,2).
partVal(p1,778).
partTR(p1,tr1).
partTR(p1,tr2).
part(p2).
partSize(p2,1).
partVal(p2,465).
partTR(p2,tr2).
part(p3).
partSize(p3,2).
partVal(p3,787).
partTR(p3,tr1).
part(p4).
partSize(p4,3).
partVal(p4,947).
partTR(p4,tr1).
partTR(p4,tr2).
part(p5).
partSize(p5,1).
partVal(p5,308).
partTR(p5,tr1).
partTR(p5,tr2).

% ---- demand and supply ----
demandOffer(p1,l1,-19).
demandOffer(p2,l1,-12).
demandOffer(p3,l1,-10).
demandOffer(p4,l1,-3).
demandOffer(p5,l1,-17).
demandOffer(p1,l10,-2).
demandOffer(p2,l10,-17).
demandOffer(p3,l10,-12).
demandOffer(p4,l10,-11).
demandOffer(p5,l10,-1).
demandOffer(p1,l3,11).
demandOffer(p2,l3,4).
demandOffer(p3,l3,15).
demandOffer(p4,l3,16).
demandOffer(p5,l3,3).
demandOffer(p1,l5,19).
demandOffer(p2,l5,26).
demandOffer(p3,l5,15).
demandOffer(p4,l5,14).
demandOffer(p5,l5,27).
demandOffer(p1,l7,-9).
demandOffer(p2,l7,-1).
demandOffer(p3,l7,-8).
demandOffer(p4,l7,-16).
demandOffer(p5,l7,-12).

% ---- routes ----
route(l1,l10,tr1,9,801).
route(l1,l10,tr2,9,648).
route(l1,l3,tr1,5,445).
route(l1,l3,tr2,5,360).
route(l1,l5,tr1,8,712).
route(l1,l5,tr2,4,288).
route(l1,l7,tr1,2,178).
route(l1,l7,tr2,6,432).
route(l1,l8,tr1,10,890).
route(l1,l8,tr2,5,360).
route(l1,l9,tr1,8,712).
route(l1,l9,tr2,9,648).
route(l10,l3,tr1,4,356).
route(l10,l3,tr2,7,504).
route(l10,l4,tr1,8,712).
route(l10,l4,tr2,1,72).
route(l10,l5,tr1,9,801).
route(l10,l5,tr2,4,288).
route(l10,l6,tr1,6,534).
route(l10,l6,tr2,7,504).
route(l10,l7,tr1,2,178).
route(l10,l7,tr2,10,720).
route(l10,l8,tr1,7,623).
route(l10,l8,tr2,4,288).
route(l2,l1,tr1,5,445).
route(l2,l1,tr2,4,288).
route(l2,l3,tr1,10,890).
route(l2,l3,tr2,9,648).
route(l2,l5,tr1,3,267).
route(l2,l7,tr1,2,178).
route(l2,l7,tr2,7,504).
route(l2,l8,tr1,2,178).
route(l2,l8,tr2,7,504).
route(l2,l9,tr1,7,623).
route(l2,l9,tr2,6,432).
route(l3,l1,tr1,8,712).
route(l3,l1,tr2,6,432).
route(l3,l10,tr1,4,356).
route(l3,l10,tr2,4,288).
route(l3,l2,tr1,2,178).
route(l3,l2,tr2,1,72).
route(l3,l5,tr1,6,534).
route(l3,l6,tr1,10,890).
route(l3,l6,tr2,7,504).
route(l3,l7,tr1,6,534).
route(l3,l7,tr2,1,72).
route(l3,l8,tr1,6,534).
route(l3,l8,tr2,9,648).
route(l4,l1,tr1,7,623).
route(l4,l1,tr2,7,504).
route(l4,l3,tr1,4,356).
route(l4,l3,tr2,3,216).
route(l4,l6,tr1,5,445).
route(l4,l6,tr2,6,432).
route(l4,l7,tr1,3,267).
route(l4,l7,tr2,8,576).
route(l4,l8,tr1,9,801).
route(l4,l8,tr2,10,720).
route(l5,l1,tr1,7,623).
route(l5,l1,tr2,4,288).
route(l5,l10,tr1,1,89).
route(l5,l10,tr2,6,432).
route(l5,l2,tr1,6,534).
route(l5,l2,tr2,5,360).
route(l5,l3,tr1,9,801).
route(l5,l3,tr2,3,216).
route(l5,l7,tr1,10,890).
route(l5,l9,tr1,7,623).
route(l5,l9,tr2,6,432).
route(l6,l1,tr1,4,356).
route(l6,l1,tr2,3,216).
route(l6,l3,tr1,10,890).
route(l6,l3,tr2,7,504).
route(l6,l9,tr1,9,801).
route(l7,l1,tr2,8,576).
route(l7,l10,tr1,10,890).
route(l7,l10,tr2,5,360).
route(l7,l2,tr1,2,178).
route(l7,l2,tr2,5,360).
route(l7,l4,tr1,7,623).
route(l7,l4,tr2,8,576).
route(l7,l5,tr1,8,712).
route(l7,l5,tr2,6,432).
route(l7,l6,tr1,2,178).
route(l7,l6,tr2,1,72).
route(l7,l8,tr1,3,267).
route(l7,l8,tr2,2,144).
route(l8,l1,tr1,9,801).
route(l8,l1,tr2,10,720).
route(l8,l10,tr1,5,445).
route(l8,l10,tr2,9,648).
route(l8,l2,tr1,4,356).
route(l8,l2,tr2,3,216).
route(l8,l7,tr1,10,890).
route(l8,l7,tr2,1,72).
route(l9,l1,tr1,5,445).
route(l9,l1,tr2,10,720).
route(l9,l10,tr1,1,89).
route(l9,l10,tr2,3,216).
route(l9,l2,tr1,7,623).
route(l9,l2,tr2,5,360).
route(l9,l4,tr2,3,216).
route(l9,l5,tr1,6,534).
route(l9,l6,tr1,7,623).
route(l9,l6,tr2,8,576).
route(l9,l7,tr1,10,890).
route(l9,l7,tr2,10,720).
route(l9,l8,tr1,3,267).
route(l9,l8,tr2,4,288).
