% Sparse benchmark instance
% Generated with seed=7003 locations=10 parts=5 transports=2 routes=107

% ---- locations ----
location(l1).
location(l2).
location(l3).
location(l4).
location(l5).
location(l6).
location(l7).
location(l8).
location(l9).
location(l10).

% ---- transport resources ----
transportCapacity(tr1,20).
transportCO2(tr1,20).
transportCost(tr1,74).
transportSpeed(tr1,5).
transportCapacity(tr2,11).
transportCO2(tr2,32).
transportCost(tr2,61).
transportSpeed(tr2,7).

% ---- parts ----
part(p1).
partSize(p1,3).
partVal(p1,234).
partTR(p1,tr1).
partTR(p1,tr2).
part(p2).
partSize(p2,2).
partVal(p2,447).
partTR(p2,tr1).
partTR(p2,tr2).
part(p3).
partSize(p3,3).
partVal(p3,794).
partTR(p3,tr2).
part(p4).
partSize(p4,2).
partVal(p4,595).
partTR(p4,tr1).
partTR(p4,tr2).
part(p5).
partSize(p5,3).
partVal(p5,702).
partTR(p5,tr2).

% ---- demand and supply ----
demandOffer(p1,l1,-7).
demandOffer(p2,l1,-13).
demandOffer(p3,l1,-14).
demandOffer(p4,l1,-7).
demandOffer(p5,l1,-11).
demandOffer(p1,l10,-8).
demandOffer(p2,l10,-14).
demandOffer(p3,l10,-8).
demandOffer(p4,l10,-9).
demandOffer(p5,l10,-5).
demandOffer(p1,l4,12).
demandOffer(p2,l4,15).
demandOffer(p3,l4,7).
demandOffer(p4,l4,5).
demandOffer(p5,l4,5).
demandOffer(p1,l7,-15).
demandOffer(p2,l7,-3).
demandOffer(p3,l7,-8).
demandOffer(p4,l7,-14).
demandOffer(p5,l7,-14).
demandOffer(p1,l8,18).
demandOffer(p2,l8,15).
demandOffer(p3,l8,23).
demandOffer(p4,l8,25).
demandOffer(p5,l8,25).

% ---- routes ----
route(l1,l10,tr1,3,222).
route(l1,l10,tr2,7,427).
route(l1,l2,tr1,3,222).
route(l1,l2,tr2,5,305).
route(l1,l3,tr1,9,666).
route(l1,l3,tr2,2,122).
route(l1,l4,tr1,3,222).
route(l1,l5,tr1,7,518).
route(l1,l5,tr2,5,305).
route(l1,l7,tr1,3,222).
route(l1,l7,tr2,10,610).
route(l1,l9,tr1,9,666).
route(l1,l9,tr2,3,183).
route(l10,l3,tr1,3,222).
route(l10,l3,tr2,6,366).
route(l10,l4,tr1,3,222).
route(l10,l4,tr2,1,61).
route(l10,l5,tr1,1,74).
route(l10,l5,tr2,6,366).
route(l10,l6,tr1,1,74).
route(l10,l8,tr1,4,296).
route(l10,l8,tr2,5,305).
route(l10,l9,tr1,8,592).
route(l10,l9,tr2,4,244).
route(l2,l1,tr1,5,370).
route(l2,l1,tr2,8,488).
route(l2,l10,tr1,1,74).
route(l2,l10,tr2,9,549).
route(l2,l4,tr1,5,370).
route(l2,l4,tr2,7,427).
route(l2,l5,tr1,9,666).
route(l2,l6,tr1,9,666).
route(l2,l6,tr2,8,488).
route(l2,l7,tr1,10,740).
route(l2,l7,tr2,4,244).
route(l2,l8,tr2,5,305).
route(l2,l9,tr1,2,148).
route(l2,l9,tr2,7,427).
route(l3,l1,tr2,1,61).
route(l3,l10,tr1,5,370).
route(l3,l10,tr2,8,488).
route(l3,l2,tr1,5,370).
route(l3,l2,tr2,10,610).
route(l3,l4,tr1,1,74).
route(l3,l4,tr2,7,427).
route(l3,l6,tr1,8,592).
route(l3,l6,tr2,3,183).
route(l4,l1,tr1,10,740).
route(l4,l1,tr2,8,488).
route(l4,l2,tr1,5,370).
route(l4,l2,tr2,10,610).
route(l4,l6,tr1,9,666).
route(l4,l6,tr2,3,183).
route(l4,l7,tr1,8,592).
route(l4,l7,tr2,10,610).
route(l4,l8,tr1,8,592).
route(l4,l8,tr2,4,244).
route(l4,l9,tr1,6,444).
route(l4,l9,tr2,7,427).
route(l5,l1,tr1,7,518).
route(l5,l1,tr2,4,244).
route(l5,l2,tr1,4,296).
route(l5,l2,tr2,1,61).
route(l5,l6,tr1,3,222).
route(l5,l6,tr2,4,244).
route(l5,l7,tr1,8,592).
route(l5,l7,tr2,2,122).
route(l5,l8,tr1,10,740).
route(l5,l8,tr2,10,610).
route(l6,l2,tr2,10,610).
route(l6,l3,tr1,5,370).
route(l6,l3,tr2,5,305).
route(l6,l4,tr1,3,222).
route(l6,l4,tr2,10,610).
route(l6,l7,tr1,4,296).
route(l6,l7,tr2,6,366).
route(l6,l8,tr1,7,518).
route(l6,l8,tr2,9,549).
route(l7,l1,tr1,5,370).
route(l7,l1,tr2,2,122).
route(l7,l10,tr1,3,222).
route(l7,l10,tr2,3,183).
route(l7,l2,tr1,2,148).
route(l7,l2,tr2,7,427).
route(l7,l3,tr1,2,148).
route(l7,l3,tr2,4,244).
route(l7,l5,tr2,3,183).
route(l7,l6,tr1,8,592).
route(l8,l1,tr1,1,74).
route(l8,l1,tr2,9,549).
route(l8,l10,tr1,3,222).
route(l8,l10,tr2,2,122).
route(l8,l2,tr1,2,148).
route(l8,l2,tr2,7,427).
route(l8,l5,tr1,8,592).
route(l8,l5,tr2,8,488).
route(l8,l6,tr1,10,740).
route(l8,l6,tr2,5,305).
route(l8,l7,tr1,7,518).
route(l8,l7,tr2,9,549).
route(l9,l1,tr1,10,740).
route(l9,l1,tr2,8,488).
route(l9,l10,tr2,1,61).
route(l9,l6,tr1,8,592).
route(l9,l6,tr2,8,488).
route(l9,l8,tr1,1,74).
route(l9,l8,tr2,1,61).
