% Sparse benchmark instance
% Generated with seed=8003 locations=8 parts=5 transports=2 routes=62

% ---- locations ----
location(l1).
location(l2).
location(l3).
location(l4).
location(l5).
location(l6).
location(l7).
location(l8).

% ---- transport resources ----
transportCapacity(tr1,13).
transportCO2(tr1,23).
transportCost(tr1,55).
transportSpeed(tr1,4).
transportCapacity(tr2,17).
transportCO2(tr2,32).
transportCost(tr2,46).
transportSpeed(tr2,7).

% ---- parts ----
part(p1).
partSize(p1,1).
partVal(p1,135).
partTR(p1,tr1).
partTR(p1,tr2).
part(p2).
partSize(p2,3).
partVal(p2,209).
partTR(p2,tr1).
partTR(p2,tr2).
part(p3).
partSize(p3,4).
partVal(p3,219).
partTR(p3,tr1).
partTR(p3,tr2).
part(p4).
partSize(p4,4).
partVal(p4,400).
partTR(p4,tr2).
part(p5).
partSize(p5,3).
partVal(p5,523).
partTR(p5,tr1).

% ---- demand and supply ----
demandOffer(p1,l1,4).
demandOffer(p2,l1,25).
demandOffer(p3,l1,18).
demandOffer(p4,l1,4).
demandOffer(p5,l1,16).
demandOffer(p1,l2,26).
demandOffer(p2,l2,5).
demandOffer(p3,l2,12).
demandOffer(p4,l2,26).
demandOffer(p5,l2,14).
demandOffer(p1,l3,-16).
demandOffer(p2,l3,-14).
demandOffer(p3,l3,-13).
demandOffer(p4,l3,-9).
demandOffer(p5,l3,-11).
demandOffer(p1,l4,-9).
demandOffer(p2,l4,-6).
demandOffer(p3,l4,-11).
demandOffer(p4,l4,-17).
demandOffer(p5,l4,-4).
demandOffer(p1,l5,-5).
demandOffer(p2,l5,-10).
demandOffer(p3,l5,-6).
demandOffer(p4,l5,-4).
demandOffer(p5,l5,-15).

% ---- routes ----
route(l1,l3,tr1,2,110).
route(l1,l3,tr2,8,368).
route(l1,l6,tr1,2,110).
route(l1,l6,tr2,1,46).
route(l1,l8,tr1,3,165).
route(l1,l8,tr2,2,92).
route(l2,l1,tr2,1,46).
route(l2,l4,tr1,5,275).
route(l2,l4,tr2,1,46).
route(l2,l5,tr1,1,55).
route(l2,l5,tr2,6,276).
route(l2,l6,tr1,3,165).
route(l2,l6,tr2,4,184).
route(l3,l6,tr1,10,550).
route(l3,l6,tr2,10,460).
route(l3,l8,tr1,6,330).
route(l3,l8,tr2,6,276).
route(l4,l1,tr2,8,368).
route(l4,l2,tr2,8,368).
route(l4,l3,tr1,3,165).
route(l4,l3,tr2,1,46).
route(l4,l6,tr1,4,220).
route(l4,l6,tr2,6,276).
route(l4,l7,tr1,9,495).
route(l4,l7,tr2,6,276).
route(l4,l8,tr1,1,55).
route(l4,l8,tr2,8,368).
route(l5,l3,tr1,8,440).
route(l5,l3,tr2,4,184).
route(l5,l4,tr1,7,385).
route(l5,l4,tr2,2,92).
route(l6,l2,tr1,6,330).
route(l6,l2,tr2,10,460).
route(l6,l3,tr1,10,550).
route(l6,l3,tr2,4,184).
route(l6,l4,tr1,5,275).
route(l6,l4,tr2,1,46).
route(l6,l5,tr1,10,550).
route(l6,l5,tr2,5,230).
route(l6,l7,tr1,6,330).
route(l6,l7,tr2,6,276).
route(l6,l8,tr1,4,220).
route(l6,l8,tr2,5,230).
route(l7,l1,tr1,9,495).
route(l7,l1,tr2,2,92).
route(l7,l2,tr1,3,165).
route(l7,l2,tr2,10,460).
route(l7,l5,tr1,4,220).
route(l7,l5,tr2,7,322).
route(l7,l8,tr1,8,440).
route(l7,l8,tr2,8,368).
route(l8,l1,tr2,4,184).
route(l8,l2,tr1,6,330).
route(l8,l2,tr2,4,184).
route(l8,l3,tr1,9,495).
route(l8,l3,tr2,5,230).
route(l8,l4,tr1,10,550).
route(l8,l4,tr2,5,230).
route(l8,l5,tr1,3,165).
route(l8,l5,tr2,4,184).
route(l8,l7,tr1,5,275).
route(l8,l7,tr2,6,276).
