% Sparse benchmark instance
% Generated with seed=8004 locations=8 parts=5 transports=2 routes=59

% ---- locations ----
location(l1).
location(l2).
location(l3).
location(l4).
location(l5).
location(l6).
location(l7).
location(l8).

% ---- transport resources ----
transportCapacity(tr1,17).
transportCO2(tr1,27).
transportCost(tr1,77).
transportSpeed(tr1,7).
transportCapacity(tr2,18).
transportCO2(tr2,58).
transportCost(tr2,41).
transportSpeed(tr2,7).

% ---- parts ----
part(p1).
partSize(p1,1).
partVal(p1,404).
partTR(p1,tr2).
part(p2).
partSize(p2,2).
partVal(p2,634).
partTR(p2,tr1).
part(p3).
partSize(p3,4).
partVal(p3,847).
partTR(p3,tr1).
partTR(p3,tr2).
part(p4).
partSize(p4,2).
partVal(p4,734).
partTR(p4,tr1).
partTR(p4,tr2).
part(p5).
partSize(p5,1).
partVal(p5,768).
partTR(p5,tr1).
partTR(p5,tr2).

% ---- demand and supply ----
demandOffer(p1,l1,16).
demandOffer(p2,l1,4).
demandOffer(p3,l1,7).
demandOffer(p4,l1,15).
demandOffer(p5,l1,11).
demandOffer(p1,l2,-13).
demandOffer(p2,l2,-3).
demandOffer(p3,l2,-17).
demandOffer(p4,l2,-3).
demandOffer(p5,l2,-15).
demandOffer(p1,l3,14).
demandOffer(p2,l3,26).
demandOffer(p3,l3,23).
demandOffer(p4,l3,15).
demandOffer(p5,l3,19).
demandOffer(p1,l4,-7).
demandOffer(p2,l4,-8).
demandOffer(p3,l4,-11).
demandOffer(p4,l4,-18).
demandOffer(p5,l4,-6).
demandOffer(p1,l8,-10).
demandOffer(p2,l8,-19).
demandOffer(p3,l8,-2).
demandOffer(p4,l8,-9).
demandOffer(p5,l8,-9).

% ---- routes ----
route(l1,l3,tr2,6,246).
route(l1,l4,tr1,7,539).
route(l1,l4,tr2,3,123).
route(l1,l5,tr1,3,231).
route(l1,l5,tr2,7,287).
route(l1,l7,tr1,2,154).
route(l1,l7,tr2,1,41).
route(l2,l1,tr1,10,770).
route(l2,l1,tr2,1,41).
route(l2,l6,tr1,7,539).
route(l2,l6,tr2,8,328).
route(l2,l8,tr1,4,308).
route(l2,l8,tr2,5,205).
route(l3,l1,tr1,3,231).
route(l3,l1,tr2,10,410).
route(l3,l2,tr2,2,82).
route(l3,l4,tr1,5,385).
route(l3,l4,tr2,5,205).
route(l3,l5,tr1,1,77).
route(l3,l6,tr1,6,462).
route(l3,l6,tr2,2,82).
route(l3,l7,tr1,8,616).
route(l3,l7,tr2,9,369).
route(l3,l8,tr1,7,539).
route(l3,l8,tr2,6,246).
route(l4,l1,tr1,3,231).
route(l4,l1,tr2,9,369).
route(l4,l5,tr2,3,123).
route(l4,l6,tr1,3,231).
route(l4,l6,tr2,2,82).
route(l5,l2,tr1,4,308).
route(l5,l2,tr2,10,410).
route(l5,l3,tr1,1,77).
route(l5,l3,tr2,10,410).
route(l5,l4,tr1,9,693).
route(l5,l4,tr2,3,123).
route(l5,l6,tr1,9,693).
route(l5,l6,tr2,2,82).
route(l5,l7,tr1,10,770).
route(l5,l7,tr2,8,328).
route(l5,l8,tr1,8,616).
route(l5,l8,tr2,1,41).
route(l6,l2,tr1,9,693).
route(l6,l2,tr2,4,164).
route(l6,l3,tr2,1,41).
route(l6,l4,tr1,9,693).
route(l6,l8,tr1,6,462).
route(l6,l8,tr2,7,287).
route(l7,l2,tr1,3,231).
route(l7,l2,tr2,4,164).
route(l7,l4,tr1,7,539).
route(l7,l8,tr1,5,385).
route(l7,l8,tr2,10,410).
route(l8,l1,tr1,4,308).
route(l8,l1,tr2,4,164).
route(l8,l4,tr1,8,616).
route(l8,l4,tr2,3,123).
route(l8,l5,tr1,5,385).
route(l8,l5,tr2,2,82).
