% Sparse benchmark instance
% Generated with seed=8002 locations=8 parts=5 transports=2 routes=60

% ---- locations ----
location(l1).
location(l2).
location(l3).
location(l4).
location(l5).
location(l6).
location(l7).
location(l8).

% ---- transport resources ----
transportCapacity(tr1,18).
transportCO2(tr1,46).
transportCost(tr1,55).
transportSpeed(tr1,7).
transportCapacity(tr2,13).
transportCO2(tr2,64).
transportCost(tr2,67).
transportSpeed(tr2,3).

% ---- parts ----
part(p1).
partSize(p1,2).
partVal(p1,459).
partTR(p1,tr1).
partTR(p1,tr2).
part(p2).
partSize(p2,4).
partVal(p2,234).
partTR(p2,tr2).
part(p3).
partSize(p3,1).
partVal(p3,152).
partTR(p3,tr1).
partTR(p3,tr2).
part(p4).
partSize(p4,1).
partVal(p4,761).
partTR(p4,tr1).
part(p5).
partSize(p5,2).
partVal(p5,799).
partTR(p5,tr1).
partTR(p5,tr2).

% ---- demand and supply ----
demandOffer(p1,l2,-19).
demandOffer(p2,l2,-19).
demandOffer(p3,l2,-16).
demandOffer(p4,l2,-15).
demandOffer(p5,l2,-12).
demandOffer(p1,l3,11).
demandOffer(p2,l3,15).
demandOffer(p3,l3,18).
demandOffer(p4,l3,17).
demandOffer(p5,l3,11).
demandOffer(p1,l4,-4).
demandOffer(p2,l4,-5).
demandOffer(p3,l4,-5).
demandOffer(p4,l4,-6).
demandOffer(p5,l4,-12).
demandOffer(p1,l5,-7).
demandOffer(p2,l5,-6).
demandOffer(p3,l5,-9).
demandOffer(p4,l5,-9).
demandOffer(p5,l5,-6).
demandOffer(p1,l8,19).
demandOffer(p2,l8,15).
demandOffer(p3,l8,12).
demandOffer(p4,l8,13).
demandOffer(p5,l8,19).

% ---- routes ----
route(l1,l2,tr1,4,220).
route(l1,l2,tr2,1,67).
route(l1,l4,tr1,8,440).
route(l1,l4,tr2,2,134).
route(l1,l5,tr1,8,440).
route(l1,l5,tr2,5,335).
route(l1,l7,tr1,8,440).
route(l1,l7,tr2,1,67).
route(l2,l4,tr1,1,55).
route(l2,l5,tr1,3,165).
route(l2,l5,tr2,2,134).
route(l2,l6,tr1,8,440).
route(l2,l6,tr2,7,469).
route(l2,l7,tr1,2,110).
route(l2,l8,tr1,5,275).
route(l2,l8,tr2,5,335).
route(l3,l2,tr1,2,110).
route(l3,l2,tr2,10,670).
route(l3,l5,tr1,10,550).
route(l3,l5,tr2,7,469).
route(l3,l7,tr1,9,495).
route(l3,l7,tr2,10,670).
route(l4,l2,tr1,6,330).
route(l4,l2,tr2,6,402).
route(l4,l5,tr1,9,495).
route(l4,l7,tr1,5,275).
route(l4,l7,tr2,1,67).
route(l4,l8,tr1,2,110).
route(l4,l8,tr2,10,670).
route(l5,l1,tr1,7,385).
route(l5,l1,tr2,10,670).
route(l5,l2,tr1,4,220).
route(l5,l2,tr2,8,536).
route(l5,l4,tr1,5,275).
route(l5,l4,tr2,8,536).
route(l5,l8,tr2,9,603).
route(l6,l2,tr1,8,440).
route(l6,l2,tr2,10,670).
route(l6,l3,tr1,10,550).
route(l6,l3,tr2,3,201).
route(l6,l5,tr1,3,165).
route(l6,l5,tr2,8,536).
route(l6,l8,tr1,6,330).
route(l6,l8,tr2,1,67).
route(l7,l2,tr1,4,220).
route(l7,l4,tr1,8,440).
route(l7,l4,tr2,2,134).
route(l7,l5,tr1,10,550).
route(l7,l5,tr2,4,268).
route(l7,l6,tr1,2,110).
route(l7,l6,tr2,2,134).
route(l7,l8,tr1,2,110).
route(l7,l8,tr2,8,536).
route(l8,l1,tr2,6,402).
route(l8,l2,tr1,6,330).
route(l8,l2,tr2,1,67).
route(l8,l5,tr1,1,55).
route(l8,l5,tr2,8,536).
route(l8,l7,tr1,8,440).
route(l8,l7,tr2,4,268).
