% Sparse benchmark instance
% Generated with seed=8000 locations=8 parts=5 transports=2 routes=56

% ---- locations ----
location(l1).
location(l2).
location(l3).
location(l4).
location(l5).
location(l6).
location(l7).
location(l8).

% ---- transport resources ----
transportCapacity(tr1,19).
transportCO2(tr1,54).
transportCost(tr1,33).
transportSpeed(tr1,4).
transportCapacity(tr2,15).
transportCO2(tr2,61).
transportCost(tr2,79).
transportSpeed(tr2,2).

% ---- parts ----
part(p1).
partSize(p1,3).
partVal(p1,675).
partTR(p1,tr1).
partTR(p1,tr2).
part(p2).
partSize(p2,1).
partVal(p2,742).
partTR(p2,tr1).
partTR(p2,tr2).
part(p3).
partSize(p3,2).
partVal(p3,160).
partTR(p3,tr1).
partTR(p3,tr2).
part(p4).
partSize(p4,1).
partVal(p4,175).
partTR(p4,tr2).
part(p5).
partSize(p5,4).
partVal(p5,968).
partTR(p5,tr1).
partTR(p5,tr2).

% ---- demand and supply ----
demandOffer(p1,l1,20).
demandOffer(p2,l1,20).
demandOffer(p3,l1,20).
demandOffer(p4,l1,10).
demandOffer(p5,l1,24).
demandOffer(p1,l3,-5).
demandOffer(p2,l3,-19).
demandOffer(p3,l3,-10).
demandOffer(p4,l3,-13).
demandOffer(p5,l3,-1).
demandOffer(p1,l4,-15).
demandOffer(p2,l4,-10).
demandOffer(p3,l4,-8).
demandOffer(p4,l4,-14).
demandOffer(p5,l4,-3).
demandOffer(p1,l6,-10).
demandOffer(p2,l6,-1).
demandOffer(p3,l6,-12).
demandOffer(p4,l6,-3).
demandOffer(p5,l6,-26).
demandOffer(p1,l8,10).
demandOffer(p2,l8,10).
demandOffer(p3,l8,10).
demandOffer(p4,l8,20).
demandOffer(p5,l8,6).

% ---- routes ----
route(l1,l2,tr2,4,316).
route(l1,l3,tr1,4,132).
route(l1,l3,tr2,6,474).
route(l1,l4,tr2,10,790).
route(l1,l5,tr1,4,132).
route(l1,l5,tr2,4,316).
route(l1,l7,tr1,10,330).
route(l1,l7,tr2,1,79).
route(l2,l3,tr1,3,99).
route(l2,l3,tr2,2,158).
route(l2,l4,tr2,4,316).
route(l2,l6,tr1,4,132).
route(l2,l6,tr2,5,395).
route(l3,l1,tr1,7,231).
route(l3,l1,tr2,2,158).
route(l3,l6,tr1,1,33).
route(l3,l6,tr2,10,790).
route(l3,l8,tr2,7,553).
route(l4,l1,tr1,3,99).
route(l4,l1,tr2,8,632).
route(l4,l2,tr1,10,330).
route(l4,l2,tr2,1,79).
route(l4,l5,tr2,1,79).
route(l5,l2,tr1,1,33).
route(l5,l2,tr2,9,711).
route(l5,l3,tr2,4,316).
route(l5,l4,tr1,3,99).
route(l5,l4,tr2,2,158).
route(l5,l6,tr1,8,264).
route(l5,l8,tr1,7,231).
route(l5,l8,tr2,5,395).
route(l6,l1,tr1,5,165).
route(l6,l1,tr2,3,237).
route(l6,l3,tr1,8,264).
route(l6,l3,tr2,3,237).
route(l6,l5,tr1,10,330).
route(l6,l5,tr2,8,632).
route(l6,l7,tr1,6,198).
route(l7,l3,tr1,4,132).
route(l7,l3,tr2,6,474).
route(l7,l4,tr1,5,165).
route(l7,l4,tr2,10,790).
route(l7,l6,tr1,6,198).
route(l7,l6,tr2,6,474).
route(l8,l1,tr1,2,66).
route(l8,l2,tr1,2,66).
route(l8,l2,tr2,5,395).
route(l8,l3,tr1,1,33).
route(l8,l3,tr2,6,474).
route(l8,l4,tr1,9,297).
route(l8,l4,tr2,9,711).
route(l8,l5,tr1,8,264).
route(l8,l5,tr2,2,158).
route(l8,l6,tr1,8,264).
route(l8,l6,tr2,3,237).
route(l8,l7,tr2,2,158).
