% Sparse benchmark instance
% Generated with seed=8001 locations=8 parts=5 transports=2 routes=61

% ---- locations ----
location(l1).
location(l2).
location(l3).
location(l4).
location(l5).
location(l6).
location(l7).
location(l8).

% ---- transport resources ----
transportCapacity(tr1,19).
transportCO2(tr1,27).
transportCost(tr1,77).
transportSpeed(tr1,8).
transportCapacity(tr2,19).
transportCO2(tr2,51).
transportCost(tr2,49).
transportSpeed(tr2,7).

% ---- parts ----
part(p1).
partSize(p1,4).
partVal(p1,922).
partTR(p1,tr1).
partTR(p1,tr2).
part(p2).
partSize(p2,2).
partVal(p2,865).
partTR(p2,tr1).
partTR(p2,tr2).
part(p3).
partSize(p3,3).
partVal(p3,105).
partTR(p3,tr1).
part(p4).
partSize(p4,1).
partVal(p4,545).
partTR(p4,tr1).
partTR(p4,tr2).
part(p5).
partSize(p5,2).
partVal(p5,105).
partTR(p5,tr1).
partTR(p5,tr2).

% ---- demand and supply ----
demandOffer(p1,l3,12).
demandOffer(p2,l3,10).
demandOffer(p3,l3,16).
demandOffer(p4,l3,10).
demandOffer(p5,l3,13).
demandOffer(p1,l4,-12).
demandOffer(p2,l4,-17).
demandOffer(p3,l4,-13).
demandOffer(p4,l4,-13).
demandOffer(p5,l4,-16).
demandOffer(p1,l5,-6).
demandOffer(p2,l5,-8).
demandOffer(p3,l5,-11).
demandOffer(p4,l5,-11).
demandOffer(p5,l5,-4).
demandOffer(p1,l7,18).
demandOffer(p2,l7,20).
demandOffer(p3,l7,14).
demandOffer(p4,l7,20).
demandOffer(p5,l7,17).
demandOffer(p1,l8,-12).
demandOffer(p2,l8,-5).
demandOffer(p3,l8,-6).
demandOffer(p4,l8,-6).
demandOffer(p5,l8,-10).

% ---- routes ----
route(l1,l4,tr1,8,616).
route(l1,l4,tr2,4,196).
route(l1,l5,tr1,4,308).
route(l1,l5,tr2,10,490).
route(l1,l8,tr1,5,385).
route(l1,l8,tr2,9,441).
route(l2,l4,tr1,5,385).
route(l2,l4,tr2,10,490).
route(l2,l5,tr1,3,231).
route(l2,l5,tr2,5,245).
route(l2,l7,tr2,6,294).
route(l3,l1,tr2,8,392).
route(l3,l2,tr2,5,245).
route(l3,l4,tr1,9,693).
route(l3,l4,tr2,1,49).
route(l3,l5,tr1,5,385).
route(l3,l5,tr2,7,343).
route(l3,l6,tr1,9,693).
route(l3,l6,tr2,3,147).
route(l3,l7,tr1,1,77).
route(l3,l7,tr2,10,490).
route(l3,l8,tr1,5,385).
route(l3,l8,tr2,10,490).
route(l4,l5,tr1,1,77).
route(l4,l5,tr2,6,294).
route(l4,l6,tr1,10,770).
route(l4,l6,tr2,1,49).
route(l4,l8,tr1,1,77).
route(l4,l8,tr2,6,294).
route(l5,l1,tr1,8,616).
route(l5,l1,tr2,5,245).
route(l5,l2,tr1,5,385).
route(l5,l2,tr2,10,490).
route(l6,l3,tr1,2,154).
route(l6,l3,tr2,7,343).
route(l6,l4,tr1,4,308).
route(l6,l4,tr2,1,49).
route(l6,l5,tr1,8,616).
route(l6,l5,tr2,5,245).
route(l6,l8,tr2,10,490).
route(l7,l1,tr1,9,693).
route(l7,l1,tr2,5,245).
route(l7,l3,tr1,8,616).
route(l7,l3,tr2,6,294).
route(l7,l4,tr1,1,77).
route(l7,l4,tr2,1,49).
route(l7,l5,tr2,9,441).
route(l7,l8,tr1,7,539).
route(l7,l8,tr2,2,98).
route(l8,l1,tr1,2,154).
route(l8,l1,tr2,3,147).
route(l8,l2,tr1,4,308).
route(l8,l2,tr2,8,392).
route(l8,l3,tr1,6,462).
route(l8,l3,tr2,4,196).
route(l8,l5,tr1,8,616).
route(l8,l5,tr2,6,294).
route(l8,l6,tr1,1,77).
route(l8,l6,tr2,6,294).
route(l8,l7,tr1,3,231).
route(l8,l7,tr2,1,49).
