% Multibatching benchmark instance
% Generated with seed=1008 locations=10 parts=5 transports=3

% ---- locations ----
location(l1).
location(l2).
location(l3).
location(l4).
location(l5).
location(l6).
location(l7).
location(l8).
location(l9).
location(l10).

% ---- transport resources ----
transportCapacity(tr1,17).
transportCO2(tr1,66).
transportCost(tr1,76).
transportSpeed(tr1,10).
transportCapacity(tr2,12).
transportCO2(tr2,23).
transportCost(tr2,20).
transportSpeed(tr2,7).
transportCapacity(tr3,25).
transportCO2(tr3,28).
transportCost(tr3,94).
transportSpeed(tr3,7).

% ---- parts ----
part(p1).
partSize(p1,1).
partVal(p1,652).
partTR(p1,tr1).
partTR(p1,tr2).
partTR(p1,tr3).
part(p2).
partSize(p2,4).
partVal(p2,250).
partTR(p2,tr1).
partTR(p2,tr2).
part(p3).
partSize(p3,1).
partVal(p3,335).
partTR(p3,tr1).
partTR(p3,tr2).
partTR(p3,tr3).
part(p4).
partSize(p4,1).
partVal(p4,251).
partTR(p4,tr1).
partTR(p4,tr2).
part(p5).
partSize(p5,2).
partVal(p5,335).
partTR(p5,tr2).

% ---- demand and supply ----
demandOffer(p2,l1,21).
demandOffer(p3,l1,-4).
demandOffer(p5,l1,-2).
demandOffer(p1,l2,11).
demandOffer(p2,l2,1).
demandOffer(p3,l2,-2).
demandOffer(p4,l2,1).
demandOffer(p1,l3,7).
demandOffer(p2,l3,-16).
demandOffer(p3,l3,-11).
demandOffer(p4,l3,-5).
demandOffer(p5,l3,17).
demandOffer(p1,l4,4).
demandOffer(p2,l4,16).
demandOffer(p1,l5,24).
demandOffer(p2,l5,-23).
demandOffer(p3,l5,-22).
demandOffer(p4,l5,6).
demandOffer(p5,l5,15).
demandOffer(p1,l6,21).
demandOffer(p3,l6,18).
demandOffer(p4,l6,-15).
demandOffer(p1,l7,1).
demandOffer(p2,l7,-3).
demandOffer(p3,l7,19).
demandOffer(p1,l8,21).
demandOffer(p2,l8,-4).
demandOffer(p4,l8,9).
demandOffer(p1,l9,-9).
demandOffer(p2,l9,17).
demandOffer(p4,l9,21).
demandOffer(p1,l10,-80).
demandOffer(p2,l10,-9).
demandOffer(p4,l10,-17).
demandOffer(p5,l10,-30).
demandOffer(p3,l10,2).

% ---- routes ----
route(l1,l2,tr3,2,188).
route(l1,l2,tr2,4,80).
route(l1,l3,tr3,5,470).
route(l1,l3,tr1,8,608).
route(l1,l4,tr2,1,20).
route(l1,l4,tr3,6,564).
route(l1,l5,tr3,1,94).
route(l1,l5,tr2,9,180).
route(l1,l6,tr2,10,200).
route(l1,l6,tr3,1,94).
route(l1,l7,tr3,10,940).
route(l1,l7,tr2,6,120).
route(l1,l8,tr3,7,658).
route(l1,l8,tr2,5,100).
route(l1,l9,tr3,2,188).
route(l1,l9,tr1,3,228).
route(l1,l10,tr3,6,564).
route(l1,l10,tr2,5,100).
route(l2,l1,tr1,10,760).
route(l2,l1,tr2,8,160).
route(l2,l3,tr3,1,94).
route(l2,l3,tr2,1,20).
route(l2,l4,tr1,9,684).
route(l2,l4,tr3,2,188).
route(l2,l5,tr1,9,684).
route(l2,l5,tr2,2,40).
route(l2,l6,tr3,1,94).
route(l2,l6,tr1,9,684).
route(l2,l7,tr2,9,180).
route(l2,l7,tr3,7,658).
route(l2,l8,tr3,9,846).
route(l2,l8,tr1,5,380).
route(l2,l9,tr2,5,100).
route(l2,l9,tr1,5,380).
route(l2,l10,tr1,3,228).
route(l2,l10,tr3,1,94).
route(l3,l1,tr2,9,180).
route(l3,l1,tr3,3,282).
route(l3,l2,tr1,8,608).
route(l3,l2,tr2,10,200).
route(l3,l4,tr2,1,20).
route(l3,l4,tr3,8,752).
route(l3,l5,tr2,4,80).
route(l3,l5,tr1,9,684).
route(l3,l6,tr1,10,760).
route(l3,l6,tr2,4,80).
route(l3,l7,tr2,1,20).
route(l3,l7,tr3,1,94).
route(l3,l8,tr2,5,100).
route(l3,l8,tr3,1,94).
route(l3,l9,tr1,6,456).
route(l3,l9,tr3,8,752).
route(l3,l10,tr2,7,140).
route(l3,l10,tr3,3,282).
route(l4,l1,tr3,10,940).
route(l4,l1,tr1,1,76).
route(l4,l2,tr3,4,376).
route(l4,l2,tr2,8,160).
route(l4,l3,tr1,8,608).
route(l4,l3,tr2,2,40).
route(l4,l5,tr2,5,100).
route(l4,l5,tr3,1,94).
route(l4,l6,tr3,4,376).
route(l4,l6,tr2,4,80).
route(l4,l7,tr2,9,180).
route(l4,l7,tr1,4,304).
route(l4,l8,tr2,3,60).
route(l4,l8,tr3,1,94).
route(l4,l9,tr1,8,608).
route(l4,l9,tr2,1,20).
route(l4,l10,tr1,9,684).
route(l4,l10,tr2,2,40).
route(l5,l1,tr3,9,846).
route(l5,l1,tr1,5,380).
route(l5,l2,tr1,9,684).
route(l5,l2,tr2,9,180).
route(l5,l3,tr2,2,40).
route(l5,l3,tr3,3,282).
route(l5,l4,tr3,3,282).
route(l5,l4,tr1,4,304).
route(l5,l6,tr1,3,228).
route(l5,l6,tr2,1,20).
route(l5,l7,tr3,3,282).
route(l5,l7,tr1,6,456).
route(l5,l8,tr2,5,100).
route(l5,l8,tr3,3,282).
route(l5,l9,tr1,10,760).
route(l5,l9,tr2,10,200).
route(l5,l10,tr2,1,20).
route(l5,l10,tr1,6,456).
route(l6,l1,tr1,8,608).
route(l6,l1,tr2,6,120).
route(l6,l2,tr1,4,304).
route(l6,l2,tr3,4,376).
route(l6,l3,tr3,6,564).
route(l6,l3,tr2,6,120).
route(l6,l4,tr2,10,200).
route(l6,l4,tr3,6,564).
route(l6,l5,tr1,4,304).
route(l6,l5,tr2,1,20).
route(l6,l7,tr3,7,658).
route(l6,l7,tr1,6,456).
route(l6,l8,tr1,5,380).
route(l6,l8,tr3,3,282).
route(l6,l9,tr2,2,40).
route(l6,l9,tr3,3,282).
route(l6,l10,tr1,10,760).
route(l6,l10,tr3,10,940).
route(l7,l1,tr3,7,658).
route(l7,l1,tr1,1,76).
route(l7,l2,tr1,2,152).
route(l7,l2,tr3,8,752).
route(l7,l3,tr1,10,760).
route(l7,l3,tr3,3,282).
route(l7,l4,tr1,6,456).
route(l7,l4,tr3,10,940).
route(l7,l5,tr3,7,658).
route(l7,l5,tr1,5,380).
route(l7,l6,tr1,1,76).
route(l7,l6,tr3,9,846).
route(l7,l8,tr1,10,760).
route(l7,l8,tr3,2,188).
route(l7,l9,tr3,3,282).
route(l7,l9,tr2,7,140).
route(l7,l10,tr3,4,376).
route(l7,l10,tr2,1,20).
route(l8,l1,tr3,1,94).
route(l8,l1,tr1,4,304).
route(l8,l2,tr1,2,152).
route(l8,l2,tr2,9,180).
route(l8,l3,tr2,2,40).
route(l8,l3,tr3,3,282).
route(l8,l4,tr3,7,658).
route(l8,l4,tr1,3,228).
route(l8,l5,tr3,3,282).
route(l8,l5,tr1,9,684).
route(l8,l6,tr3,5,470).
route(l8,l6,tr2,7,140).
route(l8,l7,tr3,1,94).
route(l8,l7,tr2,10,200).
route(l8,l9,tr2,9,180).
route(l8,l9,tr1,2,152).
route(l8,l10,tr3,5,470).
route(l8,l10,tr2,1,20).
route(l9,l1,tr1,2,152).
route(l9,l1,tr2,9,180).
route(l9,l2,tr3,10,940).
route(l9,l2,tr2,1,20).
route(l9,l3,tr1,2,152).
route(l9,l3,tr3,9,846).
route(l9,l4,tr2,5,100).
route(l9,l4,tr1,3,228).
route(l9,l5,tr2,5,100).
route(l9,l5,tr3,8,752).
route(l9,l6,tr2,9,180).
route(l9,l6,tr1,6,456).
route(l9,l7,tr2,10,200).
route(l9,l7,tr3,5,470).
route(l9,l8,tr3,5,470).
route(l9,l8,tr2,5,100).
route(l9,l10,tr3,1,94).
route(l9,l10,tr1,3,228).
route(l10,l1,tr1,7,532).
route(l10,l1,tr2,8,160).
route(l10,l2,tr3,4,376).
route(l10,l2,tr2,8,160).
route(l10,l3,tr1,2,152).
route(l10,l3,tr3,3,282).
route(l10,l4,tr1,7,532).
route(l10,l4,tr2,7,140).
route(l10,l5,tr3,5,470).
route(l10,l5,tr1,1,76).
route(l10,l6,tr3,8,752).
route(l10,l6,tr1,1,76).
route(l10,l7,tr1,8,608).
route(l10,l7,tr2,1,20).
route(l10,l8,tr1,1,76).
route(l10,l8,tr2,1,20).
route(l10,l9,tr2,3,60).
route(l10,l9,tr3,6,564).
