% Multibatching benchmark instance
% Source: instances.lp
% seed=11  harbors=17  prodlocs=34  hubs=10  disruptions=2

% ---- locations ----
location(harbor0).
location(harbor1).
location(harbor2).
location(harbor3).
location(harbor4).
location(harbor5).
location(harbor6).
location(harbor7).
location(harbor8).
location(harbor9).
location(harbor10).
location(harbor11).
location(harbor12).
location(harbor13).
location(harbor14).
location(harbor15).
location(harbor16).
location(prodloc0).
location(prodloc1).
location(prodloc2).
location(prodloc3).
location(prodloc4).
location(prodloc5).
location(prodloc6).
location(prodloc7).
location(prodloc8).
location(prodloc9).
location(prodloc10).
location(prodloc11).
location(prodloc12).
location(prodloc13).
location(prodloc14).
location(prodloc15).
location(prodloc16).
location(prodloc17).
location(prodloc18).
location(prodloc19).
location(prodloc20).
location(prodloc21).
location(prodloc22).
location(prodloc23).
location(prodloc24).
location(prodloc25).
location(prodloc26).
location(prodloc27).
location(prodloc28).
location(prodloc29).
location(prodloc30).
location(prodloc31).
location(prodloc32).
location(prodloc33).

% ---- transport resources ----
transportCapacity(tr0,1800).
transportCO2(tr0,1680).
transportCost(tr0,26).
transportSpeed(tr0,12).
transportCapacity(tr1,65).
transportCO2(tr1,90).
transportCost(tr1,1).
transportSpeed(tr1,35).
transportCapacity(tr10,1).
transportCO2(tr10,700).
transportCost(tr10,4).
transportSpeed(tr10,40).
transportCapacity(tr11,65).
transportCO2(tr11,62).
transportCost(tr11,1).
transportSpeed(tr11,25).
transportCapacity(tr12,65).
transportCO2(tr12,709).
transportCost(tr12,3).
transportSpeed(tr12,55).
transportCapacity(tr13,68).
transportCO2(tr13,160).
transportCost(tr13,6).
transportSpeed(tr13,25).
transportCapacity(tr14,146).
transportCO2(tr14,780).
transportCost(tr14,4).
transportSpeed(tr14,50).
transportCapacity(tr15,2217).
transportCO2(tr15,49470).
transportCost(tr15,32).
transportSpeed(tr15,625).
transportCapacity(tr2,96).
transportCO2(tr2,709).
transportCost(tr2,3).
transportSpeed(tr2,55).
transportCapacity(tr3,1).
transportCO2(tr3,6250).
transportCost(tr3,108).
transportSpeed(tr3,25).
transportCapacity(tr4,148).
transportCO2(tr4,780).
transportCost(tr4,4).
transportSpeed(tr4,50).
transportCapacity(tr5,65).
transportCO2(tr5,780).
transportCost(tr5,3).
transportSpeed(tr5,50).
transportCapacity(tr6,1).
transportCO2(tr6,100).
transportCost(tr6,40).
transportSpeed(tr6,25).
transportCapacity(tr7,1).
transportCO2(tr7,18000).
transportCost(tr7,278).
transportSpeed(tr7,10).
transportCapacity(tr8,1).
transportCO2(tr8,14400).
transportCost(tr8,107).
transportSpeed(tr8,25).
transportCapacity(tr9,65).
transportCO2(tr9,708).
transportCost(tr9,2).
transportSpeed(tr9,60).

% ---- parts ----
part(part0).
partSize(part0,21).
valid_transport(part0,tr0).
valid_transport(part0,tr15).
valid_transport(part0,tr14).
valid_transport(part0,tr13).
valid_transport(part0,tr4).
part(part1).
partSize(part1,1).
valid_transport(part1,tr0).
valid_transport(part1,tr2).
valid_transport(part1,tr15).
valid_transport(part1,tr9).
valid_transport(part1,tr12).
valid_transport(part1,tr13).
valid_transport(part1,tr11).
part(part10).
partSize(part10,1).
valid_transport(part10,tr0).
valid_transport(part10,tr2).
valid_transport(part10,tr15).
valid_transport(part10,tr9).
valid_transport(part10,tr12).
valid_transport(part10,tr13).
valid_transport(part10,tr11).
part(part11).
partSize(part11,83).
valid_transport(part11,tr0).
valid_transport(part11,tr7).
valid_transport(part11,tr8).
valid_transport(part11,tr15).
valid_transport(part11,tr3).
valid_transport(part11,tr13).
part(part12).
partSize(part12,273).
valid_transport(part12,tr0).
valid_transport(part12,tr7).
valid_transport(part12,tr8).
valid_transport(part12,tr15).
valid_transport(part12,tr3).
valid_transport(part12,tr13).
part(part13).
partSize(part13,1).
valid_transport(part13,tr0).
valid_transport(part13,tr2).
valid_transport(part13,tr15).
valid_transport(part13,tr9).
valid_transport(part13,tr12).
valid_transport(part13,tr13).
valid_transport(part13,tr11).
part(part14).
partSize(part14,68).
valid_transport(part14,tr0).
valid_transport(part14,tr15).
valid_transport(part14,tr13).
part(part15).
partSize(part15,4).
valid_transport(part15,tr0).
valid_transport(part15,tr2).
valid_transport(part15,tr15).
valid_transport(part15,tr9).
valid_transport(part15,tr12).
valid_transport(part15,tr13).
valid_transport(part15,tr11).
part(part16).
partSize(part16,4).
valid_transport(part16,tr0).
valid_transport(part16,tr2).
valid_transport(part16,tr15).
valid_transport(part16,tr9).
valid_transport(part16,tr12).
valid_transport(part16,tr13).
valid_transport(part16,tr11).
part(part17).
partSize(part17,8).
valid_transport(part17,tr0).
valid_transport(part17,tr15).
valid_transport(part17,tr14).
valid_transport(part17,tr13).
valid_transport(part17,tr4).
part(part18).
partSize(part18,24).
valid_transport(part18,tr0).
valid_transport(part18,tr15).
valid_transport(part18,tr14).
valid_transport(part18,tr13).
valid_transport(part18,tr4).
part(part19).
partSize(part19,6).
valid_transport(part19,tr0).
valid_transport(part19,tr2).
valid_transport(part19,tr15).
valid_transport(part19,tr9).
valid_transport(part19,tr12).
valid_transport(part19,tr13).
valid_transport(part19,tr11).
part(part2).
partSize(part2,19).
valid_transport(part2,tr0).
valid_transport(part2,tr15).
valid_transport(part2,tr14).
valid_transport(part2,tr13).
valid_transport(part2,tr4).
part(part20).
partSize(part20,128).
valid_transport(part20,tr0).
valid_transport(part20,tr7).
valid_transport(part20,tr8).
valid_transport(part20,tr15).
valid_transport(part20,tr3).
valid_transport(part20,tr13).
part(part21).
partSize(part21,25).
valid_transport(part21,tr0).
valid_transport(part21,tr15).
valid_transport(part21,tr14).
valid_transport(part21,tr13).
valid_transport(part21,tr4).
part(part22).
partSize(part22,7).
valid_transport(part22,tr0).
valid_transport(part22,tr2).
valid_transport(part22,tr15).
valid_transport(part22,tr9).
valid_transport(part22,tr12).
valid_transport(part22,tr13).
valid_transport(part22,tr11).
part(part23).
partSize(part23,5).
valid_transport(part23,tr0).
valid_transport(part23,tr15).
valid_transport(part23,tr14).
valid_transport(part23,tr13).
valid_transport(part23,tr4).
part(part24).
partSize(part24,55).
valid_transport(part24,tr0).
valid_transport(part24,tr7).
valid_transport(part24,tr8).
valid_transport(part24,tr15).
valid_transport(part24,tr3).
valid_transport(part24,tr13).
part(part25).
partSize(part25,5).
valid_transport(part25,tr0).
valid_transport(part25,tr4).
valid_transport(part25,tr2).
valid_transport(part25,tr15).
valid_transport(part25,tr13).
part(part26).
partSize(part26,32).
valid_transport(part26,tr0).
valid_transport(part26,tr7).
valid_transport(part26,tr8).
valid_transport(part26,tr15).
valid_transport(part26,tr3).
valid_transport(part26,tr13).
part(part27).
partSize(part27,5).
valid_transport(part27,tr0).
valid_transport(part27,tr2).
valid_transport(part27,tr15).
valid_transport(part27,tr9).
valid_transport(part27,tr12).
valid_transport(part27,tr13).
valid_transport(part27,tr11).
part(part28).
partSize(part28,3).
valid_transport(part28,tr0).
valid_transport(part28,tr4).
valid_transport(part28,tr2).
valid_transport(part28,tr15).
valid_transport(part28,tr14).
valid_transport(part28,tr13).
part(part29).
partSize(part29,627).
part(part3).
partSize(part3,48).
valid_transport(part3,tr0).
valid_transport(part3,tr7).
valid_transport(part3,tr8).
valid_transport(part3,tr15).
valid_transport(part3,tr3).
valid_transport(part3,tr13).
part(part30).
partSize(part30,2).
valid_transport(part30,tr0).
valid_transport(part30,tr2).
valid_transport(part30,tr15).
valid_transport(part30,tr9).
valid_transport(part30,tr12).
valid_transport(part30,tr13).
valid_transport(part30,tr11).
part(part31).
partSize(part31,144).
valid_transport(part31,tr0).
valid_transport(part31,tr7).
valid_transport(part31,tr8).
valid_transport(part31,tr15).
valid_transport(part31,tr3).
valid_transport(part31,tr13).
part(part32).
partSize(part32,16).
valid_transport(part32,tr0).
valid_transport(part32,tr4).
valid_transport(part32,tr2).
valid_transport(part32,tr15).
valid_transport(part32,tr14).
valid_transport(part32,tr13).
part(part33).
partSize(part33,7).
valid_transport(part33,tr0).
valid_transport(part33,tr2).
valid_transport(part33,tr15).
valid_transport(part33,tr9).
valid_transport(part33,tr12).
valid_transport(part33,tr13).
valid_transport(part33,tr11).
part(part3345).
partSize(part3345,353).
valid_transport(part3345,tr0).
valid_transport(part3345,tr7).
valid_transport(part3345,tr8).
valid_transport(part3345,tr15).
valid_transport(part3345,tr3).
valid_transport(part3345,tr13).
part(part34).
partSize(part34,2).
valid_transport(part34,tr0).
valid_transport(part34,tr2).
valid_transport(part34,tr15).
valid_transport(part34,tr9).
valid_transport(part34,tr12).
valid_transport(part34,tr13).
valid_transport(part34,tr11).
part(part4).
partSize(part4,2).
valid_transport(part4,tr0).
valid_transport(part4,tr2).
valid_transport(part4,tr15).
valid_transport(part4,tr9).
valid_transport(part4,tr12).
valid_transport(part4,tr13).
valid_transport(part4,tr11).
part(part5).
partSize(part5,2).
valid_transport(part5,tr0).
valid_transport(part5,tr2).
valid_transport(part5,tr15).
valid_transport(part5,tr9).
valid_transport(part5,tr12).
valid_transport(part5,tr14).
valid_transport(part5,tr13).
valid_transport(part5,tr11).
part(part6).
partSize(part6,111).
valid_transport(part6,tr0).
valid_transport(part6,tr7).
valid_transport(part6,tr8).
valid_transport(part6,tr15).
valid_transport(part6,tr3).
valid_transport(part6,tr13).
part(part8).
partSize(part8,163).
valid_transport(part8,tr0).
valid_transport(part8,tr7).
valid_transport(part8,tr8).
valid_transport(part8,tr15).
valid_transport(part8,tr3).
valid_transport(part8,tr13).
part(part9).
partSize(part9,2).
valid_transport(part9,tr0).
valid_transport(part9,tr2).
valid_transport(part9,tr15).
valid_transport(part9,tr9).
valid_transport(part9,tr12).
valid_transport(part9,tr13).
valid_transport(part9,tr11).

% ---- demand ----
demandOffer(part0,prodloc28,40).
demandOffer(part0,prodloc29,40).
demandOffer(part0,prodloc32,-27).
demandOffer(part0,prodloc12,-53).
demandOffer(part1,prodloc11,20).
demandOffer(part1,prodloc32,20).
demandOffer(part1,prodloc30,-20).
demandOffer(part1,prodloc6,-20).
demandOffer(part10,prodloc28,20).
demandOffer(part10,prodloc19,20).
demandOffer(part10,prodloc9,-20).
demandOffer(part10,prodloc5,-20).
demandOffer(part12,prodloc2,10).
demandOffer(part12,prodloc25,20).
demandOffer(part12,prodloc28,-10).
demandOffer(part12,prodloc10,-10).
demandOffer(part12,prodloc0,-10).
demandOffer(part13,prodloc33,20).
demandOffer(part13,prodloc4,20).
demandOffer(part13,prodloc3,-20).
demandOffer(part13,prodloc2,-20).
demandOffer(part14,prodloc12,26).
demandOffer(part14,prodloc15,-26).
demandOffer(part15,prodloc1,53).
demandOffer(part15,prodloc29,27).
demandOffer(part15,prodloc20,-53).
demandOffer(part15,prodloc28,-27).
demandOffer(part16,prodloc12,53).
demandOffer(part16,prodloc33,27).
demandOffer(part16,prodloc14,-53).
demandOffer(part16,prodloc18,-27).
demandOffer(part17,prodloc31,20).
demandOffer(part17,prodloc0,-20).
demandOffer(part18,prodloc5,40).
demandOffer(part18,prodloc29,40).
demandOffer(part18,prodloc17,-27).
demandOffer(part18,prodloc26,-53).
demandOffer(part19,prodloc5,26).
demandOffer(part19,prodloc16,-26).
demandOffer(part2,prodloc20,40).
demandOffer(part2,prodloc14,40).
demandOffer(part2,prodloc32,-27).
demandOffer(part2,prodloc18,-53).
demandOffer(part20,prodloc1,53).
demandOffer(part20,prodloc4,27).
demandOffer(part20,prodloc6,-14).
demandOffer(part20,prodloc25,-46).
demandOffer(part20,prodloc18,-20).
demandOffer(part21,prodloc24,26).
demandOffer(part21,prodloc4,-26).
demandOffer(part22,prodloc1,53).
demandOffer(part22,prodloc0,27).
demandOffer(part22,prodloc13,-53).
demandOffer(part22,prodloc3,-27).
demandOffer(part23,prodloc30,20).
demandOffer(part23,prodloc24,20).
demandOffer(part23,prodloc25,-20).
demandOffer(part23,prodloc26,-20).
demandOffer(part25,prodloc4,20).
demandOffer(part25,prodloc12,-20).
demandOffer(part26,prodloc17,20).
demandOffer(part26,prodloc21,20).
demandOffer(part26,prodloc5,-14).
demandOffer(part26,prodloc19,-26).
demandOffer(part27,prodloc21,53).
demandOffer(part27,prodloc0,27).
demandOffer(part27,prodloc26,-53).
demandOffer(part27,prodloc7,-27).
demandOffer(part28,prodloc8,20).
demandOffer(part28,prodloc15,20).
demandOffer(part28,prodloc6,-20).
demandOffer(part28,prodloc0,-20).
demandOffer(part3,prodloc3,40).
demandOffer(part3,prodloc29,-14).
demandOffer(part3,prodloc31,-26).
demandOffer(part30,prodloc11,40).
demandOffer(part30,prodloc12,40).
demandOffer(part30,prodloc28,-27).
demandOffer(part30,prodloc32,-53).
demandOffer(part31,prodloc12,7).
demandOffer(part31,prodloc8,7).
demandOffer(part31,prodloc26,-14).
demandOffer(part32,prodloc24,53).
demandOffer(part32,prodloc7,27).
demandOffer(part32,prodloc25,-53).
demandOffer(part32,prodloc26,-27).
demandOffer(part33,prodloc13,53).
demandOffer(part33,prodloc0,27).
demandOffer(part33,prodloc17,-53).
demandOffer(part33,prodloc19,-27).
demandOffer(part34,prodloc1,20).
demandOffer(part34,prodloc13,-20).
demandOffer(part4,prodloc11,26).
demandOffer(part4,prodloc25,-26).
demandOffer(part5,prodloc6,20).
demandOffer(part5,prodloc2,-20).
demandOffer(part6,prodloc9,27).
demandOffer(part6,prodloc13,53).
demandOffer(part6,prodloc28,-24).
demandOffer(part6,prodloc8,-36).
demandOffer(part6,prodloc0,-10).
demandOffer(part6,prodloc24,-10).
demandOffer(part8,prodloc21,3).
demandOffer(part8,prodloc18,17).
demandOffer(part8,prodloc24,-10).
demandOffer(part8,prodloc4,-10).
demandOffer(part9,prodloc4,20).
demandOffer(part9,prodloc5,-20).

% ---- network (ASP-generated) ----
route(harbor0,harbor1,tr13,6869,41214).
route(harbor0,harbor1,tr2,6869,20607).
route(harbor0,harbor2,tr13,19125,114750).
route(harbor0,harbor2,tr2,19125,57375).
route(harbor0,harbor3,tr13,20889,125334).
route(harbor0,harbor3,tr2,20889,62667).
route(harbor0,harbor4,tr13,7993,47958).
route(harbor0,harbor4,tr2,7993,23979).
route(harbor0,harbor5,tr13,538,3228).
route(harbor0,harbor5,tr2,538,1614).
route(harbor0,harbor6,tr13,19732,118392).
route(harbor0,harbor6,tr2,19732,59196).
route(harbor0,harbor7,tr13,12110,72660).
route(harbor0,harbor7,tr2,12110,36330).
route(harbor0,harbor8,tr13,12209,73254).
route(harbor0,harbor8,tr2,12209,36627).
route(harbor0,harbor9,tr13,20416,122496).
route(harbor0,harbor9,tr2,20416,61248).
route(harbor0,harbor10,tr13,14880,89280).
route(harbor0,harbor10,tr2,14880,44640).
route(harbor0,harbor11,tr13,4198,25188).
route(harbor0,harbor11,tr2,4198,12594).
route(harbor0,harbor12,tr13,19273,115638).
route(harbor0,harbor12,tr2,19273,57819).
route(harbor0,harbor13,tr13,15880,95280).
route(harbor0,harbor13,tr2,15880,47640).
route(harbor0,harbor14,tr13,27304,163824).
route(harbor0,harbor14,tr2,27304,81912).
route(harbor0,harbor15,tr13,18857,113142).
route(harbor0,harbor15,tr2,18857,56571).
route(harbor0,harbor16,tr13,4477,26862).
route(harbor0,harbor16,tr2,4477,13431).
route(harbor0,prodloc0,tr0,28396,738296).
route(harbor0,prodloc0,tr13,28396,170376).
route(harbor0,prodloc1,tr0,12653,328978).
route(harbor0,prodloc1,tr13,12653,75918).
route(harbor0,prodloc2,tr0,5992,155792).
route(harbor0,prodloc2,tr13,5992,35952).
route(harbor0,prodloc3,tr0,20555,534430).
route(harbor0,prodloc3,tr13,20555,123330).
route(harbor0,prodloc4,tr0,5052,131352).
route(harbor0,prodloc4,tr13,5052,30312).
route(harbor0,prodloc5,tr0,10186,264836).
route(harbor0,prodloc5,tr13,10186,61116).
route(harbor0,prodloc6,tr0,7485,194610).
route(harbor0,prodloc6,tr13,7485,44910).
route(harbor0,prodloc7,tr0,26799,696774).
route(harbor0,prodloc7,tr13,26799,160794).
route(harbor0,prodloc8,tr0,20005,520130).
route(harbor0,prodloc8,tr13,20005,120030).
route(harbor0,prodloc9,tr0,8177,212602).
route(harbor0,prodloc9,tr13,8177,49062).
route(harbor0,prodloc10,tr0,23771,618046).
route(harbor0,prodloc10,tr13,23771,142626).
route(harbor0,prodloc11,tr0,6221,161746).
route(harbor0,prodloc11,tr13,6221,37326).
route(harbor0,prodloc12,tr0,5194,135044).
route(harbor0,prodloc12,tr13,5194,31164).
route(harbor0,prodloc13,tr0,24231,630006).
route(harbor0,prodloc13,tr13,24231,145386).
route(harbor0,prodloc14,tr0,20612,535912).
route(harbor0,prodloc14,tr13,20612,123672).
route(harbor0,prodloc15,tr0,18153,471978).
route(harbor0,prodloc15,tr13,18153,108918).
route(harbor0,prodloc16,tr0,6443,167518).
route(harbor0,prodloc16,tr13,6443,38658).
route(harbor0,prodloc17,tr0,22512,585312).
route(harbor0,prodloc17,tr13,22512,135072).
route(harbor0,prodloc18,tr0,12722,330772).
route(harbor0,prodloc18,tr13,12722,76332).
route(harbor0,prodloc19,tr0,28909,751634).
route(harbor0,prodloc19,tr13,28909,173454).
route(harbor0,prodloc20,tr0,15813,411138).
route(harbor0,prodloc20,tr13,15813,94878).
route(harbor0,prodloc21,tr0,19778,514228).
route(harbor0,prodloc21,tr13,19778,118668).
route(harbor0,prodloc22,tr0,2574,66924).
route(harbor0,prodloc22,tr13,2574,15444).
route(harbor0,prodloc23,tr0,13812,359112).
route(harbor0,prodloc23,tr13,13812,82872).
route(harbor0,prodloc24,tr0,1555,40430).
route(harbor0,prodloc24,tr13,1555,9330).
route(harbor0,prodloc25,tr0,3404,88504).
route(harbor0,prodloc25,tr13,3404,20424).
route(harbor0,prodloc26,tr0,3575,92950).
route(harbor0,prodloc26,tr13,3575,21450).
route(harbor0,prodloc27,tr0,1270,33020).
route(harbor0,prodloc27,tr13,1270,7620).
route(harbor0,prodloc28,tr0,16790,436540).
route(harbor0,prodloc28,tr13,16790,100740).
route(harbor0,prodloc29,tr0,8363,217438).
route(harbor0,prodloc29,tr13,8363,50178).
route(harbor0,prodloc30,tr0,7814,203164).
route(harbor0,prodloc30,tr13,7814,46884).
route(harbor0,prodloc31,tr0,24244,630344).
route(harbor0,prodloc31,tr13,24244,145464).
route(harbor0,prodloc32,tr0,23089,600314).
route(harbor0,prodloc32,tr13,23089,138534).
route(harbor0,prodloc33,tr0,12834,333684).
route(harbor0,prodloc33,tr13,12834,77004).
route(harbor1,harbor0,tr13,8450,50700).
route(harbor1,harbor0,tr2,8450,25350).
route(harbor1,harbor2,tr13,13819,82914).
route(harbor1,harbor2,tr2,13819,41457).
route(harbor1,harbor3,tr13,27021,162126).
route(harbor1,harbor3,tr2,27021,81063).
route(harbor1,harbor4,tr13,19575,117450).
route(harbor1,harbor4,tr2,19575,58725).
route(harbor1,harbor5,tr13,16119,96714).
route(harbor1,harbor5,tr2,16119,48357).
route(harbor1,harbor6,tr13,9645,57870).
route(harbor1,harbor6,tr2,9645,28935).
route(harbor1,harbor7,tr13,17071,102426).
route(harbor1,harbor7,tr2,17071,51213).
route(harbor1,harbor8,tr13,5778,34668).
route(harbor1,harbor8,tr2,5778,17334).
route(harbor1,harbor9,tr13,23634,141804).
route(harbor1,harbor9,tr2,23634,70902).
route(harbor1,harbor10,tr13,2283,13698).
route(harbor1,harbor10,tr2,2283,6849).
route(harbor1,harbor11,tr13,4171,25026).
route(harbor1,harbor11,tr2,4171,12513).
route(harbor1,harbor12,tr13,7514,45084).
route(harbor1,harbor12,tr2,7514,22542).
route(harbor1,harbor13,tr13,15735,94410).
route(harbor1,harbor13,tr2,15735,47205).
route(harbor1,harbor14,tr13,18359,110154).
route(harbor1,harbor14,tr2,18359,55077).
route(harbor1,harbor15,tr13,21444,128664).
route(harbor1,harbor15,tr2,21444,64332).
route(harbor1,harbor16,tr13,27961,167766).
route(harbor1,harbor16,tr2,27961,83883).
route(harbor1,prodloc0,tr0,20182,524732).
route(harbor1,prodloc0,tr13,20182,121092).
route(harbor1,prodloc1,tr0,20131,523406).
route(harbor1,prodloc1,tr13,20131,120786).
route(harbor1,prodloc2,tr0,2431,63206).
route(harbor1,prodloc2,tr13,2431,14586).
route(harbor1,prodloc3,tr0,9184,238784).
route(harbor1,prodloc3,tr13,9184,55104).
route(harbor1,prodloc4,tr0,6961,180986).
route(harbor1,prodloc4,tr13,6961,41766).
route(harbor1,prodloc5,tr0,6685,173810).
route(harbor1,prodloc5,tr13,6685,40110).
route(harbor1,prodloc6,tr0,24544,638144).
route(harbor1,prodloc6,tr13,24544,147264).
route(harbor1,prodloc7,tr0,545,14170).
route(harbor1,prodloc7,tr13,545,3270).
route(harbor1,prodloc8,tr0,2268,58968).
route(harbor1,prodloc8,tr13,2268,13608).
route(harbor1,prodloc9,tr0,8822,229372).
route(harbor1,prodloc9,tr13,8822,52932).
route(harbor1,prodloc10,tr0,13483,350558).
route(harbor1,prodloc10,tr13,13483,80898).
route(harbor1,prodloc11,tr0,14606,379756).
route(harbor1,prodloc11,tr13,14606,87636).
route(harbor1,prodloc12,tr0,8163,212238).
route(harbor1,prodloc12,tr13,8163,48978).
route(harbor1,prodloc13,tr0,1983,51558).
route(harbor1,prodloc13,tr13,1983,11898).
route(harbor1,prodloc14,tr0,1528,39728).
route(harbor1,prodloc14,tr13,1528,9168).
route(harbor1,prodloc15,tr0,5777,150202).
route(harbor1,prodloc15,tr13,5777,34662).
route(harbor1,prodloc16,tr0,9241,240266).
route(harbor1,prodloc16,tr13,9241,55446).
route(harbor1,prodloc17,tr0,12086,314236).
route(harbor1,prodloc17,tr13,12086,72516).
route(harbor1,prodloc18,tr0,17401,452426).
route(harbor1,prodloc18,tr13,17401,104406).
route(harbor1,prodloc19,tr0,18750,487500).
route(harbor1,prodloc19,tr13,18750,112500).
route(harbor1,prodloc20,tr0,4313,112138).
route(harbor1,prodloc20,tr13,4313,25878).
route(harbor1,prodloc21,tr0,3022,78572).
route(harbor1,prodloc21,tr13,3022,18132).
route(harbor1,prodloc22,tr0,11868,308568).
route(harbor1,prodloc22,tr13,11868,71208).
route(harbor1,prodloc23,tr0,4537,117962).
route(harbor1,prodloc23,tr13,4537,27222).
route(harbor1,prodloc24,tr0,14758,383708).
route(harbor1,prodloc24,tr13,14758,88548).
route(harbor1,prodloc25,tr0,10847,282022).
route(harbor1,prodloc25,tr13,10847,65082).
route(harbor1,prodloc26,tr0,21528,559728).
route(harbor1,prodloc26,tr13,21528,129168).
route(harbor1,prodloc27,tr0,24017,624442).
route(harbor1,prodloc27,tr13,24017,144102).
route(harbor1,prodloc28,tr0,22651,588926).
route(harbor1,prodloc28,tr13,22651,135906).
route(harbor1,prodloc29,tr0,17104,444704).
route(harbor1,prodloc29,tr13,17104,102624).
route(harbor1,prodloc30,tr0,19152,497952).
route(harbor1,prodloc30,tr13,19152,114912).
route(harbor1,prodloc31,tr0,4600,119600).
route(harbor1,prodloc31,tr13,4600,27600).
route(harbor1,prodloc32,tr0,19331,502606).
route(harbor1,prodloc32,tr13,19331,115986).
route(harbor1,prodloc33,tr0,1151,29926).
route(harbor1,prodloc33,tr13,1151,6906).
route(harbor2,harbor0,tr13,616,3696).
route(harbor2,harbor0,tr2,616,1848).
route(harbor2,harbor1,tr13,15588,93528).
route(harbor2,harbor1,tr2,15588,46764).
route(harbor2,harbor3,tr13,11743,70458).
route(harbor2,harbor3,tr2,11743,35229).
route(harbor2,harbor4,tr13,22999,137994).
route(harbor2,harbor4,tr2,22999,68997).
route(harbor2,harbor5,tr13,10247,61482).
route(harbor2,harbor5,tr2,10247,30741).
route(harbor2,harbor6,tr13,1129,6774).
route(harbor2,harbor6,tr2,1129,3387).
route(harbor2,harbor7,tr13,726,4356).
route(harbor2,harbor7,tr2,726,2178).
route(harbor2,harbor8,tr13,19637,117822).
route(harbor2,harbor8,tr2,19637,58911).
route(harbor2,harbor9,tr13,20876,125256).
route(harbor2,harbor9,tr2,20876,62628).
route(harbor2,harbor10,tr13,2482,14892).
route(harbor2,harbor10,tr2,2482,7446).
route(harbor2,harbor11,tr13,15831,94986).
route(harbor2,harbor11,tr2,15831,47493).
route(harbor2,harbor12,tr13,2234,13404).
route(harbor2,harbor12,tr2,2234,6702).
route(harbor2,harbor13,tr13,23966,143796).
route(harbor2,harbor13,tr2,23966,71898).
route(harbor2,harbor14,tr13,10222,61332).
route(harbor2,harbor14,tr2,10222,30666).
route(harbor2,harbor15,tr13,10479,62874).
route(harbor2,harbor15,tr2,10479,31437).
route(harbor2,harbor16,tr13,4506,27036).
route(harbor2,harbor16,tr2,4506,13518).
route(harbor2,prodloc0,tr0,2375,61750).
route(harbor2,prodloc0,tr13,2375,14250).
route(harbor2,prodloc1,tr0,2468,64168).
route(harbor2,prodloc1,tr13,2468,14808).
route(harbor2,prodloc2,tr0,14848,386048).
route(harbor2,prodloc2,tr13,14848,89088).
route(harbor2,prodloc3,tr0,17896,465296).
route(harbor2,prodloc3,tr13,17896,107376).
route(harbor2,prodloc4,tr0,12053,313378).
route(harbor2,prodloc4,tr13,12053,72318).
route(harbor2,prodloc5,tr0,24152,627952).
route(harbor2,prodloc5,tr13,24152,144912).
route(harbor2,prodloc6,tr0,1459,37934).
route(harbor2,prodloc6,tr13,1459,8754).
route(harbor2,prodloc7,tr0,24154,628004).
route(harbor2,prodloc7,tr13,24154,144924).
route(harbor2,prodloc8,tr0,24156,628056).
route(harbor2,prodloc8,tr13,24156,144936).
route(harbor2,prodloc9,tr0,23060,599560).
route(harbor2,prodloc9,tr13,23060,138360).
route(harbor2,prodloc10,tr0,4246,110396).
route(harbor2,prodloc10,tr13,4246,25476).
route(harbor2,prodloc11,tr0,25995,675870).
route(harbor2,prodloc11,tr13,25995,155970).
route(harbor2,prodloc12,tr0,11196,291096).
route(harbor2,prodloc12,tr13,11196,67176).
route(harbor2,prodloc13,tr0,11530,299780).
route(harbor2,prodloc13,tr13,11530,69180).
route(harbor2,prodloc14,tr0,2784,72384).
route(harbor2,prodloc14,tr13,2784,16704).
route(harbor2,prodloc15,tr0,22452,583752).
route(harbor2,prodloc15,tr13,22452,134712).
route(harbor2,prodloc16,tr0,15510,403260).
route(harbor2,prodloc16,tr13,15510,93060).
route(harbor2,prodloc17,tr0,2547,66222).
route(harbor2,prodloc17,tr13,2547,15282).
route(harbor2,prodloc18,tr0,28546,742196).
route(harbor2,prodloc18,tr13,28546,171276).
route(harbor2,prodloc19,tr0,28093,730418).
route(harbor2,prodloc19,tr13,28093,168558).
route(harbor2,prodloc20,tr0,13671,355446).
route(harbor2,prodloc20,tr13,13671,82026).
route(harbor2,prodloc21,tr0,25906,673556).
route(harbor2,prodloc21,tr13,25906,155436).
route(harbor2,prodloc22,tr0,993,25818).
route(harbor2,prodloc22,tr13,993,5958).
route(harbor2,prodloc23,tr0,28296,735696).
route(harbor2,prodloc23,tr13,28296,169776).
route(harbor2,prodloc24,tr0,16383,425958).
route(harbor2,prodloc24,tr13,16383,98298).
route(harbor2,prodloc25,tr0,18771,488046).
route(harbor2,prodloc25,tr13,18771,112626).
route(harbor2,prodloc26,tr0,478,12428).
route(harbor2,prodloc26,tr13,478,2868).
route(harbor2,prodloc27,tr0,20480,532480).
route(harbor2,prodloc27,tr13,20480,122880).
route(harbor2,prodloc28,tr0,21703,564278).
route(harbor2,prodloc28,tr13,21703,130218).
route(harbor2,prodloc29,tr0,12530,325780).
route(harbor2,prodloc29,tr13,12530,75180).
route(harbor2,prodloc30,tr0,12426,323076).
route(harbor2,prodloc30,tr13,12426,74556).
route(harbor2,prodloc31,tr0,19095,496470).
route(harbor2,prodloc31,tr13,19095,114570).
route(harbor2,prodloc32,tr0,409,10634).
route(harbor2,prodloc32,tr13,409,2454).
route(harbor2,prodloc33,tr0,19953,518778).
route(harbor2,prodloc33,tr13,19953,119718).
route(harbor3,harbor0,tr13,2397,14382).
route(harbor3,harbor0,tr2,2397,7191).
route(harbor3,harbor1,tr13,2658,15948).
route(harbor3,harbor1,tr2,2658,7974).
route(harbor3,harbor2,tr13,3000,18000).
route(harbor3,harbor2,tr2,3000,9000).
route(harbor3,harbor4,tr13,20982,125892).
route(harbor3,harbor4,tr2,20982,62946).
route(harbor3,harbor5,tr13,3817,22902).
route(harbor3,harbor5,tr2,3817,11451).
route(harbor3,harbor6,tr13,8458,50748).
route(harbor3,harbor6,tr2,8458,25374).
route(harbor3,harbor7,tr13,28859,173154).
route(harbor3,harbor7,tr2,28859,86577).
route(harbor3,harbor8,tr13,13669,82014).
route(harbor3,harbor8,tr2,13669,41007).
route(harbor3,harbor9,tr13,23891,143346).
route(harbor3,harbor9,tr2,23891,71673).
route(harbor3,harbor10,tr13,10848,65088).
route(harbor3,harbor10,tr2,10848,32544).
route(harbor3,harbor11,tr13,12758,76548).
route(harbor3,harbor11,tr2,12758,38274).
route(harbor3,harbor12,tr13,24115,144690).
route(harbor3,harbor12,tr2,24115,72345).
route(harbor3,harbor13,tr13,22776,136656).
route(harbor3,harbor13,tr2,22776,68328).
route(harbor3,harbor14,tr13,19066,114396).
route(harbor3,harbor14,tr2,19066,57198).
route(harbor3,harbor15,tr13,15029,90174).
route(harbor3,harbor15,tr2,15029,45087).
route(harbor3,harbor16,tr13,14465,86790).
route(harbor3,harbor16,tr2,14465,43395).
route(harbor3,prodloc0,tr0,15161,394186).
route(harbor3,prodloc0,tr13,15161,90966).
route(harbor3,prodloc1,tr0,27473,714298).
route(harbor3,prodloc1,tr13,27473,164838).
route(harbor3,prodloc2,tr0,17737,461162).
route(harbor3,prodloc2,tr13,17737,106422).
route(harbor3,prodloc3,tr0,2747,71422).
route(harbor3,prodloc3,tr13,2747,16482).
route(harbor3,prodloc4,tr0,16998,441948).
route(harbor3,prodloc4,tr13,16998,101988).
route(harbor3,prodloc5,tr0,24584,639184).
route(harbor3,prodloc5,tr13,24584,147504).
route(harbor3,prodloc6,tr0,16862,438412).
route(harbor3,prodloc6,tr13,16862,101172).
route(harbor3,prodloc7,tr0,978,25428).
route(harbor3,prodloc7,tr13,978,5868).
route(harbor3,prodloc8,tr0,10167,264342).
route(harbor3,prodloc8,tr13,10167,61002).
route(harbor3,prodloc9,tr0,19704,512304).
route(harbor3,prodloc9,tr13,19704,118224).
route(harbor3,prodloc10,tr0,2876,74776).
route(harbor3,prodloc10,tr13,2876,17256).
route(harbor3,prodloc11,tr0,15761,409786).
route(harbor3,prodloc11,tr13,15761,94566).
route(harbor3,prodloc12,tr0,732,19032).
route(harbor3,prodloc12,tr13,732,4392).
route(harbor3,prodloc13,tr0,7545,196170).
route(harbor3,prodloc13,tr13,7545,45270).
route(harbor3,prodloc14,tr0,22885,595010).
route(harbor3,prodloc14,tr13,22885,137310).
route(harbor3,prodloc15,tr0,3701,96226).
route(harbor3,prodloc15,tr13,3701,22206).
route(harbor3,prodloc16,tr0,16295,423670).
route(harbor3,prodloc16,tr13,16295,97770).
route(harbor3,prodloc17,tr0,25559,664534).
route(harbor3,prodloc17,tr13,25559,153354).
route(harbor3,prodloc18,tr0,20138,523588).
route(harbor3,prodloc18,tr13,20138,120828).
route(harbor3,prodloc19,tr0,21633,562458).
route(harbor3,prodloc19,tr13,21633,129798).
route(harbor3,prodloc20,tr0,15936,414336).
route(harbor3,prodloc20,tr13,15936,95616).
route(harbor3,prodloc21,tr0,8385,218010).
route(harbor3,prodloc21,tr13,8385,50310).
route(harbor3,prodloc22,tr0,372,9672).
route(harbor3,prodloc22,tr13,372,2232).
route(harbor3,prodloc23,tr0,12059,313534).
route(harbor3,prodloc23,tr13,12059,72354).
route(harbor3,prodloc24,tr0,9866,256516).
route(harbor3,prodloc24,tr13,9866,59196).
route(harbor3,prodloc25,tr0,4695,122070).
route(harbor3,prodloc25,tr13,4695,28170).
route(harbor3,prodloc26,tr0,22223,577798).
route(harbor3,prodloc26,tr13,22223,133338).
route(harbor3,prodloc27,tr0,20048,521248).
route(harbor3,prodloc27,tr13,20048,120288).
route(harbor3,prodloc28,tr0,6639,172614).
route(harbor3,prodloc28,tr13,6639,39834).
route(harbor3,prodloc29,tr0,16988,441688).
route(harbor3,prodloc29,tr13,16988,101928).
route(harbor3,prodloc30,tr0,5559,144534).
route(harbor3,prodloc30,tr13,5559,33354).
route(harbor3,prodloc31,tr0,24701,642226).
route(harbor3,prodloc31,tr13,24701,148206).
route(harbor3,prodloc32,tr0,11225,291850).
route(harbor3,prodloc32,tr13,11225,67350).
route(harbor3,prodloc33,tr0,21628,562328).
route(harbor3,prodloc33,tr13,21628,129768).
route(harbor4,harbor0,tr13,14511,87066).
route(harbor4,harbor0,tr2,14511,43533).
route(harbor4,harbor1,tr13,16358,98148).
route(harbor4,harbor1,tr2,16358,49074).
route(harbor4,harbor2,tr13,29250,175500).
route(harbor4,harbor2,tr2,29250,87750).
route(harbor4,harbor3,tr13,7942,47652).
route(harbor4,harbor3,tr2,7942,23826).
route(harbor4,harbor5,tr13,10743,64458).
route(harbor4,harbor5,tr2,10743,32229).
route(harbor4,harbor6,tr13,13293,79758).
route(harbor4,harbor6,tr2,13293,39879).
route(harbor4,harbor7,tr13,21850,131100).
route(harbor4,harbor7,tr2,21850,65550).
route(harbor4,harbor8,tr13,8241,49446).
route(harbor4,harbor8,tr2,8241,24723).
route(harbor4,harbor9,tr13,6534,39204).
route(harbor4,harbor9,tr2,6534,19602).
route(harbor4,harbor10,tr13,20810,124860).
route(harbor4,harbor10,tr2,20810,62430).
route(harbor4,harbor11,tr13,14149,84894).
route(harbor4,harbor11,tr2,14149,42447).
route(harbor4,harbor12,tr13,26366,158196).
route(harbor4,harbor12,tr2,26366,79098).
route(harbor4,harbor13,tr13,26440,158640).
route(harbor4,harbor13,tr2,26440,79320).
route(harbor4,harbor14,tr13,24757,148542).
route(harbor4,harbor14,tr2,24757,74271).
route(harbor4,harbor15,tr13,6593,39558).
route(harbor4,harbor15,tr2,6593,19779).
route(harbor4,harbor16,tr13,28874,173244).
route(harbor4,harbor16,tr2,28874,86622).
route(harbor4,prodloc0,tr0,7020,182520).
route(harbor4,prodloc0,tr13,7020,42120).
route(harbor4,prodloc1,tr0,12598,327548).
route(harbor4,prodloc1,tr13,12598,75588).
route(harbor4,prodloc2,tr0,7197,187122).
route(harbor4,prodloc2,tr13,7197,43182).
route(harbor4,prodloc3,tr0,19109,496834).
route(harbor4,prodloc3,tr13,19109,114654).
route(harbor4,prodloc4,tr0,10372,269672).
route(harbor4,prodloc4,tr13,10372,62232).
route(harbor4,prodloc5,tr0,6879,178854).
route(harbor4,prodloc5,tr13,6879,41274).
route(harbor4,prodloc6,tr0,4464,116064).
route(harbor4,prodloc6,tr13,4464,26784).
route(harbor4,prodloc7,tr0,4411,114686).
route(harbor4,prodloc7,tr13,4411,26466).
route(harbor4,prodloc8,tr0,16270,423020).
route(harbor4,prodloc8,tr13,16270,97620).
route(harbor4,prodloc9,tr0,11495,298870).
route(harbor4,prodloc9,tr13,11495,68970).
route(harbor4,prodloc10,tr0,27431,713206).
route(harbor4,prodloc10,tr13,27431,164586).
route(harbor4,prodloc11,tr0,27812,723112).
route(harbor4,prodloc11,tr13,27812,166872).
route(harbor4,prodloc12,tr0,1331,34606).
route(harbor4,prodloc12,tr13,1331,7986).
route(harbor4,prodloc13,tr0,23307,605982).
route(harbor4,prodloc13,tr13,23307,139842).
route(harbor4,prodloc14,tr0,2103,54678).
route(harbor4,prodloc14,tr13,2103,12618).
route(harbor4,prodloc15,tr0,9072,235872).
route(harbor4,prodloc15,tr13,9072,54432).
route(harbor4,prodloc16,tr0,26932,700232).
route(harbor4,prodloc16,tr13,26932,161592).
route(harbor4,prodloc17,tr0,5544,144144).
route(harbor4,prodloc17,tr13,5544,33264).
route(harbor4,prodloc18,tr0,3699,96174).
route(harbor4,prodloc18,tr13,3699,22194).
route(harbor4,prodloc19,tr0,14768,383968).
route(harbor4,prodloc19,tr13,14768,88608).
route(harbor4,prodloc20,tr0,15447,401622).
route(harbor4,prodloc20,tr13,15447,92682).
route(harbor4,prodloc21,tr0,9018,234468).
route(harbor4,prodloc21,tr13,9018,54108).
route(harbor4,prodloc22,tr0,7016,182416).
route(harbor4,prodloc22,tr13,7016,42096).
route(harbor4,prodloc23,tr0,27228,707928).
route(harbor4,prodloc23,tr13,27228,163368).
route(harbor4,prodloc24,tr0,13567,352742).
route(harbor4,prodloc24,tr13,13567,81402).
route(harbor4,prodloc25,tr0,12537,325962).
route(harbor4,prodloc25,tr13,12537,75222).
route(harbor4,prodloc26,tr0,20506,533156).
route(harbor4,prodloc26,tr13,20506,123036).
route(harbor4,prodloc27,tr0,17040,443040).
route(harbor4,prodloc27,tr13,17040,102240).
route(harbor4,prodloc28,tr0,16185,420810).
route(harbor4,prodloc28,tr13,16185,97110).
route(harbor4,prodloc29,tr0,22026,572676).
route(harbor4,prodloc29,tr13,22026,132156).
route(harbor4,prodloc30,tr0,10336,268736).
route(harbor4,prodloc30,tr13,10336,62016).
route(harbor4,prodloc31,tr0,23472,610272).
route(harbor4,prodloc31,tr13,23472,140832).
route(harbor4,prodloc32,tr0,27498,714948).
route(harbor4,prodloc32,tr13,27498,164988).
route(harbor4,prodloc33,tr0,27589,717314).
route(harbor4,prodloc33,tr13,27589,165534).
route(harbor5,harbor0,tr13,20502,123012).
route(harbor5,harbor0,tr2,20502,61506).
route(harbor5,harbor1,tr13,14856,89136).
route(harbor5,harbor1,tr2,14856,44568).
route(harbor5,harbor2,tr13,10527,63162).
route(harbor5,harbor2,tr2,10527,31581).
route(harbor5,harbor3,tr13,2477,14862).
route(harbor5,harbor3,tr2,2477,7431).
route(harbor5,harbor4,tr13,27185,163110).
route(harbor5,harbor4,tr2,27185,81555).
route(harbor5,harbor6,tr13,1061,6366).
route(harbor5,harbor6,tr2,1061,3183).
route(harbor5,harbor7,tr13,9143,54858).
route(harbor5,harbor7,tr2,9143,27429).
route(harbor5,harbor8,tr13,28630,171780).
route(harbor5,harbor8,tr2,28630,85890).
route(harbor5,harbor9,tr13,19938,119628).
route(harbor5,harbor9,tr2,19938,59814).
route(harbor5,harbor10,tr13,1389,8334).
route(harbor5,harbor10,tr2,1389,4167).
route(harbor5,harbor11,tr13,22255,133530).
route(harbor5,harbor11,tr2,22255,66765).
route(harbor5,harbor12,tr13,23250,139500).
route(harbor5,harbor12,tr2,23250,69750).
route(harbor5,harbor13,tr13,9240,55440).
route(harbor5,harbor13,tr2,9240,27720).
route(harbor5,harbor14,tr13,18726,112356).
route(harbor5,harbor14,tr2,18726,56178).
route(harbor5,harbor15,tr13,11636,69816).
route(harbor5,harbor15,tr2,11636,34908).
route(harbor5,harbor16,tr13,10156,60936).
route(harbor5,harbor16,tr2,10156,30468).
route(harbor5,prodloc0,tr0,21277,553202).
route(harbor5,prodloc0,tr13,21277,127662).
route(harbor5,prodloc1,tr0,25938,674388).
route(harbor5,prodloc1,tr13,25938,155628).
route(harbor5,prodloc2,tr0,18484,480584).
route(harbor5,prodloc2,tr13,18484,110904).
route(harbor5,prodloc3,tr0,628,16328).
route(harbor5,prodloc3,tr13,628,3768).
route(harbor5,prodloc4,tr0,21005,546130).
route(harbor5,prodloc4,tr13,21005,126030).
route(harbor5,prodloc5,tr0,4454,115804).
route(harbor5,prodloc5,tr13,4454,26724).
route(harbor5,prodloc6,tr0,13279,345254).
route(harbor5,prodloc6,tr13,13279,79674).
route(harbor5,prodloc7,tr0,14905,387530).
route(harbor5,prodloc7,tr13,14905,89430).
route(harbor5,prodloc8,tr0,6225,161850).
route(harbor5,prodloc8,tr13,6225,37350).
route(harbor5,prodloc9,tr0,812,21112).
route(harbor5,prodloc9,tr13,812,4872).
route(harbor5,prodloc10,tr0,25207,655382).
route(harbor5,prodloc10,tr13,25207,151242).
route(harbor5,prodloc11,tr0,27188,706888).
route(harbor5,prodloc11,tr13,27188,163128).
route(harbor5,prodloc12,tr0,8731,227006).
route(harbor5,prodloc12,tr13,8731,52386).
route(harbor5,prodloc13,tr0,7781,202306).
route(harbor5,prodloc13,tr13,7781,46686).
route(harbor5,prodloc14,tr0,25536,663936).
route(harbor5,prodloc14,tr13,25536,153216).
route(harbor5,prodloc15,tr0,4618,120068).
route(harbor5,prodloc15,tr13,4618,27708).
route(harbor5,prodloc16,tr0,26113,678938).
route(harbor5,prodloc16,tr13,26113,156678).
route(harbor5,prodloc17,tr0,1540,40040).
route(harbor5,prodloc17,tr13,1540,9240).
route(harbor5,prodloc18,tr0,20618,536068).
route(harbor5,prodloc18,tr13,20618,123708).
route(harbor5,prodloc19,tr0,3780,98280).
route(harbor5,prodloc19,tr13,3780,22680).
route(harbor5,prodloc20,tr0,14632,380432).
route(harbor5,prodloc20,tr13,14632,87792).
route(harbor5,prodloc21,tr0,3574,92924).
route(harbor5,prodloc21,tr13,3574,21444).
route(harbor5,prodloc22,tr0,20644,536744).
route(harbor5,prodloc22,tr13,20644,123864).
route(harbor5,prodloc23,tr0,17545,456170).
route(harbor5,prodloc23,tr13,17545,105270).
route(harbor5,prodloc24,tr0,21466,558116).
route(harbor5,prodloc24,tr13,21466,128796).
route(harbor5,prodloc25,tr0,20970,545220).
route(harbor5,prodloc25,tr13,20970,125820).
route(harbor5,prodloc26,tr0,26458,687908).
route(harbor5,prodloc26,tr13,26458,158748).
route(harbor5,prodloc27,tr0,12083,314158).
route(harbor5,prodloc27,tr13,12083,72498).
route(harbor5,prodloc28,tr0,2556,66456).
route(harbor5,prodloc28,tr13,2556,15336).
route(harbor5,prodloc29,tr0,22431,583206).
route(harbor5,prodloc29,tr13,22431,134586).
route(harbor5,prodloc30,tr0,6491,168766).
route(harbor5,prodloc30,tr13,6491,38946).
route(harbor5,prodloc31,tr0,6534,169884).
route(harbor5,prodloc31,tr13,6534,39204).
route(harbor5,prodloc32,tr0,26997,701922).
route(harbor5,prodloc32,tr13,26997,161982).
route(harbor5,prodloc33,tr0,15571,404846).
route(harbor5,prodloc33,tr13,15571,93426).
route(harbor6,harbor0,tr13,8419,50514).
route(harbor6,harbor0,tr2,8419,25257).
route(harbor6,harbor1,tr13,5885,35310).
route(harbor6,harbor1,tr2,5885,17655).
route(harbor6,harbor2,tr13,23433,140598).
route(harbor6,harbor2,tr2,23433,70299).
route(harbor6,harbor3,tr13,382,2292).
route(harbor6,harbor3,tr2,382,1146).
route(harbor6,harbor4,tr13,24771,148626).
route(harbor6,harbor4,tr2,24771,74313).
route(harbor6,harbor5,tr13,15503,93018).
route(harbor6,harbor5,tr2,15503,46509).
route(harbor6,harbor7,tr13,17555,105330).
route(harbor6,harbor7,tr2,17555,52665).
route(harbor6,harbor8,tr13,23431,140586).
route(harbor6,harbor8,tr2,23431,70293).
route(harbor6,harbor9,tr13,1215,7290).
route(harbor6,harbor9,tr2,1215,3645).
route(harbor6,harbor10,tr13,5898,35388).
route(harbor6,harbor10,tr2,5898,17694).
route(harbor6,harbor11,tr13,7450,44700).
route(harbor6,harbor11,tr2,7450,22350).
route(harbor6,harbor12,tr13,8954,53724).
route(harbor6,harbor12,tr2,8954,26862).
route(harbor6,harbor13,tr13,25542,153252).
route(harbor6,harbor13,tr2,25542,76626).
route(harbor6,harbor14,tr13,11359,68154).
route(harbor6,harbor14,tr2,11359,34077).
route(harbor6,harbor15,tr13,17714,106284).
route(harbor6,harbor15,tr2,17714,53142).
route(harbor6,harbor16,tr13,22879,137274).
route(harbor6,harbor16,tr2,22879,68637).
route(harbor6,prodloc0,tr0,17055,443430).
route(harbor6,prodloc0,tr13,17055,102330).
route(harbor6,prodloc1,tr0,16399,426374).
route(harbor6,prodloc1,tr13,16399,98394).
route(harbor6,prodloc2,tr0,20136,523536).
route(harbor6,prodloc2,tr13,20136,120816).
route(harbor6,prodloc3,tr0,24781,644306).
route(harbor6,prodloc3,tr13,24781,148686).
route(harbor6,prodloc4,tr0,5218,135668).
route(harbor6,prodloc4,tr13,5218,31308).
route(harbor6,prodloc5,tr0,12896,335296).
route(harbor6,prodloc5,tr13,12896,77376).
route(harbor6,prodloc6,tr0,27814,723164).
route(harbor6,prodloc6,tr13,27814,166884).
route(harbor6,prodloc7,tr0,25952,674752).
route(harbor6,prodloc7,tr13,25952,155712).
route(harbor6,prodloc8,tr0,22932,596232).
route(harbor6,prodloc8,tr13,22932,137592).
route(harbor6,prodloc9,tr0,7339,190814).
route(harbor6,prodloc9,tr13,7339,44034).
route(harbor6,prodloc10,tr0,2859,74334).
route(harbor6,prodloc10,tr13,2859,17154).
route(harbor6,prodloc11,tr0,13452,349752).
route(harbor6,prodloc11,tr13,13452,80712).
route(harbor6,prodloc12,tr0,23672,615472).
route(harbor6,prodloc12,tr13,23672,142032).
route(harbor6,prodloc13,tr0,12715,330590).
route(harbor6,prodloc13,tr13,12715,76290).
route(harbor6,prodloc14,tr0,4258,110708).
route(harbor6,prodloc14,tr13,4258,25548).
route(harbor6,prodloc15,tr0,14764,383864).
route(harbor6,prodloc15,tr13,14764,88584).
route(harbor6,prodloc16,tr0,14863,386438).
route(harbor6,prodloc16,tr13,14863,89178).
route(harbor6,prodloc17,tr0,6453,167778).
route(harbor6,prodloc17,tr13,6453,38718).
route(harbor6,prodloc18,tr0,20499,532974).
route(harbor6,prodloc18,tr13,20499,122994).
route(harbor6,prodloc19,tr0,222,5772).
route(harbor6,prodloc19,tr13,222,1332).
route(harbor6,prodloc20,tr0,12349,321074).
route(harbor6,prodloc20,tr13,12349,74094).
route(harbor6,prodloc21,tr0,18024,468624).
route(harbor6,prodloc21,tr13,18024,108144).
route(harbor6,prodloc22,tr0,18640,484640).
route(harbor6,prodloc22,tr13,18640,111840).
route(harbor6,prodloc23,tr0,21388,556088).
route(harbor6,prodloc23,tr13,21388,128328).
route(harbor6,prodloc24,tr0,28815,749190).
route(harbor6,prodloc24,tr13,28815,172890).
route(harbor6,prodloc25,tr0,16472,428272).
route(harbor6,prodloc25,tr13,16472,98832).
route(harbor6,prodloc26,tr0,26110,678860).
route(harbor6,prodloc26,tr13,26110,156660).
route(harbor6,prodloc27,tr0,26853,698178).
route(harbor6,prodloc27,tr13,26853,161118).
route(harbor6,prodloc28,tr0,11244,292344).
route(harbor6,prodloc28,tr13,11244,67464).
route(harbor6,prodloc29,tr0,15196,395096).
route(harbor6,prodloc29,tr13,15196,91176).
route(harbor6,prodloc30,tr0,10699,278174).
route(harbor6,prodloc30,tr13,10699,64194).
route(harbor6,prodloc31,tr0,21344,554944).
route(harbor6,prodloc31,tr13,21344,128064).
route(harbor6,prodloc32,tr0,6715,174590).
route(harbor6,prodloc32,tr13,6715,40290).
route(harbor6,prodloc33,tr0,3244,84344).
route(harbor6,prodloc33,tr13,3244,19464).
route(harbor7,harbor0,tr13,23686,142116).
route(harbor7,harbor0,tr2,23686,71058).
route(harbor7,harbor1,tr13,28412,170472).
route(harbor7,harbor1,tr2,28412,85236).
route(harbor7,harbor2,tr13,26845,161070).
route(harbor7,harbor2,tr2,26845,80535).
route(harbor7,harbor3,tr13,26188,157128).
route(harbor7,harbor3,tr2,26188,78564).
route(harbor7,harbor4,tr13,21054,126324).
route(harbor7,harbor4,tr2,21054,63162).
route(harbor7,harbor5,tr13,23546,141276).
route(harbor7,harbor5,tr2,23546,70638).
route(harbor7,harbor6,tr13,4076,24456).
route(harbor7,harbor6,tr2,4076,12228).
route(harbor7,harbor8,tr13,7019,42114).
route(harbor7,harbor8,tr2,7019,21057).
route(harbor7,harbor9,tr13,7969,47814).
route(harbor7,harbor9,tr2,7969,23907).
route(harbor7,harbor10,tr13,12816,76896).
route(harbor7,harbor10,tr2,12816,38448).
route(harbor7,harbor11,tr13,2908,17448).
route(harbor7,harbor11,tr2,2908,8724).
route(harbor7,harbor12,tr13,10183,61098).
route(harbor7,harbor12,tr2,10183,30549).
route(harbor7,harbor13,tr13,17624,105744).
route(harbor7,harbor13,tr2,17624,52872).
route(harbor7,harbor14,tr13,25942,155652).
route(harbor7,harbor14,tr2,25942,77826).
route(harbor7,harbor15,tr13,10528,63168).
route(harbor7,harbor15,tr2,10528,31584).
route(harbor7,harbor16,tr13,8611,51666).
route(harbor7,harbor16,tr2,8611,25833).
route(harbor7,prodloc0,tr0,23538,611988).
route(harbor7,prodloc0,tr13,23538,141228).
route(harbor7,prodloc1,tr0,28044,729144).
route(harbor7,prodloc1,tr13,28044,168264).
route(harbor7,prodloc2,tr0,514,13364).
route(harbor7,prodloc2,tr13,514,3084).
route(harbor7,prodloc3,tr0,11421,296946).
route(harbor7,prodloc3,tr13,11421,68526).
route(harbor7,prodloc4,tr0,16540,430040).
route(harbor7,prodloc4,tr13,16540,99240).
route(harbor7,prodloc5,tr0,2714,70564).
route(harbor7,prodloc5,tr13,2714,16284).
route(harbor7,prodloc6,tr0,1218,31668).
route(harbor7,prodloc6,tr13,1218,7308).
route(harbor7,prodloc7,tr0,14449,375674).
route(harbor7,prodloc7,tr13,14449,86694).
route(harbor7,prodloc8,tr0,11210,291460).
route(harbor7,prodloc8,tr13,11210,67260).
route(harbor7,prodloc9,tr0,18034,468884).
route(harbor7,prodloc9,tr13,18034,108204).
route(harbor7,prodloc10,tr0,13810,359060).
route(harbor7,prodloc10,tr13,13810,82860).
route(harbor7,prodloc11,tr0,25175,654550).
route(harbor7,prodloc11,tr13,25175,151050).
route(harbor7,prodloc12,tr0,9021,234546).
route(harbor7,prodloc12,tr13,9021,54126).
route(harbor7,prodloc13,tr0,15974,415324).
route(harbor7,prodloc13,tr13,15974,95844).
route(harbor7,prodloc14,tr0,932,24232).
route(harbor7,prodloc14,tr13,932,5592).
route(harbor7,prodloc15,tr0,7155,186030).
route(harbor7,prodloc15,tr13,7155,42930).
route(harbor7,prodloc16,tr0,26515,689390).
route(harbor7,prodloc16,tr13,26515,159090).
route(harbor7,prodloc17,tr0,28429,739154).
route(harbor7,prodloc17,tr13,28429,170574).
route(harbor7,prodloc18,tr0,2101,54626).
route(harbor7,prodloc18,tr13,2101,12606).
route(harbor7,prodloc19,tr0,14057,365482).
route(harbor7,prodloc19,tr13,14057,84342).
route(harbor7,prodloc20,tr0,26211,681486).
route(harbor7,prodloc20,tr13,26211,157266).
route(harbor7,prodloc21,tr0,1152,29952).
route(harbor7,prodloc21,tr13,1152,6912).
route(harbor7,prodloc22,tr0,5667,147342).
route(harbor7,prodloc22,tr13,5667,34002).
route(harbor7,prodloc23,tr0,17471,454246).
route(harbor7,prodloc23,tr13,17471,104826).
route(harbor7,prodloc24,tr0,10979,285454).
route(harbor7,prodloc24,tr13,10979,65874).
route(harbor7,prodloc25,tr0,22499,584974).
route(harbor7,prodloc25,tr13,22499,134994).
route(harbor7,prodloc26,tr0,25820,671320).
route(harbor7,prodloc26,tr13,25820,154920).
route(harbor7,prodloc27,tr0,4605,119730).
route(harbor7,prodloc27,tr13,4605,27630).
route(harbor7,prodloc28,tr0,15421,400946).
route(harbor7,prodloc28,tr13,15421,92526).
route(harbor7,prodloc29,tr0,4873,126698).
route(harbor7,prodloc29,tr13,4873,29238).
route(harbor7,prodloc30,tr0,16927,440102).
route(harbor7,prodloc30,tr13,16927,101562).
route(harbor7,prodloc31,tr0,23711,616486).
route(harbor7,prodloc31,tr13,23711,142266).
route(harbor7,prodloc32,tr0,16982,441532).
route(harbor7,prodloc32,tr13,16982,101892).
route(harbor7,prodloc33,tr0,27526,715676).
route(harbor7,prodloc33,tr13,27526,165156).
route(harbor8,harbor0,tr13,22242,133452).
route(harbor8,harbor0,tr2,22242,66726).
route(harbor8,harbor1,tr13,22619,135714).
route(harbor8,harbor1,tr2,22619,67857).
route(harbor8,harbor2,tr13,14453,86718).
route(harbor8,harbor2,tr2,14453,43359).
route(harbor8,harbor3,tr13,28863,173178).
route(harbor8,harbor3,tr2,28863,86589).
route(harbor8,harbor4,tr13,16170,97020).
route(harbor8,harbor4,tr2,16170,48510).
route(harbor8,harbor5,tr13,19001,114006).
route(harbor8,harbor5,tr2,19001,57003).
route(harbor8,harbor6,tr13,22609,135654).
route(harbor8,harbor6,tr2,22609,67827).
route(harbor8,harbor7,tr13,2848,17088).
route(harbor8,harbor7,tr2,2848,8544).
route(harbor8,harbor9,tr13,24862,149172).
route(harbor8,harbor9,tr2,24862,74586).
route(harbor8,harbor10,tr13,7285,43710).
route(harbor8,harbor10,tr2,7285,21855).
route(harbor8,harbor11,tr13,14428,86568).
route(harbor8,harbor11,tr2,14428,43284).
route(harbor8,harbor12,tr13,17287,103722).
route(harbor8,harbor12,tr2,17287,51861).
route(harbor8,harbor13,tr13,18339,110034).
route(harbor8,harbor13,tr2,18339,55017).
route(harbor8,harbor14,tr13,9538,57228).
route(harbor8,harbor14,tr2,9538,28614).
route(harbor8,harbor15,tr13,27265,163590).
route(harbor8,harbor15,tr2,27265,81795).
route(harbor8,harbor16,tr13,23912,143472).
route(harbor8,harbor16,tr2,23912,71736).
route(harbor8,prodloc0,tr0,18402,478452).
route(harbor8,prodloc0,tr13,18402,110412).
route(harbor8,prodloc1,tr0,20936,544336).
route(harbor8,prodloc1,tr13,20936,125616).
route(harbor8,prodloc2,tr0,5387,140062).
route(harbor8,prodloc2,tr13,5387,32322).
route(harbor8,prodloc3,tr0,17132,445432).
route(harbor8,prodloc3,tr13,17132,102792).
route(harbor8,prodloc4,tr0,16851,438126).
route(harbor8,prodloc4,tr13,16851,101106).
route(harbor8,prodloc5,tr0,27645,718770).
route(harbor8,prodloc5,tr13,27645,165870).
route(harbor8,prodloc6,tr0,18351,477126).
route(harbor8,prodloc6,tr13,18351,110106).
route(harbor8,prodloc7,tr0,8407,218582).
route(harbor8,prodloc7,tr13,8407,50442).
route(harbor8,prodloc8,tr0,10215,265590).
route(harbor8,prodloc8,tr13,10215,61290).
route(harbor8,prodloc9,tr0,21999,571974).
route(harbor8,prodloc9,tr13,21999,131994).
route(harbor8,prodloc10,tr0,12493,324818).
route(harbor8,prodloc10,tr13,12493,74958).
route(harbor8,prodloc11,tr0,27699,720174).
route(harbor8,prodloc11,tr13,27699,166194).
route(harbor8,prodloc12,tr0,28512,741312).
route(harbor8,prodloc12,tr13,28512,171072).
route(harbor8,prodloc13,tr0,19971,519246).
route(harbor8,prodloc13,tr13,19971,119826).
route(harbor8,prodloc14,tr0,6825,177450).
route(harbor8,prodloc14,tr13,6825,40950).
route(harbor8,prodloc15,tr0,9978,259428).
route(harbor8,prodloc15,tr13,9978,59868).
route(harbor8,prodloc16,tr0,27880,724880).
route(harbor8,prodloc16,tr13,27880,167280).
route(harbor8,prodloc17,tr0,4627,120302).
route(harbor8,prodloc17,tr13,4627,27762).
route(harbor8,prodloc18,tr0,17851,464126).
route(harbor8,prodloc18,tr13,17851,107106).
route(harbor8,prodloc19,tr0,17179,446654).
route(harbor8,prodloc19,tr13,17179,103074).
route(harbor8,prodloc20,tr0,8946,232596).
route(harbor8,prodloc20,tr13,8946,53676).
route(harbor8,prodloc21,tr0,18777,488202).
route(harbor8,prodloc21,tr13,18777,112662).
route(harbor8,prodloc22,tr0,16308,424008).
route(harbor8,prodloc22,tr13,16308,97848).
route(harbor8,prodloc23,tr0,6587,171262).
route(harbor8,prodloc23,tr13,6587,39522).
route(harbor8,prodloc24,tr0,13472,350272).
route(harbor8,prodloc24,tr13,13472,80832).
route(harbor8,prodloc25,tr0,17562,456612).
route(harbor8,prodloc25,tr13,17562,105372).
route(harbor8,prodloc26,tr0,3746,97396).
route(harbor8,prodloc26,tr13,3746,22476).
route(harbor8,prodloc27,tr0,16490,428740).
route(harbor8,prodloc27,tr13,16490,98940).
route(harbor8,prodloc28,tr0,163,4238).
route(harbor8,prodloc28,tr13,163,978).
route(harbor8,prodloc29,tr0,19834,515684).
route(harbor8,prodloc29,tr13,19834,119004).
route(harbor8,prodloc30,tr0,12356,321256).
route(harbor8,prodloc30,tr13,12356,74136).
route(harbor8,prodloc31,tr0,911,23686).
route(harbor8,prodloc31,tr13,911,5466).
route(harbor8,prodloc32,tr0,17641,458666).
route(harbor8,prodloc32,tr13,17641,105846).
route(harbor8,prodloc33,tr0,1442,37492).
route(harbor8,prodloc33,tr13,1442,8652).
route(harbor9,harbor0,tr13,16938,101628).
route(harbor9,harbor0,tr2,16938,50814).
route(harbor9,harbor1,tr13,13156,78936).
route(harbor9,harbor1,tr2,13156,39468).
route(harbor9,harbor2,tr13,17855,107130).
route(harbor9,harbor2,tr2,17855,53565).
route(harbor9,harbor3,tr13,26279,157674).
route(harbor9,harbor3,tr2,26279,78837).
route(harbor9,harbor4,tr13,18474,110844).
route(harbor9,harbor4,tr2,18474,55422).
route(harbor9,harbor5,tr13,4025,24150).
route(harbor9,harbor5,tr2,4025,12075).
route(harbor9,harbor6,tr13,16120,96720).
route(harbor9,harbor6,tr2,16120,48360).
route(harbor9,harbor7,tr13,3084,18504).
route(harbor9,harbor7,tr2,3084,9252).
route(harbor9,harbor8,tr13,22672,136032).
route(harbor9,harbor8,tr2,22672,68016).
route(harbor9,harbor10,tr13,5494,32964).
route(harbor9,harbor10,tr2,5494,16482).
route(harbor9,harbor11,tr13,2189,13134).
route(harbor9,harbor11,tr2,2189,6567).
route(harbor9,harbor12,tr13,17682,106092).
route(harbor9,harbor12,tr2,17682,53046).
route(harbor9,harbor13,tr13,15068,90408).
route(harbor9,harbor13,tr2,15068,45204).
route(harbor9,harbor14,tr13,13588,81528).
route(harbor9,harbor14,tr2,13588,40764).
route(harbor9,harbor15,tr13,26257,157542).
route(harbor9,harbor15,tr2,26257,78771).
route(harbor9,harbor16,tr13,13273,79638).
route(harbor9,harbor16,tr2,13273,39819).
route(harbor9,prodloc0,tr0,8823,229398).
route(harbor9,prodloc0,tr13,8823,52938).
route(harbor9,prodloc1,tr0,8072,209872).
route(harbor9,prodloc1,tr13,8072,48432).
route(harbor9,prodloc2,tr0,15506,403156).
route(harbor9,prodloc2,tr13,15506,93036).
route(harbor9,prodloc3,tr0,16157,420082).
route(harbor9,prodloc3,tr13,16157,96942).
route(harbor9,prodloc4,tr0,4162,108212).
route(harbor9,prodloc4,tr13,4162,24972).
route(harbor9,prodloc5,tr0,11132,289432).
route(harbor9,prodloc5,tr13,11132,66792).
route(harbor9,prodloc6,tr0,14212,369512).
route(harbor9,prodloc6,tr13,14212,85272).
route(harbor9,prodloc7,tr0,26731,695006).
route(harbor9,prodloc7,tr13,26731,160386).
route(harbor9,prodloc8,tr0,15617,406042).
route(harbor9,prodloc8,tr13,15617,93702).
route(harbor9,prodloc9,tr0,17204,447304).
route(harbor9,prodloc9,tr13,17204,103224).
route(harbor9,prodloc10,tr0,10396,270296).
route(harbor9,prodloc10,tr13,10396,62376).
route(harbor9,prodloc11,tr0,3561,92586).
route(harbor9,prodloc11,tr13,3561,21366).
route(harbor9,prodloc12,tr0,6275,163150).
route(harbor9,prodloc12,tr13,6275,37650).
route(harbor9,prodloc13,tr0,13749,357474).
route(harbor9,prodloc13,tr13,13749,82494).
route(harbor9,prodloc14,tr0,20249,526474).
route(harbor9,prodloc14,tr13,20249,121494).
route(harbor9,prodloc15,tr0,965,25090).
route(harbor9,prodloc15,tr13,965,5790).
route(harbor9,prodloc16,tr0,8528,221728).
route(harbor9,prodloc16,tr13,8528,51168).
route(harbor9,prodloc17,tr0,4244,110344).
route(harbor9,prodloc17,tr13,4244,25464).
route(harbor9,prodloc18,tr0,23008,598208).
route(harbor9,prodloc18,tr13,23008,138048).
route(harbor9,prodloc19,tr0,25537,663962).
route(harbor9,prodloc19,tr13,25537,153222).
route(harbor9,prodloc20,tr0,748,19448).
route(harbor9,prodloc20,tr13,748,4488).
route(harbor9,prodloc21,tr0,1169,30394).
route(harbor9,prodloc21,tr13,1169,7014).
route(harbor9,prodloc22,tr0,6362,165412).
route(harbor9,prodloc22,tr13,6362,38172).
route(harbor9,prodloc23,tr0,5098,132548).
route(harbor9,prodloc23,tr13,5098,30588).
route(harbor9,prodloc24,tr0,7448,193648).
route(harbor9,prodloc24,tr13,7448,44688).
route(harbor9,prodloc25,tr0,389,10114).
route(harbor9,prodloc25,tr13,389,2334).
route(harbor9,prodloc26,tr0,22514,585364).
route(harbor9,prodloc26,tr13,22514,135084).
route(harbor9,prodloc27,tr0,9310,242060).
route(harbor9,prodloc27,tr13,9310,55860).
route(harbor9,prodloc28,tr0,10555,274430).
route(harbor9,prodloc28,tr13,10555,63330).
route(harbor9,prodloc29,tr0,23713,616538).
route(harbor9,prodloc29,tr13,23713,142278).
route(harbor9,prodloc30,tr0,11646,302796).
route(harbor9,prodloc30,tr13,11646,69876).
route(harbor9,prodloc31,tr0,8012,208312).
route(harbor9,prodloc31,tr13,8012,48072).
route(harbor9,prodloc32,tr0,20310,528060).
route(harbor9,prodloc32,tr13,20310,121860).
route(harbor9,prodloc33,tr0,16347,425022).
route(harbor9,prodloc33,tr13,16347,98082).
route(harbor10,harbor0,tr13,3466,20796).
route(harbor10,harbor0,tr2,3466,10398).
route(harbor10,harbor1,tr13,16403,98418).
route(harbor10,harbor1,tr2,16403,49209).
route(harbor10,harbor2,tr13,23979,143874).
route(harbor10,harbor2,tr2,23979,71937).
route(harbor10,harbor3,tr13,19108,114648).
route(harbor10,harbor3,tr2,19108,57324).
route(harbor10,harbor4,tr13,4053,24318).
route(harbor10,harbor4,tr2,4053,12159).
route(harbor10,harbor5,tr13,27945,167670).
route(harbor10,harbor5,tr2,27945,83835).
route(harbor10,harbor6,tr13,16757,100542).
route(harbor10,harbor6,tr2,16757,50271).
route(harbor10,harbor7,tr13,20461,122766).
route(harbor10,harbor7,tr2,20461,61383).
route(harbor10,harbor8,tr13,8240,49440).
route(harbor10,harbor8,tr2,8240,24720).
route(harbor10,harbor9,tr13,23547,141282).
route(harbor10,harbor9,tr2,23547,70641).
route(harbor10,harbor11,tr13,6509,39054).
route(harbor10,harbor11,tr2,6509,19527).
route(harbor10,harbor12,tr13,23012,138072).
route(harbor10,harbor12,tr2,23012,69036).
route(harbor10,harbor13,tr13,17408,104448).
route(harbor10,harbor13,tr2,17408,52224).
route(harbor10,harbor14,tr13,28824,172944).
route(harbor10,harbor14,tr2,28824,86472).
route(harbor10,harbor15,tr13,14342,86052).
route(harbor10,harbor15,tr2,14342,43026).
route(harbor10,harbor16,tr13,791,4746).
route(harbor10,harbor16,tr2,791,2373).
route(harbor10,prodloc0,tr0,12314,320164).
route(harbor10,prodloc0,tr13,12314,73884).
route(harbor10,prodloc1,tr0,20744,539344).
route(harbor10,prodloc1,tr13,20744,124464).
route(harbor10,prodloc2,tr0,13548,352248).
route(harbor10,prodloc2,tr13,13548,81288).
route(harbor10,prodloc3,tr0,27041,703066).
route(harbor10,prodloc3,tr13,27041,162246).
route(harbor10,prodloc4,tr0,17347,451022).
route(harbor10,prodloc4,tr13,17347,104082).
route(harbor10,prodloc5,tr0,20180,524680).
route(harbor10,prodloc5,tr13,20180,121080).
route(harbor10,prodloc6,tr0,5235,136110).
route(harbor10,prodloc6,tr13,5235,31410).
route(harbor10,prodloc7,tr0,17637,458562).
route(harbor10,prodloc7,tr13,17637,105822).
route(harbor10,prodloc8,tr0,6695,174070).
route(harbor10,prodloc8,tr13,6695,40170).
route(harbor10,prodloc9,tr0,28308,736008).
route(harbor10,prodloc9,tr13,28308,169848).
route(harbor10,prodloc10,tr0,20688,537888).
route(harbor10,prodloc10,tr13,20688,124128).
route(harbor10,prodloc11,tr0,17500,455000).
route(harbor10,prodloc11,tr13,17500,105000).
route(harbor10,prodloc12,tr0,20923,543998).
route(harbor10,prodloc12,tr13,20923,125538).
route(harbor10,prodloc13,tr0,7156,186056).
route(harbor10,prodloc13,tr13,7156,42936).
route(harbor10,prodloc14,tr0,17356,451256).
route(harbor10,prodloc14,tr13,17356,104136).
route(harbor10,prodloc15,tr0,7085,184210).
route(harbor10,prodloc15,tr13,7085,42510).
route(harbor10,prodloc16,tr0,27896,725296).
route(harbor10,prodloc16,tr13,27896,167376).
route(harbor10,prodloc17,tr0,17793,462618).
route(harbor10,prodloc17,tr13,17793,106758).
route(harbor10,prodloc18,tr0,20046,521196).
route(harbor10,prodloc18,tr13,20046,120276).
route(harbor10,prodloc19,tr0,19225,499850).
route(harbor10,prodloc19,tr13,19225,115350).
route(harbor10,prodloc20,tr0,28076,729976).
route(harbor10,prodloc20,tr13,28076,168456).
route(harbor10,prodloc21,tr0,4473,116298).
route(harbor10,prodloc21,tr13,4473,26838).
route(harbor10,prodloc22,tr0,7625,198250).
route(harbor10,prodloc22,tr13,7625,45750).
route(harbor10,prodloc23,tr0,24275,631150).
route(harbor10,prodloc23,tr13,24275,145650).
route(harbor10,prodloc24,tr0,20576,534976).
route(harbor10,prodloc24,tr13,20576,123456).
route(harbor10,prodloc25,tr0,26560,690560).
route(harbor10,prodloc25,tr13,26560,159360).
route(harbor10,prodloc26,tr0,11392,296192).
route(harbor10,prodloc26,tr13,11392,68352).
route(harbor10,prodloc27,tr0,5937,154362).
route(harbor10,prodloc27,tr13,5937,35622).
route(harbor10,prodloc28,tr0,10352,269152).
route(harbor10,prodloc28,tr13,10352,62112).
route(harbor10,prodloc29,tr0,19765,513890).
route(harbor10,prodloc29,tr13,19765,118590).
route(harbor10,prodloc30,tr0,10323,268398).
route(harbor10,prodloc30,tr13,10323,61938).
route(harbor10,prodloc31,tr0,6381,165906).
route(harbor10,prodloc31,tr13,6381,38286).
route(harbor10,prodloc32,tr0,7150,185900).
route(harbor10,prodloc32,tr13,7150,42900).
route(harbor10,prodloc33,tr0,25505,663130).
route(harbor10,prodloc33,tr13,25505,153030).
route(harbor11,harbor0,tr13,6404,38424).
route(harbor11,harbor0,tr2,6404,19212).
route(harbor11,harbor1,tr13,29112,174672).
route(harbor11,harbor1,tr2,29112,87336).
route(harbor11,harbor2,tr13,3203,19218).
route(harbor11,harbor2,tr2,3203,9609).
route(harbor11,harbor3,tr13,4418,26508).
route(harbor11,harbor3,tr2,4418,13254).
route(harbor11,harbor4,tr13,29159,174954).
route(harbor11,harbor4,tr2,29159,87477).
route(harbor11,harbor5,tr13,7872,47232).
route(harbor11,harbor5,tr2,7872,23616).
route(harbor11,harbor6,tr13,4373,26238).
route(harbor11,harbor6,tr2,4373,13119).
route(harbor11,harbor7,tr13,23838,143028).
route(harbor11,harbor7,tr2,23838,71514).
route(harbor11,harbor8,tr13,2918,17508).
route(harbor11,harbor8,tr2,2918,8754).
route(harbor11,harbor9,tr13,8533,51198).
route(harbor11,harbor9,tr2,8533,25599).
route(harbor11,harbor10,tr13,12740,76440).
route(harbor11,harbor10,tr2,12740,38220).
route(harbor11,harbor12,tr13,3209,19254).
route(harbor11,harbor12,tr2,3209,9627).
route(harbor11,harbor13,tr13,14277,85662).
route(harbor11,harbor13,tr2,14277,42831).
route(harbor11,harbor14,tr13,27298,163788).
route(harbor11,harbor14,tr2,27298,81894).
route(harbor11,harbor15,tr13,13845,83070).
route(harbor11,harbor15,tr2,13845,41535).
route(harbor11,harbor16,tr13,17832,106992).
route(harbor11,harbor16,tr2,17832,53496).
route(harbor11,prodloc0,tr0,25886,673036).
route(harbor11,prodloc0,tr13,25886,155316).
route(harbor11,prodloc1,tr0,23098,600548).
route(harbor11,prodloc1,tr13,23098,138588).
route(harbor11,prodloc2,tr0,4130,107380).
route(harbor11,prodloc2,tr13,4130,24780).
route(harbor11,prodloc3,tr0,6576,170976).
route(harbor11,prodloc3,tr13,6576,39456).
route(harbor11,prodloc4,tr0,13200,343200).
route(harbor11,prodloc4,tr13,13200,79200).
route(harbor11,prodloc5,tr0,20580,535080).
route(harbor11,prodloc5,tr13,20580,123480).
route(harbor11,prodloc6,tr0,22455,583830).
route(harbor11,prodloc6,tr13,22455,134730).
route(harbor11,prodloc7,tr0,26178,680628).
route(harbor11,prodloc7,tr13,26178,157068).
route(harbor11,prodloc8,tr0,583,15158).
route(harbor11,prodloc8,tr13,583,3498).
route(harbor11,prodloc9,tr0,3149,81874).
route(harbor11,prodloc9,tr13,3149,18894).
route(harbor11,prodloc10,tr0,6586,171236).
route(harbor11,prodloc10,tr13,6586,39516).
route(harbor11,prodloc11,tr0,18676,485576).
route(harbor11,prodloc11,tr13,18676,112056).
route(harbor11,prodloc12,tr0,22362,581412).
route(harbor11,prodloc12,tr13,22362,134172).
route(harbor11,prodloc13,tr0,11719,304694).
route(harbor11,prodloc13,tr13,11719,70314).
route(harbor11,prodloc14,tr0,26903,699478).
route(harbor11,prodloc14,tr13,26903,161418).
route(harbor11,prodloc15,tr0,11841,307866).
route(harbor11,prodloc15,tr13,11841,71046).
route(harbor11,prodloc16,tr0,3783,98358).
route(harbor11,prodloc16,tr13,3783,22698).
route(harbor11,prodloc17,tr0,23093,600418).
route(harbor11,prodloc17,tr13,23093,138558).
route(harbor11,prodloc18,tr0,16572,430872).
route(harbor11,prodloc18,tr13,16572,99432).
route(harbor11,prodloc19,tr0,20798,540748).
route(harbor11,prodloc19,tr13,20798,124788).
route(harbor11,prodloc20,tr0,24845,645970).
route(harbor11,prodloc20,tr13,24845,149070).
route(harbor11,prodloc21,tr0,11257,292682).
route(harbor11,prodloc21,tr13,11257,67542).
route(harbor11,prodloc22,tr0,16477,428402).
route(harbor11,prodloc22,tr13,16477,98862).
route(harbor11,prodloc23,tr0,22470,584220).
route(harbor11,prodloc23,tr13,22470,134820).
route(harbor11,prodloc24,tr0,27296,709696).
route(harbor11,prodloc24,tr13,27296,163776).
route(harbor11,prodloc25,tr0,6195,161070).
route(harbor11,prodloc25,tr13,6195,37170).
route(harbor11,prodloc26,tr0,26309,684034).
route(harbor11,prodloc26,tr13,26309,157854).
route(harbor11,prodloc27,tr0,2313,60138).
route(harbor11,prodloc27,tr13,2313,13878).
route(harbor11,prodloc28,tr0,15798,410748).
route(harbor11,prodloc28,tr13,15798,94788).
route(harbor11,prodloc29,tr0,3481,90506).
route(harbor11,prodloc29,tr13,3481,20886).
route(harbor11,prodloc30,tr0,798,20748).
route(harbor11,prodloc30,tr13,798,4788).
route(harbor11,prodloc31,tr0,1228,31928).
route(harbor11,prodloc31,tr13,1228,7368).
route(harbor11,prodloc32,tr0,24971,649246).
route(harbor11,prodloc32,tr13,24971,149826).
route(harbor11,prodloc33,tr0,18079,470054).
route(harbor11,prodloc33,tr13,18079,108474).
route(harbor12,harbor0,tr13,20128,120768).
route(harbor12,harbor0,tr2,20128,60384).
route(harbor12,harbor1,tr13,16899,101394).
route(harbor12,harbor1,tr2,16899,50697).
route(harbor12,harbor2,tr13,18666,111996).
route(harbor12,harbor2,tr2,18666,55998).
route(harbor12,harbor3,tr13,15800,94800).
route(harbor12,harbor3,tr2,15800,47400).
route(harbor12,harbor4,tr13,4832,28992).
route(harbor12,harbor4,tr2,4832,14496).
route(harbor12,harbor5,tr13,6241,37446).
route(harbor12,harbor5,tr2,6241,18723).
route(harbor12,harbor6,tr13,6076,36456).
route(harbor12,harbor6,tr2,6076,18228).
route(harbor12,harbor7,tr13,3796,22776).
route(harbor12,harbor7,tr2,3796,11388).
route(harbor12,harbor8,tr13,6711,40266).
route(harbor12,harbor8,tr2,6711,20133).
route(harbor12,harbor9,tr13,5682,34092).
route(harbor12,harbor9,tr2,5682,17046).
route(harbor12,harbor10,tr13,27562,165372).
route(harbor12,harbor10,tr2,27562,82686).
route(harbor12,harbor11,tr13,5208,31248).
route(harbor12,harbor11,tr2,5208,15624).
route(harbor12,harbor13,tr13,9306,55836).
route(harbor12,harbor13,tr2,9306,27918).
route(harbor12,harbor14,tr13,22080,132480).
route(harbor12,harbor14,tr2,22080,66240).
route(harbor12,harbor15,tr13,3151,18906).
route(harbor12,harbor15,tr2,3151,9453).
route(harbor12,harbor16,tr13,19028,114168).
route(harbor12,harbor16,tr2,19028,57084).
route(harbor12,prodloc0,tr0,2031,52806).
route(harbor12,prodloc0,tr13,2031,12186).
route(harbor12,prodloc1,tr0,4407,114582).
route(harbor12,prodloc1,tr13,4407,26442).
route(harbor12,prodloc2,tr0,22315,580190).
route(harbor12,prodloc2,tr13,22315,133890).
route(harbor12,prodloc3,tr0,15143,393718).
route(harbor12,prodloc3,tr13,15143,90858).
route(harbor12,prodloc4,tr0,2544,66144).
route(harbor12,prodloc4,tr13,2544,15264).
route(harbor12,prodloc5,tr0,25060,651560).
route(harbor12,prodloc5,tr13,25060,150360).
route(harbor12,prodloc6,tr0,3171,82446).
route(harbor12,prodloc6,tr13,3171,19026).
route(harbor12,prodloc7,tr0,10711,278486).
route(harbor12,prodloc7,tr13,10711,64266).
route(harbor12,prodloc8,tr0,12810,333060).
route(harbor12,prodloc8,tr13,12810,76860).
route(harbor12,prodloc9,tr0,15303,397878).
route(harbor12,prodloc9,tr13,15303,91818).
route(harbor12,prodloc10,tr0,13975,363350).
route(harbor12,prodloc10,tr13,13975,83850).
route(harbor12,prodloc11,tr0,16886,439036).
route(harbor12,prodloc11,tr13,16886,101316).
route(harbor12,prodloc12,tr0,11620,302120).
route(harbor12,prodloc12,tr13,11620,69720).
route(harbor12,prodloc13,tr0,14094,366444).
route(harbor12,prodloc13,tr13,14094,84564).
route(harbor12,prodloc14,tr0,6886,179036).
route(harbor12,prodloc14,tr13,6886,41316).
route(harbor12,prodloc15,tr0,19693,512018).
route(harbor12,prodloc15,tr13,19693,118158).
route(harbor12,prodloc16,tr0,12229,317954).
route(harbor12,prodloc16,tr13,12229,73374).
route(harbor12,prodloc17,tr0,436,11336).
route(harbor12,prodloc17,tr13,436,2616).
route(harbor12,prodloc18,tr0,20777,540202).
route(harbor12,prodloc18,tr13,20777,124662).
route(harbor12,prodloc19,tr0,22973,597298).
route(harbor12,prodloc19,tr13,22973,137838).
route(harbor12,prodloc20,tr0,1341,34866).
route(harbor12,prodloc20,tr13,1341,8046).
route(harbor12,prodloc21,tr0,27666,719316).
route(harbor12,prodloc21,tr13,27666,165996).
route(harbor12,prodloc22,tr0,6564,170664).
route(harbor12,prodloc22,tr13,6564,39384).
route(harbor12,prodloc23,tr0,5941,154466).
route(harbor12,prodloc23,tr13,5941,35646).
route(harbor12,prodloc24,tr0,13369,347594).
route(harbor12,prodloc24,tr13,13369,80214).
route(harbor12,prodloc25,tr0,14877,386802).
route(harbor12,prodloc25,tr13,14877,89262).
route(harbor12,prodloc26,tr0,11784,306384).
route(harbor12,prodloc26,tr13,11784,70704).
route(harbor12,prodloc27,tr0,24228,629928).
route(harbor12,prodloc27,tr13,24228,145368).
route(harbor12,prodloc28,tr0,12132,315432).
route(harbor12,prodloc28,tr13,12132,72792).
route(harbor12,prodloc29,tr0,13282,345332).
route(harbor12,prodloc29,tr13,13282,79692).
route(harbor12,prodloc30,tr0,6395,166270).
route(harbor12,prodloc30,tr13,6395,38370).
route(harbor12,prodloc31,tr0,19822,515372).
route(harbor12,prodloc31,tr13,19822,118932).
route(harbor12,prodloc32,tr0,5411,140686).
route(harbor12,prodloc32,tr13,5411,32466).
route(harbor12,prodloc33,tr0,3108,80808).
route(harbor12,prodloc33,tr13,3108,18648).
route(harbor13,harbor0,tr13,16825,100950).
route(harbor13,harbor0,tr2,16825,50475).
route(harbor13,harbor1,tr13,25993,155958).
route(harbor13,harbor1,tr2,25993,77979).
route(harbor13,harbor2,tr13,535,3210).
route(harbor13,harbor2,tr2,535,1605).
route(harbor13,harbor3,tr13,10636,63816).
route(harbor13,harbor3,tr2,10636,31908).
route(harbor13,harbor4,tr13,29297,175782).
route(harbor13,harbor4,tr2,29297,87891).
route(harbor13,harbor5,tr13,2809,16854).
route(harbor13,harbor5,tr2,2809,8427).
route(harbor13,harbor6,tr13,26300,157800).
route(harbor13,harbor6,tr2,26300,78900).
route(harbor13,harbor7,tr13,27617,165702).
route(harbor13,harbor7,tr2,27617,82851).
route(harbor13,harbor8,tr13,23120,138720).
route(harbor13,harbor8,tr2,23120,69360).
route(harbor13,harbor9,tr13,28722,172332).
route(harbor13,harbor9,tr2,28722,86166).
route(harbor13,harbor10,tr13,28234,169404).
route(harbor13,harbor10,tr2,28234,84702).
route(harbor13,harbor11,tr13,20653,123918).
route(harbor13,harbor11,tr2,20653,61959).
route(harbor13,harbor12,tr13,13284,79704).
route(harbor13,harbor12,tr2,13284,39852).
route(harbor13,harbor14,tr13,18697,112182).
route(harbor13,harbor14,tr2,18697,56091).
route(harbor13,harbor15,tr13,19677,118062).
route(harbor13,harbor15,tr2,19677,59031).
route(harbor13,harbor16,tr13,6286,37716).
route(harbor13,harbor16,tr2,6286,18858).
route(harbor13,prodloc0,tr0,16526,429676).
route(harbor13,prodloc0,tr13,16526,99156).
route(harbor13,prodloc1,tr0,19158,498108).
route(harbor13,prodloc1,tr13,19158,114948).
route(harbor13,prodloc2,tr0,11175,290550).
route(harbor13,prodloc2,tr13,11175,67050).
route(harbor13,prodloc3,tr0,26374,685724).
route(harbor13,prodloc3,tr13,26374,158244).
route(harbor13,prodloc4,tr0,24984,649584).
route(harbor13,prodloc4,tr13,24984,149904).
route(harbor13,prodloc5,tr0,8464,220064).
route(harbor13,prodloc5,tr13,8464,50784).
route(harbor13,prodloc6,tr0,9161,238186).
route(harbor13,prodloc6,tr13,9161,54966).
route(harbor13,prodloc7,tr0,3812,99112).
route(harbor13,prodloc7,tr13,3812,22872).
route(harbor13,prodloc8,tr0,24395,634270).
route(harbor13,prodloc8,tr13,24395,146370).
route(harbor13,prodloc9,tr0,24347,633022).
route(harbor13,prodloc9,tr13,24347,146082).
route(harbor13,prodloc10,tr0,25495,662870).
route(harbor13,prodloc10,tr13,25495,152970).
route(harbor13,prodloc11,tr0,5246,136396).
route(harbor13,prodloc11,tr13,5246,31476).
route(harbor13,prodloc12,tr0,26696,694096).
route(harbor13,prodloc12,tr13,26696,160176).
route(harbor13,prodloc13,tr0,13293,345618).
route(harbor13,prodloc13,tr13,13293,79758).
route(harbor13,prodloc14,tr0,4367,113542).
route(harbor13,prodloc14,tr13,4367,26202).
route(harbor13,prodloc15,tr0,10812,281112).
route(harbor13,prodloc15,tr13,10812,64872).
route(harbor13,prodloc16,tr0,28832,749632).
route(harbor13,prodloc16,tr13,28832,172992).
route(harbor13,prodloc17,tr0,17659,459134).
route(harbor13,prodloc17,tr13,17659,105954).
route(harbor13,prodloc18,tr0,22769,591994).
route(harbor13,prodloc18,tr13,22769,136614).
route(harbor13,prodloc19,tr0,12121,315146).
route(harbor13,prodloc19,tr13,12121,72726).
route(harbor13,prodloc20,tr0,25143,653718).
route(harbor13,prodloc20,tr13,25143,150858).
route(harbor13,prodloc21,tr0,14146,367796).
route(harbor13,prodloc21,tr13,14146,84876).
route(harbor13,prodloc22,tr0,25077,652002).
route(harbor13,prodloc22,tr13,25077,150462).
route(harbor13,prodloc23,tr0,5951,154726).
route(harbor13,prodloc23,tr13,5951,35706).
route(harbor13,prodloc24,tr0,13297,345722).
route(harbor13,prodloc24,tr13,13297,79782).
route(harbor13,prodloc25,tr0,6779,176254).
route(harbor13,prodloc25,tr13,6779,40674).
route(harbor13,prodloc26,tr0,23681,615706).
route(harbor13,prodloc26,tr13,23681,142086).
route(harbor13,prodloc27,tr0,6058,157508).
route(harbor13,prodloc27,tr13,6058,36348).
route(harbor13,prodloc28,tr0,2313,60138).
route(harbor13,prodloc28,tr13,2313,13878).
route(harbor13,prodloc29,tr0,26129,679354).
route(harbor13,prodloc29,tr13,26129,156774).
route(harbor13,prodloc30,tr0,11199,291174).
route(harbor13,prodloc30,tr13,11199,67194).
route(harbor13,prodloc31,tr0,9887,257062).
route(harbor13,prodloc31,tr13,9887,59322).
route(harbor13,prodloc32,tr0,15364,399464).
route(harbor13,prodloc32,tr13,15364,92184).
route(harbor13,prodloc33,tr0,3307,85982).
route(harbor13,prodloc33,tr13,3307,19842).
route(harbor14,harbor0,tr13,377,2262).
route(harbor14,harbor0,tr2,377,1131).
route(harbor14,harbor1,tr13,29129,174774).
route(harbor14,harbor1,tr2,29129,87387).
route(harbor14,harbor2,tr13,11683,70098).
route(harbor14,harbor2,tr2,11683,35049).
route(harbor14,harbor3,tr13,20959,125754).
route(harbor14,harbor3,tr2,20959,62877).
route(harbor14,harbor4,tr13,20477,122862).
route(harbor14,harbor4,tr2,20477,61431).
route(harbor14,harbor5,tr13,1654,9924).
route(harbor14,harbor5,tr2,1654,4962).
route(harbor14,harbor6,tr13,7635,45810).
route(harbor14,harbor6,tr2,7635,22905).
route(harbor14,harbor7,tr13,8974,53844).
route(harbor14,harbor7,tr2,8974,26922).
route(harbor14,harbor8,tr13,21856,131136).
route(harbor14,harbor8,tr2,21856,65568).
route(harbor14,harbor9,tr13,9823,58938).
route(harbor14,harbor9,tr2,9823,29469).
route(harbor14,harbor10,tr13,11099,66594).
route(harbor14,harbor10,tr2,11099,33297).
route(harbor14,harbor11,tr13,7109,42654).
route(harbor14,harbor11,tr2,7109,21327).
route(harbor14,harbor12,tr13,21649,129894).
route(harbor14,harbor12,tr2,21649,64947).
route(harbor14,harbor13,tr13,13338,80028).
route(harbor14,harbor13,tr2,13338,40014).
route(harbor14,harbor15,tr13,18693,112158).
route(harbor14,harbor15,tr2,18693,56079).
route(harbor14,harbor16,tr13,5992,35952).
route(harbor14,harbor16,tr2,5992,17976).
route(harbor14,prodloc0,tr0,17469,454194).
route(harbor14,prodloc0,tr13,17469,104814).
route(harbor14,prodloc1,tr0,2519,65494).
route(harbor14,prodloc1,tr13,2519,15114).
route(harbor14,prodloc2,tr0,12768,331968).
route(harbor14,prodloc2,tr13,12768,76608).
route(harbor14,prodloc3,tr0,16867,438542).
route(harbor14,prodloc3,tr13,16867,101202).
route(harbor14,prodloc4,tr0,16307,423982).
route(harbor14,prodloc4,tr13,16307,97842).
route(harbor14,prodloc5,tr0,21047,547222).
route(harbor14,prodloc5,tr13,21047,126282).
route(harbor14,prodloc6,tr0,6988,181688).
route(harbor14,prodloc6,tr13,6988,41928).
route(harbor14,prodloc7,tr0,22980,597480).
route(harbor14,prodloc7,tr13,22980,137880).
route(harbor14,prodloc8,tr0,3921,101946).
route(harbor14,prodloc8,tr13,3921,23526).
route(harbor14,prodloc9,tr0,24962,649012).
route(harbor14,prodloc9,tr13,24962,149772).
route(harbor14,prodloc10,tr0,12957,336882).
route(harbor14,prodloc10,tr13,12957,77742).
route(harbor14,prodloc11,tr0,18840,489840).
route(harbor14,prodloc11,tr13,18840,113040).
route(harbor14,prodloc12,tr0,749,19474).
route(harbor14,prodloc12,tr13,749,4494).
route(harbor14,prodloc13,tr0,3762,97812).
route(harbor14,prodloc13,tr13,3762,22572).
route(harbor14,prodloc14,tr0,20167,524342).
route(harbor14,prodloc14,tr13,20167,121002).
route(harbor14,prodloc15,tr0,3542,92092).
route(harbor14,prodloc15,tr13,3542,21252).
route(harbor14,prodloc16,tr0,24210,629460).
route(harbor14,prodloc16,tr13,24210,145260).
route(harbor14,prodloc17,tr0,7769,201994).
route(harbor14,prodloc17,tr13,7769,46614).
route(harbor14,prodloc18,tr0,8411,218686).
route(harbor14,prodloc18,tr13,8411,50466).
route(harbor14,prodloc19,tr0,14539,378014).
route(harbor14,prodloc19,tr13,14539,87234).
route(harbor14,prodloc20,tr0,13160,342160).
route(harbor14,prodloc20,tr13,13160,78960).
route(harbor14,prodloc21,tr0,16542,430092).
route(harbor14,prodloc21,tr13,16542,99252).
route(harbor14,prodloc22,tr0,1655,43030).
route(harbor14,prodloc22,tr13,1655,9930).
route(harbor14,prodloc23,tr0,24948,648648).
route(harbor14,prodloc23,tr13,24948,149688).
route(harbor14,prodloc24,tr0,6406,166556).
route(harbor14,prodloc24,tr13,6406,38436).
route(harbor14,prodloc25,tr0,21235,552110).
route(harbor14,prodloc25,tr13,21235,127410).
route(harbor14,prodloc26,tr0,12312,320112).
route(harbor14,prodloc26,tr13,12312,73872).
route(harbor14,prodloc27,tr0,355,9230).
route(harbor14,prodloc27,tr13,355,2130).
route(harbor14,prodloc28,tr0,3227,83902).
route(harbor14,prodloc28,tr13,3227,19362).
route(harbor14,prodloc29,tr0,8474,220324).
route(harbor14,prodloc29,tr13,8474,50844).
route(harbor14,prodloc30,tr0,8223,213798).
route(harbor14,prodloc30,tr13,8223,49338).
route(harbor14,prodloc31,tr0,9035,234910).
route(harbor14,prodloc31,tr13,9035,54210).
route(harbor14,prodloc32,tr0,11170,290420).
route(harbor14,prodloc32,tr13,11170,67020).
route(harbor14,prodloc33,tr0,18026,468676).
route(harbor14,prodloc33,tr13,18026,108156).
route(harbor15,harbor0,tr13,17740,106440).
route(harbor15,harbor0,tr2,17740,53220).
route(harbor15,harbor1,tr13,16670,100020).
route(harbor15,harbor1,tr2,16670,50010).
route(harbor15,harbor2,tr13,13651,81906).
route(harbor15,harbor2,tr2,13651,40953).
route(harbor15,harbor3,tr13,17091,102546).
route(harbor15,harbor3,tr2,17091,51273).
route(harbor15,harbor4,tr13,18641,111846).
route(harbor15,harbor4,tr2,18641,55923).
route(harbor15,harbor5,tr13,27764,166584).
route(harbor15,harbor5,tr2,27764,83292).
route(harbor15,harbor6,tr13,3294,19764).
route(harbor15,harbor6,tr2,3294,9882).
route(harbor15,harbor7,tr13,20936,125616).
route(harbor15,harbor7,tr2,20936,62808).
route(harbor15,harbor8,tr13,14590,87540).
route(harbor15,harbor8,tr2,14590,43770).
route(harbor15,harbor9,tr13,26556,159336).
route(harbor15,harbor9,tr2,26556,79668).
route(harbor15,harbor10,tr13,21154,126924).
route(harbor15,harbor10,tr2,21154,63462).
route(harbor15,harbor11,tr13,2526,15156).
route(harbor15,harbor11,tr2,2526,7578).
route(harbor15,harbor12,tr13,18033,108198).
route(harbor15,harbor12,tr2,18033,54099).
route(harbor15,harbor13,tr13,19610,117660).
route(harbor15,harbor13,tr2,19610,58830).
route(harbor15,harbor14,tr13,21933,131598).
route(harbor15,harbor14,tr2,21933,65799).
route(harbor15,harbor16,tr13,24909,149454).
route(harbor15,harbor16,tr2,24909,74727).
route(harbor15,prodloc0,tr0,1480,38480).
route(harbor15,prodloc0,tr13,1480,8880).
route(harbor15,prodloc1,tr0,12664,329264).
route(harbor15,prodloc1,tr13,12664,75984).
route(harbor15,prodloc2,tr0,5242,136292).
route(harbor15,prodloc2,tr13,5242,31452).
route(harbor15,prodloc3,tr0,12647,328822).
route(harbor15,prodloc3,tr13,12647,75882).
route(harbor15,prodloc4,tr0,15460,401960).
route(harbor15,prodloc4,tr13,15460,92760).
route(harbor15,prodloc5,tr0,5543,144118).
route(harbor15,prodloc5,tr13,5543,33258).
route(harbor15,prodloc6,tr0,28040,729040).
route(harbor15,prodloc6,tr13,28040,168240).
route(harbor15,prodloc7,tr0,16239,422214).
route(harbor15,prodloc7,tr13,16239,97434).
route(harbor15,prodloc8,tr0,17760,461760).
route(harbor15,prodloc8,tr13,17760,106560).
route(harbor15,prodloc9,tr0,20028,520728).
route(harbor15,prodloc9,tr13,20028,120168).
route(harbor15,prodloc10,tr0,19550,508300).
route(harbor15,prodloc10,tr13,19550,117300).
route(harbor15,prodloc11,tr0,1920,49920).
route(harbor15,prodloc11,tr13,1920,11520).
route(harbor15,prodloc12,tr0,14078,366028).
route(harbor15,prodloc12,tr13,14078,84468).
route(harbor15,prodloc13,tr0,16206,421356).
route(harbor15,prodloc13,tr13,16206,97236).
route(harbor15,prodloc14,tr0,13787,358462).
route(harbor15,prodloc14,tr13,13787,82722).
route(harbor15,prodloc15,tr0,9322,242372).
route(harbor15,prodloc15,tr13,9322,55932).
route(harbor15,prodloc16,tr0,17262,448812).
route(harbor15,prodloc16,tr13,17262,103572).
route(harbor15,prodloc17,tr0,13062,339612).
route(harbor15,prodloc17,tr13,13062,78372).
route(harbor15,prodloc18,tr0,19591,509366).
route(harbor15,prodloc18,tr13,19591,117546).
route(harbor15,prodloc19,tr0,10238,266188).
route(harbor15,prodloc19,tr13,10238,61428).
route(harbor15,prodloc20,tr0,11981,311506).
route(harbor15,prodloc20,tr13,11981,71886).
route(harbor15,prodloc21,tr0,17382,451932).
route(harbor15,prodloc21,tr13,17382,104292).
route(harbor15,prodloc22,tr0,9365,243490).
route(harbor15,prodloc22,tr13,9365,56190).
route(harbor15,prodloc23,tr0,15836,411736).
route(harbor15,prodloc23,tr13,15836,95016).
route(harbor15,prodloc24,tr0,21468,558168).
route(harbor15,prodloc24,tr13,21468,128808).
route(harbor15,prodloc25,tr0,8841,229866).
route(harbor15,prodloc25,tr13,8841,53046).
route(harbor15,prodloc26,tr0,18373,477698).
route(harbor15,prodloc26,tr13,18373,110238).
route(harbor15,prodloc27,tr0,9292,241592).
route(harbor15,prodloc27,tr13,9292,55752).
route(harbor15,prodloc28,tr0,21746,565396).
route(harbor15,prodloc28,tr13,21746,130476).
route(harbor15,prodloc29,tr0,23483,610558).
route(harbor15,prodloc29,tr13,23483,140898).
route(harbor15,prodloc30,tr0,24504,637104).
route(harbor15,prodloc30,tr13,24504,147024).
route(harbor15,prodloc31,tr0,9702,252252).
route(harbor15,prodloc31,tr13,9702,58212).
route(harbor15,prodloc32,tr0,882,22932).
route(harbor15,prodloc32,tr13,882,5292).
route(harbor15,prodloc33,tr0,461,11986).
route(harbor15,prodloc33,tr13,461,2766).
route(harbor16,harbor0,tr13,25342,152052).
route(harbor16,harbor0,tr2,25342,76026).
route(harbor16,harbor1,tr13,8058,48348).
route(harbor16,harbor1,tr2,8058,24174).
route(harbor16,harbor2,tr13,19225,115350).
route(harbor16,harbor2,tr2,19225,57675).
route(harbor16,harbor3,tr13,1431,8586).
route(harbor16,harbor3,tr2,1431,4293).
route(harbor16,harbor4,tr13,20771,124626).
route(harbor16,harbor4,tr2,20771,62313).
route(harbor16,harbor5,tr13,5161,30966).
route(harbor16,harbor5,tr2,5161,15483).
route(harbor16,harbor6,tr13,13425,80550).
route(harbor16,harbor6,tr2,13425,40275).
route(harbor16,harbor7,tr13,24758,148548).
route(harbor16,harbor7,tr2,24758,74274).
route(harbor16,harbor8,tr13,22454,134724).
route(harbor16,harbor8,tr2,22454,67362).
route(harbor16,harbor9,tr13,12808,76848).
route(harbor16,harbor9,tr2,12808,38424).
route(harbor16,harbor10,tr13,1759,10554).
route(harbor16,harbor10,tr2,1759,5277).
route(harbor16,harbor11,tr13,10356,62136).
route(harbor16,harbor11,tr2,10356,31068).
route(harbor16,harbor12,tr13,24552,147312).
route(harbor16,harbor12,tr2,24552,73656).
route(harbor16,harbor13,tr13,13064,78384).
route(harbor16,harbor13,tr2,13064,39192).
route(harbor16,harbor14,tr13,1673,10038).
route(harbor16,harbor14,tr2,1673,5019).
route(harbor16,harbor15,tr13,19092,114552).
route(harbor16,harbor15,tr2,19092,57276).
route(harbor16,prodloc0,tr0,23695,616070).
route(harbor16,prodloc0,tr13,23695,142170).
route(harbor16,prodloc1,tr0,10462,272012).
route(harbor16,prodloc1,tr13,10462,62772).
route(harbor16,prodloc2,tr0,2410,62660).
route(harbor16,prodloc2,tr13,2410,14460).
route(harbor16,prodloc3,tr0,26137,679562).
route(harbor16,prodloc3,tr13,26137,156822).
route(harbor16,prodloc4,tr0,7332,190632).
route(harbor16,prodloc4,tr13,7332,43992).
route(harbor16,prodloc5,tr0,14076,365976).
route(harbor16,prodloc5,tr13,14076,84456).
route(harbor16,prodloc6,tr0,23566,612716).
route(harbor16,prodloc6,tr13,23566,141396).
route(harbor16,prodloc7,tr0,15652,406952).
route(harbor16,prodloc7,tr13,15652,93912).
route(harbor16,prodloc8,tr0,8224,213824).
route(harbor16,prodloc8,tr13,8224,49344).
route(harbor16,prodloc9,tr0,24758,643708).
route(harbor16,prodloc9,tr13,24758,148548).
route(harbor16,prodloc10,tr0,7987,207662).
route(harbor16,prodloc10,tr13,7987,47922).
route(harbor16,prodloc11,tr0,1490,38740).
route(harbor16,prodloc11,tr13,1490,8940).
route(harbor16,prodloc12,tr0,17151,445926).
route(harbor16,prodloc12,tr13,17151,102906).
route(harbor16,prodloc13,tr0,3228,83928).
route(harbor16,prodloc13,tr13,3228,19368).
route(harbor16,prodloc14,tr0,26549,690274).
route(harbor16,prodloc14,tr13,26549,159294).
route(harbor16,prodloc15,tr0,23684,615784).
route(harbor16,prodloc15,tr13,23684,142104).
route(harbor16,prodloc16,tr0,15348,399048).
route(harbor16,prodloc16,tr13,15348,92088).
route(harbor16,prodloc17,tr0,4732,123032).
route(harbor16,prodloc17,tr13,4732,28392).
route(harbor16,prodloc18,tr0,26763,695838).
route(harbor16,prodloc18,tr13,26763,160578).
route(harbor16,prodloc19,tr0,8036,208936).
route(harbor16,prodloc19,tr13,8036,48216).
route(harbor16,prodloc20,tr0,19781,514306).
route(harbor16,prodloc20,tr13,19781,118686).
route(harbor16,prodloc21,tr0,23149,601874).
route(harbor16,prodloc21,tr13,23149,138894).
route(harbor16,prodloc22,tr0,3773,98098).
route(harbor16,prodloc22,tr13,3773,22638).
route(harbor16,prodloc23,tr0,1653,42978).
route(harbor16,prodloc23,tr13,1653,9918).
route(harbor16,prodloc24,tr0,20457,531882).
route(harbor16,prodloc24,tr13,20457,122742).
route(harbor16,prodloc25,tr0,13671,355446).
route(harbor16,prodloc25,tr13,13671,82026).
route(harbor16,prodloc26,tr0,14934,388284).
route(harbor16,prodloc26,tr13,14934,89604).
route(harbor16,prodloc27,tr0,3867,100542).
route(harbor16,prodloc27,tr13,3867,23202).
route(harbor16,prodloc28,tr0,6675,173550).
route(harbor16,prodloc28,tr13,6675,40050).
route(harbor16,prodloc29,tr0,28219,733694).
route(harbor16,prodloc29,tr13,28219,169314).
route(harbor16,prodloc30,tr0,1707,44382).
route(harbor16,prodloc30,tr13,1707,10242).
route(harbor16,prodloc31,tr0,11690,303940).
route(harbor16,prodloc31,tr13,11690,70140).
route(harbor16,prodloc32,tr0,17306,449956).
route(harbor16,prodloc32,tr13,17306,103836).
route(harbor16,prodloc33,tr0,5072,131872).
route(harbor16,prodloc33,tr13,5072,30432).
route(prodloc0,harbor0,tr0,4075,105950).
route(prodloc0,harbor0,tr13,4075,24450).
route(prodloc0,harbor1,tr0,11906,309556).
route(prodloc0,harbor1,tr13,11906,71436).
route(prodloc0,harbor2,tr0,14513,377338).
route(prodloc0,harbor2,tr13,14513,87078).
route(prodloc0,harbor3,tr0,4582,119132).
route(prodloc0,harbor3,tr13,4582,27492).
route(prodloc0,harbor4,tr0,21887,569062).
route(prodloc0,harbor4,tr13,21887,131322).
route(prodloc0,harbor5,tr0,13665,355290).
route(prodloc0,harbor5,tr13,13665,81990).
route(prodloc0,harbor6,tr0,14929,388154).
route(prodloc0,harbor6,tr13,14929,89574).
route(prodloc0,harbor7,tr0,19697,512122).
route(prodloc0,harbor7,tr13,19697,118182).
route(prodloc0,harbor8,tr0,8591,223366).
route(prodloc0,harbor8,tr13,8591,51546).
route(prodloc0,harbor9,tr0,20960,544960).
route(prodloc0,harbor9,tr13,20960,125760).
route(prodloc0,harbor10,tr0,19080,496080).
route(prodloc0,harbor10,tr13,19080,114480).
route(prodloc0,harbor11,tr0,22349,581074).
route(prodloc0,harbor11,tr13,22349,134094).
route(prodloc0,harbor12,tr0,13749,357474).
route(prodloc0,harbor12,tr13,13749,82494).
route(prodloc0,harbor13,tr0,11930,310180).
route(prodloc0,harbor13,tr13,11930,71580).
route(prodloc0,harbor14,tr0,25494,662844).
route(prodloc0,harbor14,tr13,25494,152964).
route(prodloc0,harbor15,tr0,24377,633802).
route(prodloc0,harbor15,tr13,24377,146262).
route(prodloc0,harbor16,tr0,17394,452244).
route(prodloc0,harbor16,tr13,17394,104364).
route(prodloc0,prodloc1,tr0,26712,694512).
route(prodloc0,prodloc1,tr13,26712,160272).
route(prodloc0,prodloc2,tr0,4490,116740).
route(prodloc0,prodloc2,tr13,4490,26940).
route(prodloc0,prodloc3,tr0,9508,247208).
route(prodloc0,prodloc3,tr13,9508,57048).
route(prodloc0,prodloc4,tr0,24063,625638).
route(prodloc0,prodloc4,tr13,24063,144378).
route(prodloc0,prodloc5,tr0,4224,109824).
route(prodloc0,prodloc5,tr13,4224,25344).
route(prodloc0,prodloc6,tr0,7814,203164).
route(prodloc0,prodloc6,tr13,7814,46884).
route(prodloc0,prodloc7,tr0,15766,409916).
route(prodloc0,prodloc7,tr13,15766,94596).
route(prodloc0,prodloc8,tr0,3733,97058).
route(prodloc0,prodloc8,tr13,3733,22398).
route(prodloc0,prodloc9,tr0,16482,428532).
route(prodloc0,prodloc9,tr13,16482,98892).
route(prodloc0,prodloc10,tr0,10114,262964).
route(prodloc0,prodloc10,tr13,10114,60684).
route(prodloc0,prodloc11,tr0,25702,668252).
route(prodloc0,prodloc11,tr13,25702,154212).
route(prodloc0,prodloc12,tr0,16626,432276).
route(prodloc0,prodloc12,tr13,16626,99756).
route(prodloc0,prodloc13,tr0,20481,532506).
route(prodloc0,prodloc13,tr13,20481,122886).
route(prodloc0,prodloc14,tr0,27742,721292).
route(prodloc0,prodloc14,tr13,27742,166452).
route(prodloc0,prodloc15,tr0,11771,306046).
route(prodloc0,prodloc15,tr13,11771,70626).
route(prodloc0,prodloc16,tr0,9005,234130).
route(prodloc0,prodloc16,tr13,9005,54030).
route(prodloc0,prodloc17,tr13,8898,53388).
route(prodloc0,prodloc17,tr15,8898,284736).
route(prodloc0,prodloc18,tr0,19984,519584).
route(prodloc0,prodloc18,tr13,19984,119904).
route(prodloc0,prodloc19,tr0,22449,583674).
route(prodloc0,prodloc19,tr13,22449,134694).
route(prodloc0,prodloc20,tr0,23761,617786).
route(prodloc0,prodloc20,tr13,23761,142566).
route(prodloc0,prodloc21,tr0,18512,481312).
route(prodloc0,prodloc21,tr13,18512,111072).
route(prodloc0,prodloc22,tr0,22908,595608).
route(prodloc0,prodloc22,tr13,22908,137448).
route(prodloc0,prodloc23,tr0,19390,504140).
route(prodloc0,prodloc23,tr13,19390,116340).
route(prodloc0,prodloc24,tr0,6228,161928).
route(prodloc0,prodloc24,tr13,6228,37368).
route(prodloc0,prodloc25,tr0,20747,539422).
route(prodloc0,prodloc25,tr13,20747,124482).
route(prodloc0,prodloc26,tr0,9132,237432).
route(prodloc0,prodloc26,tr13,9132,54792).
route(prodloc0,prodloc27,tr0,24687,641862).
route(prodloc0,prodloc27,tr13,24687,148122).
route(prodloc0,prodloc28,tr0,7847,204022).
route(prodloc0,prodloc28,tr13,7847,47082).
route(prodloc0,prodloc29,tr0,6221,161746).
route(prodloc0,prodloc29,tr13,6221,37326).
route(prodloc0,prodloc30,tr0,8159,212134).
route(prodloc0,prodloc30,tr13,8159,48954).
route(prodloc0,prodloc31,tr0,16456,427856).
route(prodloc0,prodloc31,tr13,16456,98736).
route(prodloc0,prodloc32,tr0,21397,556322).
route(prodloc0,prodloc32,tr13,21397,128382).
route(prodloc0,prodloc33,tr0,6423,166998).
route(prodloc0,prodloc33,tr13,6423,38538).
route(prodloc1,harbor0,tr0,28797,748722).
route(prodloc1,harbor0,tr13,28797,172782).
route(prodloc1,harbor1,tr0,22388,582088).
route(prodloc1,harbor1,tr13,22388,134328).
route(prodloc1,harbor2,tr0,1296,33696).
route(prodloc1,harbor2,tr13,1296,7776).
route(prodloc1,harbor3,tr0,20593,535418).
route(prodloc1,harbor3,tr13,20593,123558).
route(prodloc1,harbor4,tr0,1993,51818).
route(prodloc1,harbor4,tr13,1993,11958).
route(prodloc1,harbor5,tr0,312,8112).
route(prodloc1,harbor5,tr13,312,1872).
route(prodloc1,harbor6,tr0,8880,230880).
route(prodloc1,harbor6,tr13,8880,53280).
route(prodloc1,harbor7,tr0,8505,221130).
route(prodloc1,harbor7,tr13,8505,51030).
route(prodloc1,harbor8,tr0,13934,362284).
route(prodloc1,harbor8,tr13,13934,83604).
route(prodloc1,harbor9,tr0,883,22958).
route(prodloc1,harbor9,tr13,883,5298).
route(prodloc1,harbor10,tr0,20427,531102).
route(prodloc1,harbor10,tr13,20427,122562).
route(prodloc1,harbor11,tr0,1248,32448).
route(prodloc1,harbor11,tr13,1248,7488).
route(prodloc1,harbor12,tr0,3359,87334).
route(prodloc1,harbor12,tr13,3359,20154).
route(prodloc1,harbor13,tr0,7294,189644).
route(prodloc1,harbor13,tr13,7294,43764).
route(prodloc1,harbor14,tr0,17750,461500).
route(prodloc1,harbor14,tr13,17750,106500).
route(prodloc1,harbor15,tr0,9120,237120).
route(prodloc1,harbor15,tr13,9120,54720).
route(prodloc1,harbor16,tr0,2377,61802).
route(prodloc1,harbor16,tr13,2377,14262).
route(prodloc1,prodloc0,tr0,24767,643942).
route(prodloc1,prodloc0,tr13,24767,148602).
route(prodloc1,prodloc2,tr0,2834,73684).
route(prodloc1,prodloc2,tr13,2834,17004).
route(prodloc1,prodloc3,tr0,22162,576212).
route(prodloc1,prodloc3,tr15,22162,709184).
route(prodloc1,prodloc4,tr0,5272,137072).
route(prodloc1,prodloc4,tr13,5272,31632).
route(prodloc1,prodloc5,tr0,18044,469144).
route(prodloc1,prodloc5,tr13,18044,108264).
route(prodloc1,prodloc6,tr13,7694,46164).
route(prodloc1,prodloc6,tr15,7694,246208).
route(prodloc1,prodloc7,tr0,20682,537732).
route(prodloc1,prodloc7,tr13,20682,124092).
route(prodloc1,prodloc8,tr0,12230,317980).
route(prodloc1,prodloc8,tr13,12230,73380).
route(prodloc1,prodloc9,tr0,15862,412412).
route(prodloc1,prodloc9,tr13,15862,95172).
route(prodloc1,prodloc10,tr0,15683,407758).
route(prodloc1,prodloc10,tr13,15683,94098).
route(prodloc1,prodloc11,tr0,11605,301730).
route(prodloc1,prodloc11,tr13,11605,69630).
route(prodloc1,prodloc12,tr0,6904,179504).
route(prodloc1,prodloc12,tr13,6904,41424).
route(prodloc1,prodloc13,tr13,11085,66510).
route(prodloc1,prodloc13,tr15,11085,354720).
route(prodloc1,prodloc14,tr0,11264,292864).
route(prodloc1,prodloc14,tr13,11264,67584).
route(prodloc1,prodloc15,tr0,16202,421252).
route(prodloc1,prodloc15,tr13,16202,97212).
route(prodloc1,prodloc16,tr0,24408,634608).
route(prodloc1,prodloc16,tr13,24408,146448).
route(prodloc1,prodloc17,tr0,4372,113672).
route(prodloc1,prodloc17,tr13,4372,26232).
route(prodloc1,prodloc18,tr0,27479,714454).
route(prodloc1,prodloc18,tr13,27479,164874).
route(prodloc1,prodloc19,tr0,28497,740922).
route(prodloc1,prodloc19,tr13,28497,170982).
route(prodloc1,prodloc20,tr0,2438,63388).
route(prodloc1,prodloc20,tr13,2438,14628).
route(prodloc1,prodloc21,tr0,26290,683540).
route(prodloc1,prodloc21,tr13,26290,157740).
route(prodloc1,prodloc22,tr0,3927,102102).
route(prodloc1,prodloc22,tr13,3927,23562).
route(prodloc1,prodloc23,tr0,14659,381134).
route(prodloc1,prodloc23,tr13,14659,87954).
route(prodloc1,prodloc24,tr0,26517,689442).
route(prodloc1,prodloc24,tr13,26517,159102).
route(prodloc1,prodloc25,tr0,26938,700388).
route(prodloc1,prodloc25,tr13,26938,161628).
route(prodloc1,prodloc26,tr0,20440,531440).
route(prodloc1,prodloc26,tr13,20440,122640).
route(prodloc1,prodloc27,tr0,27461,713986).
route(prodloc1,prodloc27,tr13,27461,164766).
route(prodloc1,prodloc28,tr0,25192,654992).
route(prodloc1,prodloc28,tr13,25192,151152).
route(prodloc1,prodloc29,tr0,25198,655148).
route(prodloc1,prodloc29,tr13,25198,151188).
route(prodloc1,prodloc30,tr0,6986,181636).
route(prodloc1,prodloc30,tr13,6986,41916).
route(prodloc1,prodloc31,tr0,14562,378612).
route(prodloc1,prodloc31,tr13,14562,87372).
route(prodloc1,prodloc32,tr0,13907,361582).
route(prodloc1,prodloc32,tr13,13907,83442).
route(prodloc1,prodloc33,tr0,24490,636740).
route(prodloc1,prodloc33,tr13,24490,146940).
route(prodloc2,harbor0,tr0,8458,219908).
route(prodloc2,harbor0,tr13,8458,50748).
route(prodloc2,harbor1,tr0,12785,332410).
route(prodloc2,harbor1,tr13,12785,76710).
route(prodloc2,harbor2,tr0,26540,690040).
route(prodloc2,harbor2,tr13,26540,159240).
route(prodloc2,harbor3,tr0,4939,128414).
route(prodloc2,harbor3,tr13,4939,29634).
route(prodloc2,harbor4,tr0,12091,314366).
route(prodloc2,harbor4,tr13,12091,72546).
route(prodloc2,harbor5,tr0,5030,130780).
route(prodloc2,harbor5,tr13,5030,30180).
route(prodloc2,harbor6,tr0,21421,556946).
route(prodloc2,harbor6,tr13,21421,128526).
route(prodloc2,harbor7,tr0,27407,712582).
route(prodloc2,harbor7,tr13,27407,164442).
route(prodloc2,harbor8,tr0,19553,508378).
route(prodloc2,harbor8,tr13,19553,117318).
route(prodloc2,harbor9,tr0,10664,277264).
route(prodloc2,harbor9,tr13,10664,63984).
route(prodloc2,harbor10,tr0,9533,247858).
route(prodloc2,harbor10,tr13,9533,57198).
route(prodloc2,harbor11,tr0,17978,467428).
route(prodloc2,harbor11,tr13,17978,107868).
route(prodloc2,harbor12,tr0,24872,646672).
route(prodloc2,harbor12,tr13,24872,149232).
route(prodloc2,harbor13,tr0,24450,635700).
route(prodloc2,harbor13,tr13,24450,146700).
route(prodloc2,harbor14,tr0,27073,703898).
route(prodloc2,harbor14,tr13,27073,162438).
route(prodloc2,harbor15,tr0,6026,156676).
route(prodloc2,harbor15,tr13,6026,36156).
route(prodloc2,harbor16,tr0,14015,364390).
route(prodloc2,harbor16,tr13,14015,84090).
route(prodloc2,prodloc0,tr13,21425,128550).
route(prodloc2,prodloc0,tr15,21425,685600).
route(prodloc2,prodloc1,tr0,12101,314626).
route(prodloc2,prodloc1,tr13,12101,72606).
route(prodloc2,prodloc3,tr0,19026,494676).
route(prodloc2,prodloc3,tr13,19026,114156).
route(prodloc2,prodloc4,tr0,3181,82706).
route(prodloc2,prodloc4,tr13,3181,19086).
route(prodloc2,prodloc5,tr0,15141,393666).
route(prodloc2,prodloc5,tr13,15141,90846).
route(prodloc2,prodloc6,tr0,28679,745654).
route(prodloc2,prodloc6,tr13,28679,172074).
route(prodloc2,prodloc7,tr0,10623,276198).
route(prodloc2,prodloc7,tr13,10623,63738).
route(prodloc2,prodloc8,tr0,2574,66924).
route(prodloc2,prodloc8,tr13,2574,15444).
route(prodloc2,prodloc9,tr0,17815,463190).
route(prodloc2,prodloc9,tr13,17815,106890).
route(prodloc2,prodloc10,tr0,2722,70772).
route(prodloc2,prodloc10,tr13,2722,16332).
route(prodloc2,prodloc11,tr0,14157,368082).
route(prodloc2,prodloc11,tr13,14157,84942).
route(prodloc2,prodloc12,tr0,18490,480740).
route(prodloc2,prodloc12,tr13,18490,110940).
route(prodloc2,prodloc13,tr0,18613,483938).
route(prodloc2,prodloc13,tr13,18613,111678).
route(prodloc2,prodloc14,tr0,15889,413114).
route(prodloc2,prodloc14,tr13,15889,95334).
route(prodloc2,prodloc15,tr0,26717,694642).
route(prodloc2,prodloc15,tr13,26717,160302).
route(prodloc2,prodloc16,tr0,22458,583908).
route(prodloc2,prodloc16,tr13,22458,134748).
route(prodloc2,prodloc17,tr0,15190,394940).
route(prodloc2,prodloc17,tr13,15190,91140).
route(prodloc2,prodloc18,tr0,9795,254670).
route(prodloc2,prodloc18,tr13,9795,58770).
route(prodloc2,prodloc19,tr0,26986,701636).
route(prodloc2,prodloc19,tr13,26986,161916).
route(prodloc2,prodloc20,tr0,25413,660738).
route(prodloc2,prodloc20,tr13,25413,152478).
route(prodloc2,prodloc21,tr0,306,7956).
route(prodloc2,prodloc21,tr13,306,1836).
route(prodloc2,prodloc22,tr0,2494,64844).
route(prodloc2,prodloc22,tr13,2494,14964).
route(prodloc2,prodloc23,tr0,10164,264264).
route(prodloc2,prodloc23,tr13,10164,60984).
route(prodloc2,prodloc24,tr0,6990,181740).
route(prodloc2,prodloc24,tr13,6990,41940).
route(prodloc2,prodloc25,tr0,21697,564122).
route(prodloc2,prodloc25,tr13,21697,130182).
route(prodloc2,prodloc26,tr0,19784,514384).
route(prodloc2,prodloc26,tr13,19784,118704).
route(prodloc2,prodloc27,tr0,2679,69654).
route(prodloc2,prodloc27,tr13,2679,16074).
route(prodloc2,prodloc28,tr0,22779,592254).
route(prodloc2,prodloc28,tr15,22779,728928).
route(prodloc2,prodloc29,tr0,9957,258882).
route(prodloc2,prodloc29,tr13,9957,59742).
route(prodloc2,prodloc30,tr0,16214,421564).
route(prodloc2,prodloc30,tr13,16214,97284).
route(prodloc2,prodloc31,tr0,23758,617708).
route(prodloc2,prodloc31,tr13,23758,142548).
route(prodloc2,prodloc32,tr0,25041,651066).
route(prodloc2,prodloc32,tr13,25041,150246).
route(prodloc2,prodloc33,tr0,22742,591292).
route(prodloc2,prodloc33,tr13,22742,136452).
route(prodloc3,harbor0,tr0,10748,279448).
route(prodloc3,harbor0,tr13,10748,64488).
route(prodloc3,harbor1,tr0,9272,241072).
route(prodloc3,harbor1,tr13,9272,55632).
route(prodloc3,harbor2,tr0,28893,751218).
route(prodloc3,harbor2,tr13,28893,173358).
route(prodloc3,harbor3,tr0,4685,121810).
route(prodloc3,harbor3,tr13,4685,28110).
route(prodloc3,harbor4,tr0,7170,186420).
route(prodloc3,harbor4,tr13,7170,43020).
route(prodloc3,harbor5,tr0,11726,304876).
route(prodloc3,harbor5,tr13,11726,70356).
route(prodloc3,harbor6,tr0,21539,560014).
route(prodloc3,harbor6,tr13,21539,129234).
route(prodloc3,harbor7,tr0,23790,618540).
route(prodloc3,harbor7,tr13,23790,142740).
route(prodloc3,harbor8,tr0,10719,278694).
route(prodloc3,harbor8,tr13,10719,64314).
route(prodloc3,harbor9,tr0,12008,312208).
route(prodloc3,harbor9,tr13,12008,72048).
route(prodloc3,harbor10,tr0,3848,100048).
route(prodloc3,harbor10,tr13,3848,23088).
route(prodloc3,harbor11,tr0,10567,274742).
route(prodloc3,harbor11,tr13,10567,63402).
route(prodloc3,harbor12,tr0,23243,604318).
route(prodloc3,harbor12,tr13,23243,139458).
route(prodloc3,harbor13,tr0,14452,375752).
route(prodloc3,harbor13,tr13,14452,86712).
route(prodloc3,harbor14,tr0,18655,485030).
route(prodloc3,harbor14,tr13,18655,111930).
route(prodloc3,harbor15,tr0,19491,506766).
route(prodloc3,harbor15,tr13,19491,116946).
route(prodloc3,harbor16,tr0,22515,585390).
route(prodloc3,harbor16,tr13,22515,135090).
route(prodloc3,prodloc0,tr0,9150,237900).
route(prodloc3,prodloc0,tr13,9150,54900).
route(prodloc3,prodloc1,tr0,14354,373204).
route(prodloc3,prodloc1,tr13,14354,86124).
route(prodloc3,prodloc2,tr0,17375,451750).
route(prodloc3,prodloc2,tr13,17375,104250).
route(prodloc3,prodloc4,tr0,26316,684216).
route(prodloc3,prodloc4,tr13,26316,157896).
route(prodloc3,prodloc5,tr0,9988,259688).
route(prodloc3,prodloc5,tr13,9988,59928).
route(prodloc3,prodloc6,tr0,15018,390468).
route(prodloc3,prodloc6,tr13,15018,90108).
route(prodloc3,prodloc7,tr0,10409,270634).
route(prodloc3,prodloc7,tr13,10409,62454).
route(prodloc3,prodloc8,tr0,7250,188500).
route(prodloc3,prodloc8,tr13,7250,43500).
route(prodloc3,prodloc9,tr0,13095,340470).
route(prodloc3,prodloc9,tr13,13095,78570).
route(prodloc3,prodloc10,tr0,23915,621790).
route(prodloc3,prodloc10,tr13,23915,143490).
route(prodloc3,prodloc11,tr0,16915,439790).
route(prodloc3,prodloc11,tr13,16915,101490).
route(prodloc3,prodloc12,tr0,8138,211588).
route(prodloc3,prodloc12,tr13,8138,48828).
route(prodloc3,prodloc13,tr0,2763,71838).
route(prodloc3,prodloc13,tr13,2763,16578).
route(prodloc3,prodloc14,tr0,11853,308178).
route(prodloc3,prodloc14,tr13,11853,71118).
route(prodloc3,prodloc15,tr0,27151,705926).
route(prodloc3,prodloc15,tr13,27151,162906).
route(prodloc3,prodloc16,tr0,11980,311480).
route(prodloc3,prodloc16,tr13,11980,71880).
route(prodloc3,prodloc17,tr0,792,20592).
route(prodloc3,prodloc17,tr13,792,4752).
route(prodloc3,prodloc18,tr0,11907,309582).
route(prodloc3,prodloc18,tr13,11907,71442).
route(prodloc3,prodloc19,tr0,22186,576836).
route(prodloc3,prodloc19,tr13,22186,133116).
route(prodloc3,prodloc20,tr0,12965,337090).
route(prodloc3,prodloc20,tr13,12965,77790).
route(prodloc3,prodloc21,tr0,19165,498290).
route(prodloc3,prodloc21,tr13,19165,114990).
route(prodloc3,prodloc22,tr0,12702,330252).
route(prodloc3,prodloc22,tr13,12702,76212).
route(prodloc3,prodloc23,tr0,26089,678314).
route(prodloc3,prodloc23,tr13,26089,156534).
route(prodloc3,prodloc24,tr0,6390,166140).
route(prodloc3,prodloc24,tr13,6390,38340).
route(prodloc3,prodloc25,tr0,24212,629512).
route(prodloc3,prodloc25,tr13,24212,145272).
route(prodloc3,prodloc26,tr0,18476,480376).
route(prodloc3,prodloc26,tr13,18476,110856).
route(prodloc3,prodloc27,tr0,12068,313768).
route(prodloc3,prodloc27,tr13,12068,72408).
route(prodloc3,prodloc28,tr0,26120,679120).
route(prodloc3,prodloc28,tr13,26120,156720).
route(prodloc3,prodloc29,tr13,12789,76734).
route(prodloc3,prodloc29,tr15,12789,409248).
route(prodloc3,prodloc30,tr0,17715,460590).
route(prodloc3,prodloc30,tr13,17715,106290).
route(prodloc3,prodloc31,tr0,5074,131924).
route(prodloc3,prodloc31,tr13,5074,30444).
route(prodloc3,prodloc32,tr0,27408,712608).
route(prodloc3,prodloc32,tr13,27408,164448).
route(prodloc3,prodloc33,tr0,19372,503672).
route(prodloc3,prodloc33,tr13,19372,116232).
route(prodloc4,harbor0,tr0,18443,479518).
route(prodloc4,harbor0,tr13,18443,110658).
route(prodloc4,harbor1,tr0,5811,151086).
route(prodloc4,harbor1,tr13,5811,34866).
route(prodloc4,harbor2,tr0,5788,150488).
route(prodloc4,harbor2,tr13,5788,34728).
route(prodloc4,harbor3,tr0,2942,76492).
route(prodloc4,harbor3,tr13,2942,17652).
route(prodloc4,harbor4,tr0,24871,646646).
route(prodloc4,harbor4,tr13,24871,149226).
route(prodloc4,harbor5,tr0,14890,387140).
route(prodloc4,harbor5,tr13,14890,89340).
route(prodloc4,harbor6,tr0,28867,750542).
route(prodloc4,harbor6,tr13,28867,173202).
route(prodloc4,harbor7,tr0,28009,728234).
route(prodloc4,harbor7,tr13,28009,168054).
route(prodloc4,harbor8,tr0,9224,239824).
route(prodloc4,harbor8,tr13,9224,55344).
route(prodloc4,harbor9,tr0,26604,691704).
route(prodloc4,harbor9,tr13,26604,159624).
route(prodloc4,harbor10,tr0,730,18980).
route(prodloc4,harbor10,tr13,730,4380).
route(prodloc4,harbor11,tr0,7251,188526).
route(prodloc4,harbor11,tr13,7251,43506).
route(prodloc4,harbor12,tr0,16898,439348).
route(prodloc4,harbor12,tr13,16898,101388).
route(prodloc4,harbor13,tr0,1893,49218).
route(prodloc4,harbor13,tr13,1893,11358).
route(prodloc4,harbor14,tr0,17832,463632).
route(prodloc4,harbor14,tr13,17832,106992).
route(prodloc4,harbor15,tr0,5201,135226).
route(prodloc4,harbor15,tr13,5201,31206).
route(prodloc4,harbor16,tr0,18596,483496).
route(prodloc4,harbor16,tr13,18596,111576).
route(prodloc4,prodloc0,tr0,9697,252122).
route(prodloc4,prodloc0,tr13,9697,58182).
route(prodloc4,prodloc1,tr0,734,19084).
route(prodloc4,prodloc1,tr13,734,4404).
route(prodloc4,prodloc2,tr0,21340,554840).
route(prodloc4,prodloc2,tr15,21340,682880).
route(prodloc4,prodloc3,tr0,27582,717132).
route(prodloc4,prodloc3,tr13,27582,165492).
route(prodloc4,prodloc5,tr13,26357,158142).
route(prodloc4,prodloc5,tr15,26357,843424).
route(prodloc4,prodloc6,tr0,13854,360204).
route(prodloc4,prodloc6,tr15,13854,443328).
route(prodloc4,prodloc7,tr0,2101,54626).
route(prodloc4,prodloc7,tr13,2101,12606).
route(prodloc4,prodloc8,tr0,19071,495846).
route(prodloc4,prodloc8,tr13,19071,114426).
route(prodloc4,prodloc9,tr0,17920,465920).
route(prodloc4,prodloc9,tr13,17920,107520).
route(prodloc4,prodloc10,tr0,10011,260286).
route(prodloc4,prodloc10,tr13,10011,60066).
route(prodloc4,prodloc11,tr0,25825,671450).
route(prodloc4,prodloc11,tr13,25825,154950).
route(prodloc4,prodloc12,tr0,17875,464750).
route(prodloc4,prodloc12,tr15,17875,572000).
route(prodloc4,prodloc13,tr0,2756,71656).
route(prodloc4,prodloc13,tr13,2756,16536).
route(prodloc4,prodloc14,tr0,10963,285038).
route(prodloc4,prodloc14,tr13,10963,65778).
route(prodloc4,prodloc15,tr0,2678,69628).
route(prodloc4,prodloc15,tr13,2678,16068).
route(prodloc4,prodloc16,tr0,8968,233168).
route(prodloc4,prodloc16,tr13,8968,53808).
route(prodloc4,prodloc17,tr0,24153,627978).
route(prodloc4,prodloc17,tr13,24153,144918).
route(prodloc4,prodloc18,tr13,3455,20730).
route(prodloc4,prodloc18,tr15,3455,110560).
route(prodloc4,prodloc19,tr0,10284,267384).
route(prodloc4,prodloc19,tr13,10284,61704).
route(prodloc4,prodloc20,tr0,2777,72202).
route(prodloc4,prodloc20,tr13,2777,16662).
route(prodloc4,prodloc21,tr0,852,22152).
route(prodloc4,prodloc21,tr13,852,5112).
route(prodloc4,prodloc22,tr0,20781,540306).
route(prodloc4,prodloc22,tr13,20781,124686).
route(prodloc4,prodloc23,tr0,21417,556842).
route(prodloc4,prodloc23,tr13,21417,128502).
route(prodloc4,prodloc24,tr0,4716,122616).
route(prodloc4,prodloc24,tr13,4716,28296).
route(prodloc4,prodloc25,tr0,3195,83070).
route(prodloc4,prodloc25,tr15,3195,102240).
route(prodloc4,prodloc26,tr0,24440,635440).
route(prodloc4,prodloc26,tr13,24440,146640).
route(prodloc4,prodloc27,tr0,26748,695448).
route(prodloc4,prodloc27,tr13,26748,160488).
route(prodloc4,prodloc28,tr0,21268,552968).
route(prodloc4,prodloc28,tr13,21268,127608).
route(prodloc4,prodloc29,tr0,13831,359606).
route(prodloc4,prodloc29,tr13,13831,82986).
route(prodloc4,prodloc30,tr0,8044,209144).
route(prodloc4,prodloc30,tr13,8044,48264).
route(prodloc4,prodloc31,tr0,23339,606814).
route(prodloc4,prodloc31,tr13,23339,140034).
route(prodloc4,prodloc32,tr0,7225,187850).
route(prodloc4,prodloc32,tr13,7225,43350).
route(prodloc4,prodloc33,tr0,16025,416650).
route(prodloc4,prodloc33,tr13,16025,96150).
route(prodloc5,harbor0,tr0,25081,652106).
route(prodloc5,harbor0,tr13,25081,150486).
route(prodloc5,harbor1,tr0,17092,444392).
route(prodloc5,harbor1,tr13,17092,102552).
route(prodloc5,harbor2,tr0,11083,288158).
route(prodloc5,harbor2,tr13,11083,66498).
route(prodloc5,harbor3,tr0,25059,651534).
route(prodloc5,harbor3,tr13,25059,150354).
route(prodloc5,harbor4,tr0,15044,391144).
route(prodloc5,harbor4,tr13,15044,90264).
route(prodloc5,harbor5,tr0,12925,336050).
route(prodloc5,harbor5,tr13,12925,77550).
route(prodloc5,harbor6,tr0,11485,298610).
route(prodloc5,harbor6,tr13,11485,68910).
route(prodloc5,harbor7,tr0,11071,287846).
route(prodloc5,harbor7,tr13,11071,66426).
route(prodloc5,harbor8,tr0,26454,687804).
route(prodloc5,harbor8,tr13,26454,158724).
route(prodloc5,harbor9,tr0,10912,283712).
route(prodloc5,harbor9,tr13,10912,65472).
route(prodloc5,harbor10,tr0,22034,572884).
route(prodloc5,harbor10,tr13,22034,132204).
route(prodloc5,harbor11,tr0,4481,116506).
route(prodloc5,harbor11,tr13,4481,26886).
route(prodloc5,harbor12,tr0,16178,420628).
route(prodloc5,harbor12,tr13,16178,97068).
route(prodloc5,harbor13,tr0,15994,415844).
route(prodloc5,harbor13,tr13,15994,95964).
route(prodloc5,harbor14,tr0,17609,457834).
route(prodloc5,harbor14,tr13,17609,105654).
route(prodloc5,harbor15,tr0,26373,685698).
route(prodloc5,harbor15,tr13,26373,158238).
route(prodloc5,harbor16,tr0,23625,614250).
route(prodloc5,harbor16,tr13,23625,141750).
route(prodloc5,prodloc0,tr0,2376,61776).
route(prodloc5,prodloc0,tr13,2376,14256).
route(prodloc5,prodloc1,tr0,23206,603356).
route(prodloc5,prodloc1,tr13,23206,139236).
route(prodloc5,prodloc2,tr0,20257,526682).
route(prodloc5,prodloc2,tr13,20257,121542).
route(prodloc5,prodloc3,tr0,1517,39442).
route(prodloc5,prodloc3,tr13,1517,9102).
route(prodloc5,prodloc4,tr0,13456,349856).
route(prodloc5,prodloc4,tr13,13456,80736).
route(prodloc5,prodloc6,tr0,24808,645008).
route(prodloc5,prodloc6,tr13,24808,148848).
route(prodloc5,prodloc7,tr0,27075,703950).
route(prodloc5,prodloc7,tr13,27075,162450).
route(prodloc5,prodloc8,tr0,21849,568074).
route(prodloc5,prodloc8,tr13,21849,131094).
route(prodloc5,prodloc9,tr0,11443,297518).
route(prodloc5,prodloc9,tr13,11443,68658).
route(prodloc5,prodloc10,tr0,27969,727194).
route(prodloc5,prodloc10,tr13,27969,167814).
route(prodloc5,prodloc11,tr0,128,3328).
route(prodloc5,prodloc11,tr13,128,768).
route(prodloc5,prodloc12,tr0,26409,686634).
route(prodloc5,prodloc12,tr13,26409,158454).
route(prodloc5,prodloc13,tr0,12387,322062).
route(prodloc5,prodloc13,tr13,12387,74322).
route(prodloc5,prodloc14,tr0,27324,710424).
route(prodloc5,prodloc14,tr13,27324,163944).
route(prodloc5,prodloc15,tr0,2926,76076).
route(prodloc5,prodloc15,tr13,2926,17556).
route(prodloc5,prodloc16,tr0,15227,395902).
route(prodloc5,prodloc16,tr13,15227,91362).
route(prodloc5,prodloc17,tr0,17740,461240).
route(prodloc5,prodloc17,tr15,17740,567680).
route(prodloc5,prodloc18,tr0,20982,545532).
route(prodloc5,prodloc18,tr13,20982,125892).
route(prodloc5,prodloc19,tr0,799,20774).
route(prodloc5,prodloc19,tr13,799,4794).
route(prodloc5,prodloc20,tr0,17167,446342).
route(prodloc5,prodloc20,tr13,17167,103002).
route(prodloc5,prodloc21,tr0,11865,308490).
route(prodloc5,prodloc21,tr13,11865,71190).
route(prodloc5,prodloc22,tr0,23270,605020).
route(prodloc5,prodloc22,tr13,23270,139620).
route(prodloc5,prodloc23,tr0,334,8684).
route(prodloc5,prodloc23,tr13,334,2004).
route(prodloc5,prodloc24,tr0,26290,683540).
route(prodloc5,prodloc24,tr13,26290,157740).
route(prodloc5,prodloc25,tr0,3604,93704).
route(prodloc5,prodloc25,tr13,3604,21624).
route(prodloc5,prodloc26,tr0,13817,359242).
route(prodloc5,prodloc26,tr15,13817,442144).
route(prodloc5,prodloc27,tr0,13779,358254).
route(prodloc5,prodloc27,tr13,13779,82674).
route(prodloc5,prodloc28,tr0,4792,124592).
route(prodloc5,prodloc28,tr13,4792,28752).
route(prodloc5,prodloc29,tr0,8053,209378).
route(prodloc5,prodloc29,tr13,8053,48318).
route(prodloc5,prodloc30,tr0,24290,631540).
route(prodloc5,prodloc30,tr13,24290,145740).
route(prodloc5,prodloc31,tr0,5318,138268).
route(prodloc5,prodloc31,tr13,5318,31908).
route(prodloc5,prodloc32,tr0,20815,541190).
route(prodloc5,prodloc32,tr13,20815,124890).
route(prodloc5,prodloc33,tr0,12307,319982).
route(prodloc5,prodloc33,tr13,12307,73842).
route(prodloc6,harbor0,tr0,22417,582842).
route(prodloc6,harbor0,tr13,22417,134502).
route(prodloc6,harbor1,tr0,5495,142870).
route(prodloc6,harbor1,tr13,5495,32970).
route(prodloc6,harbor2,tr0,10516,273416).
route(prodloc6,harbor2,tr13,10516,63096).
route(prodloc6,harbor3,tr0,6698,174148).
route(prodloc6,harbor3,tr13,6698,40188).
route(prodloc6,harbor4,tr0,12759,331734).
route(prodloc6,harbor4,tr13,12759,76554).
route(prodloc6,harbor5,tr0,13926,362076).
route(prodloc6,harbor5,tr13,13926,83556).
route(prodloc6,harbor6,tr0,17338,450788).
route(prodloc6,harbor6,tr13,17338,104028).
route(prodloc6,harbor7,tr0,9571,248846).
route(prodloc6,harbor7,tr13,9571,57426).
route(prodloc6,harbor8,tr0,8981,233506).
route(prodloc6,harbor8,tr13,8981,53886).
route(prodloc6,harbor9,tr0,1942,50492).
route(prodloc6,harbor9,tr13,1942,11652).
route(prodloc6,harbor10,tr0,15450,401700).
route(prodloc6,harbor10,tr13,15450,92700).
route(prodloc6,harbor11,tr0,10109,262834).
route(prodloc6,harbor11,tr13,10109,60654).
route(prodloc6,harbor12,tr0,23947,622622).
route(prodloc6,harbor12,tr13,23947,143682).
route(prodloc6,harbor13,tr0,3764,97864).
route(prodloc6,harbor13,tr13,3764,22584).
route(prodloc6,harbor14,tr0,9947,258622).
route(prodloc6,harbor14,tr13,9947,59682).
route(prodloc6,harbor15,tr0,21235,552110).
route(prodloc6,harbor15,tr13,21235,127410).
route(prodloc6,harbor16,tr0,5097,132522).
route(prodloc6,harbor16,tr13,5097,30582).
route(prodloc6,prodloc0,tr0,25427,661102).
route(prodloc6,prodloc0,tr13,25427,152562).
route(prodloc6,prodloc1,tr0,5881,152906).
route(prodloc6,prodloc1,tr13,5881,35286).
route(prodloc6,prodloc2,tr0,2044,53144).
route(prodloc6,prodloc2,tr13,2044,12264).
route(prodloc6,prodloc3,tr0,24680,641680).
route(prodloc6,prodloc3,tr13,24680,148080).
route(prodloc6,prodloc4,tr0,15034,390884).
route(prodloc6,prodloc4,tr13,15034,90204).
route(prodloc6,prodloc5,tr0,564,14664).
route(prodloc6,prodloc5,tr13,564,3384).
route(prodloc6,prodloc7,tr0,19140,497640).
route(prodloc6,prodloc7,tr13,19140,114840).
route(prodloc6,prodloc8,tr0,15765,409890).
route(prodloc6,prodloc8,tr13,15765,94590).
route(prodloc6,prodloc9,tr0,26229,681954).
route(prodloc6,prodloc9,tr13,26229,157374).
route(prodloc6,prodloc10,tr0,1193,31018).
route(prodloc6,prodloc10,tr13,1193,7158).
route(prodloc6,prodloc11,tr0,10243,266318).
route(prodloc6,prodloc11,tr13,10243,61458).
route(prodloc6,prodloc12,tr0,3563,92638).
route(prodloc6,prodloc12,tr13,3563,21378).
route(prodloc6,prodloc13,tr0,6477,168402).
route(prodloc6,prodloc13,tr13,6477,38862).
route(prodloc6,prodloc14,tr0,6049,157274).
route(prodloc6,prodloc14,tr13,6049,36294).
route(prodloc6,prodloc15,tr0,11776,306176).
route(prodloc6,prodloc15,tr13,11776,70656).
route(prodloc6,prodloc16,tr0,7124,185224).
route(prodloc6,prodloc16,tr13,7124,42744).
route(prodloc6,prodloc17,tr0,19281,501306).
route(prodloc6,prodloc17,tr13,19281,115686).
route(prodloc6,prodloc18,tr0,7715,200590).
route(prodloc6,prodloc18,tr13,7715,46290).
route(prodloc6,prodloc19,tr0,19663,511238).
route(prodloc6,prodloc19,tr13,19663,117978).
route(prodloc6,prodloc20,tr0,23504,611104).
route(prodloc6,prodloc20,tr13,23504,141024).
route(prodloc6,prodloc21,tr0,15465,402090).
route(prodloc6,prodloc21,tr13,15465,92790).
route(prodloc6,prodloc22,tr0,19491,506766).
route(prodloc6,prodloc22,tr13,19491,116946).
route(prodloc6,prodloc23,tr0,16668,433368).
route(prodloc6,prodloc23,tr13,16668,100008).
route(prodloc6,prodloc24,tr0,7340,190840).
route(prodloc6,prodloc24,tr13,7340,44040).
route(prodloc6,prodloc25,tr0,14483,376558).
route(prodloc6,prodloc25,tr13,14483,86898).
route(prodloc6,prodloc26,tr0,6063,157638).
route(prodloc6,prodloc26,tr13,6063,36378).
route(prodloc6,prodloc27,tr0,9211,239486).
route(prodloc6,prodloc27,tr13,9211,55266).
route(prodloc6,prodloc28,tr0,13190,342940).
route(prodloc6,prodloc28,tr13,13190,79140).
route(prodloc6,prodloc29,tr0,5654,147004).
route(prodloc6,prodloc29,tr13,5654,33924).
route(prodloc6,prodloc30,tr0,24823,645398).
route(prodloc6,prodloc30,tr13,24823,148938).
route(prodloc6,prodloc31,tr0,10216,265616).
route(prodloc6,prodloc31,tr13,10216,61296).
route(prodloc6,prodloc32,tr0,20539,534014).
route(prodloc6,prodloc32,tr13,20539,123234).
route(prodloc6,prodloc33,tr0,17966,467116).
route(prodloc6,prodloc33,tr13,17966,107796).
route(prodloc7,harbor0,tr0,26777,696202).
route(prodloc7,harbor0,tr13,26777,160662).
route(prodloc7,harbor1,tr0,18037,468962).
route(prodloc7,harbor1,tr13,18037,108222).
route(prodloc7,harbor2,tr0,15713,408538).
route(prodloc7,harbor2,tr13,15713,94278).
route(prodloc7,harbor3,tr0,27965,727090).
route(prodloc7,harbor3,tr13,27965,167790).
route(prodloc7,harbor4,tr0,8536,221936).
route(prodloc7,harbor4,tr13,8536,51216).
route(prodloc7,harbor5,tr0,15886,413036).
route(prodloc7,harbor5,tr13,15886,95316).
route(prodloc7,harbor6,tr0,13194,343044).
route(prodloc7,harbor6,tr13,13194,79164).
route(prodloc7,harbor7,tr0,11211,291486).
route(prodloc7,harbor7,tr13,11211,67266).
route(prodloc7,harbor8,tr0,21637,562562).
route(prodloc7,harbor8,tr13,21637,129822).
route(prodloc7,harbor9,tr0,17937,466362).
route(prodloc7,harbor9,tr13,17937,107622).
route(prodloc7,harbor10,tr0,25288,657488).
route(prodloc7,harbor10,tr13,25288,151728).
route(prodloc7,harbor11,tr0,3030,78780).
route(prodloc7,harbor11,tr13,3030,18180).
route(prodloc7,harbor12,tr0,15816,411216).
route(prodloc7,harbor12,tr13,15816,94896).
route(prodloc7,harbor13,tr0,28266,734916).
route(prodloc7,harbor13,tr13,28266,169596).
route(prodloc7,harbor14,tr0,7243,188318).
route(prodloc7,harbor14,tr13,7243,43458).
route(prodloc7,harbor15,tr0,13090,340340).
route(prodloc7,harbor15,tr13,13090,78540).
route(prodloc7,harbor16,tr0,1630,42380).
route(prodloc7,harbor16,tr13,1630,9780).
route(prodloc7,prodloc0,tr0,7126,185276).
route(prodloc7,prodloc0,tr13,7126,42756).
route(prodloc7,prodloc1,tr0,4402,114452).
route(prodloc7,prodloc1,tr13,4402,26412).
route(prodloc7,prodloc2,tr0,26262,682812).
route(prodloc7,prodloc2,tr13,26262,157572).
route(prodloc7,prodloc3,tr0,26160,680160).
route(prodloc7,prodloc3,tr13,26160,156960).
route(prodloc7,prodloc4,tr0,12616,328016).
route(prodloc7,prodloc4,tr13,12616,75696).
route(prodloc7,prodloc5,tr0,17289,449514).
route(prodloc7,prodloc5,tr13,17289,103734).
route(prodloc7,prodloc6,tr0,26042,677092).
route(prodloc7,prodloc6,tr13,26042,156252).
route(prodloc7,prodloc8,tr0,16904,439504).
route(prodloc7,prodloc8,tr13,16904,101424).
route(prodloc7,prodloc9,tr0,25370,659620).
route(prodloc7,prodloc9,tr13,25370,152220).
route(prodloc7,prodloc10,tr0,8998,233948).
route(prodloc7,prodloc10,tr13,8998,53988).
route(prodloc7,prodloc11,tr0,25812,671112).
route(prodloc7,prodloc11,tr13,25812,154872).
route(prodloc7,prodloc12,tr0,1900,49400).
route(prodloc7,prodloc12,tr13,1900,11400).
route(prodloc7,prodloc13,tr0,21548,560248).
route(prodloc7,prodloc13,tr13,21548,129288).
route(prodloc7,prodloc14,tr0,7788,202488).
route(prodloc7,prodloc14,tr13,7788,46728).
route(prodloc7,prodloc15,tr0,358,9308).
route(prodloc7,prodloc15,tr13,358,2148).
route(prodloc7,prodloc16,tr0,28642,744692).
route(prodloc7,prodloc16,tr13,28642,171852).
route(prodloc7,prodloc17,tr0,15489,402714).
route(prodloc7,prodloc17,tr13,15489,92934).
route(prodloc7,prodloc18,tr0,12177,316602).
route(prodloc7,prodloc18,tr13,12177,73062).
route(prodloc7,prodloc19,tr0,14748,383448).
route(prodloc7,prodloc19,tr13,14748,88488).
route(prodloc7,prodloc20,tr0,26110,678860).
route(prodloc7,prodloc20,tr13,26110,156660).
route(prodloc7,prodloc21,tr0,8081,210106).
route(prodloc7,prodloc21,tr13,8081,48486).
route(prodloc7,prodloc22,tr0,23375,607750).
route(prodloc7,prodloc22,tr13,23375,140250).
route(prodloc7,prodloc23,tr0,13811,359086).
route(prodloc7,prodloc23,tr13,13811,82866).
route(prodloc7,prodloc24,tr0,19861,516386).
route(prodloc7,prodloc24,tr13,19861,119166).
route(prodloc7,prodloc25,tr0,28668,745368).
route(prodloc7,prodloc25,tr15,28668,917376).
route(prodloc7,prodloc26,tr0,5156,134056).
route(prodloc7,prodloc26,tr13,5156,30936).
route(prodloc7,prodloc27,tr0,13626,354276).
route(prodloc7,prodloc27,tr13,13626,81756).
route(prodloc7,prodloc28,tr0,5143,133718).
route(prodloc7,prodloc28,tr13,5143,30858).
route(prodloc7,prodloc29,tr0,25296,657696).
route(prodloc7,prodloc29,tr13,25296,151776).
route(prodloc7,prodloc30,tr0,10546,274196).
route(prodloc7,prodloc30,tr13,10546,63276).
route(prodloc7,prodloc31,tr0,4744,123344).
route(prodloc7,prodloc31,tr13,4744,28464).
route(prodloc7,prodloc32,tr0,8502,221052).
route(prodloc7,prodloc32,tr13,8502,51012).
route(prodloc7,prodloc33,tr0,28485,740610).
route(prodloc7,prodloc33,tr13,28485,170910).
route(prodloc8,harbor0,tr0,26544,690144).
route(prodloc8,harbor0,tr13,26544,159264).
route(prodloc8,harbor1,tr0,16914,439764).
route(prodloc8,harbor1,tr13,16914,101484).
route(prodloc8,harbor2,tr0,4298,111748).
route(prodloc8,harbor2,tr13,4298,25788).
route(prodloc8,harbor3,tr0,20874,542724).
route(prodloc8,harbor3,tr13,20874,125244).
route(prodloc8,harbor4,tr0,24305,631930).
route(prodloc8,harbor4,tr13,24305,145830).
route(prodloc8,harbor5,tr0,20301,527826).
route(prodloc8,harbor5,tr13,20301,121806).
route(prodloc8,harbor6,tr0,8734,227084).
route(prodloc8,harbor6,tr13,8734,52404).
route(prodloc8,harbor7,tr0,16908,439608).
route(prodloc8,harbor7,tr13,16908,101448).
route(prodloc8,harbor8,tr0,17519,455494).
route(prodloc8,harbor8,tr13,17519,105114).
route(prodloc8,harbor9,tr0,1736,45136).
route(prodloc8,harbor9,tr13,1736,10416).
route(prodloc8,harbor10,tr0,4938,128388).
route(prodloc8,harbor10,tr13,4938,29628).
route(prodloc8,harbor11,tr0,18741,487266).
route(prodloc8,harbor11,tr13,18741,112446).
route(prodloc8,harbor12,tr0,25245,656370).
route(prodloc8,harbor12,tr13,25245,151470).
route(prodloc8,harbor13,tr0,5844,151944).
route(prodloc8,harbor13,tr13,5844,35064).
route(prodloc8,harbor14,tr0,46,1196).
route(prodloc8,harbor14,tr13,46,276).
route(prodloc8,harbor15,tr0,6696,174096).
route(prodloc8,harbor15,tr13,6696,40176).
route(prodloc8,harbor16,tr0,26918,699868).
route(prodloc8,harbor16,tr13,26918,161508).
route(prodloc8,prodloc0,tr0,27729,720954).
route(prodloc8,prodloc0,tr13,27729,166374).
route(prodloc8,prodloc1,tr0,4885,127010).
route(prodloc8,prodloc1,tr13,4885,29310).
route(prodloc8,prodloc2,tr0,26940,700440).
route(prodloc8,prodloc2,tr13,26940,161640).
route(prodloc8,prodloc3,tr0,4209,109434).
route(prodloc8,prodloc3,tr13,4209,25254).
route(prodloc8,prodloc4,tr0,2702,70252).
route(prodloc8,prodloc4,tr13,2702,16212).
route(prodloc8,prodloc5,tr0,11527,299702).
route(prodloc8,prodloc5,tr13,11527,69162).
route(prodloc8,prodloc6,tr0,8846,229996).
route(prodloc8,prodloc6,tr13,8846,53076).
route(prodloc8,prodloc7,tr0,20149,523874).
route(prodloc8,prodloc7,tr13,20149,120894).
route(prodloc8,prodloc9,tr0,23481,610506).
route(prodloc8,prodloc9,tr13,23481,140886).
route(prodloc8,prodloc10,tr0,17301,449826).
route(prodloc8,prodloc10,tr13,17301,103806).
route(prodloc8,prodloc11,tr0,3185,82810).
route(prodloc8,prodloc11,tr13,3185,19110).
route(prodloc8,prodloc12,tr0,15733,409058).
route(prodloc8,prodloc12,tr13,15733,94398).
route(prodloc8,prodloc13,tr0,22732,591032).
route(prodloc8,prodloc13,tr13,22732,136392).
route(prodloc8,prodloc14,tr0,15359,399334).
route(prodloc8,prodloc14,tr13,15359,92154).
route(prodloc8,prodloc15,tr0,2717,70642).
route(prodloc8,prodloc15,tr13,2717,16302).
route(prodloc8,prodloc16,tr0,24531,637806).
route(prodloc8,prodloc16,tr13,24531,147186).
route(prodloc8,prodloc17,tr0,19224,499824).
route(prodloc8,prodloc17,tr13,19224,115344).
route(prodloc8,prodloc18,tr0,17808,463008).
route(prodloc8,prodloc18,tr13,17808,106848).
route(prodloc8,prodloc19,tr0,28095,730470).
route(prodloc8,prodloc19,tr13,28095,168570).
route(prodloc8,prodloc20,tr0,16581,431106).
route(prodloc8,prodloc20,tr13,16581,99486).
route(prodloc8,prodloc21,tr0,9950,258700).
route(prodloc8,prodloc21,tr13,9950,59700).
route(prodloc8,prodloc22,tr0,625,16250).
route(prodloc8,prodloc22,tr13,625,3750).
route(prodloc8,prodloc23,tr0,25866,672516).
route(prodloc8,prodloc23,tr13,25866,155196).
route(prodloc8,prodloc24,tr0,6154,160004).
route(prodloc8,prodloc24,tr13,6154,36924).
route(prodloc8,prodloc25,tr0,13665,355290).
route(prodloc8,prodloc25,tr13,13665,81990).
route(prodloc8,prodloc26,tr0,6328,164528).
route(prodloc8,prodloc26,tr13,6328,37968).
route(prodloc8,prodloc27,tr0,22357,581282).
route(prodloc8,prodloc27,tr13,22357,134142).
route(prodloc8,prodloc28,tr0,2982,77532).
route(prodloc8,prodloc28,tr13,2982,17892).
route(prodloc8,prodloc29,tr0,25607,665782).
route(prodloc8,prodloc29,tr13,25607,153642).
route(prodloc8,prodloc30,tr0,27079,704054).
route(prodloc8,prodloc30,tr13,27079,162474).
route(prodloc8,prodloc31,tr0,14426,375076).
route(prodloc8,prodloc31,tr13,14426,86556).
route(prodloc8,prodloc32,tr0,6831,177606).
route(prodloc8,prodloc32,tr13,6831,40986).
route(prodloc8,prodloc33,tr0,1221,31746).
route(prodloc8,prodloc33,tr13,1221,7326).
route(prodloc9,harbor0,tr0,17807,462982).
route(prodloc9,harbor0,tr13,17807,106842).
route(prodloc9,harbor1,tr0,13540,352040).
route(prodloc9,harbor1,tr13,13540,81240).
route(prodloc9,harbor2,tr0,17227,447902).
route(prodloc9,harbor2,tr13,17227,103362).
route(prodloc9,harbor3,tr0,16195,421070).
route(prodloc9,harbor3,tr13,16195,97170).
route(prodloc9,harbor4,tr0,5164,134264).
route(prodloc9,harbor4,tr13,5164,30984).
route(prodloc9,harbor5,tr0,27265,708890).
route(prodloc9,harbor5,tr13,27265,163590).
route(prodloc9,harbor6,tr0,10206,265356).
route(prodloc9,harbor6,tr13,10206,61236).
route(prodloc9,harbor7,tr0,10359,269334).
route(prodloc9,harbor7,tr13,10359,62154).
route(prodloc9,harbor8,tr0,10184,264784).
route(prodloc9,harbor8,tr13,10184,61104).
route(prodloc9,harbor9,tr0,13288,345488).
route(prodloc9,harbor9,tr13,13288,79728).
route(prodloc9,harbor10,tr0,2493,64818).
route(prodloc9,harbor10,tr13,2493,14958).
route(prodloc9,harbor11,tr0,18233,474058).
route(prodloc9,harbor11,tr13,18233,109398).
route(prodloc9,harbor12,tr0,10019,260494).
route(prodloc9,harbor12,tr13,10019,60114).
route(prodloc9,harbor13,tr0,15312,398112).
route(prodloc9,harbor13,tr13,15312,91872).
route(prodloc9,harbor14,tr0,21863,568438).
route(prodloc9,harbor14,tr13,21863,131178).
route(prodloc9,harbor15,tr0,23435,609310).
route(prodloc9,harbor15,tr13,23435,140610).
route(prodloc9,harbor16,tr0,2198,57148).
route(prodloc9,harbor16,tr13,2198,13188).
route(prodloc9,prodloc0,tr0,11788,306488).
route(prodloc9,prodloc0,tr15,11788,377216).
route(prodloc9,prodloc1,tr0,2438,63388).
route(prodloc9,prodloc1,tr13,2438,14628).
route(prodloc9,prodloc2,tr0,22516,585416).
route(prodloc9,prodloc2,tr13,22516,135096).
route(prodloc9,prodloc3,tr0,4607,119782).
route(prodloc9,prodloc3,tr13,4607,27642).
route(prodloc9,prodloc4,tr0,3467,90142).
route(prodloc9,prodloc4,tr13,3467,20802).
route(prodloc9,prodloc5,tr0,21879,568854).
route(prodloc9,prodloc5,tr13,21879,131274).
route(prodloc9,prodloc6,tr0,12920,335920).
route(prodloc9,prodloc6,tr13,12920,77520).
route(prodloc9,prodloc7,tr0,22148,575848).
route(prodloc9,prodloc7,tr13,22148,132888).
route(prodloc9,prodloc8,tr13,15132,90792).
route(prodloc9,prodloc8,tr15,15132,484224).
route(prodloc9,prodloc10,tr0,24467,636142).
route(prodloc9,prodloc10,tr13,24467,146802).
route(prodloc9,prodloc11,tr0,25705,668330).
route(prodloc9,prodloc11,tr13,25705,154230).
route(prodloc9,prodloc12,tr0,27190,706940).
route(prodloc9,prodloc12,tr13,27190,163140).
route(prodloc9,prodloc13,tr0,3996,103896).
route(prodloc9,prodloc13,tr13,3996,23976).
route(prodloc9,prodloc14,tr0,21430,557180).
route(prodloc9,prodloc14,tr13,21430,128580).
route(prodloc9,prodloc15,tr0,14593,379418).
route(prodloc9,prodloc15,tr13,14593,87558).
route(prodloc9,prodloc16,tr0,406,10556).
route(prodloc9,prodloc16,tr13,406,2436).
route(prodloc9,prodloc17,tr0,28303,735878).
route(prodloc9,prodloc17,tr13,28303,169818).
route(prodloc9,prodloc18,tr0,12359,321334).
route(prodloc9,prodloc18,tr13,12359,74154).
route(prodloc9,prodloc19,tr0,23324,606424).
route(prodloc9,prodloc19,tr13,23324,139944).
route(prodloc9,prodloc20,tr0,23267,604942).
route(prodloc9,prodloc20,tr13,23267,139602).
route(prodloc9,prodloc21,tr0,15575,404950).
route(prodloc9,prodloc21,tr13,15575,93450).
route(prodloc9,prodloc22,tr0,7783,202358).
route(prodloc9,prodloc22,tr13,7783,46698).
route(prodloc9,prodloc23,tr0,9618,250068).
route(prodloc9,prodloc23,tr13,9618,57708).
route(prodloc9,prodloc24,tr0,18486,480636).
route(prodloc9,prodloc24,tr13,18486,110916).
route(prodloc9,prodloc25,tr0,3715,96590).
route(prodloc9,prodloc25,tr13,3715,22290).
route(prodloc9,prodloc26,tr0,15012,390312).
route(prodloc9,prodloc26,tr13,15012,90072).
route(prodloc9,prodloc27,tr0,25293,657618).
route(prodloc9,prodloc27,tr13,25293,151758).
route(prodloc9,prodloc28,tr0,345,8970).
route(prodloc9,prodloc28,tr13,345,2070).
route(prodloc9,prodloc29,tr0,28053,729378).
route(prodloc9,prodloc29,tr13,28053,168318).
route(prodloc9,prodloc30,tr0,27674,719524).
route(prodloc9,prodloc30,tr13,27674,166044).
route(prodloc9,prodloc31,tr0,26198,681148).
route(prodloc9,prodloc31,tr13,26198,157188).
route(prodloc9,prodloc32,tr0,23569,612794).
route(prodloc9,prodloc32,tr13,23569,141414).
route(prodloc9,prodloc33,tr0,6776,176176).
route(prodloc9,prodloc33,tr13,6776,40656).
route(prodloc10,harbor0,tr0,20189,524914).
route(prodloc10,harbor0,tr13,20189,121134).
route(prodloc10,harbor1,tr0,4987,129662).
route(prodloc10,harbor1,tr13,4987,29922).
route(prodloc10,harbor2,tr0,9517,247442).
route(prodloc10,harbor2,tr13,9517,57102).
route(prodloc10,harbor3,tr0,20572,534872).
route(prodloc10,harbor3,tr13,20572,123432).
route(prodloc10,harbor4,tr0,12322,320372).
route(prodloc10,harbor4,tr13,12322,73932).
route(prodloc10,harbor5,tr0,17689,459914).
route(prodloc10,harbor5,tr13,17689,106134).
route(prodloc10,harbor6,tr0,24569,638794).
route(prodloc10,harbor6,tr13,24569,147414).
route(prodloc10,harbor7,tr0,9773,254098).
route(prodloc10,harbor7,tr13,9773,58638).
route(prodloc10,harbor8,tr0,11057,287482).
route(prodloc10,harbor8,tr13,11057,66342).
route(prodloc10,harbor9,tr0,24739,643214).
route(prodloc10,harbor9,tr13,24739,148434).
route(prodloc10,harbor10,tr0,12853,334178).
route(prodloc10,harbor10,tr13,12853,77118).
route(prodloc10,harbor11,tr0,18207,473382).
route(prodloc10,harbor11,tr13,18207,109242).
route(prodloc10,harbor12,tr0,21848,568048).
route(prodloc10,harbor12,tr13,21848,131088).
route(prodloc10,harbor13,tr0,2850,74100).
route(prodloc10,harbor13,tr13,2850,17100).
route(prodloc10,harbor14,tr0,8405,218530).
route(prodloc10,harbor14,tr13,8405,50430).
route(prodloc10,harbor15,tr0,6183,160758).
route(prodloc10,harbor15,tr13,6183,37098).
route(prodloc10,harbor16,tr0,6553,170378).
route(prodloc10,harbor16,tr13,6553,39318).
route(prodloc10,prodloc0,tr0,12340,320840).
route(prodloc10,prodloc0,tr13,12340,74040).
route(prodloc10,prodloc1,tr0,23969,623194).
route(prodloc10,prodloc1,tr13,23969,143814).
route(prodloc10,prodloc2,tr0,3592,93392).
route(prodloc10,prodloc2,tr13,3592,21552).
route(prodloc10,prodloc3,tr0,10795,280670).
route(prodloc10,prodloc3,tr13,10795,64770).
route(prodloc10,prodloc4,tr0,10150,263900).
route(prodloc10,prodloc4,tr13,10150,60900).
route(prodloc10,prodloc5,tr0,8974,233324).
route(prodloc10,prodloc5,tr13,8974,53844).
route(prodloc10,prodloc6,tr0,18444,479544).
route(prodloc10,prodloc6,tr13,18444,110664).
route(prodloc10,prodloc7,tr0,15397,400322).
route(prodloc10,prodloc7,tr13,15397,92382).
route(prodloc10,prodloc8,tr0,23719,616694).
route(prodloc10,prodloc8,tr13,23719,142314).
route(prodloc10,prodloc9,tr0,20984,545584).
route(prodloc10,prodloc9,tr13,20984,125904).
route(prodloc10,prodloc11,tr0,10869,282594).
route(prodloc10,prodloc11,tr13,10869,65214).
route(prodloc10,prodloc12,tr0,14644,380744).
route(prodloc10,prodloc12,tr13,14644,87864).
route(prodloc10,prodloc13,tr0,27097,704522).
route(prodloc10,prodloc13,tr13,27097,162582).
route(prodloc10,prodloc14,tr0,12533,325858).
route(prodloc10,prodloc14,tr13,12533,75198).
route(prodloc10,prodloc15,tr0,3025,78650).
route(prodloc10,prodloc15,tr13,3025,18150).
route(prodloc10,prodloc16,tr0,3339,86814).
route(prodloc10,prodloc16,tr13,3339,20034).
route(prodloc10,prodloc17,tr0,4616,120016).
route(prodloc10,prodloc17,tr13,4616,27696).
route(prodloc10,prodloc18,tr0,20374,529724).
route(prodloc10,prodloc18,tr13,20374,122244).
route(prodloc10,prodloc19,tr0,3095,80470).
route(prodloc10,prodloc19,tr13,3095,18570).
route(prodloc10,prodloc20,tr0,4309,112034).
route(prodloc10,prodloc20,tr13,4309,25854).
route(prodloc10,prodloc21,tr0,22208,577408).
route(prodloc10,prodloc21,tr13,22208,133248).
route(prodloc10,prodloc22,tr0,20658,537108).
route(prodloc10,prodloc22,tr13,20658,123948).
route(prodloc10,prodloc23,tr0,23211,603486).
route(prodloc10,prodloc23,tr13,23211,139266).
route(prodloc10,prodloc24,tr0,5875,152750).
route(prodloc10,prodloc24,tr13,5875,35250).
route(prodloc10,prodloc25,tr0,5896,153296).
route(prodloc10,prodloc25,tr13,5896,35376).
route(prodloc10,prodloc26,tr0,6331,164606).
route(prodloc10,prodloc26,tr13,6331,37986).
route(prodloc10,prodloc27,tr0,13183,342758).
route(prodloc10,prodloc27,tr13,13183,79098).
route(prodloc10,prodloc28,tr0,1197,31122).
route(prodloc10,prodloc28,tr13,1197,7182).
route(prodloc10,prodloc29,tr0,27426,713076).
route(prodloc10,prodloc29,tr13,27426,164556).
route(prodloc10,prodloc30,tr0,15178,394628).
route(prodloc10,prodloc30,tr13,15178,91068).
route(prodloc10,prodloc31,tr0,19424,505024).
route(prodloc10,prodloc31,tr13,19424,116544).
route(prodloc10,prodloc32,tr0,23068,599768).
route(prodloc10,prodloc32,tr13,23068,138408).
route(prodloc10,prodloc33,tr0,2954,76804).
route(prodloc10,prodloc33,tr13,2954,17724).
route(prodloc11,harbor0,tr0,3292,85592).
route(prodloc11,harbor0,tr13,3292,19752).
route(prodloc11,harbor1,tr0,7426,193076).
route(prodloc11,harbor1,tr13,7426,44556).
route(prodloc11,harbor2,tr0,1062,27612).
route(prodloc11,harbor2,tr13,1062,6372).
route(prodloc11,harbor3,tr0,5149,133874).
route(prodloc11,harbor3,tr13,5149,30894).
route(prodloc11,harbor4,tr0,4068,105768).
route(prodloc11,harbor4,tr13,4068,24408).
route(prodloc11,harbor5,tr0,14217,369642).
route(prodloc11,harbor5,tr13,14217,85302).
route(prodloc11,harbor6,tr0,13333,346658).
route(prodloc11,harbor6,tr13,13333,79998).
route(prodloc11,harbor7,tr0,25272,657072).
route(prodloc11,harbor7,tr13,25272,151632).
route(prodloc11,harbor8,tr0,2383,61958).
route(prodloc11,harbor8,tr13,2383,14298).
route(prodloc11,harbor9,tr0,11197,291122).
route(prodloc11,harbor9,tr13,11197,67182).
route(prodloc11,harbor10,tr0,26978,701428).
route(prodloc11,harbor10,tr13,26978,161868).
route(prodloc11,harbor11,tr0,13994,363844).
route(prodloc11,harbor11,tr13,13994,83964).
route(prodloc11,harbor12,tr0,16764,435864).
route(prodloc11,harbor12,tr13,16764,100584).
route(prodloc11,harbor13,tr0,4558,118508).
route(prodloc11,harbor13,tr13,4558,27348).
route(prodloc11,harbor14,tr0,21211,551486).
route(prodloc11,harbor14,tr13,21211,127266).
route(prodloc11,harbor15,tr0,6734,175084).
route(prodloc11,harbor15,tr13,6734,40404).
route(prodloc11,harbor16,tr0,25130,653380).
route(prodloc11,harbor16,tr13,25130,150780).
route(prodloc11,prodloc0,tr0,4850,126100).
route(prodloc11,prodloc0,tr13,4850,29100).
route(prodloc11,prodloc1,tr0,26908,699608).
route(prodloc11,prodloc1,tr13,26908,161448).
route(prodloc11,prodloc2,tr0,22655,589030).
route(prodloc11,prodloc2,tr13,22655,135930).
route(prodloc11,prodloc3,tr0,12648,328848).
route(prodloc11,prodloc3,tr13,12648,75888).
route(prodloc11,prodloc4,tr0,15820,411320).
route(prodloc11,prodloc4,tr13,15820,94920).
route(prodloc11,prodloc5,tr0,10861,282386).
route(prodloc11,prodloc5,tr13,10861,65166).
route(prodloc11,prodloc6,tr0,13507,351182).
route(prodloc11,prodloc6,tr15,13507,432224).
route(prodloc11,prodloc7,tr0,20417,530842).
route(prodloc11,prodloc7,tr13,20417,122502).
route(prodloc11,prodloc8,tr0,507,13182).
route(prodloc11,prodloc8,tr13,507,3042).
route(prodloc11,prodloc9,tr0,23822,619372).
route(prodloc11,prodloc9,tr13,23822,142932).
route(prodloc11,prodloc10,tr0,13132,341432).
route(prodloc11,prodloc10,tr13,13132,78792).
route(prodloc11,prodloc12,tr0,20091,522366).
route(prodloc11,prodloc12,tr13,20091,120546).
route(prodloc11,prodloc13,tr0,22935,596310).
route(prodloc11,prodloc13,tr13,22935,137610).
route(prodloc11,prodloc14,tr0,10412,270712).
route(prodloc11,prodloc14,tr13,10412,62472).
route(prodloc11,prodloc15,tr0,25847,672022).
route(prodloc11,prodloc15,tr13,25847,155082).
route(prodloc11,prodloc16,tr0,25877,672802).
route(prodloc11,prodloc16,tr13,25877,155262).
route(prodloc11,prodloc17,tr0,8031,208806).
route(prodloc11,prodloc17,tr13,8031,48186).
route(prodloc11,prodloc18,tr0,21636,562536).
route(prodloc11,prodloc18,tr13,21636,129816).
route(prodloc11,prodloc19,tr0,19944,518544).
route(prodloc11,prodloc19,tr13,19944,119664).
route(prodloc11,prodloc20,tr0,17365,451490).
route(prodloc11,prodloc20,tr13,17365,104190).
route(prodloc11,prodloc21,tr0,609,15834).
route(prodloc11,prodloc21,tr13,609,3654).
route(prodloc11,prodloc22,tr0,8545,222170).
route(prodloc11,prodloc22,tr13,8545,51270).
route(prodloc11,prodloc23,tr0,10848,282048).
route(prodloc11,prodloc23,tr13,10848,65088).
route(prodloc11,prodloc24,tr0,6187,160862).
route(prodloc11,prodloc24,tr13,6187,37122).
route(prodloc11,prodloc25,tr0,11216,291616).
route(prodloc11,prodloc25,tr13,11216,67296).
route(prodloc11,prodloc26,tr0,10054,261404).
route(prodloc11,prodloc26,tr13,10054,60324).
route(prodloc11,prodloc27,tr0,21324,554424).
route(prodloc11,prodloc27,tr13,21324,127944).
route(prodloc11,prodloc28,tr0,14460,375960).
route(prodloc11,prodloc28,tr15,14460,462720).
route(prodloc11,prodloc29,tr0,3484,90584).
route(prodloc11,prodloc29,tr13,3484,20904).
route(prodloc11,prodloc30,tr0,18260,474760).
route(prodloc11,prodloc30,tr15,18260,584320).
route(prodloc11,prodloc31,tr0,12375,321750).
route(prodloc11,prodloc31,tr13,12375,74250).
route(prodloc11,prodloc32,tr0,6715,174590).
route(prodloc11,prodloc32,tr13,6715,40290).
route(prodloc11,prodloc33,tr0,16692,433992).
route(prodloc11,prodloc33,tr13,16692,100152).
route(prodloc12,harbor0,tr0,10905,283530).
route(prodloc12,harbor0,tr13,10905,65430).
route(prodloc12,harbor1,tr0,25841,671866).
route(prodloc12,harbor1,tr13,25841,155046).
route(prodloc12,harbor2,tr0,9618,250068).
route(prodloc12,harbor2,tr13,9618,57708).
route(prodloc12,harbor3,tr0,27041,703066).
route(prodloc12,harbor3,tr13,27041,162246).
route(prodloc12,harbor4,tr0,3366,87516).
route(prodloc12,harbor4,tr13,3366,20196).
route(prodloc12,harbor5,tr0,20037,520962).
route(prodloc12,harbor5,tr13,20037,120222).
route(prodloc12,harbor6,tr0,23379,607854).
route(prodloc12,harbor6,tr13,23379,140274).
route(prodloc12,harbor7,tr0,5190,134940).
route(prodloc12,harbor7,tr13,5190,31140).
route(prodloc12,harbor8,tr0,8321,216346).
route(prodloc12,harbor8,tr13,8321,49926).
route(prodloc12,harbor9,tr0,25119,653094).
route(prodloc12,harbor9,tr13,25119,150714).
route(prodloc12,harbor10,tr0,17658,459108).
route(prodloc12,harbor10,tr13,17658,105948).
route(prodloc12,harbor11,tr0,9782,254332).
route(prodloc12,harbor11,tr13,9782,58692).
route(prodloc12,harbor12,tr0,17967,467142).
route(prodloc12,harbor12,tr13,17967,107802).
route(prodloc12,harbor13,tr0,7666,199316).
route(prodloc12,harbor13,tr13,7666,45996).
route(prodloc12,harbor14,tr0,11554,300404).
route(prodloc12,harbor14,tr13,11554,69324).
route(prodloc12,harbor15,tr0,20056,521456).
route(prodloc12,harbor15,tr13,20056,120336).
route(prodloc12,harbor16,tr0,16399,426374).
route(prodloc12,harbor16,tr13,16399,98394).
route(prodloc12,prodloc0,tr0,16826,437476).
route(prodloc12,prodloc0,tr13,16826,100956).
route(prodloc12,prodloc1,tr0,4647,120822).
route(prodloc12,prodloc1,tr13,4647,27882).
route(prodloc12,prodloc2,tr0,18815,489190).
route(prodloc12,prodloc2,tr13,18815,112890).
route(prodloc12,prodloc3,tr0,23379,607854).
route(prodloc12,prodloc3,tr13,23379,140274).
route(prodloc12,prodloc4,tr0,6495,168870).
route(prodloc12,prodloc4,tr13,6495,38970).
route(prodloc12,prodloc5,tr0,16911,439686).
route(prodloc12,prodloc5,tr13,16911,101466).
route(prodloc12,prodloc6,tr0,23443,609518).
route(prodloc12,prodloc6,tr13,23443,140658).
route(prodloc12,prodloc7,tr0,23163,602238).
route(prodloc12,prodloc7,tr13,23163,138978).
route(prodloc12,prodloc8,tr0,27380,711880).
route(prodloc12,prodloc8,tr13,27380,164280).
route(prodloc12,prodloc9,tr0,6463,168038).
route(prodloc12,prodloc9,tr13,6463,38778).
route(prodloc12,prodloc10,tr0,18593,483418).
route(prodloc12,prodloc10,tr13,18593,111558).
route(prodloc12,prodloc11,tr0,877,22802).
route(prodloc12,prodloc11,tr13,877,5262).
route(prodloc12,prodloc13,tr0,20551,534326).
route(prodloc12,prodloc13,tr13,20551,123306).
route(prodloc12,prodloc14,tr0,21610,561860).
route(prodloc12,prodloc14,tr15,21610,691520).
route(prodloc12,prodloc15,tr13,6486,38916).
route(prodloc12,prodloc15,tr15,6486,207552).
route(prodloc12,prodloc16,tr0,25450,661700).
route(prodloc12,prodloc16,tr13,25450,152700).
route(prodloc12,prodloc17,tr0,2729,70954).
route(prodloc12,prodloc17,tr13,2729,16374).
route(prodloc12,prodloc18,tr13,4467,26802).
route(prodloc12,prodloc18,tr15,4467,142944).
route(prodloc12,prodloc19,tr0,8017,208442).
route(prodloc12,prodloc19,tr13,8017,48102).
route(prodloc12,prodloc20,tr0,15661,407186).
route(prodloc12,prodloc20,tr13,15661,93966).
route(prodloc12,prodloc21,tr0,18892,491192).
route(prodloc12,prodloc21,tr13,18892,113352).
route(prodloc12,prodloc22,tr0,13682,355732).
route(prodloc12,prodloc22,tr13,13682,82092).
route(prodloc12,prodloc23,tr0,22844,593944).
route(prodloc12,prodloc23,tr13,22844,137064).
route(prodloc12,prodloc24,tr0,10932,284232).
route(prodloc12,prodloc24,tr13,10932,65592).
route(prodloc12,prodloc25,tr0,10788,280488).
route(prodloc12,prodloc25,tr13,10788,64728).
route(prodloc12,prodloc26,tr0,3008,78208).
route(prodloc12,prodloc26,tr13,3008,18048).
route(prodloc12,prodloc27,tr0,28592,743392).
route(prodloc12,prodloc27,tr13,28592,171552).
route(prodloc12,prodloc28,tr0,11837,307762).
route(prodloc12,prodloc28,tr13,11837,71022).
route(prodloc12,prodloc29,tr0,8723,226798).
route(prodloc12,prodloc29,tr13,8723,52338).
route(prodloc12,prodloc30,tr0,15174,394524).
route(prodloc12,prodloc30,tr13,15174,91044).
route(prodloc12,prodloc31,tr0,28935,752310).
route(prodloc12,prodloc31,tr13,28935,173610).
route(prodloc12,prodloc32,tr0,4066,105716).
route(prodloc12,prodloc32,tr13,4066,24396).
route(prodloc12,prodloc33,tr0,14822,385372).
route(prodloc12,prodloc33,tr13,14822,88932).
route(prodloc13,harbor0,tr0,23915,621790).
route(prodloc13,harbor0,tr13,23915,143490).
route(prodloc13,harbor1,tr0,4445,115570).
route(prodloc13,harbor1,tr13,4445,26670).
route(prodloc13,harbor2,tr0,7821,203346).
route(prodloc13,harbor2,tr13,7821,46926).
route(prodloc13,harbor3,tr0,18657,485082).
route(prodloc13,harbor3,tr13,18657,111942).
route(prodloc13,harbor4,tr0,17808,463008).
route(prodloc13,harbor4,tr13,17808,106848).
route(prodloc13,harbor5,tr0,17898,465348).
route(prodloc13,harbor5,tr13,17898,107388).
route(prodloc13,harbor6,tr0,18375,477750).
route(prodloc13,harbor6,tr13,18375,110250).
route(prodloc13,harbor7,tr0,2085,54210).
route(prodloc13,harbor7,tr13,2085,12510).
route(prodloc13,harbor8,tr0,18363,477438).
route(prodloc13,harbor8,tr13,18363,110178).
route(prodloc13,harbor9,tr0,8664,225264).
route(prodloc13,harbor9,tr13,8664,51984).
route(prodloc13,harbor10,tr0,5524,143624).
route(prodloc13,harbor10,tr13,5524,33144).
route(prodloc13,harbor11,tr0,24437,635362).
route(prodloc13,harbor11,tr13,24437,146622).
route(prodloc13,harbor12,tr0,26790,696540).
route(prodloc13,harbor12,tr13,26790,160740).
route(prodloc13,harbor13,tr0,10969,285194).
route(prodloc13,harbor13,tr13,10969,65814).
route(prodloc13,harbor14,tr0,19712,512512).
route(prodloc13,harbor14,tr13,19712,118272).
route(prodloc13,harbor15,tr0,4774,124124).
route(prodloc13,harbor15,tr13,4774,28644).
route(prodloc13,harbor16,tr0,4021,104546).
route(prodloc13,harbor16,tr13,4021,24126).
route(prodloc13,prodloc0,tr0,27024,702624).
route(prodloc13,prodloc0,tr15,27024,864768).
route(prodloc13,prodloc1,tr0,126,3276).
route(prodloc13,prodloc1,tr13,126,756).
route(prodloc13,prodloc2,tr0,9458,245908).
route(prodloc13,prodloc2,tr13,9458,56748).
route(prodloc13,prodloc3,tr0,22450,583700).
route(prodloc13,prodloc3,tr13,22450,134700).
route(prodloc13,prodloc4,tr0,11917,309842).
route(prodloc13,prodloc4,tr13,11917,71502).
route(prodloc13,prodloc5,tr0,7894,205244).
route(prodloc13,prodloc5,tr13,7894,47364).
route(prodloc13,prodloc6,tr0,24850,646100).
route(prodloc13,prodloc6,tr13,24850,149100).
route(prodloc13,prodloc7,tr0,18797,488722).
route(prodloc13,prodloc7,tr13,18797,112782).
route(prodloc13,prodloc8,tr0,11900,309400).
route(prodloc13,prodloc8,tr13,11900,71400).
route(prodloc13,prodloc9,tr0,27224,707824).
route(prodloc13,prodloc9,tr13,27224,163344).
route(prodloc13,prodloc10,tr0,5437,141362).
route(prodloc13,prodloc10,tr13,5437,32622).
route(prodloc13,prodloc11,tr0,6082,158132).
route(prodloc13,prodloc11,tr13,6082,36492).
route(prodloc13,prodloc12,tr0,19583,509158).
route(prodloc13,prodloc12,tr13,19583,117498).
route(prodloc13,prodloc14,tr0,17954,466804).
route(prodloc13,prodloc14,tr13,17954,107724).
route(prodloc13,prodloc15,tr0,26585,691210).
route(prodloc13,prodloc15,tr13,26585,159510).
route(prodloc13,prodloc16,tr0,2501,65026).
route(prodloc13,prodloc16,tr13,2501,15006).
route(prodloc13,prodloc17,tr0,14890,387140).
route(prodloc13,prodloc17,tr13,14890,89340).
route(prodloc13,prodloc18,tr0,1051,27326).
route(prodloc13,prodloc18,tr13,1051,6306).
route(prodloc13,prodloc19,tr0,13220,343720).
route(prodloc13,prodloc19,tr13,13220,79320).
route(prodloc13,prodloc20,tr0,5902,153452).
route(prodloc13,prodloc20,tr13,5902,35412).
route(prodloc13,prodloc21,tr0,25650,666900).
route(prodloc13,prodloc21,tr13,25650,153900).
route(prodloc13,prodloc22,tr0,21575,560950).
route(prodloc13,prodloc22,tr13,21575,129450).
route(prodloc13,prodloc23,tr0,4532,117832).
route(prodloc13,prodloc23,tr13,4532,27192).
route(prodloc13,prodloc24,tr0,10083,262158).
route(prodloc13,prodloc24,tr15,10083,322656).
route(prodloc13,prodloc25,tr0,24778,644228).
route(prodloc13,prodloc25,tr13,24778,148668).
route(prodloc13,prodloc26,tr0,21997,571922).
route(prodloc13,prodloc26,tr13,21997,131982).
route(prodloc13,prodloc27,tr0,27768,721968).
route(prodloc13,prodloc27,tr13,27768,166608).
route(prodloc13,prodloc28,tr0,24174,628524).
route(prodloc13,prodloc28,tr13,24174,145044).
route(prodloc13,prodloc29,tr0,12507,325182).
route(prodloc13,prodloc29,tr13,12507,75042).
route(prodloc13,prodloc30,tr0,20161,524186).
route(prodloc13,prodloc30,tr13,20161,120966).
route(prodloc13,prodloc31,tr0,19397,504322).
route(prodloc13,prodloc31,tr13,19397,116382).
route(prodloc13,prodloc32,tr0,20984,545584).
route(prodloc13,prodloc32,tr13,20984,125904).
route(prodloc13,prodloc33,tr0,26341,684866).
route(prodloc13,prodloc33,tr13,26341,158046).
route(prodloc14,harbor0,tr0,25014,650364).
route(prodloc14,harbor0,tr13,25014,150084).
route(prodloc14,harbor1,tr0,537,13962).
route(prodloc14,harbor1,tr13,537,3222).
route(prodloc14,harbor2,tr0,5197,135122).
route(prodloc14,harbor2,tr13,5197,31182).
route(prodloc14,harbor3,tr0,6540,170040).
route(prodloc14,harbor3,tr13,6540,39240).
route(prodloc14,harbor4,tr0,13502,351052).
route(prodloc14,harbor4,tr13,13502,81012).
route(prodloc14,harbor5,tr0,15338,398788).
route(prodloc14,harbor5,tr13,15338,92028).
route(prodloc14,harbor6,tr0,1085,28210).
route(prodloc14,harbor6,tr13,1085,6510).
route(prodloc14,harbor7,tr0,4687,121862).
route(prodloc14,harbor7,tr13,4687,28122).
route(prodloc14,harbor8,tr0,17298,449748).
route(prodloc14,harbor8,tr13,17298,103788).
route(prodloc14,harbor9,tr0,12662,329212).
route(prodloc14,harbor9,tr13,12662,75972).
route(prodloc14,harbor10,tr0,3877,100802).
route(prodloc14,harbor10,tr13,3877,23262).
route(prodloc14,harbor11,tr0,18663,485238).
route(prodloc14,harbor11,tr13,18663,111978).
route(prodloc14,harbor12,tr0,13297,345722).
route(prodloc14,harbor12,tr13,13297,79782).
route(prodloc14,harbor13,tr0,5693,148018).
route(prodloc14,harbor13,tr13,5693,34158).
route(prodloc14,harbor14,tr0,11019,286494).
route(prodloc14,harbor14,tr13,11019,66114).
route(prodloc14,harbor15,tr0,17033,442858).
route(prodloc14,harbor15,tr13,17033,102198).
route(prodloc14,harbor16,tr0,4310,112060).
route(prodloc14,harbor16,tr13,4310,25860).
route(prodloc14,prodloc0,tr0,8641,224666).
route(prodloc14,prodloc0,tr13,8641,51846).
route(prodloc14,prodloc1,tr0,8001,208026).
route(prodloc14,prodloc1,tr13,8001,48006).
route(prodloc14,prodloc2,tr0,18615,483990).
route(prodloc14,prodloc2,tr13,18615,111690).
route(prodloc14,prodloc3,tr0,10884,282984).
route(prodloc14,prodloc3,tr13,10884,65304).
route(prodloc14,prodloc4,tr0,1754,45604).
route(prodloc14,prodloc4,tr13,1754,10524).
route(prodloc14,prodloc5,tr0,21029,546754).
route(prodloc14,prodloc5,tr13,21029,126174).
route(prodloc14,prodloc6,tr0,25691,667966).
route(prodloc14,prodloc6,tr13,25691,154146).
route(prodloc14,prodloc7,tr0,1242,32292).
route(prodloc14,prodloc7,tr13,1242,7452).
route(prodloc14,prodloc8,tr0,23648,614848).
route(prodloc14,prodloc8,tr13,23648,141888).
route(prodloc14,prodloc9,tr0,21989,571714).
route(prodloc14,prodloc9,tr13,21989,131934).
route(prodloc14,prodloc10,tr0,25807,670982).
route(prodloc14,prodloc10,tr13,25807,154842).
route(prodloc14,prodloc11,tr0,4745,123370).
route(prodloc14,prodloc11,tr13,4745,28470).
route(prodloc14,prodloc12,tr0,13213,343538).
route(prodloc14,prodloc12,tr13,13213,79278).
route(prodloc14,prodloc13,tr0,16305,423930).
route(prodloc14,prodloc13,tr13,16305,97830).
route(prodloc14,prodloc15,tr0,19665,511290).
route(prodloc14,prodloc15,tr13,19665,117990).
route(prodloc14,prodloc16,tr0,3361,87386).
route(prodloc14,prodloc16,tr13,3361,20166).
route(prodloc14,prodloc17,tr0,15400,400400).
route(prodloc14,prodloc17,tr13,15400,92400).
route(prodloc14,prodloc18,tr0,11321,294346).
route(prodloc14,prodloc18,tr15,11321,362272).
route(prodloc14,prodloc19,tr0,13483,350558).
route(prodloc14,prodloc19,tr13,13483,80898).
route(prodloc14,prodloc20,tr0,20442,531492).
route(prodloc14,prodloc20,tr13,20442,122652).
route(prodloc14,prodloc21,tr0,22589,587314).
route(prodloc14,prodloc21,tr13,22589,135534).
route(prodloc14,prodloc22,tr0,18508,481208).
route(prodloc14,prodloc22,tr13,18508,111048).
route(prodloc14,prodloc23,tr0,24841,645866).
route(prodloc14,prodloc23,tr13,24841,149046).
route(prodloc14,prodloc24,tr0,13337,346762).
route(prodloc14,prodloc24,tr13,13337,80022).
route(prodloc14,prodloc25,tr0,24634,640484).
route(prodloc14,prodloc25,tr13,24634,147804).
route(prodloc14,prodloc26,tr0,9228,239928).
route(prodloc14,prodloc26,tr13,9228,55368).
route(prodloc14,prodloc27,tr0,15920,413920).
route(prodloc14,prodloc27,tr13,15920,95520).
route(prodloc14,prodloc28,tr0,15190,394940).
route(prodloc14,prodloc28,tr13,15190,91140).
route(prodloc14,prodloc29,tr0,27469,714194).
route(prodloc14,prodloc29,tr13,27469,164814).
route(prodloc14,prodloc30,tr0,28020,728520).
route(prodloc14,prodloc30,tr13,28020,168120).
route(prodloc14,prodloc31,tr0,22621,588146).
route(prodloc14,prodloc31,tr13,22621,135726).
route(prodloc14,prodloc32,tr0,13404,348504).
route(prodloc14,prodloc32,tr13,13404,80424).
route(prodloc14,prodloc33,tr0,27039,703014).
route(prodloc14,prodloc33,tr13,27039,162234).
route(prodloc15,harbor0,tr0,14221,369746).
route(prodloc15,harbor0,tr13,14221,85326).
route(prodloc15,harbor1,tr0,3847,100022).
route(prodloc15,harbor1,tr13,3847,23082).
route(prodloc15,harbor2,tr0,18547,482222).
route(prodloc15,harbor2,tr13,18547,111282).
route(prodloc15,harbor3,tr0,3758,97708).
route(prodloc15,harbor3,tr13,3758,22548).
route(prodloc15,harbor4,tr0,17236,448136).
route(prodloc15,harbor4,tr13,17236,103416).
route(prodloc15,harbor5,tr0,10827,281502).
route(prodloc15,harbor5,tr13,10827,64962).
route(prodloc15,harbor6,tr0,17205,447330).
route(prodloc15,harbor6,tr13,17205,103230).
route(prodloc15,harbor7,tr0,17063,443638).
route(prodloc15,harbor7,tr13,17063,102378).
route(prodloc15,harbor8,tr0,14165,368290).
route(prodloc15,harbor8,tr13,14165,84990).
route(prodloc15,harbor9,tr0,13776,358176).
route(prodloc15,harbor9,tr13,13776,82656).
route(prodloc15,harbor10,tr0,795,20670).
route(prodloc15,harbor10,tr13,795,4770).
route(prodloc15,harbor11,tr0,10510,273260).
route(prodloc15,harbor11,tr13,10510,63060).
route(prodloc15,harbor12,tr0,1793,46618).
route(prodloc15,harbor12,tr13,1793,10758).
route(prodloc15,harbor13,tr0,9702,252252).
route(prodloc15,harbor13,tr13,9702,58212).
route(prodloc15,harbor14,tr0,23777,618202).
route(prodloc15,harbor14,tr13,23777,142662).
route(prodloc15,harbor15,tr0,20193,525018).
route(prodloc15,harbor15,tr13,20193,121158).
route(prodloc15,harbor16,tr0,14197,369122).
route(prodloc15,harbor16,tr13,14197,85182).
route(prodloc15,prodloc0,tr0,23988,623688).
route(prodloc15,prodloc0,tr13,23988,143928).
route(prodloc15,prodloc1,tr0,12338,320788).
route(prodloc15,prodloc1,tr13,12338,74028).
route(prodloc15,prodloc2,tr0,19581,509106).
route(prodloc15,prodloc2,tr13,19581,117486).
route(prodloc15,prodloc3,tr0,10550,274300).
route(prodloc15,prodloc3,tr13,10550,63300).
route(prodloc15,prodloc4,tr0,24639,640614).
route(prodloc15,prodloc4,tr13,24639,147834).
route(prodloc15,prodloc5,tr0,25874,672724).
route(prodloc15,prodloc5,tr13,25874,155244).
route(prodloc15,prodloc6,tr0,9988,259688).
route(prodloc15,prodloc6,tr15,9988,319616).
route(prodloc15,prodloc7,tr0,28922,751972).
route(prodloc15,prodloc7,tr13,28922,173532).
route(prodloc15,prodloc8,tr0,19447,505622).
route(prodloc15,prodloc8,tr13,19447,116682).
route(prodloc15,prodloc9,tr0,28741,747266).
route(prodloc15,prodloc9,tr13,28741,172446).
route(prodloc15,prodloc10,tr0,2289,59514).
route(prodloc15,prodloc10,tr13,2289,13734).
route(prodloc15,prodloc11,tr0,8008,208208).
route(prodloc15,prodloc11,tr13,8008,48048).
route(prodloc15,prodloc12,tr0,4079,106054).
route(prodloc15,prodloc12,tr13,4079,24474).
route(prodloc15,prodloc13,tr0,27670,719420).
route(prodloc15,prodloc13,tr13,27670,166020).
route(prodloc15,prodloc14,tr0,14647,380822).
route(prodloc15,prodloc14,tr13,14647,87882).
route(prodloc15,prodloc16,tr0,7943,206518).
route(prodloc15,prodloc16,tr13,7943,47658).
route(prodloc15,prodloc17,tr0,16472,428272).
route(prodloc15,prodloc17,tr13,16472,98832).
route(prodloc15,prodloc18,tr0,28610,743860).
route(prodloc15,prodloc18,tr13,28610,171660).
route(prodloc15,prodloc19,tr0,13001,338026).
route(prodloc15,prodloc19,tr13,13001,78006).
route(prodloc15,prodloc20,tr0,1704,44304).
route(prodloc15,prodloc20,tr13,1704,10224).
route(prodloc15,prodloc21,tr0,15590,405340).
route(prodloc15,prodloc21,tr13,15590,93540).
route(prodloc15,prodloc22,tr0,22772,592072).
route(prodloc15,prodloc22,tr13,22772,136632).
route(prodloc15,prodloc23,tr0,3454,89804).
route(prodloc15,prodloc23,tr13,3454,20724).
route(prodloc15,prodloc24,tr0,17245,448370).
route(prodloc15,prodloc24,tr13,17245,103470).
route(prodloc15,prodloc25,tr0,7838,203788).
route(prodloc15,prodloc25,tr13,7838,47028).
route(prodloc15,prodloc26,tr0,17859,464334).
route(prodloc15,prodloc26,tr13,17859,107154).
route(prodloc15,prodloc27,tr0,10038,260988).
route(prodloc15,prodloc27,tr13,10038,60228).
route(prodloc15,prodloc28,tr0,21525,559650).
route(prodloc15,prodloc28,tr13,21525,129150).
route(prodloc15,prodloc29,tr0,12962,337012).
route(prodloc15,prodloc29,tr13,12962,77772).
route(prodloc15,prodloc30,tr0,7731,201006).
route(prodloc15,prodloc30,tr13,7731,46386).
route(prodloc15,prodloc31,tr0,28829,749554).
route(prodloc15,prodloc31,tr13,28829,172974).
route(prodloc15,prodloc32,tr0,2244,58344).
route(prodloc15,prodloc32,tr13,2244,13464).
route(prodloc15,prodloc33,tr0,23948,622648).
route(prodloc15,prodloc33,tr13,23948,143688).
route(prodloc16,harbor0,tr0,28558,742508).
route(prodloc16,harbor0,tr13,28558,171348).
route(prodloc16,harbor1,tr0,21815,567190).
route(prodloc16,harbor1,tr13,21815,130890).
route(prodloc16,harbor2,tr0,12085,314210).
route(prodloc16,harbor2,tr13,12085,72510).
route(prodloc16,harbor3,tr0,28395,738270).
route(prodloc16,harbor3,tr13,28395,170370).
route(prodloc16,harbor4,tr0,17898,465348).
route(prodloc16,harbor4,tr13,17898,107388).
route(prodloc16,harbor5,tr0,13810,359060).
route(prodloc16,harbor5,tr13,13810,82860).
route(prodloc16,harbor6,tr0,18481,480506).
route(prodloc16,harbor6,tr13,18481,110886).
route(prodloc16,harbor7,tr0,26388,686088).
route(prodloc16,harbor7,tr13,26388,158328).
route(prodloc16,harbor8,tr0,5380,139880).
route(prodloc16,harbor8,tr13,5380,32280).
route(prodloc16,harbor9,tr0,7269,188994).
route(prodloc16,harbor9,tr13,7269,43614).
route(prodloc16,harbor10,tr0,21285,553410).
route(prodloc16,harbor10,tr13,21285,127710).
route(prodloc16,harbor11,tr0,24467,636142).
route(prodloc16,harbor11,tr13,24467,146802).
route(prodloc16,harbor12,tr0,13816,359216).
route(prodloc16,harbor12,tr13,13816,82896).
route(prodloc16,harbor13,tr0,18575,482950).
route(prodloc16,harbor13,tr13,18575,111450).
route(prodloc16,harbor14,tr0,4021,104546).
route(prodloc16,harbor14,tr13,4021,24126).
route(prodloc16,harbor15,tr0,2352,61152).
route(prodloc16,harbor15,tr13,2352,14112).
route(prodloc16,harbor16,tr0,3231,84006).
route(prodloc16,harbor16,tr13,3231,19386).
route(prodloc16,prodloc0,tr0,17029,442754).
route(prodloc16,prodloc0,tr13,17029,102174).
route(prodloc16,prodloc1,tr0,25965,675090).
route(prodloc16,prodloc1,tr13,25965,155790).
route(prodloc16,prodloc2,tr0,4260,110760).
route(prodloc16,prodloc2,tr13,4260,25560).
route(prodloc16,prodloc3,tr0,4058,105508).
route(prodloc16,prodloc3,tr13,4058,24348).
route(prodloc16,prodloc4,tr0,28909,751634).
route(prodloc16,prodloc4,tr13,28909,173454).
route(prodloc16,prodloc5,tr0,17617,458042).
route(prodloc16,prodloc5,tr13,17617,105702).
route(prodloc16,prodloc6,tr0,18872,490672).
route(prodloc16,prodloc6,tr13,18872,113232).
route(prodloc16,prodloc7,tr0,14851,386126).
route(prodloc16,prodloc7,tr13,14851,89106).
route(prodloc16,prodloc8,tr0,20,520).
route(prodloc16,prodloc8,tr13,20,120).
route(prodloc16,prodloc9,tr0,9704,252304).
route(prodloc16,prodloc9,tr13,9704,58224).
route(prodloc16,prodloc10,tr0,7995,207870).
route(prodloc16,prodloc10,tr13,7995,47970).
route(prodloc16,prodloc11,tr0,23863,620438).
route(prodloc16,prodloc11,tr13,23863,143178).
route(prodloc16,prodloc12,tr0,9808,255008).
route(prodloc16,prodloc12,tr13,9808,58848).
route(prodloc16,prodloc13,tr0,785,20410).
route(prodloc16,prodloc13,tr13,785,4710).
route(prodloc16,prodloc14,tr0,10643,276718).
route(prodloc16,prodloc14,tr13,10643,63858).
route(prodloc16,prodloc15,tr0,5638,146588).
route(prodloc16,prodloc15,tr13,5638,33828).
route(prodloc16,prodloc17,tr0,2054,53404).
route(prodloc16,prodloc17,tr13,2054,12324).
route(prodloc16,prodloc18,tr0,14445,375570).
route(prodloc16,prodloc18,tr13,14445,86670).
route(prodloc16,prodloc19,tr0,14748,383448).
route(prodloc16,prodloc19,tr13,14748,88488).
route(prodloc16,prodloc20,tr0,26722,694772).
route(prodloc16,prodloc20,tr13,26722,160332).
route(prodloc16,prodloc21,tr0,17384,451984).
route(prodloc16,prodloc21,tr13,17384,104304).
route(prodloc16,prodloc22,tr0,13019,338494).
route(prodloc16,prodloc22,tr13,13019,78114).
route(prodloc16,prodloc23,tr0,4631,120406).
route(prodloc16,prodloc23,tr13,4631,27786).
route(prodloc16,prodloc24,tr0,11683,303758).
route(prodloc16,prodloc24,tr13,11683,70098).
route(prodloc16,prodloc25,tr0,22686,589836).
route(prodloc16,prodloc25,tr13,22686,136116).
route(prodloc16,prodloc26,tr0,19187,498862).
route(prodloc16,prodloc26,tr13,19187,115122).
route(prodloc16,prodloc27,tr0,7564,196664).
route(prodloc16,prodloc27,tr13,7564,45384).
route(prodloc16,prodloc28,tr0,1505,39130).
route(prodloc16,prodloc28,tr13,1505,9030).
route(prodloc16,prodloc29,tr0,10036,260936).
route(prodloc16,prodloc29,tr13,10036,60216).
route(prodloc16,prodloc30,tr0,1022,26572).
route(prodloc16,prodloc30,tr13,1022,6132).
route(prodloc16,prodloc31,tr0,14907,387582).
route(prodloc16,prodloc31,tr13,14907,89442).
route(prodloc16,prodloc32,tr0,10284,267384).
route(prodloc16,prodloc32,tr13,10284,61704).
route(prodloc16,prodloc33,tr0,10089,262314).
route(prodloc16,prodloc33,tr13,10089,60534).
route(prodloc17,harbor0,tr0,10630,276380).
route(prodloc17,harbor0,tr13,10630,63780).
route(prodloc17,harbor1,tr0,16334,424684).
route(prodloc17,harbor1,tr13,16334,98004).
route(prodloc17,harbor2,tr0,4695,122070).
route(prodloc17,harbor2,tr13,4695,28170).
route(prodloc17,harbor3,tr0,25451,661726).
route(prodloc17,harbor3,tr13,25451,152706).
route(prodloc17,harbor4,tr0,25447,661622).
route(prodloc17,harbor4,tr13,25447,152682).
route(prodloc17,harbor5,tr0,15489,402714).
route(prodloc17,harbor5,tr13,15489,92934).
route(prodloc17,harbor6,tr0,28796,748696).
route(prodloc17,harbor6,tr13,28796,172776).
route(prodloc17,harbor7,tr0,6768,175968).
route(prodloc17,harbor7,tr13,6768,40608).
route(prodloc17,harbor8,tr0,6643,172718).
route(prodloc17,harbor8,tr13,6643,39858).
route(prodloc17,harbor9,tr0,9679,251654).
route(prodloc17,harbor9,tr13,9679,58074).
route(prodloc17,harbor10,tr0,28149,731874).
route(prodloc17,harbor10,tr13,28149,168894).
route(prodloc17,harbor11,tr0,22694,590044).
route(prodloc17,harbor11,tr13,22694,136164).
route(prodloc17,harbor12,tr0,1934,50284).
route(prodloc17,harbor12,tr13,1934,11604).
route(prodloc17,harbor13,tr0,6408,166608).
route(prodloc17,harbor13,tr13,6408,38448).
route(prodloc17,harbor14,tr0,10352,269152).
route(prodloc17,harbor14,tr13,10352,62112).
route(prodloc17,harbor15,tr0,27458,713908).
route(prodloc17,harbor15,tr13,27458,164748).
route(prodloc17,harbor16,tr0,28155,732030).
route(prodloc17,harbor16,tr13,28155,168930).
route(prodloc17,prodloc0,tr0,11606,301756).
route(prodloc17,prodloc0,tr13,11606,69636).
route(prodloc17,prodloc1,tr0,15484,402584).
route(prodloc17,prodloc1,tr13,15484,92904).
route(prodloc17,prodloc2,tr0,527,13702).
route(prodloc17,prodloc2,tr13,527,3162).
route(prodloc17,prodloc3,tr0,5634,146484).
route(prodloc17,prodloc3,tr13,5634,33804).
route(prodloc17,prodloc4,tr0,20822,541372).
route(prodloc17,prodloc4,tr13,20822,124932).
route(prodloc17,prodloc5,tr13,28828,172968).
route(prodloc17,prodloc5,tr15,28828,922496).
route(prodloc17,prodloc6,tr0,22871,594646).
route(prodloc17,prodloc6,tr13,22871,137226).
route(prodloc17,prodloc7,tr0,18346,476996).
route(prodloc17,prodloc7,tr13,18346,110076).
route(prodloc17,prodloc8,tr0,6621,172146).
route(prodloc17,prodloc8,tr13,6621,39726).
route(prodloc17,prodloc9,tr0,17470,454220).
route(prodloc17,prodloc9,tr13,17470,104820).
route(prodloc17,prodloc10,tr0,20724,538824).
route(prodloc17,prodloc10,tr13,20724,124344).
route(prodloc17,prodloc11,tr0,7742,201292).
route(prodloc17,prodloc11,tr13,7742,46452).
route(prodloc17,prodloc12,tr0,6277,163202).
route(prodloc17,prodloc12,tr13,6277,37662).
route(prodloc17,prodloc13,tr0,28843,749918).
route(prodloc17,prodloc13,tr13,28843,173058).
route(prodloc17,prodloc14,tr0,1640,42640).
route(prodloc17,prodloc14,tr13,1640,9840).
route(prodloc17,prodloc15,tr0,21304,553904).
route(prodloc17,prodloc15,tr13,21304,127824).
route(prodloc17,prodloc16,tr0,3478,90428).
route(prodloc17,prodloc16,tr13,3478,20868).
route(prodloc17,prodloc18,tr0,10031,260806).
route(prodloc17,prodloc18,tr13,10031,60186).
route(prodloc17,prodloc19,tr0,23784,618384).
route(prodloc17,prodloc19,tr13,23784,142704).
route(prodloc17,prodloc20,tr0,26796,696696).
route(prodloc17,prodloc20,tr13,26796,160776).
route(prodloc17,prodloc21,tr0,10257,266682).
route(prodloc17,prodloc21,tr13,10257,61542).
route(prodloc17,prodloc22,tr0,8976,233376).
route(prodloc17,prodloc22,tr13,8976,53856).
route(prodloc17,prodloc23,tr0,28496,740896).
route(prodloc17,prodloc23,tr13,28496,170976).
route(prodloc17,prodloc24,tr0,13776,358176).
route(prodloc17,prodloc24,tr13,13776,82656).
route(prodloc17,prodloc25,tr0,23370,607620).
route(prodloc17,prodloc25,tr13,23370,140220).
route(prodloc17,prodloc26,tr0,28804,748904).
route(prodloc17,prodloc26,tr13,28804,172824).
route(prodloc17,prodloc27,tr0,4421,114946).
route(prodloc17,prodloc27,tr13,4421,26526).
route(prodloc17,prodloc28,tr0,10977,285402).
route(prodloc17,prodloc28,tr13,10977,65862).
route(prodloc17,prodloc29,tr0,22806,592956).
route(prodloc17,prodloc29,tr13,22806,136836).
route(prodloc17,prodloc30,tr0,25525,663650).
route(prodloc17,prodloc30,tr13,25525,153150).
route(prodloc17,prodloc31,tr0,14588,379288).
route(prodloc17,prodloc31,tr13,14588,87528).
route(prodloc17,prodloc32,tr0,13606,353756).
route(prodloc17,prodloc32,tr13,13606,81636).
route(prodloc17,prodloc33,tr0,2590,67340).
route(prodloc17,prodloc33,tr13,2590,15540).
route(prodloc18,harbor0,tr0,5552,144352).
route(prodloc18,harbor0,tr13,5552,33312).
route(prodloc18,harbor1,tr0,7317,190242).
route(prodloc18,harbor1,tr13,7317,43902).
route(prodloc18,harbor2,tr0,28232,734032).
route(prodloc18,harbor2,tr13,28232,169392).
route(prodloc18,harbor3,tr0,10067,261742).
route(prodloc18,harbor3,tr13,10067,60402).
route(prodloc18,harbor4,tr0,3955,102830).
route(prodloc18,harbor4,tr13,3955,23730).
route(prodloc18,harbor5,tr0,23284,605384).
route(prodloc18,harbor5,tr13,23284,139704).
route(prodloc18,harbor6,tr0,22649,588874).
route(prodloc18,harbor6,tr13,22649,135894).
route(prodloc18,harbor7,tr0,6439,167414).
route(prodloc18,harbor7,tr13,6439,38634).
route(prodloc18,harbor8,tr0,8814,229164).
route(prodloc18,harbor8,tr13,8814,52884).
route(prodloc18,harbor9,tr0,5933,154258).
route(prodloc18,harbor9,tr13,5933,35598).
route(prodloc18,harbor10,tr0,23599,613574).
route(prodloc18,harbor10,tr13,23599,141594).
route(prodloc18,harbor11,tr0,7717,200642).
route(prodloc18,harbor11,tr13,7717,46302).
route(prodloc18,harbor12,tr0,16432,427232).
route(prodloc18,harbor12,tr13,16432,98592).
route(prodloc18,harbor13,tr0,21779,566254).
route(prodloc18,harbor13,tr13,21779,130674).
route(prodloc18,harbor14,tr0,9683,251758).
route(prodloc18,harbor14,tr13,9683,58098).
route(prodloc18,harbor15,tr0,25904,673504).
route(prodloc18,harbor15,tr13,25904,155424).
route(prodloc18,harbor16,tr0,8957,232882).
route(prodloc18,harbor16,tr13,8957,53742).
route(prodloc18,prodloc0,tr0,12208,317408).
route(prodloc18,prodloc0,tr13,12208,73248).
route(prodloc18,prodloc1,tr0,26338,684788).
route(prodloc18,prodloc1,tr13,26338,158028).
route(prodloc18,prodloc2,tr0,21694,564044).
route(prodloc18,prodloc2,tr13,21694,130164).
route(prodloc18,prodloc3,tr0,17185,446810).
route(prodloc18,prodloc3,tr13,17185,103110).
route(prodloc18,prodloc4,tr13,3795,22770).
route(prodloc18,prodloc4,tr15,3795,121440).
route(prodloc18,prodloc5,tr0,19331,502606).
route(prodloc18,prodloc5,tr13,19331,115986).
route(prodloc18,prodloc6,tr0,16907,439582).
route(prodloc18,prodloc6,tr13,16907,101442).
route(prodloc18,prodloc7,tr0,7505,195130).
route(prodloc18,prodloc7,tr13,7505,45030).
route(prodloc18,prodloc8,tr0,9863,256438).
route(prodloc18,prodloc8,tr13,9863,59178).
route(prodloc18,prodloc9,tr0,5918,153868).
route(prodloc18,prodloc9,tr13,5918,35508).
route(prodloc18,prodloc10,tr0,21859,568334).
route(prodloc18,prodloc10,tr13,21859,131154).
route(prodloc18,prodloc11,tr0,7405,192530).
route(prodloc18,prodloc11,tr13,7405,44430).
route(prodloc18,prodloc12,tr0,9073,235898).
route(prodloc18,prodloc12,tr13,9073,54438).
route(prodloc18,prodloc13,tr0,4345,112970).
route(prodloc18,prodloc13,tr13,4345,26070).
route(prodloc18,prodloc14,tr0,20971,545246).
route(prodloc18,prodloc14,tr13,20971,125826).
route(prodloc18,prodloc15,tr0,21884,568984).
route(prodloc18,prodloc15,tr13,21884,131304).
route(prodloc18,prodloc16,tr0,2950,76700).
route(prodloc18,prodloc16,tr13,2950,17700).
route(prodloc18,prodloc17,tr0,15164,394264).
route(prodloc18,prodloc17,tr13,15164,90984).
route(prodloc18,prodloc19,tr0,2500,65000).
route(prodloc18,prodloc19,tr13,2500,15000).
route(prodloc18,prodloc20,tr0,14431,375206).
route(prodloc18,prodloc20,tr13,14431,86586).
route(prodloc18,prodloc21,tr0,17313,450138).
route(prodloc18,prodloc21,tr13,17313,103878).
route(prodloc18,prodloc22,tr0,2420,62920).
route(prodloc18,prodloc22,tr13,2420,14520).
route(prodloc18,prodloc23,tr0,17395,452270).
route(prodloc18,prodloc23,tr13,17395,104370).
route(prodloc18,prodloc24,tr13,1487,8922).
route(prodloc18,prodloc24,tr15,1487,47584).
route(prodloc18,prodloc25,tr0,230,5980).
route(prodloc18,prodloc25,tr13,230,1380).
route(prodloc18,prodloc26,tr0,19652,510952).
route(prodloc18,prodloc26,tr13,19652,117912).
route(prodloc18,prodloc27,tr0,19222,499772).
route(prodloc18,prodloc27,tr13,19222,115332).
route(prodloc18,prodloc28,tr0,9325,242450).
route(prodloc18,prodloc28,tr13,9325,55950).
route(prodloc18,prodloc29,tr0,17606,457756).
route(prodloc18,prodloc29,tr13,17606,105636).
route(prodloc18,prodloc30,tr0,8223,213798).
route(prodloc18,prodloc30,tr13,8223,49338).
route(prodloc18,prodloc31,tr0,13877,360802).
route(prodloc18,prodloc31,tr13,13877,83262).
route(prodloc18,prodloc32,tr0,26321,684346).
route(prodloc18,prodloc32,tr13,26321,157926).
route(prodloc18,prodloc33,tr0,18632,484432).
route(prodloc18,prodloc33,tr13,18632,111792).
route(prodloc19,harbor0,tr0,2858,74308).
route(prodloc19,harbor0,tr13,2858,17148).
route(prodloc19,harbor1,tr0,5392,140192).
route(prodloc19,harbor1,tr13,5392,32352).
route(prodloc19,harbor2,tr0,9345,242970).
route(prodloc19,harbor2,tr13,9345,56070).
route(prodloc19,harbor3,tr0,24764,643864).
route(prodloc19,harbor3,tr13,24764,148584).
route(prodloc19,harbor4,tr0,6212,161512).
route(prodloc19,harbor4,tr13,6212,37272).
route(prodloc19,harbor5,tr0,8059,209534).
route(prodloc19,harbor5,tr13,8059,48354).
route(prodloc19,harbor6,tr0,5878,152828).
route(prodloc19,harbor6,tr13,5878,35268).
route(prodloc19,harbor7,tr0,9147,237822).
route(prodloc19,harbor7,tr13,9147,54882).
route(prodloc19,harbor8,tr0,24059,625534).
route(prodloc19,harbor8,tr13,24059,144354).
route(prodloc19,harbor9,tr0,17962,467012).
route(prodloc19,harbor9,tr13,17962,107772).
route(prodloc19,harbor10,tr0,946,24596).
route(prodloc19,harbor10,tr13,946,5676).
route(prodloc19,harbor11,tr0,6108,158808).
route(prodloc19,harbor11,tr13,6108,36648).
route(prodloc19,harbor12,tr0,25900,673400).
route(prodloc19,harbor12,tr13,25900,155400).
route(prodloc19,harbor13,tr0,4942,128492).
route(prodloc19,harbor13,tr13,4942,29652).
route(prodloc19,harbor14,tr0,1103,28678).
route(prodloc19,harbor14,tr13,1103,6618).
route(prodloc19,harbor15,tr0,20380,529880).
route(prodloc19,harbor15,tr13,20380,122280).
route(prodloc19,harbor16,tr0,15128,393328).
route(prodloc19,harbor16,tr13,15128,90768).
route(prodloc19,prodloc0,tr0,24597,639522).
route(prodloc19,prodloc0,tr13,24597,147582).
route(prodloc19,prodloc1,tr0,19167,498342).
route(prodloc19,prodloc1,tr13,19167,115002).
route(prodloc19,prodloc2,tr0,12608,327808).
route(prodloc19,prodloc2,tr13,12608,75648).
route(prodloc19,prodloc3,tr0,89,2314).
route(prodloc19,prodloc3,tr13,89,534).
route(prodloc19,prodloc4,tr0,16382,425932).
route(prodloc19,prodloc4,tr13,16382,98292).
route(prodloc19,prodloc5,tr0,1975,51350).
route(prodloc19,prodloc5,tr13,1975,11850).
route(prodloc19,prodloc6,tr0,5896,153296).
route(prodloc19,prodloc6,tr13,5896,35376).
route(prodloc19,prodloc7,tr0,2100,54600).
route(prodloc19,prodloc7,tr13,2100,12600).
route(prodloc19,prodloc8,tr0,18221,473746).
route(prodloc19,prodloc8,tr13,18221,109326).
route(prodloc19,prodloc9,tr13,25455,152730).
route(prodloc19,prodloc9,tr15,25455,814560).
route(prodloc19,prodloc10,tr0,21136,549536).
route(prodloc19,prodloc10,tr13,21136,126816).
route(prodloc19,prodloc11,tr0,11786,306436).
route(prodloc19,prodloc11,tr13,11786,70716).
route(prodloc19,prodloc12,tr0,10514,273364).
route(prodloc19,prodloc12,tr13,10514,63084).
route(prodloc19,prodloc13,tr0,21571,560846).
route(prodloc19,prodloc13,tr13,21571,129426).
route(prodloc19,prodloc14,tr0,15845,411970).
route(prodloc19,prodloc14,tr13,15845,95070).
route(prodloc19,prodloc15,tr0,25659,667134).
route(prodloc19,prodloc15,tr13,25659,153954).
route(prodloc19,prodloc16,tr0,1049,27274).
route(prodloc19,prodloc16,tr13,1049,6294).
route(prodloc19,prodloc17,tr0,16934,440284).
route(prodloc19,prodloc17,tr13,16934,101604).
route(prodloc19,prodloc18,tr0,9552,248352).
route(prodloc19,prodloc18,tr13,9552,57312).
route(prodloc19,prodloc20,tr0,16570,430820).
route(prodloc19,prodloc20,tr13,16570,99420).
route(prodloc19,prodloc21,tr0,27103,704678).
route(prodloc19,prodloc21,tr13,27103,162618).
route(prodloc19,prodloc22,tr0,27703,720278).
route(prodloc19,prodloc22,tr13,27703,166218).
route(prodloc19,prodloc23,tr0,20801,540826).
route(prodloc19,prodloc23,tr13,20801,124806).
route(prodloc19,prodloc24,tr0,22423,582998).
route(prodloc19,prodloc24,tr13,22423,134538).
route(prodloc19,prodloc25,tr0,17058,443508).
route(prodloc19,prodloc25,tr13,17058,102348).
route(prodloc19,prodloc26,tr0,24393,634218).
route(prodloc19,prodloc26,tr13,24393,146358).
route(prodloc19,prodloc27,tr0,17424,453024).
route(prodloc19,prodloc27,tr13,17424,104544).
route(prodloc19,prodloc28,tr0,5701,148226).
route(prodloc19,prodloc28,tr13,5701,34206).
route(prodloc19,prodloc29,tr0,19462,506012).
route(prodloc19,prodloc29,tr13,19462,116772).
route(prodloc19,prodloc30,tr0,25549,664274).
route(prodloc19,prodloc30,tr13,25549,153294).
route(prodloc19,prodloc31,tr0,25273,657098).
route(prodloc19,prodloc31,tr13,25273,151638).
route(prodloc19,prodloc32,tr0,5414,140764).
route(prodloc19,prodloc32,tr13,5414,32484).
route(prodloc19,prodloc33,tr0,3675,95550).
route(prodloc19,prodloc33,tr13,3675,22050).
route(prodloc20,harbor0,tr0,19927,518102).
route(prodloc20,harbor0,tr13,19927,119562).
route(prodloc20,harbor1,tr0,14274,371124).
route(prodloc20,harbor1,tr13,14274,85644).
route(prodloc20,harbor2,tr0,7713,200538).
route(prodloc20,harbor2,tr13,7713,46278).
route(prodloc20,harbor3,tr0,21905,569530).
route(prodloc20,harbor3,tr13,21905,131430).
route(prodloc20,harbor4,tr0,14434,375284).
route(prodloc20,harbor4,tr13,14434,86604).
route(prodloc20,harbor5,tr0,17953,466778).
route(prodloc20,harbor5,tr13,17953,107718).
route(prodloc20,harbor6,tr0,25332,658632).
route(prodloc20,harbor6,tr13,25332,151992).
route(prodloc20,harbor7,tr0,8396,218296).
route(prodloc20,harbor7,tr13,8396,50376).
route(prodloc20,harbor8,tr0,25776,670176).
route(prodloc20,harbor8,tr13,25776,154656).
route(prodloc20,harbor9,tr0,23467,610142).
route(prodloc20,harbor9,tr13,23467,140802).
route(prodloc20,harbor10,tr0,25925,674050).
route(prodloc20,harbor10,tr13,25925,155550).
route(prodloc20,harbor11,tr0,23646,614796).
route(prodloc20,harbor11,tr13,23646,141876).
route(prodloc20,harbor12,tr0,7733,201058).
route(prodloc20,harbor12,tr13,7733,46398).
route(prodloc20,harbor13,tr0,8511,221286).
route(prodloc20,harbor13,tr13,8511,51066).
route(prodloc20,harbor14,tr0,16029,416754).
route(prodloc20,harbor14,tr13,16029,96174).
route(prodloc20,harbor15,tr0,17833,463658).
route(prodloc20,harbor15,tr13,17833,106998).
route(prodloc20,harbor16,tr0,7251,188526).
route(prodloc20,harbor16,tr13,7251,43506).
route(prodloc20,prodloc0,tr0,27941,726466).
route(prodloc20,prodloc0,tr13,27941,167646).
route(prodloc20,prodloc1,tr0,19010,494260).
route(prodloc20,prodloc1,tr13,19010,114060).
route(prodloc20,prodloc2,tr0,19770,514020).
route(prodloc20,prodloc2,tr13,19770,118620).
route(prodloc20,prodloc3,tr0,16351,425126).
route(prodloc20,prodloc3,tr13,16351,98106).
route(prodloc20,prodloc4,tr0,8565,222690).
route(prodloc20,prodloc4,tr13,8565,51390).
route(prodloc20,prodloc5,tr0,1159,30134).
route(prodloc20,prodloc5,tr13,1159,6954).
route(prodloc20,prodloc6,tr0,6637,172562).
route(prodloc20,prodloc6,tr13,6637,39822).
route(prodloc20,prodloc7,tr0,19558,508508).
route(prodloc20,prodloc7,tr13,19558,117348).
route(prodloc20,prodloc8,tr0,23421,608946).
route(prodloc20,prodloc8,tr13,23421,140526).
route(prodloc20,prodloc9,tr0,1722,44772).
route(prodloc20,prodloc9,tr13,1722,10332).
route(prodloc20,prodloc10,tr0,18766,487916).
route(prodloc20,prodloc10,tr13,18766,112596).
route(prodloc20,prodloc11,tr0,14694,382044).
route(prodloc20,prodloc11,tr13,14694,88164).
route(prodloc20,prodloc12,tr0,28604,743704).
route(prodloc20,prodloc12,tr13,28604,171624).
route(prodloc20,prodloc13,tr0,28859,750334).
route(prodloc20,prodloc13,tr13,28859,173154).
route(prodloc20,prodloc14,tr0,5901,153426).
route(prodloc20,prodloc14,tr13,5901,35406).
route(prodloc20,prodloc15,tr0,10653,276978).
route(prodloc20,prodloc15,tr13,10653,63918).
route(prodloc20,prodloc16,tr0,4976,129376).
route(prodloc20,prodloc16,tr13,4976,29856).
route(prodloc20,prodloc17,tr0,19934,518284).
route(prodloc20,prodloc17,tr13,19934,119604).
route(prodloc20,prodloc18,tr0,584,15184).
route(prodloc20,prodloc18,tr13,584,3504).
route(prodloc20,prodloc19,tr0,19943,518518).
route(prodloc20,prodloc19,tr13,19943,119658).
route(prodloc20,prodloc21,tr0,16258,422708).
route(prodloc20,prodloc21,tr13,16258,97548).
route(prodloc20,prodloc22,tr0,26418,686868).
route(prodloc20,prodloc22,tr13,26418,158508).
route(prodloc20,prodloc23,tr0,14244,370344).
route(prodloc20,prodloc23,tr13,14244,85464).
route(prodloc20,prodloc24,tr0,16507,429182).
route(prodloc20,prodloc24,tr13,16507,99042).
route(prodloc20,prodloc25,tr0,14474,376324).
route(prodloc20,prodloc25,tr13,14474,86844).
route(prodloc20,prodloc26,tr0,23697,616122).
route(prodloc20,prodloc26,tr13,23697,142182).
route(prodloc20,prodloc27,tr0,8618,224068).
route(prodloc20,prodloc27,tr13,8618,51708).
route(prodloc20,prodloc28,tr0,28073,729898).
route(prodloc20,prodloc28,tr13,28073,168438).
route(prodloc20,prodloc29,tr0,26167,680342).
route(prodloc20,prodloc29,tr13,26167,157002).
route(prodloc20,prodloc30,tr0,1015,26390).
route(prodloc20,prodloc30,tr13,1015,6090).
route(prodloc20,prodloc31,tr0,2378,61828).
route(prodloc20,prodloc31,tr13,2378,14268).
route(prodloc20,prodloc32,tr0,3747,97422).
route(prodloc20,prodloc32,tr13,3747,22482).
route(prodloc20,prodloc33,tr0,5841,151866).
route(prodloc20,prodloc33,tr13,5841,35046).
route(prodloc21,harbor0,tr0,18643,484718).
route(prodloc21,harbor0,tr13,18643,111858).
route(prodloc21,harbor1,tr0,20969,545194).
route(prodloc21,harbor1,tr13,20969,125814).
route(prodloc21,harbor2,tr0,17802,462852).
route(prodloc21,harbor2,tr13,17802,106812).
route(prodloc21,harbor3,tr0,18990,493740).
route(prodloc21,harbor3,tr13,18990,113940).
route(prodloc21,harbor4,tr0,25941,674466).
route(prodloc21,harbor4,tr13,25941,155646).
route(prodloc21,harbor5,tr0,23667,615342).
route(prodloc21,harbor5,tr13,23667,142002).
route(prodloc21,harbor6,tr0,7799,202774).
route(prodloc21,harbor6,tr13,7799,46794).
route(prodloc21,harbor7,tr0,20423,530998).
route(prodloc21,harbor7,tr13,20423,122538).
route(prodloc21,harbor8,tr0,4793,124618).
route(prodloc21,harbor8,tr13,4793,28758).
route(prodloc21,harbor9,tr0,1770,46020).
route(prodloc21,harbor9,tr13,1770,10620).
route(prodloc21,harbor10,tr0,10193,265018).
route(prodloc21,harbor10,tr13,10193,61158).
route(prodloc21,harbor11,tr0,13940,362440).
route(prodloc21,harbor11,tr13,13940,83640).
route(prodloc21,harbor12,tr0,1388,36088).
route(prodloc21,harbor12,tr13,1388,8328).
route(prodloc21,harbor13,tr0,22796,592696).
route(prodloc21,harbor13,tr13,22796,136776).
route(prodloc21,harbor14,tr0,10302,267852).
route(prodloc21,harbor14,tr13,10302,61812).
route(prodloc21,harbor15,tr0,26860,698360).
route(prodloc21,harbor15,tr13,26860,161160).
route(prodloc21,harbor16,tr0,20357,529282).
route(prodloc21,harbor16,tr13,20357,122142).
route(prodloc21,prodloc0,tr0,24200,629200).
route(prodloc21,prodloc0,tr13,24200,145200).
route(prodloc21,prodloc1,tr0,17220,447720).
route(prodloc21,prodloc1,tr13,17220,103320).
route(prodloc21,prodloc2,tr0,25584,665184).
route(prodloc21,prodloc2,tr13,25584,153504).
route(prodloc21,prodloc3,tr0,8676,225576).
route(prodloc21,prodloc3,tr13,8676,52056).
route(prodloc21,prodloc4,tr0,25079,652054).
route(prodloc21,prodloc4,tr13,25079,150474).
route(prodloc21,prodloc5,tr0,19292,501592).
route(prodloc21,prodloc5,tr15,19292,617344).
route(prodloc21,prodloc6,tr0,16331,424606).
route(prodloc21,prodloc6,tr13,16331,97986).
route(prodloc21,prodloc7,tr0,2901,75426).
route(prodloc21,prodloc7,tr13,2901,17406).
route(prodloc21,prodloc8,tr0,21303,553878).
route(prodloc21,prodloc8,tr13,21303,127818).
route(prodloc21,prodloc9,tr0,26890,699140).
route(prodloc21,prodloc9,tr13,26890,161340).
route(prodloc21,prodloc10,tr0,16731,435006).
route(prodloc21,prodloc10,tr13,16731,100386).
route(prodloc21,prodloc11,tr0,5624,146224).
route(prodloc21,prodloc11,tr13,5624,33744).
route(prodloc21,prodloc12,tr0,12416,322816).
route(prodloc21,prodloc12,tr13,12416,74496).
route(prodloc21,prodloc13,tr0,8352,217152).
route(prodloc21,prodloc13,tr13,8352,50112).
route(prodloc21,prodloc14,tr0,8133,211458).
route(prodloc21,prodloc14,tr13,8133,48798).
route(prodloc21,prodloc15,tr0,5238,136188).
route(prodloc21,prodloc15,tr13,5238,31428).
route(prodloc21,prodloc16,tr0,16283,423358).
route(prodloc21,prodloc16,tr13,16283,97698).
route(prodloc21,prodloc17,tr0,22633,588458).
route(prodloc21,prodloc17,tr13,22633,135798).
route(prodloc21,prodloc18,tr0,21596,561496).
route(prodloc21,prodloc18,tr13,21596,129576).
route(prodloc21,prodloc19,tr0,27229,707954).
route(prodloc21,prodloc19,tr13,27229,163374).
route(prodloc21,prodloc20,tr0,19527,507702).
route(prodloc21,prodloc20,tr13,19527,117162).
route(prodloc21,prodloc22,tr0,25780,670280).
route(prodloc21,prodloc22,tr13,25780,154680).
route(prodloc21,prodloc23,tr0,14896,387296).
route(prodloc21,prodloc23,tr13,14896,89376).
route(prodloc21,prodloc24,tr0,2005,52130).
route(prodloc21,prodloc24,tr13,2005,12030).
route(prodloc21,prodloc25,tr0,10350,269100).
route(prodloc21,prodloc25,tr13,10350,62100).
route(prodloc21,prodloc26,tr0,13457,349882).
route(prodloc21,prodloc26,tr15,13457,430624).
route(prodloc21,prodloc27,tr0,15299,397774).
route(prodloc21,prodloc27,tr13,15299,91794).
route(prodloc21,prodloc28,tr0,11943,310518).
route(prodloc21,prodloc28,tr13,11943,71658).
route(prodloc21,prodloc29,tr0,22895,595270).
route(prodloc21,prodloc29,tr13,22895,137370).
route(prodloc21,prodloc30,tr0,7091,184366).
route(prodloc21,prodloc30,tr13,7091,42546).
route(prodloc21,prodloc31,tr0,23062,599612).
route(prodloc21,prodloc31,tr13,23062,138372).
route(prodloc21,prodloc32,tr0,1382,35932).
route(prodloc21,prodloc32,tr13,1382,8292).
route(prodloc21,prodloc33,tr0,4209,109434).
route(prodloc21,prodloc33,tr13,4209,25254).
route(prodloc22,harbor0,tr0,16043,417118).
route(prodloc22,harbor0,tr13,16043,96258).
route(prodloc22,harbor1,tr0,24755,643630).
route(prodloc22,harbor1,tr13,24755,148530).
route(prodloc22,harbor2,tr0,24947,648622).
route(prodloc22,harbor2,tr13,24947,149682).
route(prodloc22,harbor3,tr0,19687,511862).
route(prodloc22,harbor3,tr13,19687,118122).
route(prodloc22,harbor4,tr0,4410,114660).
route(prodloc22,harbor4,tr13,4410,26460).
route(prodloc22,harbor5,tr0,4739,123214).
route(prodloc22,harbor5,tr13,4739,28434).
route(prodloc22,harbor6,tr0,24401,634426).
route(prodloc22,harbor6,tr13,24401,146406).
route(prodloc22,harbor7,tr0,14921,387946).
route(prodloc22,harbor7,tr13,14921,89526).
route(prodloc22,harbor8,tr0,17096,444496).
route(prodloc22,harbor8,tr13,17096,102576).
route(prodloc22,harbor9,tr0,24412,634712).
route(prodloc22,harbor9,tr13,24412,146472).
route(prodloc22,harbor10,tr0,1287,33462).
route(prodloc22,harbor10,tr13,1287,7722).
route(prodloc22,harbor11,tr0,111,2886).
route(prodloc22,harbor11,tr13,111,666).
route(prodloc22,harbor12,tr0,7886,205036).
route(prodloc22,harbor12,tr13,7886,47316).
route(prodloc22,harbor13,tr0,13432,349232).
route(prodloc22,harbor13,tr13,13432,80592).
route(prodloc22,harbor14,tr0,17224,447824).
route(prodloc22,harbor14,tr13,17224,103344).
route(prodloc22,harbor15,tr0,4640,120640).
route(prodloc22,harbor15,tr13,4640,27840).
route(prodloc22,harbor16,tr0,2997,77922).
route(prodloc22,harbor16,tr13,2997,17982).
route(prodloc22,prodloc0,tr0,12877,334802).
route(prodloc22,prodloc0,tr13,12877,77262).
route(prodloc22,prodloc1,tr0,18223,473798).
route(prodloc22,prodloc1,tr13,18223,109338).
route(prodloc22,prodloc2,tr0,9769,253994).
route(prodloc22,prodloc2,tr13,9769,58614).
route(prodloc22,prodloc3,tr0,15464,402064).
route(prodloc22,prodloc3,tr13,15464,92784).
route(prodloc22,prodloc4,tr0,13910,361660).
route(prodloc22,prodloc4,tr13,13910,83460).
route(prodloc22,prodloc5,tr0,2508,65208).
route(prodloc22,prodloc5,tr13,2508,15048).
route(prodloc22,prodloc6,tr0,1124,29224).
route(prodloc22,prodloc6,tr13,1124,6744).
route(prodloc22,prodloc7,tr0,22279,579254).
route(prodloc22,prodloc7,tr13,22279,133674).
route(prodloc22,prodloc8,tr0,23497,610922).
route(prodloc22,prodloc8,tr13,23497,140982).
route(prodloc22,prodloc9,tr0,25013,650338).
route(prodloc22,prodloc9,tr13,25013,150078).
route(prodloc22,prodloc10,tr0,24055,625430).
route(prodloc22,prodloc10,tr13,24055,144330).
route(prodloc22,prodloc11,tr0,20070,521820).
route(prodloc22,prodloc11,tr13,20070,120420).
route(prodloc22,prodloc12,tr0,7534,195884).
route(prodloc22,prodloc12,tr13,7534,45204).
route(prodloc22,prodloc13,tr0,9691,251966).
route(prodloc22,prodloc13,tr13,9691,58146).
route(prodloc22,prodloc14,tr0,8299,215774).
route(prodloc22,prodloc14,tr13,8299,49794).
route(prodloc22,prodloc15,tr0,3896,101296).
route(prodloc22,prodloc15,tr13,3896,23376).
route(prodloc22,prodloc16,tr0,18086,470236).
route(prodloc22,prodloc16,tr13,18086,108516).
route(prodloc22,prodloc17,tr0,28030,728780).
route(prodloc22,prodloc17,tr13,28030,168180).
route(prodloc22,prodloc18,tr0,7921,205946).
route(prodloc22,prodloc18,tr13,7921,47526).
route(prodloc22,prodloc19,tr0,13710,356460).
route(prodloc22,prodloc19,tr13,13710,82260).
route(prodloc22,prodloc20,tr0,15126,393276).
route(prodloc22,prodloc20,tr13,15126,90756).
route(prodloc22,prodloc21,tr0,2820,73320).
route(prodloc22,prodloc21,tr13,2820,16920).
route(prodloc22,prodloc23,tr0,7448,193648).
route(prodloc22,prodloc23,tr13,7448,44688).
route(prodloc22,prodloc24,tr0,11929,310154).
route(prodloc22,prodloc24,tr13,11929,71574).
route(prodloc22,prodloc25,tr0,10120,263120).
route(prodloc22,prodloc25,tr13,10120,60720).
route(prodloc22,prodloc26,tr0,11046,287196).
route(prodloc22,prodloc26,tr13,11046,66276).
route(prodloc22,prodloc27,tr0,20019,520494).
route(prodloc22,prodloc27,tr13,20019,120114).
route(prodloc22,prodloc28,tr0,7156,186056).
route(prodloc22,prodloc28,tr13,7156,42936).
route(prodloc22,prodloc29,tr0,1302,33852).
route(prodloc22,prodloc29,tr13,1302,7812).
route(prodloc22,prodloc30,tr0,5258,136708).
route(prodloc22,prodloc30,tr13,5258,31548).
route(prodloc22,prodloc31,tr0,13209,343434).
route(prodloc22,prodloc31,tr13,13209,79254).
route(prodloc22,prodloc32,tr0,19178,498628).
route(prodloc22,prodloc32,tr13,19178,115068).
route(prodloc22,prodloc33,tr0,21294,553644).
route(prodloc22,prodloc33,tr13,21294,127764).
route(prodloc23,harbor0,tr0,1919,49894).
route(prodloc23,harbor0,tr13,1919,11514).
route(prodloc23,harbor1,tr0,24166,628316).
route(prodloc23,harbor1,tr13,24166,144996).
route(prodloc23,harbor2,tr0,11248,292448).
route(prodloc23,harbor2,tr13,11248,67488).
route(prodloc23,harbor3,tr0,18594,483444).
route(prodloc23,harbor3,tr13,18594,111564).
route(prodloc23,harbor4,tr0,22765,591890).
route(prodloc23,harbor4,tr13,22765,136590).
route(prodloc23,harbor5,tr0,28327,736502).
route(prodloc23,harbor5,tr13,28327,169962).
route(prodloc23,harbor6,tr0,19356,503256).
route(prodloc23,harbor6,tr13,19356,116136).
route(prodloc23,harbor7,tr0,5811,151086).
route(prodloc23,harbor7,tr13,5811,34866).
route(prodloc23,harbor8,tr0,15160,394160).
route(prodloc23,harbor8,tr13,15160,90960).
route(prodloc23,harbor9,tr0,28181,732706).
route(prodloc23,harbor9,tr13,28181,169086).
route(prodloc23,harbor10,tr0,12877,334802).
route(prodloc23,harbor10,tr13,12877,77262).
route(prodloc23,harbor11,tr0,27626,718276).
route(prodloc23,harbor11,tr13,27626,165756).
route(prodloc23,harbor12,tr0,6992,181792).
route(prodloc23,harbor12,tr13,6992,41952).
route(prodloc23,harbor13,tr0,12490,324740).
route(prodloc23,harbor13,tr13,12490,74940).
route(prodloc23,harbor14,tr0,12412,322712).
route(prodloc23,harbor14,tr13,12412,74472).
route(prodloc23,harbor15,tr0,25605,665730).
route(prodloc23,harbor15,tr13,25605,153630).
route(prodloc23,harbor16,tr0,1615,41990).
route(prodloc23,harbor16,tr13,1615,9690).
route(prodloc23,prodloc0,tr0,7059,183534).
route(prodloc23,prodloc0,tr13,7059,42354).
route(prodloc23,prodloc1,tr0,13714,356564).
route(prodloc23,prodloc1,tr13,13714,82284).
route(prodloc23,prodloc2,tr0,11385,296010).
route(prodloc23,prodloc2,tr13,11385,68310).
route(prodloc23,prodloc3,tr0,8078,210028).
route(prodloc23,prodloc3,tr13,8078,48468).
route(prodloc23,prodloc4,tr0,6018,156468).
route(prodloc23,prodloc4,tr13,6018,36108).
route(prodloc23,prodloc5,tr0,25996,675896).
route(prodloc23,prodloc5,tr13,25996,155976).
route(prodloc23,prodloc6,tr0,18009,468234).
route(prodloc23,prodloc6,tr13,18009,108054).
route(prodloc23,prodloc7,tr0,26352,685152).
route(prodloc23,prodloc7,tr13,26352,158112).
route(prodloc23,prodloc8,tr0,5371,139646).
route(prodloc23,prodloc8,tr13,5371,32226).
route(prodloc23,prodloc9,tr0,15736,409136).
route(prodloc23,prodloc9,tr13,15736,94416).
route(prodloc23,prodloc10,tr0,6675,173550).
route(prodloc23,prodloc10,tr13,6675,40050).
route(prodloc23,prodloc11,tr0,13116,341016).
route(prodloc23,prodloc11,tr13,13116,78696).
route(prodloc23,prodloc12,tr0,7029,182754).
route(prodloc23,prodloc12,tr13,7029,42174).
route(prodloc23,prodloc13,tr0,19462,506012).
route(prodloc23,prodloc13,tr13,19462,116772).
route(prodloc23,prodloc14,tr0,15327,398502).
route(prodloc23,prodloc14,tr13,15327,91962).
route(prodloc23,prodloc15,tr0,24892,647192).
route(prodloc23,prodloc15,tr13,24892,149352).
route(prodloc23,prodloc16,tr0,10112,262912).
route(prodloc23,prodloc16,tr13,10112,60672).
route(prodloc23,prodloc17,tr0,15487,402662).
route(prodloc23,prodloc17,tr13,15487,92922).
route(prodloc23,prodloc18,tr0,14652,380952).
route(prodloc23,prodloc18,tr13,14652,87912).
route(prodloc23,prodloc19,tr0,16065,417690).
route(prodloc23,prodloc19,tr13,16065,96390).
route(prodloc23,prodloc20,tr0,20536,533936).
route(prodloc23,prodloc20,tr13,20536,123216).
route(prodloc23,prodloc21,tr0,22257,578682).
route(prodloc23,prodloc21,tr13,22257,133542).
route(prodloc23,prodloc22,tr0,5952,154752).
route(prodloc23,prodloc22,tr13,5952,35712).
route(prodloc23,prodloc24,tr0,28271,735046).
route(prodloc23,prodloc24,tr13,28271,169626).
route(prodloc23,prodloc25,tr0,15963,415038).
route(prodloc23,prodloc25,tr13,15963,95778).
route(prodloc23,prodloc26,tr0,6705,174330).
route(prodloc23,prodloc26,tr13,6705,40230).
route(prodloc23,prodloc27,tr0,17707,460382).
route(prodloc23,prodloc27,tr13,17707,106242).
route(prodloc23,prodloc28,tr0,12550,326300).
route(prodloc23,prodloc28,tr13,12550,75300).
route(prodloc23,prodloc29,tr0,13737,357162).
route(prodloc23,prodloc29,tr13,13737,82422).
route(prodloc23,prodloc30,tr0,2386,62036).
route(prodloc23,prodloc30,tr13,2386,14316).
route(prodloc23,prodloc31,tr0,1547,40222).
route(prodloc23,prodloc31,tr13,1547,9282).
route(prodloc23,prodloc32,tr0,22656,589056).
route(prodloc23,prodloc32,tr13,22656,135936).
route(prodloc23,prodloc33,tr0,9062,235612).
route(prodloc23,prodloc33,tr13,9062,54372).
route(prodloc24,harbor0,tr0,11890,309140).
route(prodloc24,harbor0,tr13,11890,71340).
route(prodloc24,harbor1,tr0,8997,233922).
route(prodloc24,harbor1,tr13,8997,53982).
route(prodloc24,harbor2,tr0,20349,529074).
route(prodloc24,harbor2,tr13,20349,122094).
route(prodloc24,harbor3,tr0,610,15860).
route(prodloc24,harbor3,tr13,610,3660).
route(prodloc24,harbor4,tr0,17005,442130).
route(prodloc24,harbor4,tr13,17005,102030).
route(prodloc24,harbor5,tr0,5967,155142).
route(prodloc24,harbor5,tr13,5967,35802).
route(prodloc24,harbor6,tr0,24303,631878).
route(prodloc24,harbor6,tr13,24303,145818).
route(prodloc24,harbor7,tr0,8598,223548).
route(prodloc24,harbor7,tr13,8598,51588).
route(prodloc24,harbor8,tr0,16783,436358).
route(prodloc24,harbor8,tr13,16783,100698).
route(prodloc24,harbor9,tr0,12878,334828).
route(prodloc24,harbor9,tr13,12878,77268).
route(prodloc24,harbor10,tr0,18593,483418).
route(prodloc24,harbor10,tr13,18593,111558).
route(prodloc24,harbor11,tr0,21283,553358).
route(prodloc24,harbor11,tr13,21283,127698).
route(prodloc24,harbor12,tr0,23437,609362).
route(prodloc24,harbor12,tr13,23437,140622).
route(prodloc24,harbor13,tr0,7130,185380).
route(prodloc24,harbor13,tr13,7130,42780).
route(prodloc24,harbor14,tr0,8804,228904).
route(prodloc24,harbor14,tr13,8804,52824).
route(prodloc24,harbor15,tr0,3390,88140).
route(prodloc24,harbor15,tr13,3390,20340).
route(prodloc24,harbor16,tr0,11834,307684).
route(prodloc24,harbor16,tr13,11834,71004).
route(prodloc24,prodloc0,tr0,1877,48802).
route(prodloc24,prodloc0,tr13,1877,11262).
route(prodloc24,prodloc1,tr0,5032,130832).
route(prodloc24,prodloc1,tr13,5032,30192).
route(prodloc24,prodloc2,tr0,23859,620334).
route(prodloc24,prodloc2,tr13,23859,143154).
route(prodloc24,prodloc3,tr0,25458,661908).
route(prodloc24,prodloc3,tr13,25458,152748).
route(prodloc24,prodloc4,tr13,11789,70734).
route(prodloc24,prodloc4,tr15,11789,377248).
route(prodloc24,prodloc5,tr0,4494,116844).
route(prodloc24,prodloc5,tr13,4494,26964).
route(prodloc24,prodloc6,tr0,25092,652392).
route(prodloc24,prodloc6,tr13,25092,150552).
route(prodloc24,prodloc7,tr0,7895,205270).
route(prodloc24,prodloc7,tr13,7895,47370).
route(prodloc24,prodloc8,tr0,23708,616408).
route(prodloc24,prodloc8,tr13,23708,142248).
route(prodloc24,prodloc9,tr0,27505,715130).
route(prodloc24,prodloc9,tr13,27505,165030).
route(prodloc24,prodloc10,tr0,3909,101634).
route(prodloc24,prodloc10,tr13,3909,23454).
route(prodloc24,prodloc11,tr0,670,17420).
route(prodloc24,prodloc11,tr13,670,4020).
route(prodloc24,prodloc12,tr0,10556,274456).
route(prodloc24,prodloc12,tr13,10556,63336).
route(prodloc24,prodloc13,tr0,27488,714688).
route(prodloc24,prodloc13,tr13,27488,164928).
route(prodloc24,prodloc14,tr0,12598,327548).
route(prodloc24,prodloc14,tr13,12598,75588).
route(prodloc24,prodloc15,tr0,14745,383370).
route(prodloc24,prodloc15,tr13,14745,88470).
route(prodloc24,prodloc16,tr0,2727,70902).
route(prodloc24,prodloc16,tr13,2727,16362).
route(prodloc24,prodloc17,tr0,28003,728078).
route(prodloc24,prodloc17,tr13,28003,168018).
route(prodloc24,prodloc18,tr0,28916,751816).
route(prodloc24,prodloc18,tr13,28916,173496).
route(prodloc24,prodloc19,tr0,12498,324948).
route(prodloc24,prodloc19,tr13,12498,74988).
route(prodloc24,prodloc20,tr0,10659,277134).
route(prodloc24,prodloc20,tr13,10659,63954).
route(prodloc24,prodloc21,tr0,8399,218374).
route(prodloc24,prodloc21,tr13,8399,50394).
route(prodloc24,prodloc22,tr0,25256,656656).
route(prodloc24,prodloc22,tr13,25256,151536).
route(prodloc24,prodloc23,tr0,28794,748644).
route(prodloc24,prodloc23,tr13,28794,172764).
route(prodloc24,prodloc27,tr0,1801,46826).
route(prodloc24,prodloc27,tr13,1801,10806).
route(prodloc24,prodloc28,tr0,9905,257530).
route(prodloc24,prodloc28,tr13,9905,59430).
route(prodloc24,prodloc29,tr0,12911,335686).
route(prodloc24,prodloc29,tr13,12911,77466).
route(prodloc24,prodloc30,tr0,19922,517972).
route(prodloc24,prodloc30,tr13,19922,119532).
route(prodloc24,prodloc31,tr0,7810,203060).
route(prodloc24,prodloc31,tr13,7810,46860).
route(prodloc24,prodloc32,tr0,16006,416156).
route(prodloc24,prodloc32,tr13,16006,96036).
route(prodloc24,prodloc33,tr0,1339,34814).
route(prodloc24,prodloc33,tr13,1339,8034).
route(prodloc25,harbor0,tr0,6153,159978).
route(prodloc25,harbor0,tr13,6153,36918).
route(prodloc25,harbor1,tr0,4945,128570).
route(prodloc25,harbor1,tr13,4945,29670).
route(prodloc25,harbor2,tr0,16841,437866).
route(prodloc25,harbor2,tr13,16841,101046).
route(prodloc25,harbor3,tr0,19511,507286).
route(prodloc25,harbor3,tr13,19511,117066).
route(prodloc25,harbor4,tr0,4184,108784).
route(prodloc25,harbor4,tr13,4184,25104).
route(prodloc25,harbor5,tr0,1043,27118).
route(prodloc25,harbor5,tr13,1043,6258).
route(prodloc25,harbor6,tr0,6834,177684).
route(prodloc25,harbor6,tr13,6834,41004).
route(prodloc25,harbor7,tr0,10234,266084).
route(prodloc25,harbor7,tr13,10234,61404).
route(prodloc25,harbor8,tr0,13459,349934).
route(prodloc25,harbor8,tr13,13459,80754).
route(prodloc25,harbor9,tr0,13897,361322).
route(prodloc25,harbor9,tr13,13897,83382).
route(prodloc25,harbor10,tr0,15685,407810).
route(prodloc25,harbor10,tr13,15685,94110).
route(prodloc25,harbor11,tr0,17827,463502).
route(prodloc25,harbor11,tr13,17827,106962).
route(prodloc25,harbor12,tr0,22743,591318).
route(prodloc25,harbor12,tr13,22743,136458).
route(prodloc25,harbor13,tr0,4458,115908).
route(prodloc25,harbor13,tr13,4458,26748).
route(prodloc25,harbor14,tr0,16941,440466).
route(prodloc25,harbor14,tr13,16941,101646).
route(prodloc25,harbor15,tr0,23156,602056).
route(prodloc25,harbor15,tr13,23156,138936).
route(prodloc25,harbor16,tr0,17963,467038).
route(prodloc25,harbor16,tr13,17963,107778).
route(prodloc25,prodloc0,tr0,8534,221884).
route(prodloc25,prodloc0,tr15,8534,273088).
route(prodloc25,prodloc1,tr0,10286,267436).
route(prodloc25,prodloc1,tr13,10286,61716).
route(prodloc25,prodloc2,tr0,23774,618124).
route(prodloc25,prodloc2,tr13,23774,142644).
route(prodloc25,prodloc3,tr0,14803,384878).
route(prodloc25,prodloc3,tr13,14803,88818).
route(prodloc25,prodloc4,tr0,21831,567606).
route(prodloc25,prodloc4,tr13,21831,130986).
route(prodloc25,prodloc5,tr0,12355,321230).
route(prodloc25,prodloc5,tr13,12355,74130).
route(prodloc25,prodloc6,tr0,4825,125450).
route(prodloc25,prodloc6,tr13,4825,28950).
route(prodloc25,prodloc7,tr0,28841,749866).
route(prodloc25,prodloc7,tr13,28841,173046).
route(prodloc25,prodloc8,tr0,6713,174538).
route(prodloc25,prodloc8,tr13,6713,40278).
route(prodloc25,prodloc9,tr0,27350,711100).
route(prodloc25,prodloc9,tr13,27350,164100).
route(prodloc25,prodloc10,tr0,9188,238888).
route(prodloc25,prodloc10,tr13,9188,55128).
route(prodloc25,prodloc11,tr0,17532,455832).
route(prodloc25,prodloc11,tr13,17532,105192).
route(prodloc25,prodloc12,tr0,23357,607282).
route(prodloc25,prodloc12,tr13,23357,140142).
route(prodloc25,prodloc13,tr0,14727,382902).
route(prodloc25,prodloc13,tr13,14727,88362).
route(prodloc25,prodloc14,tr0,13283,345358).
route(prodloc25,prodloc14,tr13,13283,79698).
route(prodloc25,prodloc15,tr0,4480,116480).
route(prodloc25,prodloc15,tr13,4480,26880).
route(prodloc25,prodloc16,tr0,12667,329342).
route(prodloc25,prodloc16,tr13,12667,76002).
route(prodloc25,prodloc17,tr0,16937,440362).
route(prodloc25,prodloc17,tr13,16937,101622).
route(prodloc25,prodloc18,tr0,28378,737828).
route(prodloc25,prodloc18,tr13,28378,170268).
route(prodloc25,prodloc19,tr0,11654,303004).
route(prodloc25,prodloc19,tr13,11654,69924).
route(prodloc25,prodloc20,tr0,7409,192634).
route(prodloc25,prodloc20,tr13,7409,44454).
route(prodloc25,prodloc21,tr0,3365,87490).
route(prodloc25,prodloc21,tr13,3365,20190).
route(prodloc25,prodloc22,tr0,9572,248872).
route(prodloc25,prodloc22,tr13,9572,57432).
route(prodloc25,prodloc23,tr0,12141,315666).
route(prodloc25,prodloc23,tr13,12141,72846).
route(prodloc25,prodloc24,tr0,11305,293930).
route(prodloc25,prodloc24,tr13,11305,67830).
route(prodloc25,prodloc26,tr0,20033,520858).
route(prodloc25,prodloc26,tr13,20033,120198).
route(prodloc25,prodloc27,tr0,7071,183846).
route(prodloc25,prodloc27,tr13,7071,42426).
route(prodloc25,prodloc28,tr0,4599,119574).
route(prodloc25,prodloc28,tr13,4599,27594).
route(prodloc25,prodloc29,tr0,1335,34710).
route(prodloc25,prodloc29,tr13,1335,8010).
route(prodloc25,prodloc30,tr0,27796,722696).
route(prodloc25,prodloc30,tr13,27796,166776).
route(prodloc25,prodloc31,tr0,805,20930).
route(prodloc25,prodloc31,tr13,805,4830).
route(prodloc25,prodloc32,tr0,24483,636558).
route(prodloc25,prodloc32,tr13,24483,146898).
route(prodloc25,prodloc33,tr0,20658,537108).
route(prodloc25,prodloc33,tr13,20658,123948).
route(prodloc26,harbor0,tr0,15823,411398).
route(prodloc26,harbor0,tr13,15823,94938).
route(prodloc26,harbor1,tr0,18546,482196).
route(prodloc26,harbor1,tr13,18546,111276).
route(prodloc26,harbor2,tr0,374,9724).
route(prodloc26,harbor2,tr13,374,2244).
route(prodloc26,harbor3,tr0,26503,689078).
route(prodloc26,harbor3,tr13,26503,159018).
route(prodloc26,harbor4,tr0,24959,648934).
route(prodloc26,harbor4,tr13,24959,149754).
route(prodloc26,harbor5,tr0,24350,633100).
route(prodloc26,harbor5,tr13,24350,146100).
route(prodloc26,harbor6,tr0,9769,253994).
route(prodloc26,harbor6,tr13,9769,58614).
route(prodloc26,harbor7,tr0,21642,562692).
route(prodloc26,harbor7,tr13,21642,129852).
route(prodloc26,harbor8,tr0,21972,571272).
route(prodloc26,harbor8,tr13,21972,131832).
route(prodloc26,harbor9,tr0,2194,57044).
route(prodloc26,harbor9,tr13,2194,13164).
route(prodloc26,harbor10,tr0,27951,726726).
route(prodloc26,harbor10,tr13,27951,167706).
route(prodloc26,harbor11,tr0,7086,184236).
route(prodloc26,harbor11,tr13,7086,42516).
route(prodloc26,harbor12,tr0,18290,475540).
route(prodloc26,harbor12,tr13,18290,109740).
route(prodloc26,harbor13,tr0,22586,587236).
route(prodloc26,harbor13,tr13,22586,135516).
route(prodloc26,harbor14,tr0,11581,301106).
route(prodloc26,harbor14,tr13,11581,69486).
route(prodloc26,harbor15,tr0,21844,567944).
route(prodloc26,harbor15,tr13,21844,131064).
route(prodloc26,harbor16,tr0,4003,104078).
route(prodloc26,harbor16,tr13,4003,24018).
route(prodloc26,prodloc0,tr0,25388,660088).
route(prodloc26,prodloc0,tr13,25388,152328).
route(prodloc26,prodloc1,tr0,28456,739856).
route(prodloc26,prodloc1,tr13,28456,170736).
route(prodloc26,prodloc2,tr0,12263,318838).
route(prodloc26,prodloc2,tr13,12263,73578).
route(prodloc26,prodloc3,tr0,7689,199914).
route(prodloc26,prodloc3,tr13,7689,46134).
route(prodloc26,prodloc4,tr0,25669,667394).
route(prodloc26,prodloc4,tr13,25669,154014).
route(prodloc26,prodloc5,tr0,20728,538928).
route(prodloc26,prodloc5,tr13,20728,124368).
route(prodloc26,prodloc6,tr0,8508,221208).
route(prodloc26,prodloc6,tr13,8508,51048).
route(prodloc26,prodloc7,tr0,2947,76622).
route(prodloc26,prodloc7,tr13,2947,17682).
route(prodloc26,prodloc8,tr0,26201,681226).
route(prodloc26,prodloc8,tr13,26201,157206).
route(prodloc26,prodloc9,tr0,14017,364442).
route(prodloc26,prodloc9,tr13,14017,84102).
route(prodloc26,prodloc10,tr0,3927,102102).
route(prodloc26,prodloc10,tr13,3927,23562).
route(prodloc26,prodloc11,tr0,12861,334386).
route(prodloc26,prodloc11,tr13,12861,77166).
route(prodloc26,prodloc12,tr0,16153,419978).
route(prodloc26,prodloc12,tr13,16153,96918).
route(prodloc26,prodloc13,tr0,1971,51246).
route(prodloc26,prodloc13,tr13,1971,11826).
route(prodloc26,prodloc14,tr0,16055,417430).
route(prodloc26,prodloc14,tr13,16055,96330).
route(prodloc26,prodloc15,tr0,12563,326638).
route(prodloc26,prodloc15,tr13,12563,75378).
route(prodloc26,prodloc16,tr0,10755,279630).
route(prodloc26,prodloc16,tr13,10755,64530).
route(prodloc26,prodloc17,tr0,9326,242476).
route(prodloc26,prodloc17,tr13,9326,55956).
route(prodloc26,prodloc18,tr0,16291,423566).
route(prodloc26,prodloc18,tr13,16291,97746).
route(prodloc26,prodloc19,tr0,23048,599248).
route(prodloc26,prodloc19,tr13,23048,138288).
route(prodloc26,prodloc20,tr0,9170,238420).
route(prodloc26,prodloc20,tr13,9170,55020).
route(prodloc26,prodloc21,tr0,7264,188864).
route(prodloc26,prodloc21,tr13,7264,43584).
route(prodloc26,prodloc22,tr0,5198,135148).
route(prodloc26,prodloc22,tr13,5198,31188).
route(prodloc26,prodloc23,tr0,13189,342914).
route(prodloc26,prodloc23,tr13,13189,79134).
route(prodloc26,prodloc24,tr0,6618,172068).
route(prodloc26,prodloc24,tr13,6618,39708).
route(prodloc26,prodloc25,tr0,15574,404924).
route(prodloc26,prodloc25,tr13,15574,93444).
route(prodloc26,prodloc27,tr0,25177,654602).
route(prodloc26,prodloc27,tr13,25177,151062).
route(prodloc26,prodloc28,tr0,5465,142090).
route(prodloc26,prodloc28,tr13,5465,32790).
route(prodloc26,prodloc29,tr0,11494,298844).
route(prodloc26,prodloc29,tr13,11494,68964).
route(prodloc26,prodloc30,tr0,21799,566774).
route(prodloc26,prodloc30,tr13,21799,130794).
route(prodloc26,prodloc31,tr0,23342,606892).
route(prodloc26,prodloc31,tr13,23342,140052).
route(prodloc26,prodloc32,tr0,7860,204360).
route(prodloc26,prodloc32,tr13,7860,47160).
route(prodloc26,prodloc33,tr0,17055,443430).
route(prodloc26,prodloc33,tr13,17055,102330).
route(prodloc27,harbor0,tr0,3050,79300).
route(prodloc27,harbor0,tr13,3050,18300).
route(prodloc27,harbor1,tr0,24341,632866).
route(prodloc27,harbor1,tr13,24341,146046).
route(prodloc27,harbor2,tr0,11203,291278).
route(prodloc27,harbor2,tr13,11203,67218).
route(prodloc27,harbor3,tr0,13840,359840).
route(prodloc27,harbor3,tr13,13840,83040).
route(prodloc27,harbor4,tr0,26353,685178).
route(prodloc27,harbor4,tr13,26353,158118).
route(prodloc27,harbor5,tr0,4943,128518).
route(prodloc27,harbor5,tr13,4943,29658).
route(prodloc27,harbor6,tr0,15675,407550).
route(prodloc27,harbor6,tr13,15675,94050).
route(prodloc27,harbor7,tr0,19093,496418).
route(prodloc27,harbor7,tr13,19093,114558).
route(prodloc27,harbor8,tr0,8423,218998).
route(prodloc27,harbor8,tr13,8423,50538).
route(prodloc27,harbor9,tr0,22984,597584).
route(prodloc27,harbor9,tr13,22984,137904).
route(prodloc27,harbor10,tr0,27950,726700).
route(prodloc27,harbor10,tr13,27950,167700).
route(prodloc27,harbor11,tr0,18128,471328).
route(prodloc27,harbor11,tr13,18128,108768).
route(prodloc27,harbor12,tr0,10111,262886).
route(prodloc27,harbor12,tr13,10111,60666).
route(prodloc27,harbor13,tr0,22945,596570).
route(prodloc27,harbor13,tr13,22945,137670).
route(prodloc27,harbor14,tr0,757,19682).
route(prodloc27,harbor14,tr13,757,4542).
route(prodloc27,harbor15,tr0,12826,333476).
route(prodloc27,harbor15,tr13,12826,76956).
route(prodloc27,harbor16,tr0,3945,102570).
route(prodloc27,harbor16,tr13,3945,23670).
route(prodloc27,prodloc0,tr0,11939,310414).
route(prodloc27,prodloc0,tr13,11939,71634).
route(prodloc27,prodloc1,tr0,2064,53664).
route(prodloc27,prodloc1,tr13,2064,12384).
route(prodloc27,prodloc2,tr0,13252,344552).
route(prodloc27,prodloc2,tr13,13252,79512).
route(prodloc27,prodloc3,tr0,8914,231764).
route(prodloc27,prodloc3,tr13,8914,53484).
route(prodloc27,prodloc4,tr0,1791,46566).
route(prodloc27,prodloc4,tr13,1791,10746).
route(prodloc27,prodloc5,tr0,12361,321386).
route(prodloc27,prodloc5,tr13,12361,74166).
route(prodloc27,prodloc6,tr0,16240,422240).
route(prodloc27,prodloc6,tr13,16240,97440).
route(prodloc27,prodloc7,tr0,27749,721474).
route(prodloc27,prodloc7,tr13,27749,166494).
route(prodloc27,prodloc8,tr0,19200,499200).
route(prodloc27,prodloc8,tr13,19200,115200).
route(prodloc27,prodloc9,tr0,9832,255632).
route(prodloc27,prodloc9,tr13,9832,58992).
route(prodloc27,prodloc10,tr0,15368,399568).
route(prodloc27,prodloc10,tr13,15368,92208).
route(prodloc27,prodloc11,tr0,23568,612768).
route(prodloc27,prodloc11,tr13,23568,141408).
route(prodloc27,prodloc12,tr0,10669,277394).
route(prodloc27,prodloc12,tr13,10669,64014).
route(prodloc27,prodloc13,tr0,8304,215904).
route(prodloc27,prodloc13,tr13,8304,49824).
route(prodloc27,prodloc14,tr0,2370,61620).
route(prodloc27,prodloc14,tr13,2370,14220).
route(prodloc27,prodloc15,tr0,772,20072).
route(prodloc27,prodloc15,tr13,772,4632).
route(prodloc27,prodloc16,tr0,1160,30160).
route(prodloc27,prodloc16,tr13,1160,6960).
route(prodloc27,prodloc17,tr0,11375,295750).
route(prodloc27,prodloc17,tr13,11375,68250).
route(prodloc27,prodloc18,tr0,10603,275678).
route(prodloc27,prodloc18,tr13,10603,63618).
route(prodloc27,prodloc19,tr0,12233,318058).
route(prodloc27,prodloc19,tr13,12233,73398).
route(prodloc27,prodloc20,tr0,18539,482014).
route(prodloc27,prodloc20,tr13,18539,111234).
route(prodloc27,prodloc21,tr0,9744,253344).
route(prodloc27,prodloc21,tr13,9744,58464).
route(prodloc27,prodloc22,tr0,8583,223158).
route(prodloc27,prodloc22,tr13,8583,51498).
route(prodloc27,prodloc23,tr0,26713,694538).
route(prodloc27,prodloc23,tr13,26713,160278).
route(prodloc27,prodloc24,tr0,21892,569192).
route(prodloc27,prodloc24,tr13,21892,131352).
route(prodloc27,prodloc25,tr0,6096,158496).
route(prodloc27,prodloc25,tr13,6096,36576).
route(prodloc27,prodloc26,tr0,21049,547274).
route(prodloc27,prodloc26,tr13,21049,126294).
route(prodloc27,prodloc28,tr0,15378,399828).
route(prodloc27,prodloc28,tr13,15378,92268).
route(prodloc27,prodloc29,tr0,12598,327548).
route(prodloc27,prodloc29,tr13,12598,75588).
route(prodloc27,prodloc30,tr0,20162,524212).
route(prodloc27,prodloc30,tr13,20162,120972).
route(prodloc27,prodloc31,tr0,11190,290940).
route(prodloc27,prodloc31,tr13,11190,67140).
route(prodloc27,prodloc32,tr0,11884,308984).
route(prodloc27,prodloc32,tr13,11884,71304).
route(prodloc27,prodloc33,tr0,1018,26468).
route(prodloc27,prodloc33,tr13,1018,6108).
route(prodloc28,harbor0,tr0,18881,490906).
route(prodloc28,harbor0,tr13,18881,113286).
route(prodloc28,harbor1,tr0,23178,602628).
route(prodloc28,harbor1,tr13,23178,139068).
route(prodloc28,harbor2,tr0,7097,184522).
route(prodloc28,harbor2,tr13,7097,42582).
route(prodloc28,harbor3,tr0,25281,657306).
route(prodloc28,harbor3,tr13,25281,151686).
route(prodloc28,harbor4,tr0,2477,64402).
route(prodloc28,harbor4,tr13,2477,14862).
route(prodloc28,harbor5,tr0,20558,534508).
route(prodloc28,harbor5,tr13,20558,123348).
route(prodloc28,harbor6,tr0,1564,40664).
route(prodloc28,harbor6,tr13,1564,9384).
route(prodloc28,harbor7,tr0,20344,528944).
route(prodloc28,harbor7,tr13,20344,122064).
route(prodloc28,harbor8,tr0,17790,462540).
route(prodloc28,harbor8,tr13,17790,106740).
route(prodloc28,harbor9,tr0,13468,350168).
route(prodloc28,harbor9,tr13,13468,80808).
route(prodloc28,harbor10,tr0,20082,522132).
route(prodloc28,harbor10,tr13,20082,120492).
route(prodloc28,harbor11,tr0,13619,354094).
route(prodloc28,harbor11,tr13,13619,81714).
route(prodloc28,harbor12,tr0,2086,54236).
route(prodloc28,harbor12,tr13,2086,12516).
route(prodloc28,harbor13,tr0,9051,235326).
route(prodloc28,harbor13,tr13,9051,54306).
route(prodloc28,harbor14,tr0,2241,58266).
route(prodloc28,harbor14,tr13,2241,13446).
route(prodloc28,harbor15,tr0,27186,706836).
route(prodloc28,harbor15,tr13,27186,163116).
route(prodloc28,harbor16,tr0,15205,395330).
route(prodloc28,harbor16,tr13,15205,91230).
route(prodloc28,prodloc0,tr0,28828,749528).
route(prodloc28,prodloc0,tr13,28828,172968).
route(prodloc28,prodloc1,tr0,14733,383058).
route(prodloc28,prodloc1,tr13,14733,88398).
route(prodloc28,prodloc2,tr0,12515,325390).
route(prodloc28,prodloc2,tr13,12515,75090).
route(prodloc28,prodloc3,tr0,12616,328016).
route(prodloc28,prodloc3,tr13,12616,75696).
route(prodloc28,prodloc4,tr0,1251,32526).
route(prodloc28,prodloc4,tr13,1251,7506).
route(prodloc28,prodloc5,tr0,26341,684866).
route(prodloc28,prodloc5,tr15,26341,842912).
route(prodloc28,prodloc6,tr0,4453,115778).
route(prodloc28,prodloc6,tr13,4453,26718).
route(prodloc28,prodloc7,tr0,22396,582296).
route(prodloc28,prodloc7,tr13,22396,134376).
route(prodloc28,prodloc8,tr0,16617,432042).
route(prodloc28,prodloc8,tr13,16617,99702).
route(prodloc28,prodloc9,tr0,8943,232518).
route(prodloc28,prodloc9,tr13,8943,53658).
route(prodloc28,prodloc10,tr0,10114,262964).
route(prodloc28,prodloc10,tr13,10114,60684).
route(prodloc28,prodloc11,tr0,16223,421798).
route(prodloc28,prodloc11,tr13,16223,97338).
route(prodloc28,prodloc12,tr0,11811,307086).
route(prodloc28,prodloc12,tr13,11811,70866).
route(prodloc28,prodloc13,tr0,15502,403052).
route(prodloc28,prodloc13,tr13,15502,93012).
route(prodloc28,prodloc14,tr0,693,18018).
route(prodloc28,prodloc14,tr13,693,4158).
route(prodloc28,prodloc15,tr0,4912,127712).
route(prodloc28,prodloc15,tr13,4912,29472).
route(prodloc28,prodloc16,tr0,19840,515840).
route(prodloc28,prodloc16,tr13,19840,119040).
route(prodloc28,prodloc17,tr0,6308,164008).
route(prodloc28,prodloc17,tr13,6308,37848).
route(prodloc28,prodloc18,tr0,8842,229892).
route(prodloc28,prodloc18,tr13,8842,53052).
route(prodloc28,prodloc19,tr0,7489,194714).
route(prodloc28,prodloc19,tr13,7489,44934).
route(prodloc28,prodloc20,tr0,8461,219986).
route(prodloc28,prodloc20,tr13,8461,50766).
route(prodloc28,prodloc21,tr0,22289,579514).
route(prodloc28,prodloc21,tr13,22289,133734).
route(prodloc28,prodloc22,tr0,7212,187512).
route(prodloc28,prodloc22,tr13,7212,43272).
route(prodloc28,prodloc23,tr0,7687,199862).
route(prodloc28,prodloc23,tr13,7687,46122).
route(prodloc28,prodloc24,tr0,17060,443560).
route(prodloc28,prodloc24,tr13,17060,102360).
route(prodloc28,prodloc25,tr0,32,832).
route(prodloc28,prodloc25,tr13,32,192).
route(prodloc28,prodloc26,tr0,17821,463346).
route(prodloc28,prodloc26,tr13,17821,106926).
route(prodloc28,prodloc27,tr0,12909,335634).
route(prodloc28,prodloc27,tr13,12909,77454).
route(prodloc28,prodloc29,tr0,116,3016).
route(prodloc28,prodloc29,tr13,116,696).
route(prodloc28,prodloc30,tr0,7844,203944).
route(prodloc28,prodloc30,tr13,7844,47064).
route(prodloc28,prodloc31,tr0,17926,466076).
route(prodloc28,prodloc31,tr13,17926,107556).
route(prodloc28,prodloc32,tr0,16176,420576).
route(prodloc28,prodloc32,tr13,16176,97056).
route(prodloc28,prodloc33,tr0,27821,723346).
route(prodloc28,prodloc33,tr13,27821,166926).
route(prodloc29,harbor0,tr0,21306,553956).
route(prodloc29,harbor0,tr13,21306,127836).
route(prodloc29,harbor1,tr0,25078,652028).
route(prodloc29,harbor1,tr13,25078,150468).
route(prodloc29,harbor2,tr0,17963,467038).
route(prodloc29,harbor2,tr13,17963,107778).
route(prodloc29,harbor3,tr0,2592,67392).
route(prodloc29,harbor3,tr13,2592,15552).
route(prodloc29,harbor4,tr0,20461,531986).
route(prodloc29,harbor4,tr13,20461,122766).
route(prodloc29,harbor5,tr0,26985,701610).
route(prodloc29,harbor5,tr13,26985,161910).
route(prodloc29,harbor6,tr0,18377,477802).
route(prodloc29,harbor6,tr13,18377,110262).
route(prodloc29,harbor7,tr0,27235,708110).
route(prodloc29,harbor7,tr13,27235,163410).
route(prodloc29,harbor8,tr0,22648,588848).
route(prodloc29,harbor8,tr13,22648,135888).
route(prodloc29,harbor9,tr0,26104,678704).
route(prodloc29,harbor9,tr13,26104,156624).
route(prodloc29,harbor10,tr0,10930,284180).
route(prodloc29,harbor10,tr13,10930,65580).
route(prodloc29,harbor11,tr0,8654,225004).
route(prodloc29,harbor11,tr13,8654,51924).
route(prodloc29,harbor12,tr0,11361,295386).
route(prodloc29,harbor12,tr13,11361,68166).
route(prodloc29,harbor13,tr0,3406,88556).
route(prodloc29,harbor13,tr13,3406,20436).
route(prodloc29,harbor14,tr0,636,16536).
route(prodloc29,harbor14,tr13,636,3816).
route(prodloc29,harbor15,tr0,10270,267020).
route(prodloc29,harbor15,tr13,10270,61620).
route(prodloc29,harbor16,tr0,26400,686400).
route(prodloc29,harbor16,tr13,26400,158400).
route(prodloc29,prodloc0,tr0,23462,610012).
route(prodloc29,prodloc0,tr13,23462,140772).
route(prodloc29,prodloc1,tr0,6816,177216).
route(prodloc29,prodloc1,tr13,6816,40896).
route(prodloc29,prodloc2,tr0,22788,592488).
route(prodloc29,prodloc2,tr13,22788,136728).
route(prodloc29,prodloc3,tr0,12985,337610).
route(prodloc29,prodloc3,tr13,12985,77910).
route(prodloc29,prodloc4,tr0,22498,584948).
route(prodloc29,prodloc4,tr13,22498,134988).
route(prodloc29,prodloc5,tr0,5127,133302).
route(prodloc29,prodloc5,tr13,5127,30762).
route(prodloc29,prodloc6,tr0,6299,163774).
route(prodloc29,prodloc6,tr13,6299,37794).
route(prodloc29,prodloc7,tr0,27015,702390).
route(prodloc29,prodloc7,tr13,27015,162090).
route(prodloc29,prodloc8,tr0,5278,137228).
route(prodloc29,prodloc8,tr13,5278,31668).
route(prodloc29,prodloc9,tr0,5227,135902).
route(prodloc29,prodloc9,tr13,5227,31362).
route(prodloc29,prodloc10,tr0,10915,283790).
route(prodloc29,prodloc10,tr13,10915,65490).
route(prodloc29,prodloc11,tr0,20371,529646).
route(prodloc29,prodloc11,tr13,20371,122226).
route(prodloc29,prodloc12,tr13,22587,135522).
route(prodloc29,prodloc12,tr15,22587,722784).
route(prodloc29,prodloc13,tr0,16079,418054).
route(prodloc29,prodloc13,tr13,16079,96474).
route(prodloc29,prodloc14,tr0,26379,685854).
route(prodloc29,prodloc14,tr13,26379,158274).
route(prodloc29,prodloc15,tr0,18477,480402).
route(prodloc29,prodloc15,tr13,18477,110862).
route(prodloc29,prodloc16,tr0,9625,250250).
route(prodloc29,prodloc16,tr13,9625,57750).
route(prodloc29,prodloc17,tr0,12110,314860).
route(prodloc29,prodloc17,tr13,12110,72660).
route(prodloc29,prodloc18,tr0,13594,353444).
route(prodloc29,prodloc18,tr13,13594,81564).
route(prodloc29,prodloc19,tr0,9364,243464).
route(prodloc29,prodloc19,tr13,9364,56184).
route(prodloc29,prodloc20,tr0,12022,312572).
route(prodloc29,prodloc20,tr13,12022,72132).
route(prodloc29,prodloc21,tr0,24544,638144).
route(prodloc29,prodloc21,tr13,24544,147264).
route(prodloc29,prodloc22,tr0,21891,569166).
route(prodloc29,prodloc22,tr13,21891,131346).
route(prodloc29,prodloc23,tr0,17499,454974).
route(prodloc29,prodloc23,tr13,17499,104994).
route(prodloc29,prodloc24,tr0,16332,424632).
route(prodloc29,prodloc24,tr13,16332,97992).
route(prodloc29,prodloc25,tr0,7768,201968).
route(prodloc29,prodloc25,tr13,7768,46608).
route(prodloc29,prodloc26,tr0,21178,550628).
route(prodloc29,prodloc26,tr13,21178,127068).
route(prodloc29,prodloc27,tr0,8171,212446).
route(prodloc29,prodloc27,tr13,8171,49026).
route(prodloc29,prodloc28,tr13,11871,71226).
route(prodloc29,prodloc28,tr15,11871,379872).
route(prodloc29,prodloc30,tr0,10651,276926).
route(prodloc29,prodloc30,tr13,10651,63906).
route(prodloc29,prodloc31,tr0,23142,601692).
route(prodloc29,prodloc31,tr13,23142,138852).
route(prodloc29,prodloc32,tr0,5827,151502).
route(prodloc29,prodloc32,tr13,5827,34962).
route(prodloc29,prodloc33,tr0,16836,437736).
route(prodloc29,prodloc33,tr13,16836,101016).
route(prodloc30,harbor0,tr0,24169,628394).
route(prodloc30,harbor0,tr13,24169,145014).
route(prodloc30,harbor1,tr0,4130,107380).
route(prodloc30,harbor1,tr13,4130,24780).
route(prodloc30,harbor2,tr0,28755,747630).
route(prodloc30,harbor2,tr13,28755,172530).
route(prodloc30,harbor3,tr0,2074,53924).
route(prodloc30,harbor3,tr13,2074,12444).
route(prodloc30,harbor4,tr0,2252,58552).
route(prodloc30,harbor4,tr13,2252,13512).
route(prodloc30,harbor5,tr0,26800,696800).
route(prodloc30,harbor5,tr13,26800,160800).
route(prodloc30,harbor6,tr0,3351,87126).
route(prodloc30,harbor6,tr13,3351,20106).
route(prodloc30,harbor7,tr0,23096,600496).
route(prodloc30,harbor7,tr13,23096,138576).
route(prodloc30,harbor8,tr0,10165,264290).
route(prodloc30,harbor8,tr13,10165,60990).
route(prodloc30,harbor9,tr0,3697,96122).
route(prodloc30,harbor9,tr13,3697,22182).
route(prodloc30,harbor10,tr0,27820,723320).
route(prodloc30,harbor10,tr13,27820,166920).
route(prodloc30,harbor11,tr0,14799,384774).
route(prodloc30,harbor11,tr13,14799,88794).
route(prodloc30,harbor12,tr0,16790,436540).
route(prodloc30,harbor12,tr13,16790,100740).
route(prodloc30,harbor13,tr0,25302,657852).
route(prodloc30,harbor13,tr13,25302,151812).
route(prodloc30,harbor14,tr0,22259,578734).
route(prodloc30,harbor14,tr13,22259,133554).
route(prodloc30,harbor15,tr0,15753,409578).
route(prodloc30,harbor15,tr13,15753,94518).
route(prodloc30,harbor16,tr0,1324,34424).
route(prodloc30,harbor16,tr13,1324,7944).
route(prodloc30,prodloc0,tr0,5329,138554).
route(prodloc30,prodloc0,tr13,5329,31974).
route(prodloc30,prodloc1,tr0,20369,529594).
route(prodloc30,prodloc1,tr13,20369,122214).
route(prodloc30,prodloc2,tr0,28388,738088).
route(prodloc30,prodloc2,tr13,28388,170328).
route(prodloc30,prodloc3,tr0,13525,351650).
route(prodloc30,prodloc3,tr13,13525,81150).
route(prodloc30,prodloc4,tr0,28504,741104).
route(prodloc30,prodloc4,tr13,28504,171024).
route(prodloc30,prodloc5,tr0,15795,410670).
route(prodloc30,prodloc5,tr13,15795,94770).
route(prodloc30,prodloc6,tr0,1753,45578).
route(prodloc30,prodloc6,tr13,1753,10518).
route(prodloc30,prodloc7,tr0,11295,293670).
route(prodloc30,prodloc7,tr13,11295,67770).
route(prodloc30,prodloc8,tr0,8321,216346).
route(prodloc30,prodloc8,tr13,8321,49926).
route(prodloc30,prodloc9,tr0,13023,338598).
route(prodloc30,prodloc9,tr13,13023,78138).
route(prodloc30,prodloc10,tr0,16630,432380).
route(prodloc30,prodloc10,tr13,16630,99780).
route(prodloc30,prodloc11,tr0,24232,630032).
route(prodloc30,prodloc11,tr13,24232,145392).
route(prodloc30,prodloc12,tr0,26100,678600).
route(prodloc30,prodloc12,tr13,26100,156600).
route(prodloc30,prodloc13,tr0,22736,591136).
route(prodloc30,prodloc13,tr13,22736,136416).
route(prodloc30,prodloc14,tr0,12856,334256).
route(prodloc30,prodloc14,tr13,12856,77136).
route(prodloc30,prodloc15,tr0,8290,215540).
route(prodloc30,prodloc15,tr13,8290,49740).
route(prodloc30,prodloc16,tr0,23462,610012).
route(prodloc30,prodloc16,tr13,23462,140772).
route(prodloc30,prodloc17,tr0,20802,540852).
route(prodloc30,prodloc17,tr13,20802,124812).
route(prodloc30,prodloc18,tr0,8253,214578).
route(prodloc30,prodloc18,tr13,8253,49518).
route(prodloc30,prodloc19,tr0,12051,313326).
route(prodloc30,prodloc19,tr13,12051,72306).
route(prodloc30,prodloc20,tr0,23454,609804).
route(prodloc30,prodloc20,tr13,23454,140724).
route(prodloc30,prodloc21,tr0,22377,581802).
route(prodloc30,prodloc21,tr13,22377,134262).
route(prodloc30,prodloc22,tr0,10712,278512).
route(prodloc30,prodloc22,tr13,10712,64272).
route(prodloc30,prodloc23,tr0,6017,156442).
route(prodloc30,prodloc23,tr13,6017,36102).
route(prodloc30,prodloc24,tr0,10941,284466).
route(prodloc30,prodloc24,tr13,10941,65646).
route(prodloc30,prodloc25,tr0,28052,729352).
route(prodloc30,prodloc25,tr13,28052,168312).
route(prodloc30,prodloc26,tr0,24881,646906).
route(prodloc30,prodloc26,tr13,24881,149286).
route(prodloc30,prodloc27,tr0,6714,174564).
route(prodloc30,prodloc27,tr13,6714,40284).
route(prodloc30,prodloc28,tr0,27615,717990).
route(prodloc30,prodloc28,tr13,27615,165690).
route(prodloc30,prodloc29,tr0,18474,480324).
route(prodloc30,prodloc29,tr13,18474,110844).
route(prodloc30,prodloc31,tr0,27151,705926).
route(prodloc30,prodloc31,tr13,27151,162906).
route(prodloc30,prodloc32,tr0,4241,110266).
route(prodloc30,prodloc32,tr13,4241,25446).
route(prodloc30,prodloc33,tr0,18596,483496).
route(prodloc30,prodloc33,tr13,18596,111576).
route(prodloc31,harbor0,tr0,13784,358384).
route(prodloc31,harbor0,tr13,13784,82704).
route(prodloc31,harbor1,tr0,21014,546364).
route(prodloc31,harbor1,tr13,21014,126084).
route(prodloc31,harbor2,tr0,23166,602316).
route(prodloc31,harbor2,tr13,23166,138996).
route(prodloc31,harbor3,tr0,4116,107016).
route(prodloc31,harbor3,tr13,4116,24696).
route(prodloc31,harbor4,tr0,20416,530816).
route(prodloc31,harbor4,tr13,20416,122496).
route(prodloc31,harbor5,tr0,24258,630708).
route(prodloc31,harbor5,tr13,24258,145548).
route(prodloc31,harbor6,tr0,27232,708032).
route(prodloc31,harbor6,tr13,27232,163392).
route(prodloc31,harbor7,tr0,8814,229164).
route(prodloc31,harbor7,tr13,8814,52884).
route(prodloc31,harbor8,tr0,26256,682656).
route(prodloc31,harbor8,tr13,26256,157536).
route(prodloc31,harbor9,tr0,5271,137046).
route(prodloc31,harbor9,tr13,5271,31626).
route(prodloc31,harbor10,tr0,4105,106730).
route(prodloc31,harbor10,tr13,4105,24630).
route(prodloc31,harbor11,tr0,6583,171158).
route(prodloc31,harbor11,tr13,6583,39498).
route(prodloc31,harbor12,tr0,12353,321178).
route(prodloc31,harbor12,tr13,12353,74118).
route(prodloc31,harbor13,tr0,20357,529282).
route(prodloc31,harbor13,tr13,20357,122142).
route(prodloc31,harbor14,tr0,21935,570310).
route(prodloc31,harbor14,tr13,21935,131610).
route(prodloc31,harbor15,tr0,9568,248768).
route(prodloc31,harbor15,tr13,9568,57408).
route(prodloc31,harbor16,tr0,7572,196872).
route(prodloc31,harbor16,tr13,7572,45432).
route(prodloc31,prodloc0,tr0,21366,555516).
route(prodloc31,prodloc0,tr13,21366,128196).
route(prodloc31,prodloc1,tr0,6052,157352).
route(prodloc31,prodloc1,tr13,6052,36312).
route(prodloc31,prodloc2,tr0,451,11726).
route(prodloc31,prodloc2,tr13,451,2706).
route(prodloc31,prodloc3,tr0,15463,402038).
route(prodloc31,prodloc3,tr13,15463,92778).
route(prodloc31,prodloc4,tr0,19188,498888).
route(prodloc31,prodloc4,tr13,19188,115128).
route(prodloc31,prodloc5,tr0,22737,591162).
route(prodloc31,prodloc5,tr13,22737,136422).
route(prodloc31,prodloc6,tr0,25913,673738).
route(prodloc31,prodloc6,tr13,25913,155478).
route(prodloc31,prodloc7,tr0,4384,113984).
route(prodloc31,prodloc7,tr13,4384,26304).
route(prodloc31,prodloc8,tr0,8784,228384).
route(prodloc31,prodloc8,tr13,8784,52704).
route(prodloc31,prodloc9,tr0,22532,585832).
route(prodloc31,prodloc9,tr13,22532,135192).
route(prodloc31,prodloc10,tr0,8885,231010).
route(prodloc31,prodloc10,tr13,8885,53310).
route(prodloc31,prodloc11,tr0,13741,357266).
route(prodloc31,prodloc11,tr13,13741,82446).
route(prodloc31,prodloc12,tr0,8258,214708).
route(prodloc31,prodloc12,tr13,8258,49548).
route(prodloc31,prodloc13,tr0,20693,538018).
route(prodloc31,prodloc13,tr13,20693,124158).
route(prodloc31,prodloc14,tr0,21818,567268).
route(prodloc31,prodloc14,tr13,21818,130908).
route(prodloc31,prodloc15,tr0,13001,338026).
route(prodloc31,prodloc15,tr13,13001,78006).
route(prodloc31,prodloc16,tr0,12672,329472).
route(prodloc31,prodloc16,tr13,12672,76032).
route(prodloc31,prodloc17,tr0,22261,578786).
route(prodloc31,prodloc17,tr13,22261,133566).
route(prodloc31,prodloc18,tr0,4548,118248).
route(prodloc31,prodloc18,tr13,4548,27288).
route(prodloc31,prodloc19,tr0,1597,41522).
route(prodloc31,prodloc19,tr13,1597,9582).
route(prodloc31,prodloc20,tr0,5156,134056).
route(prodloc31,prodloc20,tr13,5156,30936).
route(prodloc31,prodloc21,tr0,23374,607724).
route(prodloc31,prodloc21,tr13,23374,140244).
route(prodloc31,prodloc22,tr0,3881,100906).
route(prodloc31,prodloc22,tr13,3881,23286).
route(prodloc31,prodloc23,tr0,28536,741936).
route(prodloc31,prodloc23,tr13,28536,171216).
route(prodloc31,prodloc24,tr0,1391,36166).
route(prodloc31,prodloc24,tr13,1391,8346).
route(prodloc31,prodloc25,tr0,6352,165152).
route(prodloc31,prodloc25,tr13,6352,38112).
route(prodloc31,prodloc26,tr0,9374,243724).
route(prodloc31,prodloc26,tr13,9374,56244).
route(prodloc31,prodloc27,tr0,11682,303732).
route(prodloc31,prodloc27,tr13,11682,70092).
route(prodloc31,prodloc28,tr0,23963,623038).
route(prodloc31,prodloc28,tr13,23963,143778).
route(prodloc31,prodloc29,tr0,17646,458796).
route(prodloc31,prodloc29,tr13,17646,105876).
route(prodloc31,prodloc30,tr0,26270,683020).
route(prodloc31,prodloc30,tr13,26270,157620).
route(prodloc31,prodloc32,tr0,3938,102388).
route(prodloc31,prodloc32,tr13,3938,23628).
route(prodloc31,prodloc33,tr0,13259,344734).
route(prodloc31,prodloc33,tr13,13259,79554).
route(prodloc32,harbor0,tr0,10817,281242).
route(prodloc32,harbor0,tr13,10817,64902).
route(prodloc32,harbor1,tr0,870,22620).
route(prodloc32,harbor1,tr13,870,5220).
route(prodloc32,harbor2,tr0,27290,709540).
route(prodloc32,harbor2,tr13,27290,163740).
route(prodloc32,harbor3,tr0,17780,462280).
route(prodloc32,harbor3,tr13,17780,106680).
route(prodloc32,harbor4,tr0,28036,728936).
route(prodloc32,harbor4,tr13,28036,168216).
route(prodloc32,harbor5,tr0,15830,411580).
route(prodloc32,harbor5,tr13,15830,94980).
route(prodloc32,harbor6,tr0,5612,145912).
route(prodloc32,harbor6,tr13,5612,33672).
route(prodloc32,harbor7,tr0,12238,318188).
route(prodloc32,harbor7,tr13,12238,73428).
route(prodloc32,harbor8,tr0,2209,57434).
route(prodloc32,harbor8,tr13,2209,13254).
route(prodloc32,harbor9,tr0,10133,263458).
route(prodloc32,harbor9,tr13,10133,60798).
route(prodloc32,harbor10,tr0,14380,373880).
route(prodloc32,harbor10,tr13,14380,86280).
route(prodloc32,harbor11,tr0,26232,682032).
route(prodloc32,harbor11,tr13,26232,157392).
route(prodloc32,harbor12,tr0,28503,741078).
route(prodloc32,harbor12,tr13,28503,171018).
route(prodloc32,harbor13,tr0,27484,714584).
route(prodloc32,harbor13,tr13,27484,164904).
route(prodloc32,harbor14,tr0,21287,553462).
route(prodloc32,harbor14,tr13,21287,127722).
route(prodloc32,harbor15,tr0,9299,241774).
route(prodloc32,harbor15,tr13,9299,55794).
route(prodloc32,harbor16,tr0,7331,190606).
route(prodloc32,harbor16,tr13,7331,43986).
route(prodloc32,prodloc0,tr0,12836,333736).
route(prodloc32,prodloc0,tr13,12836,77016).
route(prodloc32,prodloc1,tr0,23656,615056).
route(prodloc32,prodloc1,tr13,23656,141936).
route(prodloc32,prodloc2,tr0,20244,526344).
route(prodloc32,prodloc2,tr13,20244,121464).
route(prodloc32,prodloc3,tr0,13377,347802).
route(prodloc32,prodloc3,tr13,13377,80262).
route(prodloc32,prodloc4,tr0,25081,652106).
route(prodloc32,prodloc4,tr13,25081,150486).
route(prodloc32,prodloc5,tr0,4655,121030).
route(prodloc32,prodloc5,tr13,4655,27930).
route(prodloc32,prodloc6,tr0,18889,491114).
route(prodloc32,prodloc6,tr13,18889,113334).
route(prodloc32,prodloc7,tr0,12760,331760).
route(prodloc32,prodloc7,tr13,12760,76560).
route(prodloc32,prodloc8,tr0,22119,575094).
route(prodloc32,prodloc8,tr13,22119,132714).
route(prodloc32,prodloc9,tr0,22744,591344).
route(prodloc32,prodloc9,tr13,22744,136464).
route(prodloc32,prodloc10,tr0,7099,184574).
route(prodloc32,prodloc10,tr13,7099,42594).
route(prodloc32,prodloc11,tr0,17891,465166).
route(prodloc32,prodloc11,tr13,17891,107346).
route(prodloc32,prodloc12,tr0,9265,240890).
route(prodloc32,prodloc12,tr13,9265,55590).
route(prodloc32,prodloc13,tr0,26221,681746).
route(prodloc32,prodloc13,tr13,26221,157326).
route(prodloc32,prodloc14,tr0,28400,738400).
route(prodloc32,prodloc14,tr13,28400,170400).
route(prodloc32,prodloc15,tr0,4815,125190).
route(prodloc32,prodloc15,tr13,4815,28890).
route(prodloc32,prodloc16,tr0,14493,376818).
route(prodloc32,prodloc16,tr13,14493,86958).
route(prodloc32,prodloc17,tr0,5739,149214).
route(prodloc32,prodloc17,tr13,5739,34434).
route(prodloc32,prodloc18,tr0,27325,710450).
route(prodloc32,prodloc18,tr13,27325,163950).
route(prodloc32,prodloc19,tr0,3512,91312).
route(prodloc32,prodloc19,tr13,3512,21072).
route(prodloc32,prodloc20,tr0,18227,473902).
route(prodloc32,prodloc20,tr13,18227,109362).
route(prodloc32,prodloc21,tr0,8238,214188).
route(prodloc32,prodloc21,tr13,8238,49428).
route(prodloc32,prodloc22,tr0,28855,750230).
route(prodloc32,prodloc22,tr13,28855,173130).
route(prodloc32,prodloc23,tr0,16001,416026).
route(prodloc32,prodloc23,tr13,16001,96006).
route(prodloc32,prodloc24,tr0,14178,368628).
route(prodloc32,prodloc24,tr13,14178,85068).
route(prodloc32,prodloc25,tr0,3946,102596).
route(prodloc32,prodloc25,tr13,3946,23676).
route(prodloc32,prodloc26,tr0,4978,129428).
route(prodloc32,prodloc26,tr13,4978,29868).
route(prodloc32,prodloc27,tr0,10607,275782).
route(prodloc32,prodloc27,tr13,10607,63642).
route(prodloc32,prodloc28,tr0,632,16432).
route(prodloc32,prodloc28,tr13,632,3792).
route(prodloc32,prodloc29,tr0,8855,230230).
route(prodloc32,prodloc29,tr13,8855,53130).
route(prodloc32,prodloc30,tr0,18546,482196).
route(prodloc32,prodloc30,tr15,18546,593472).
route(prodloc32,prodloc31,tr0,18641,484666).
route(prodloc32,prodloc31,tr13,18641,111846).
route(prodloc32,prodloc33,tr0,4708,122408).
route(prodloc32,prodloc33,tr13,4708,28248).
route(prodloc33,harbor0,tr0,8973,233298).
route(prodloc33,harbor0,tr13,8973,53838).
route(prodloc33,harbor1,tr0,20491,532766).
route(prodloc33,harbor1,tr13,20491,122946).
route(prodloc33,harbor2,tr0,13114,340964).
route(prodloc33,harbor2,tr13,13114,78684).
route(prodloc33,harbor3,tr0,8980,233480).
route(prodloc33,harbor3,tr13,8980,53880).
route(prodloc33,harbor4,tr0,10557,274482).
route(prodloc33,harbor4,tr13,10557,63342).
route(prodloc33,harbor5,tr0,7458,193908).
route(prodloc33,harbor5,tr13,7458,44748).
route(prodloc33,harbor6,tr0,2656,69056).
route(prodloc33,harbor6,tr13,2656,15936).
route(prodloc33,harbor7,tr0,15802,410852).
route(prodloc33,harbor7,tr13,15802,94812).
route(prodloc33,harbor8,tr0,6591,171366).
route(prodloc33,harbor8,tr13,6591,39546).
route(prodloc33,harbor9,tr0,11989,311714).
route(prodloc33,harbor9,tr13,11989,71934).
route(prodloc33,harbor10,tr0,18072,469872).
route(prodloc33,harbor10,tr13,18072,108432).
route(prodloc33,harbor11,tr0,8508,221208).
route(prodloc33,harbor11,tr13,8508,51048).
route(prodloc33,harbor12,tr0,18317,476242).
route(prodloc33,harbor12,tr13,18317,109902).
route(prodloc33,harbor13,tr0,1680,43680).
route(prodloc33,harbor13,tr13,1680,10080).
route(prodloc33,harbor14,tr0,4970,129220).
route(prodloc33,harbor14,tr13,4970,29820).
route(prodloc33,harbor15,tr0,2111,54886).
route(prodloc33,harbor15,tr13,2111,12666).
route(prodloc33,harbor16,tr0,235,6110).
route(prodloc33,harbor16,tr13,235,1410).
route(prodloc33,prodloc0,tr0,24925,648050).
route(prodloc33,prodloc0,tr13,24925,149550).
route(prodloc33,prodloc1,tr0,10138,263588).
route(prodloc33,prodloc1,tr13,10138,60828).
route(prodloc33,prodloc2,tr13,21964,131784).
route(prodloc33,prodloc2,tr15,21964,702848).
route(prodloc33,prodloc3,tr0,2571,66846).
route(prodloc33,prodloc3,tr13,2571,15426).
route(prodloc33,prodloc4,tr0,133,3458).
route(prodloc33,prodloc4,tr13,133,798).
route(prodloc33,prodloc5,tr0,5982,155532).
route(prodloc33,prodloc5,tr13,5982,35892).
route(prodloc33,prodloc6,tr0,11021,286546).
route(prodloc33,prodloc6,tr13,11021,66126).
route(prodloc33,prodloc7,tr0,15843,411918).
route(prodloc33,prodloc7,tr13,15843,95058).
route(prodloc33,prodloc8,tr0,4580,119080).
route(prodloc33,prodloc8,tr13,4580,27480).
route(prodloc33,prodloc9,tr0,25857,672282).
route(prodloc33,prodloc9,tr13,25857,155142).
route(prodloc33,prodloc10,tr0,6627,172302).
route(prodloc33,prodloc10,tr13,6627,39762).
route(prodloc33,prodloc11,tr0,28420,738920).
route(prodloc33,prodloc11,tr13,28420,170520).
route(prodloc33,prodloc12,tr0,13389,348114).
route(prodloc33,prodloc12,tr13,13389,80334).
route(prodloc33,prodloc13,tr0,15870,412620).
route(prodloc33,prodloc13,tr13,15870,95220).
route(prodloc33,prodloc14,tr13,1054,6324).
route(prodloc33,prodloc14,tr15,1054,33728).
route(prodloc33,prodloc15,tr0,13586,353236).
route(prodloc33,prodloc15,tr13,13586,81516).
route(prodloc33,prodloc16,tr0,11516,299416).
route(prodloc33,prodloc16,tr13,11516,69096).
route(prodloc33,prodloc17,tr0,26445,687570).
route(prodloc33,prodloc17,tr13,26445,158670).
route(prodloc33,prodloc18,tr0,18345,476970).
route(prodloc33,prodloc18,tr13,18345,110070).
route(prodloc33,prodloc19,tr0,12976,337376).
route(prodloc33,prodloc19,tr13,12976,77856).
route(prodloc33,prodloc20,tr0,18265,474890).
route(prodloc33,prodloc20,tr13,18265,109590).
route(prodloc33,prodloc21,tr0,1890,49140).
route(prodloc33,prodloc21,tr13,1890,11340).
route(prodloc33,prodloc22,tr0,7045,183170).
route(prodloc33,prodloc22,tr13,7045,42270).
route(prodloc33,prodloc23,tr0,18042,469092).
route(prodloc33,prodloc23,tr13,18042,108252).
route(prodloc33,prodloc24,tr0,20210,525460).
route(prodloc33,prodloc24,tr13,20210,121260).
route(prodloc33,prodloc25,tr0,21526,559676).
route(prodloc33,prodloc25,tr13,21526,129156).
route(prodloc33,prodloc26,tr0,27105,704730).
route(prodloc33,prodloc26,tr13,27105,162630).
route(prodloc33,prodloc27,tr0,20417,530842).
route(prodloc33,prodloc27,tr13,20417,122502).
route(prodloc33,prodloc28,tr0,8273,215098).
route(prodloc33,prodloc28,tr13,8273,49638).
route(prodloc33,prodloc29,tr0,9082,236132).
route(prodloc33,prodloc29,tr13,9082,54492).
route(prodloc33,prodloc30,tr0,6182,160732).
route(prodloc33,prodloc30,tr13,6182,37092).
route(prodloc33,prodloc31,tr0,9531,247806).
route(prodloc33,prodloc31,tr13,9531,57186).
route(prodloc33,prodloc32,tr0,28333,736658).
route(prodloc33,prodloc32,tr13,28333,169998).
hub(harbor2).
hub(harbor3).
hub(harbor6).
hub(harbor9).
hub(harbor15).
hub(prodloc8).
hub(prodloc12).
hub(prodloc21).
hub(prodloc27).
hub(prodloc31).
