% Multibatching benchmark instance
% Source: instances.lp
% seed=8  harbors=17  prodlocs=34  hubs=10  disruptions=2

% ---- locations ----
location(harbor0).
location(harbor1).
location(harbor2).
location(harbor3).
location(harbor4).
location(harbor5).
location(harbor6).
location(harbor7).
location(harbor8).
location(harbor9).
location(harbor10).
location(harbor11).
location(harbor12).
location(harbor13).
location(harbor14).
location(harbor15).
location(harbor16).
location(prodloc0).
location(prodloc1).
location(prodloc2).
location(prodloc3).
location(prodloc4).
location(prodloc5).
location(prodloc6).
location(prodloc7).
location(prodloc8).
location(prodloc9).
location(prodloc10).
location(prodloc11).
location(prodloc12).
location(prodloc13).
location(prodloc14).
location(prodloc15).
location(prodloc16).
location(prodloc17).
location(prodloc18).
location(prodloc19).
location(prodloc20).
location(prodloc21).
location(prodloc22).
location(prodloc23).
location(prodloc24).
location(prodloc25).
location(prodloc26).
location(prodloc27).
location(prodloc28).
location(prodloc29).
location(prodloc30).
location(prodloc31).
location(prodloc32).
location(prodloc33).

% ---- transport resources ----
transportCapacity(tr0,1800).
transportCO2(tr0,1680).
transportCost(tr0,26).
transportSpeed(tr0,12).
transportCapacity(tr1,65).
transportCO2(tr1,90).
transportCost(tr1,1).
transportSpeed(tr1,35).
transportCapacity(tr10,1).
transportCO2(tr10,700).
transportCost(tr10,4).
transportSpeed(tr10,40).
transportCapacity(tr11,65).
transportCO2(tr11,62).
transportCost(tr11,1).
transportSpeed(tr11,25).
transportCapacity(tr12,65).
transportCO2(tr12,709).
transportCost(tr12,3).
transportSpeed(tr12,55).
transportCapacity(tr13,68).
transportCO2(tr13,160).
transportCost(tr13,6).
transportSpeed(tr13,25).
transportCapacity(tr14,146).
transportCO2(tr14,780).
transportCost(tr14,4).
transportSpeed(tr14,50).
transportCapacity(tr15,2217).
transportCO2(tr15,49470).
transportCost(tr15,32).
transportSpeed(tr15,625).
transportCapacity(tr2,96).
transportCO2(tr2,709).
transportCost(tr2,3).
transportSpeed(tr2,55).
transportCapacity(tr3,1).
transportCO2(tr3,6250).
transportCost(tr3,108).
transportSpeed(tr3,25).
transportCapacity(tr4,148).
transportCO2(tr4,780).
transportCost(tr4,4).
transportSpeed(tr4,50).
transportCapacity(tr5,65).
transportCO2(tr5,780).
transportCost(tr5,3).
transportSpeed(tr5,50).
transportCapacity(tr6,1).
transportCO2(tr6,100).
transportCost(tr6,40).
transportSpeed(tr6,25).
transportCapacity(tr7,1).
transportCO2(tr7,18000).
transportCost(tr7,278).
transportSpeed(tr7,10).
transportCapacity(tr8,1).
transportCO2(tr8,14400).
transportCost(tr8,107).
transportSpeed(tr8,25).
transportCapacity(tr9,65).
transportCO2(tr9,708).
transportCost(tr9,2).
transportSpeed(tr9,60).

% ---- parts ----
part(part0).
partSize(part0,21).
valid_transport(part0,tr0).
valid_transport(part0,tr15).
valid_transport(part0,tr14).
valid_transport(part0,tr13).
valid_transport(part0,tr4).
part(part1).
partSize(part1,1).
valid_transport(part1,tr0).
valid_transport(part1,tr2).
valid_transport(part1,tr15).
valid_transport(part1,tr9).
valid_transport(part1,tr12).
valid_transport(part1,tr13).
valid_transport(part1,tr11).
part(part10).
partSize(part10,1).
valid_transport(part10,tr0).
valid_transport(part10,tr2).
valid_transport(part10,tr15).
valid_transport(part10,tr9).
valid_transport(part10,tr12).
valid_transport(part10,tr13).
valid_transport(part10,tr11).
part(part11).
partSize(part11,83).
valid_transport(part11,tr0).
valid_transport(part11,tr7).
valid_transport(part11,tr8).
valid_transport(part11,tr15).
valid_transport(part11,tr3).
valid_transport(part11,tr13).
part(part12).
partSize(part12,273).
valid_transport(part12,tr0).
valid_transport(part12,tr7).
valid_transport(part12,tr8).
valid_transport(part12,tr15).
valid_transport(part12,tr3).
valid_transport(part12,tr13).
part(part13).
partSize(part13,1).
valid_transport(part13,tr0).
valid_transport(part13,tr2).
valid_transport(part13,tr15).
valid_transport(part13,tr9).
valid_transport(part13,tr12).
valid_transport(part13,tr13).
valid_transport(part13,tr11).
part(part14).
partSize(part14,68).
valid_transport(part14,tr0).
valid_transport(part14,tr15).
valid_transport(part14,tr13).
part(part15).
partSize(part15,4).
valid_transport(part15,tr0).
valid_transport(part15,tr2).
valid_transport(part15,tr15).
valid_transport(part15,tr9).
valid_transport(part15,tr12).
valid_transport(part15,tr13).
valid_transport(part15,tr11).
part(part16).
partSize(part16,4).
valid_transport(part16,tr0).
valid_transport(part16,tr2).
valid_transport(part16,tr15).
valid_transport(part16,tr9).
valid_transport(part16,tr12).
valid_transport(part16,tr13).
valid_transport(part16,tr11).
part(part17).
partSize(part17,8).
valid_transport(part17,tr0).
valid_transport(part17,tr15).
valid_transport(part17,tr14).
valid_transport(part17,tr13).
valid_transport(part17,tr4).
part(part18).
partSize(part18,24).
valid_transport(part18,tr0).
valid_transport(part18,tr15).
valid_transport(part18,tr14).
valid_transport(part18,tr13).
valid_transport(part18,tr4).
part(part19).
partSize(part19,6).
valid_transport(part19,tr0).
valid_transport(part19,tr2).
valid_transport(part19,tr15).
valid_transport(part19,tr9).
valid_transport(part19,tr12).
valid_transport(part19,tr13).
valid_transport(part19,tr11).
part(part2).
partSize(part2,19).
valid_transport(part2,tr0).
valid_transport(part2,tr15).
valid_transport(part2,tr14).
valid_transport(part2,tr13).
valid_transport(part2,tr4).
part(part20).
partSize(part20,128).
valid_transport(part20,tr0).
valid_transport(part20,tr7).
valid_transport(part20,tr8).
valid_transport(part20,tr15).
valid_transport(part20,tr3).
valid_transport(part20,tr13).
part(part21).
partSize(part21,25).
valid_transport(part21,tr0).
valid_transport(part21,tr15).
valid_transport(part21,tr14).
valid_transport(part21,tr13).
valid_transport(part21,tr4).
part(part22).
partSize(part22,7).
valid_transport(part22,tr0).
valid_transport(part22,tr2).
valid_transport(part22,tr15).
valid_transport(part22,tr9).
valid_transport(part22,tr12).
valid_transport(part22,tr13).
valid_transport(part22,tr11).
part(part23).
partSize(part23,5).
valid_transport(part23,tr0).
valid_transport(part23,tr15).
valid_transport(part23,tr14).
valid_transport(part23,tr13).
valid_transport(part23,tr4).
part(part24).
partSize(part24,55).
valid_transport(part24,tr0).
valid_transport(part24,tr7).
valid_transport(part24,tr8).
valid_transport(part24,tr15).
valid_transport(part24,tr3).
valid_transport(part24,tr13).
part(part25).
partSize(part25,5).
valid_transport(part25,tr0).
valid_transport(part25,tr4).
valid_transport(part25,tr2).
valid_transport(part25,tr15).
valid_transport(part25,tr13).
part(part26).
partSize(part26,32).
valid_transport(part26,tr0).
valid_transport(part26,tr7).
valid_transport(part26,tr8).
valid_transport(part26,tr15).
valid_transport(part26,tr3).
valid_transport(part26,tr13).
part(part27).
partSize(part27,5).
valid_transport(part27,tr0).
valid_transport(part27,tr2).
valid_transport(part27,tr15).
valid_transport(part27,tr9).
valid_transport(part27,tr12).
valid_transport(part27,tr13).
valid_transport(part27,tr11).
part(part28).
partSize(part28,3).
valid_transport(part28,tr0).
valid_transport(part28,tr4).
valid_transport(part28,tr2).
valid_transport(part28,tr15).
valid_transport(part28,tr14).
valid_transport(part28,tr13).
part(part29).
partSize(part29,627).
part(part3).
partSize(part3,48).
valid_transport(part3,tr0).
valid_transport(part3,tr7).
valid_transport(part3,tr8).
valid_transport(part3,tr15).
valid_transport(part3,tr3).
valid_transport(part3,tr13).
part(part30).
partSize(part30,2).
valid_transport(part30,tr0).
valid_transport(part30,tr2).
valid_transport(part30,tr15).
valid_transport(part30,tr9).
valid_transport(part30,tr12).
valid_transport(part30,tr13).
valid_transport(part30,tr11).
part(part31).
partSize(part31,144).
valid_transport(part31,tr0).
valid_transport(part31,tr7).
valid_transport(part31,tr8).
valid_transport(part31,tr15).
valid_transport(part31,tr3).
valid_transport(part31,tr13).
part(part32).
partSize(part32,16).
valid_transport(part32,tr0).
valid_transport(part32,tr4).
valid_transport(part32,tr2).
valid_transport(part32,tr15).
valid_transport(part32,tr14).
valid_transport(part32,tr13).
part(part33).
partSize(part33,7).
valid_transport(part33,tr0).
valid_transport(part33,tr2).
valid_transport(part33,tr15).
valid_transport(part33,tr9).
valid_transport(part33,tr12).
valid_transport(part33,tr13).
valid_transport(part33,tr11).
part(part3345).
partSize(part3345,353).
valid_transport(part3345,tr0).
valid_transport(part3345,tr7).
valid_transport(part3345,tr8).
valid_transport(part3345,tr15).
valid_transport(part3345,tr3).
valid_transport(part3345,tr13).
part(part34).
partSize(part34,2).
valid_transport(part34,tr0).
valid_transport(part34,tr2).
valid_transport(part34,tr15).
valid_transport(part34,tr9).
valid_transport(part34,tr12).
valid_transport(part34,tr13).
valid_transport(part34,tr11).
part(part4).
partSize(part4,2).
valid_transport(part4,tr0).
valid_transport(part4,tr2).
valid_transport(part4,tr15).
valid_transport(part4,tr9).
valid_transport(part4,tr12).
valid_transport(part4,tr13).
valid_transport(part4,tr11).
part(part5).
partSize(part5,2).
valid_transport(part5,tr0).
valid_transport(part5,tr2).
valid_transport(part5,tr15).
valid_transport(part5,tr9).
valid_transport(part5,tr12).
valid_transport(part5,tr14).
valid_transport(part5,tr13).
valid_transport(part5,tr11).
part(part6).
partSize(part6,111).
valid_transport(part6,tr0).
valid_transport(part6,tr7).
valid_transport(part6,tr8).
valid_transport(part6,tr15).
valid_transport(part6,tr3).
valid_transport(part6,tr13).
part(part8).
partSize(part8,163).
valid_transport(part8,tr0).
valid_transport(part8,tr7).
valid_transport(part8,tr8).
valid_transport(part8,tr15).
valid_transport(part8,tr3).
valid_transport(part8,tr13).
part(part9).
partSize(part9,2).
valid_transport(part9,tr0).
valid_transport(part9,tr2).
valid_transport(part9,tr15).
valid_transport(part9,tr9).
valid_transport(part9,tr12).
valid_transport(part9,tr13).
valid_transport(part9,tr11).

% ---- demand ----
demandOffer(part0,prodloc14,40).
demandOffer(part0,prodloc23,40).
demandOffer(part0,prodloc24,-27).
demandOffer(part0,prodloc8,-53).
demandOffer(part1,prodloc12,20).
demandOffer(part1,prodloc2,20).
demandOffer(part1,prodloc5,-20).
demandOffer(part1,prodloc8,-20).
demandOffer(part10,prodloc15,20).
demandOffer(part10,prodloc32,20).
demandOffer(part10,prodloc13,-20).
demandOffer(part10,prodloc25,-20).
demandOffer(part12,prodloc1,10).
demandOffer(part12,prodloc29,20).
demandOffer(part12,prodloc31,-10).
demandOffer(part12,prodloc24,-10).
demandOffer(part12,prodloc12,-10).
demandOffer(part13,prodloc25,20).
demandOffer(part13,prodloc5,20).
demandOffer(part13,prodloc31,-20).
demandOffer(part13,prodloc14,-20).
demandOffer(part14,prodloc1,26).
demandOffer(part14,prodloc17,-26).
demandOffer(part15,prodloc33,53).
demandOffer(part15,prodloc26,27).
demandOffer(part15,prodloc30,-53).
demandOffer(part15,prodloc24,-27).
demandOffer(part16,prodloc7,53).
demandOffer(part16,prodloc16,27).
demandOffer(part16,prodloc6,-53).
demandOffer(part16,prodloc4,-27).
demandOffer(part17,prodloc24,20).
demandOffer(part17,prodloc6,-20).
demandOffer(part18,prodloc3,40).
demandOffer(part18,prodloc21,40).
demandOffer(part18,prodloc15,-27).
demandOffer(part18,prodloc5,-53).
demandOffer(part19,prodloc31,26).
demandOffer(part19,prodloc33,-26).
demandOffer(part2,prodloc13,40).
demandOffer(part2,prodloc9,40).
demandOffer(part2,prodloc4,-27).
demandOffer(part2,prodloc2,-53).
demandOffer(part20,prodloc31,53).
demandOffer(part20,prodloc12,27).
demandOffer(part20,prodloc9,-14).
demandOffer(part20,prodloc29,-46).
demandOffer(part20,prodloc28,-20).
demandOffer(part21,prodloc18,26).
demandOffer(part21,prodloc22,-26).
demandOffer(part22,prodloc27,53).
demandOffer(part22,prodloc8,27).
demandOffer(part22,prodloc10,-53).
demandOffer(part22,prodloc6,-27).
demandOffer(part23,prodloc20,20).
demandOffer(part23,prodloc22,20).
demandOffer(part23,prodloc31,-20).
demandOffer(part23,prodloc32,-20).
demandOffer(part25,prodloc12,20).
demandOffer(part25,prodloc19,-20).
demandOffer(part26,prodloc9,20).
demandOffer(part26,prodloc22,20).
demandOffer(part26,prodloc33,-14).
demandOffer(part26,prodloc18,-26).
demandOffer(part27,prodloc32,53).
demandOffer(part27,prodloc4,27).
demandOffer(part27,prodloc14,-53).
demandOffer(part27,prodloc22,-27).
demandOffer(part28,prodloc15,20).
demandOffer(part28,prodloc0,20).
demandOffer(part28,prodloc18,-20).
demandOffer(part28,prodloc21,-20).
demandOffer(part3,prodloc14,40).
demandOffer(part3,prodloc17,-14).
demandOffer(part3,prodloc2,-26).
demandOffer(part30,prodloc27,40).
demandOffer(part30,prodloc16,40).
demandOffer(part30,prodloc24,-27).
demandOffer(part30,prodloc19,-53).
demandOffer(part31,prodloc26,7).
demandOffer(part31,prodloc11,7).
demandOffer(part31,prodloc25,-14).
demandOffer(part32,prodloc7,53).
demandOffer(part32,prodloc10,27).
demandOffer(part32,prodloc1,-53).
demandOffer(part32,prodloc12,-27).
demandOffer(part33,prodloc10,53).
demandOffer(part33,prodloc19,27).
demandOffer(part33,prodloc7,-53).
demandOffer(part33,prodloc0,-27).
demandOffer(part34,prodloc24,20).
demandOffer(part34,prodloc21,-20).
demandOffer(part4,prodloc10,26).
demandOffer(part4,prodloc27,-26).
demandOffer(part5,prodloc14,20).
demandOffer(part5,prodloc8,-20).
demandOffer(part6,prodloc26,27).
demandOffer(part6,prodloc28,53).
demandOffer(part6,prodloc33,-24).
demandOffer(part6,prodloc13,-36).
demandOffer(part6,prodloc2,-10).
demandOffer(part6,prodloc18,-10).
demandOffer(part8,prodloc4,3).
demandOffer(part8,prodloc18,17).
demandOffer(part8,prodloc6,-10).
demandOffer(part8,prodloc2,-10).
demandOffer(part9,prodloc5,20).
demandOffer(part9,prodloc6,-20).

% ---- network (ASP-generated) ----
route(harbor0,harbor1,tr13,25073,150438).
route(harbor0,harbor1,tr2,25073,75219).
route(harbor0,harbor2,tr13,17100,102600).
route(harbor0,harbor2,tr2,17100,51300).
route(harbor0,harbor3,tr13,17308,103848).
route(harbor0,harbor3,tr2,17308,51924).
route(harbor0,harbor4,tr13,11831,70986).
route(harbor0,harbor4,tr2,11831,35493).
route(harbor0,harbor5,tr13,5065,30390).
route(harbor0,harbor5,tr2,5065,15195).
route(harbor0,harbor6,tr13,26496,158976).
route(harbor0,harbor6,tr2,26496,79488).
route(harbor0,harbor7,tr13,16575,99450).
route(harbor0,harbor7,tr2,16575,49725).
route(harbor0,harbor8,tr13,16028,96168).
route(harbor0,harbor8,tr2,16028,48084).
route(harbor0,harbor9,tr13,23235,139410).
route(harbor0,harbor9,tr2,23235,69705).
route(harbor0,harbor10,tr13,4897,29382).
route(harbor0,harbor10,tr2,4897,14691).
route(harbor0,harbor11,tr13,19836,119016).
route(harbor0,harbor11,tr2,19836,59508).
route(harbor0,harbor12,tr13,2093,12558).
route(harbor0,harbor12,tr2,2093,6279).
route(harbor0,harbor13,tr13,6245,37470).
route(harbor0,harbor13,tr2,6245,18735).
route(harbor0,harbor14,tr13,585,3510).
route(harbor0,harbor14,tr2,585,1755).
route(harbor0,harbor15,tr13,4630,27780).
route(harbor0,harbor15,tr2,4630,13890).
route(harbor0,harbor16,tr13,11197,67182).
route(harbor0,harbor16,tr2,11197,33591).
route(harbor0,prodloc0,tr0,12661,329186).
route(harbor0,prodloc0,tr13,12661,75966).
route(harbor0,prodloc1,tr0,21570,560820).
route(harbor0,prodloc1,tr13,21570,129420).
route(harbor0,prodloc2,tr0,18800,488800).
route(harbor0,prodloc2,tr13,18800,112800).
route(harbor0,prodloc3,tr0,3958,102908).
route(harbor0,prodloc3,tr13,3958,23748).
route(harbor0,prodloc4,tr0,24373,633698).
route(harbor0,prodloc4,tr13,24373,146238).
route(harbor0,prodloc5,tr0,9813,255138).
route(harbor0,prodloc5,tr13,9813,58878).
route(harbor0,prodloc6,tr0,11518,299468).
route(harbor0,prodloc6,tr13,11518,69108).
route(harbor0,prodloc7,tr0,10665,277290).
route(harbor0,prodloc7,tr13,10665,63990).
route(harbor0,prodloc8,tr0,11996,311896).
route(harbor0,prodloc8,tr13,11996,71976).
route(harbor0,prodloc9,tr0,98,2548).
route(harbor0,prodloc9,tr13,98,588).
route(harbor0,prodloc10,tr0,21165,550290).
route(harbor0,prodloc10,tr13,21165,126990).
route(harbor0,prodloc11,tr0,27385,712010).
route(harbor0,prodloc11,tr13,27385,164310).
route(harbor0,prodloc12,tr0,16353,425178).
route(harbor0,prodloc12,tr13,16353,98118).
route(harbor0,prodloc13,tr0,6885,179010).
route(harbor0,prodloc13,tr13,6885,41310).
route(harbor0,prodloc14,tr0,1989,51714).
route(harbor0,prodloc14,tr13,1989,11934).
route(harbor0,prodloc15,tr0,28679,745654).
route(harbor0,prodloc15,tr13,28679,172074).
route(harbor0,prodloc16,tr0,20228,525928).
route(harbor0,prodloc16,tr13,20228,121368).
route(harbor0,prodloc17,tr0,1087,28262).
route(harbor0,prodloc17,tr13,1087,6522).
route(harbor0,prodloc18,tr0,28933,752258).
route(harbor0,prodloc18,tr13,28933,173598).
route(harbor0,prodloc19,tr0,28474,740324).
route(harbor0,prodloc19,tr13,28474,170844).
route(harbor0,prodloc20,tr0,24885,647010).
route(harbor0,prodloc20,tr13,24885,149310).
route(harbor0,prodloc21,tr0,26495,688870).
route(harbor0,prodloc21,tr13,26495,158970).
route(harbor0,prodloc22,tr0,26755,695630).
route(harbor0,prodloc22,tr13,26755,160530).
route(harbor0,prodloc23,tr0,19007,494182).
route(harbor0,prodloc23,tr13,19007,114042).
route(harbor0,prodloc24,tr0,5637,146562).
route(harbor0,prodloc24,tr13,5637,33822).
route(harbor0,prodloc25,tr0,5828,151528).
route(harbor0,prodloc25,tr13,5828,34968).
route(harbor0,prodloc26,tr0,11061,287586).
route(harbor0,prodloc26,tr13,11061,66366).
route(harbor0,prodloc27,tr0,14126,367276).
route(harbor0,prodloc27,tr13,14126,84756).
route(harbor0,prodloc28,tr0,14469,376194).
route(harbor0,prodloc28,tr13,14469,86814).
route(harbor0,prodloc29,tr0,3965,103090).
route(harbor0,prodloc29,tr13,3965,23790).
route(harbor0,prodloc30,tr0,2733,71058).
route(harbor0,prodloc30,tr13,2733,16398).
route(harbor0,prodloc31,tr0,6570,170820).
route(harbor0,prodloc31,tr13,6570,39420).
route(harbor0,prodloc32,tr0,19839,515814).
route(harbor0,prodloc32,tr13,19839,119034).
route(harbor0,prodloc33,tr0,7341,190866).
route(harbor0,prodloc33,tr13,7341,44046).
route(harbor1,harbor0,tr13,16322,97932).
route(harbor1,harbor0,tr2,16322,48966).
route(harbor1,harbor2,tr13,26617,159702).
route(harbor1,harbor2,tr2,26617,79851).
route(harbor1,harbor3,tr13,15535,93210).
route(harbor1,harbor3,tr2,15535,46605).
route(harbor1,harbor4,tr13,25923,155538).
route(harbor1,harbor4,tr2,25923,77769).
route(harbor1,harbor5,tr13,5093,30558).
route(harbor1,harbor5,tr2,5093,15279).
route(harbor1,harbor6,tr13,12517,75102).
route(harbor1,harbor6,tr2,12517,37551).
route(harbor1,harbor7,tr13,4028,24168).
route(harbor1,harbor7,tr2,4028,12084).
route(harbor1,harbor8,tr13,3584,21504).
route(harbor1,harbor8,tr2,3584,10752).
route(harbor1,harbor9,tr13,19059,114354).
route(harbor1,harbor9,tr2,19059,57177).
route(harbor1,harbor10,tr13,23654,141924).
route(harbor1,harbor10,tr2,23654,70962).
route(harbor1,harbor11,tr13,14863,89178).
route(harbor1,harbor11,tr2,14863,44589).
route(harbor1,harbor12,tr13,21260,127560).
route(harbor1,harbor12,tr2,21260,63780).
route(harbor1,harbor13,tr13,4173,25038).
route(harbor1,harbor13,tr2,4173,12519).
route(harbor1,harbor14,tr13,23601,141606).
route(harbor1,harbor14,tr2,23601,70803).
route(harbor1,harbor15,tr13,14430,86580).
route(harbor1,harbor15,tr2,14430,43290).
route(harbor1,harbor16,tr13,16888,101328).
route(harbor1,harbor16,tr2,16888,50664).
route(harbor1,prodloc0,tr0,23775,618150).
route(harbor1,prodloc0,tr13,23775,142650).
route(harbor1,prodloc1,tr0,2965,77090).
route(harbor1,prodloc1,tr13,2965,17790).
route(harbor1,prodloc2,tr0,23447,609622).
route(harbor1,prodloc2,tr13,23447,140682).
route(harbor1,prodloc3,tr0,15445,401570).
route(harbor1,prodloc3,tr13,15445,92670).
route(harbor1,prodloc4,tr0,18478,480428).
route(harbor1,prodloc4,tr13,18478,110868).
route(harbor1,prodloc5,tr0,12904,335504).
route(harbor1,prodloc5,tr13,12904,77424).
route(harbor1,prodloc6,tr0,26755,695630).
route(harbor1,prodloc6,tr13,26755,160530).
route(harbor1,prodloc7,tr0,11824,307424).
route(harbor1,prodloc7,tr13,11824,70944).
route(harbor1,prodloc8,tr0,14922,387972).
route(harbor1,prodloc8,tr13,14922,89532).
route(harbor1,prodloc9,tr0,7391,192166).
route(harbor1,prodloc9,tr13,7391,44346).
route(harbor1,prodloc10,tr0,1670,43420).
route(harbor1,prodloc10,tr13,1670,10020).
route(harbor1,prodloc11,tr0,6473,168298).
route(harbor1,prodloc11,tr13,6473,38838).
route(harbor1,prodloc12,tr0,1605,41730).
route(harbor1,prodloc12,tr13,1605,9630).
route(harbor1,prodloc13,tr0,14623,380198).
route(harbor1,prodloc13,tr13,14623,87738).
route(harbor1,prodloc14,tr0,3652,94952).
route(harbor1,prodloc14,tr13,3652,21912).
route(harbor1,prodloc15,tr0,3546,92196).
route(harbor1,prodloc15,tr13,3546,21276).
route(harbor1,prodloc16,tr0,6923,179998).
route(harbor1,prodloc16,tr13,6923,41538).
route(harbor1,prodloc17,tr0,23763,617838).
route(harbor1,prodloc17,tr13,23763,142578).
route(harbor1,prodloc18,tr0,152,3952).
route(harbor1,prodloc18,tr13,152,912).
route(harbor1,prodloc19,tr0,23212,603512).
route(harbor1,prodloc19,tr13,23212,139272).
route(harbor1,prodloc20,tr0,19683,511758).
route(harbor1,prodloc20,tr13,19683,118098).
route(harbor1,prodloc21,tr0,20040,521040).
route(harbor1,prodloc21,tr13,20040,120240).
route(harbor1,prodloc22,tr0,743,19318).
route(harbor1,prodloc22,tr13,743,4458).
route(harbor1,prodloc23,tr0,21471,558246).
route(harbor1,prodloc23,tr13,21471,128826).
route(harbor1,prodloc24,tr0,11932,310232).
route(harbor1,prodloc24,tr13,11932,71592).
route(harbor1,prodloc25,tr0,27175,706550).
route(harbor1,prodloc25,tr13,27175,163050).
route(harbor1,prodloc26,tr0,14171,368446).
route(harbor1,prodloc26,tr13,14171,85026).
route(harbor1,prodloc27,tr0,17299,449774).
route(harbor1,prodloc27,tr13,17299,103794).
route(harbor1,prodloc28,tr0,3060,79560).
route(harbor1,prodloc28,tr13,3060,18360).
route(harbor1,prodloc29,tr0,24544,638144).
route(harbor1,prodloc29,tr13,24544,147264).
route(harbor1,prodloc30,tr0,24762,643812).
route(harbor1,prodloc30,tr13,24762,148572).
route(harbor1,prodloc31,tr0,19669,511394).
route(harbor1,prodloc31,tr13,19669,118014).
route(harbor1,prodloc32,tr0,16470,428220).
route(harbor1,prodloc32,tr13,16470,98820).
route(harbor1,prodloc33,tr0,26847,698022).
route(harbor1,prodloc33,tr13,26847,161082).
route(harbor2,harbor0,tr13,23137,138822).
route(harbor2,harbor0,tr2,23137,69411).
route(harbor2,harbor1,tr13,18674,112044).
route(harbor2,harbor1,tr2,18674,56022).
route(harbor2,harbor3,tr13,6605,39630).
route(harbor2,harbor3,tr2,6605,19815).
route(harbor2,harbor4,tr13,16464,98784).
route(harbor2,harbor4,tr2,16464,49392).
route(harbor2,harbor5,tr13,7548,45288).
route(harbor2,harbor5,tr2,7548,22644).
route(harbor2,harbor6,tr13,10650,63900).
route(harbor2,harbor6,tr2,10650,31950).
route(harbor2,harbor7,tr13,17257,103542).
route(harbor2,harbor7,tr2,17257,51771).
route(harbor2,harbor8,tr13,12616,75696).
route(harbor2,harbor8,tr2,12616,37848).
route(harbor2,harbor9,tr13,24407,146442).
route(harbor2,harbor9,tr2,24407,73221).
route(harbor2,harbor10,tr13,17062,102372).
route(harbor2,harbor10,tr2,17062,51186).
route(harbor2,harbor11,tr13,21239,127434).
route(harbor2,harbor11,tr2,21239,63717).
route(harbor2,harbor12,tr13,6458,38748).
route(harbor2,harbor12,tr2,6458,19374).
route(harbor2,harbor13,tr13,249,1494).
route(harbor2,harbor13,tr2,249,747).
route(harbor2,harbor14,tr13,9518,57108).
route(harbor2,harbor14,tr2,9518,28554).
route(harbor2,harbor15,tr13,20122,120732).
route(harbor2,harbor15,tr2,20122,60366).
route(harbor2,harbor16,tr13,9745,58470).
route(harbor2,harbor16,tr2,9745,29235).
route(harbor2,prodloc0,tr0,2619,68094).
route(harbor2,prodloc0,tr13,2619,15714).
route(harbor2,prodloc1,tr0,24358,633308).
route(harbor2,prodloc1,tr13,24358,146148).
route(harbor2,prodloc2,tr0,10521,273546).
route(harbor2,prodloc2,tr13,10521,63126).
route(harbor2,prodloc3,tr0,13203,343278).
route(harbor2,prodloc3,tr13,13203,79218).
route(harbor2,prodloc4,tr0,7331,190606).
route(harbor2,prodloc4,tr13,7331,43986).
route(harbor2,prodloc5,tr0,20722,538772).
route(harbor2,prodloc5,tr13,20722,124332).
route(harbor2,prodloc6,tr0,9715,252590).
route(harbor2,prodloc6,tr13,9715,58290).
route(harbor2,prodloc7,tr0,2611,67886).
route(harbor2,prodloc7,tr13,2611,15666).
route(harbor2,prodloc8,tr0,17937,466362).
route(harbor2,prodloc8,tr13,17937,107622).
route(harbor2,prodloc9,tr0,13747,357422).
route(harbor2,prodloc9,tr13,13747,82482).
route(harbor2,prodloc10,tr0,24388,634088).
route(harbor2,prodloc10,tr13,24388,146328).
route(harbor2,prodloc11,tr0,12101,314626).
route(harbor2,prodloc11,tr13,12101,72606).
route(harbor2,prodloc12,tr0,26438,687388).
route(harbor2,prodloc12,tr13,26438,158628).
route(harbor2,prodloc13,tr0,24275,631150).
route(harbor2,prodloc13,tr13,24275,145650).
route(harbor2,prodloc14,tr0,27870,724620).
route(harbor2,prodloc14,tr13,27870,167220).
route(harbor2,prodloc15,tr0,10514,273364).
route(harbor2,prodloc15,tr13,10514,63084).
route(harbor2,prodloc16,tr0,16919,439894).
route(harbor2,prodloc16,tr13,16919,101514).
route(harbor2,prodloc17,tr0,9903,257478).
route(harbor2,prodloc17,tr13,9903,59418).
route(harbor2,prodloc18,tr0,20485,532610).
route(harbor2,prodloc18,tr13,20485,122910).
route(harbor2,prodloc19,tr0,27240,708240).
route(harbor2,prodloc19,tr13,27240,163440).
route(harbor2,prodloc20,tr0,11695,304070).
route(harbor2,prodloc20,tr13,11695,70170).
route(harbor2,prodloc21,tr0,25668,667368).
route(harbor2,prodloc21,tr13,25668,154008).
route(harbor2,prodloc22,tr0,9695,252070).
route(harbor2,prodloc22,tr13,9695,58170).
route(harbor2,prodloc23,tr0,21346,554996).
route(harbor2,prodloc23,tr13,21346,128076).
route(harbor2,prodloc24,tr0,27714,720564).
route(harbor2,prodloc24,tr13,27714,166284).
route(harbor2,prodloc25,tr0,3583,93158).
route(harbor2,prodloc25,tr13,3583,21498).
route(harbor2,prodloc26,tr0,6416,166816).
route(harbor2,prodloc26,tr13,6416,38496).
route(harbor2,prodloc27,tr0,15901,413426).
route(harbor2,prodloc27,tr13,15901,95406).
route(harbor2,prodloc28,tr0,12125,315250).
route(harbor2,prodloc28,tr13,12125,72750).
route(harbor2,prodloc29,tr0,12407,322582).
route(harbor2,prodloc29,tr13,12407,74442).
route(harbor2,prodloc30,tr0,19170,498420).
route(harbor2,prodloc30,tr13,19170,115020).
route(harbor2,prodloc31,tr0,27758,721708).
route(harbor2,prodloc31,tr13,27758,166548).
route(harbor2,prodloc32,tr0,10225,265850).
route(harbor2,prodloc32,tr13,10225,61350).
route(harbor2,prodloc33,tr0,6727,174902).
route(harbor2,prodloc33,tr13,6727,40362).
route(harbor3,harbor0,tr13,9548,57288).
route(harbor3,harbor0,tr2,9548,28644).
route(harbor3,harbor1,tr13,13039,78234).
route(harbor3,harbor1,tr2,13039,39117).
route(harbor3,harbor2,tr13,20117,120702).
route(harbor3,harbor2,tr2,20117,60351).
route(harbor3,harbor4,tr13,12595,75570).
route(harbor3,harbor4,tr2,12595,37785).
route(harbor3,harbor5,tr13,27641,165846).
route(harbor3,harbor5,tr2,27641,82923).
route(harbor3,harbor6,tr13,22454,134724).
route(harbor3,harbor6,tr2,22454,67362).
route(harbor3,harbor7,tr13,17189,103134).
route(harbor3,harbor7,tr2,17189,51567).
route(harbor3,harbor8,tr13,22660,135960).
route(harbor3,harbor8,tr2,22660,67980).
route(harbor3,harbor9,tr13,23886,143316).
route(harbor3,harbor9,tr2,23886,71658).
route(harbor3,harbor10,tr13,11688,70128).
route(harbor3,harbor10,tr2,11688,35064).
route(harbor3,harbor11,tr13,26929,161574).
route(harbor3,harbor11,tr2,26929,80787).
route(harbor3,harbor12,tr13,22181,133086).
route(harbor3,harbor12,tr2,22181,66543).
route(harbor3,harbor13,tr13,19852,119112).
route(harbor3,harbor13,tr2,19852,59556).
route(harbor3,harbor14,tr13,19203,115218).
route(harbor3,harbor14,tr2,19203,57609).
route(harbor3,harbor15,tr13,11898,71388).
route(harbor3,harbor15,tr2,11898,35694).
route(harbor3,harbor16,tr13,22085,132510).
route(harbor3,harbor16,tr2,22085,66255).
route(harbor3,prodloc0,tr0,14010,364260).
route(harbor3,prodloc0,tr13,14010,84060).
route(harbor3,prodloc1,tr0,6420,166920).
route(harbor3,prodloc1,tr13,6420,38520).
route(harbor3,prodloc2,tr0,16056,417456).
route(harbor3,prodloc2,tr13,16056,96336).
route(harbor3,prodloc3,tr0,26959,700934).
route(harbor3,prodloc3,tr13,26959,161754).
route(harbor3,prodloc4,tr0,17334,450684).
route(harbor3,prodloc4,tr13,17334,104004).
route(harbor3,prodloc5,tr0,16625,432250).
route(harbor3,prodloc5,tr13,16625,99750).
route(harbor3,prodloc6,tr0,27467,714142).
route(harbor3,prodloc6,tr13,27467,164802).
route(harbor3,prodloc7,tr0,2688,69888).
route(harbor3,prodloc7,tr13,2688,16128).
route(harbor3,prodloc8,tr0,8811,229086).
route(harbor3,prodloc8,tr13,8811,52866).
route(harbor3,prodloc9,tr0,5357,139282).
route(harbor3,prodloc9,tr13,5357,32142).
route(harbor3,prodloc10,tr0,2250,58500).
route(harbor3,prodloc10,tr13,2250,13500).
route(harbor3,prodloc11,tr0,16328,424528).
route(harbor3,prodloc11,tr13,16328,97968).
route(harbor3,prodloc12,tr0,24025,624650).
route(harbor3,prodloc12,tr13,24025,144150).
route(harbor3,prodloc13,tr0,28392,738192).
route(harbor3,prodloc13,tr13,28392,170352).
route(harbor3,prodloc14,tr0,8878,230828).
route(harbor3,prodloc14,tr13,8878,53268).
route(harbor3,prodloc15,tr0,13755,357630).
route(harbor3,prodloc15,tr13,13755,82530).
route(harbor3,prodloc16,tr0,25563,664638).
route(harbor3,prodloc16,tr13,25563,153378).
route(harbor3,prodloc17,tr0,3837,99762).
route(harbor3,prodloc17,tr13,3837,23022).
route(harbor3,prodloc18,tr0,20467,532142).
route(harbor3,prodloc18,tr13,20467,122802).
route(harbor3,prodloc19,tr0,27177,706602).
route(harbor3,prodloc19,tr13,27177,163062).
route(harbor3,prodloc20,tr0,27034,702884).
route(harbor3,prodloc20,tr13,27034,162204).
route(harbor3,prodloc21,tr0,8978,233428).
route(harbor3,prodloc21,tr13,8978,53868).
route(harbor3,prodloc22,tr0,9558,248508).
route(harbor3,prodloc22,tr13,9558,57348).
route(harbor3,prodloc23,tr0,8983,233558).
route(harbor3,prodloc23,tr13,8983,53898).
route(harbor3,prodloc24,tr0,26354,685204).
route(harbor3,prodloc24,tr13,26354,158124).
route(harbor3,prodloc25,tr0,27046,703196).
route(harbor3,prodloc25,tr13,27046,162276).
route(harbor3,prodloc26,tr0,16524,429624).
route(harbor3,prodloc26,tr13,16524,99144).
route(harbor3,prodloc27,tr0,8803,228878).
route(harbor3,prodloc27,tr13,8803,52818).
route(harbor3,prodloc28,tr0,9089,236314).
route(harbor3,prodloc28,tr13,9089,54534).
route(harbor3,prodloc29,tr0,20717,538642).
route(harbor3,prodloc29,tr13,20717,124302).
route(harbor3,prodloc30,tr0,13495,350870).
route(harbor3,prodloc30,tr13,13495,80970).
route(harbor3,prodloc31,tr0,8015,208390).
route(harbor3,prodloc31,tr13,8015,48090).
route(harbor3,prodloc32,tr0,11843,307918).
route(harbor3,prodloc32,tr13,11843,71058).
route(harbor3,prodloc33,tr0,8055,209430).
route(harbor3,prodloc33,tr13,8055,48330).
route(harbor4,harbor0,tr13,8156,48936).
route(harbor4,harbor0,tr2,8156,24468).
route(harbor4,harbor1,tr13,25922,155532).
route(harbor4,harbor1,tr2,25922,77766).
route(harbor4,harbor2,tr13,16568,99408).
route(harbor4,harbor2,tr2,16568,49704).
route(harbor4,harbor3,tr13,24520,147120).
route(harbor4,harbor3,tr2,24520,73560).
route(harbor4,harbor5,tr13,15035,90210).
route(harbor4,harbor5,tr2,15035,45105).
route(harbor4,harbor6,tr13,8218,49308).
route(harbor4,harbor6,tr2,8218,24654).
route(harbor4,harbor7,tr13,7705,46230).
route(harbor4,harbor7,tr2,7705,23115).
route(harbor4,harbor8,tr13,26679,160074).
route(harbor4,harbor8,tr2,26679,80037).
route(harbor4,harbor9,tr13,26602,159612).
route(harbor4,harbor9,tr2,26602,79806).
route(harbor4,harbor10,tr13,19579,117474).
route(harbor4,harbor10,tr2,19579,58737).
route(harbor4,harbor11,tr13,17241,103446).
route(harbor4,harbor11,tr2,17241,51723).
route(harbor4,harbor12,tr13,27218,163308).
route(harbor4,harbor12,tr2,27218,81654).
route(harbor4,harbor13,tr13,6432,38592).
route(harbor4,harbor13,tr2,6432,19296).
route(harbor4,harbor14,tr13,12086,72516).
route(harbor4,harbor14,tr2,12086,36258).
route(harbor4,harbor15,tr13,16304,97824).
route(harbor4,harbor15,tr2,16304,48912).
route(harbor4,harbor16,tr13,25614,153684).
route(harbor4,harbor16,tr2,25614,76842).
route(harbor4,prodloc0,tr0,3467,90142).
route(harbor4,prodloc0,tr13,3467,20802).
route(harbor4,prodloc1,tr0,26001,676026).
route(harbor4,prodloc1,tr13,26001,156006).
route(harbor4,prodloc2,tr0,3659,95134).
route(harbor4,prodloc2,tr13,3659,21954).
route(harbor4,prodloc3,tr0,12714,330564).
route(harbor4,prodloc3,tr13,12714,76284).
route(harbor4,prodloc4,tr0,2761,71786).
route(harbor4,prodloc4,tr13,2761,16566).
route(harbor4,prodloc5,tr0,21454,557804).
route(harbor4,prodloc5,tr13,21454,128724).
route(harbor4,prodloc6,tr0,5595,145470).
route(harbor4,prodloc6,tr13,5595,33570).
route(harbor4,prodloc7,tr0,25568,664768).
route(harbor4,prodloc7,tr13,25568,153408).
route(harbor4,prodloc8,tr0,18573,482898).
route(harbor4,prodloc8,tr13,18573,111438).
route(harbor4,prodloc9,tr0,14012,364312).
route(harbor4,prodloc9,tr13,14012,84072).
route(harbor4,prodloc10,tr0,1481,38506).
route(harbor4,prodloc10,tr13,1481,8886).
route(harbor4,prodloc11,tr0,25765,669890).
route(harbor4,prodloc11,tr13,25765,154590).
route(harbor4,prodloc12,tr0,4484,116584).
route(harbor4,prodloc12,tr13,4484,26904).
route(harbor4,prodloc13,tr0,725,18850).
route(harbor4,prodloc13,tr13,725,4350).
route(harbor4,prodloc14,tr0,19999,519974).
route(harbor4,prodloc14,tr13,19999,119994).
route(harbor4,prodloc15,tr0,6268,162968).
route(harbor4,prodloc15,tr13,6268,37608).
route(harbor4,prodloc16,tr0,22449,583674).
route(harbor4,prodloc16,tr13,22449,134694).
route(harbor4,prodloc17,tr0,8673,225498).
route(harbor4,prodloc17,tr13,8673,52038).
route(harbor4,prodloc18,tr0,2854,74204).
route(harbor4,prodloc18,tr13,2854,17124).
route(harbor4,prodloc19,tr0,3129,81354).
route(harbor4,prodloc19,tr13,3129,18774).
route(harbor4,prodloc20,tr0,15163,394238).
route(harbor4,prodloc20,tr13,15163,90978).
route(harbor4,prodloc21,tr0,15066,391716).
route(harbor4,prodloc21,tr13,15066,90396).
route(harbor4,prodloc22,tr0,28467,740142).
route(harbor4,prodloc22,tr13,28467,170802).
route(harbor4,prodloc23,tr0,21930,570180).
route(harbor4,prodloc23,tr13,21930,131580).
route(harbor4,prodloc24,tr0,9250,240500).
route(harbor4,prodloc24,tr13,9250,55500).
route(harbor4,prodloc25,tr0,18552,482352).
route(harbor4,prodloc25,tr13,18552,111312).
route(harbor4,prodloc26,tr0,3039,79014).
route(harbor4,prodloc26,tr13,3039,18234).
route(harbor4,prodloc27,tr0,4141,107666).
route(harbor4,prodloc27,tr13,4141,24846).
route(harbor4,prodloc28,tr0,19895,517270).
route(harbor4,prodloc28,tr13,19895,119370).
route(harbor4,prodloc29,tr0,11718,304668).
route(harbor4,prodloc29,tr13,11718,70308).
route(harbor4,prodloc30,tr0,28346,736996).
route(harbor4,prodloc30,tr13,28346,170076).
route(harbor4,prodloc31,tr0,21389,556114).
route(harbor4,prodloc31,tr13,21389,128334).
route(harbor4,prodloc32,tr0,2163,56238).
route(harbor4,prodloc32,tr13,2163,12978).
route(harbor4,prodloc33,tr0,10485,272610).
route(harbor4,prodloc33,tr13,10485,62910).
route(harbor5,harbor0,tr13,25936,155616).
route(harbor5,harbor0,tr2,25936,77808).
route(harbor5,harbor1,tr13,1298,7788).
route(harbor5,harbor1,tr2,1298,3894).
route(harbor5,harbor2,tr13,27411,164466).
route(harbor5,harbor2,tr2,27411,82233).
route(harbor5,harbor3,tr13,2781,16686).
route(harbor5,harbor3,tr2,2781,8343).
route(harbor5,harbor4,tr13,28179,169074).
route(harbor5,harbor4,tr2,28179,84537).
route(harbor5,harbor6,tr13,4529,27174).
route(harbor5,harbor6,tr2,4529,13587).
route(harbor5,harbor7,tr13,21448,128688).
route(harbor5,harbor7,tr2,21448,64344).
route(harbor5,harbor8,tr13,26395,158370).
route(harbor5,harbor8,tr2,26395,79185).
route(harbor5,harbor9,tr13,12031,72186).
route(harbor5,harbor9,tr2,12031,36093).
route(harbor5,harbor10,tr13,27176,163056).
route(harbor5,harbor10,tr2,27176,81528).
route(harbor5,harbor11,tr13,2486,14916).
route(harbor5,harbor11,tr2,2486,7458).
route(harbor5,harbor12,tr13,26729,160374).
route(harbor5,harbor12,tr2,26729,80187).
route(harbor5,harbor13,tr13,7590,45540).
route(harbor5,harbor13,tr2,7590,22770).
route(harbor5,harbor14,tr13,23777,142662).
route(harbor5,harbor14,tr2,23777,71331).
route(harbor5,harbor15,tr13,1244,7464).
route(harbor5,harbor15,tr2,1244,3732).
route(harbor5,harbor16,tr13,19682,118092).
route(harbor5,harbor16,tr2,19682,59046).
route(harbor5,prodloc0,tr0,25897,673322).
route(harbor5,prodloc0,tr13,25897,155382).
route(harbor5,prodloc1,tr0,10464,272064).
route(harbor5,prodloc1,tr13,10464,62784).
route(harbor5,prodloc2,tr0,7287,189462).
route(harbor5,prodloc2,tr13,7287,43722).
route(harbor5,prodloc3,tr0,9720,252720).
route(harbor5,prodloc3,tr13,9720,58320).
route(harbor5,prodloc4,tr0,24383,633958).
route(harbor5,prodloc4,tr13,24383,146298).
route(harbor5,prodloc5,tr0,11716,304616).
route(harbor5,prodloc5,tr13,11716,70296).
route(harbor5,prodloc6,tr0,10710,278460).
route(harbor5,prodloc6,tr13,10710,64260).
route(harbor5,prodloc7,tr0,2168,56368).
route(harbor5,prodloc7,tr13,2168,13008).
route(harbor5,prodloc8,tr0,17043,443118).
route(harbor5,prodloc8,tr13,17043,102258).
route(harbor5,prodloc9,tr0,3737,97162).
route(harbor5,prodloc9,tr13,3737,22422).
route(harbor5,prodloc10,tr0,23640,614640).
route(harbor5,prodloc10,tr13,23640,141840).
route(harbor5,prodloc11,tr0,19975,519350).
route(harbor5,prodloc11,tr13,19975,119850).
route(harbor5,prodloc12,tr0,11406,296556).
route(harbor5,prodloc12,tr13,11406,68436).
route(harbor5,prodloc13,tr0,14241,370266).
route(harbor5,prodloc13,tr13,14241,85446).
route(harbor5,prodloc14,tr0,5236,136136).
route(harbor5,prodloc14,tr13,5236,31416).
route(harbor5,prodloc15,tr0,5149,133874).
route(harbor5,prodloc15,tr13,5149,30894).
route(harbor5,prodloc16,tr0,8355,217230).
route(harbor5,prodloc16,tr13,8355,50130).
route(harbor5,prodloc17,tr0,12758,331708).
route(harbor5,prodloc17,tr13,12758,76548).
route(harbor5,prodloc18,tr0,4876,126776).
route(harbor5,prodloc18,tr13,4876,29256).
route(harbor5,prodloc19,tr0,14132,367432).
route(harbor5,prodloc19,tr13,14132,84792).
route(harbor5,prodloc20,tr0,23850,620100).
route(harbor5,prodloc20,tr13,23850,143100).
route(harbor5,prodloc21,tr0,25633,666458).
route(harbor5,prodloc21,tr13,25633,153798).
route(harbor5,prodloc22,tr0,2136,55536).
route(harbor5,prodloc22,tr13,2136,12816).
route(harbor5,prodloc23,tr0,3271,85046).
route(harbor5,prodloc23,tr13,3271,19626).
route(harbor5,prodloc24,tr0,17515,455390).
route(harbor5,prodloc24,tr13,17515,105090).
route(harbor5,prodloc25,tr0,7296,189696).
route(harbor5,prodloc25,tr13,7296,43776).
route(harbor5,prodloc26,tr0,2693,70018).
route(harbor5,prodloc26,tr13,2693,16158).
route(harbor5,prodloc27,tr0,9608,249808).
route(harbor5,prodloc27,tr13,9608,57648).
route(harbor5,prodloc28,tr0,5791,150566).
route(harbor5,prodloc28,tr13,5791,34746).
route(harbor5,prodloc29,tr0,11043,287118).
route(harbor5,prodloc29,tr13,11043,66258).
route(harbor5,prodloc30,tr0,24558,638508).
route(harbor5,prodloc30,tr13,24558,147348).
route(harbor5,prodloc31,tr0,6520,169520).
route(harbor5,prodloc31,tr13,6520,39120).
route(harbor5,prodloc32,tr0,3574,92924).
route(harbor5,prodloc32,tr13,3574,21444).
route(harbor5,prodloc33,tr0,1669,43394).
route(harbor5,prodloc33,tr13,1669,10014).
route(harbor6,harbor0,tr13,1903,11418).
route(harbor6,harbor0,tr2,1903,5709).
route(harbor6,harbor1,tr13,18244,109464).
route(harbor6,harbor1,tr2,18244,54732).
route(harbor6,harbor2,tr13,25799,154794).
route(harbor6,harbor2,tr2,25799,77397).
route(harbor6,harbor3,tr13,24152,144912).
route(harbor6,harbor3,tr2,24152,72456).
route(harbor6,harbor4,tr13,5852,35112).
route(harbor6,harbor4,tr2,5852,17556).
route(harbor6,harbor5,tr13,27066,162396).
route(harbor6,harbor5,tr2,27066,81198).
route(harbor6,harbor7,tr13,5624,33744).
route(harbor6,harbor7,tr2,5624,16872).
route(harbor6,harbor8,tr13,18362,110172).
route(harbor6,harbor8,tr2,18362,55086).
route(harbor6,harbor9,tr13,20988,125928).
route(harbor6,harbor9,tr2,20988,62964).
route(harbor6,harbor10,tr13,10737,64422).
route(harbor6,harbor10,tr2,10737,32211).
route(harbor6,harbor11,tr13,9709,58254).
route(harbor6,harbor11,tr2,9709,29127).
route(harbor6,harbor12,tr13,28928,173568).
route(harbor6,harbor12,tr2,28928,86784).
route(harbor6,harbor13,tr13,7968,47808).
route(harbor6,harbor13,tr2,7968,23904).
route(harbor6,harbor14,tr13,24152,144912).
route(harbor6,harbor14,tr2,24152,72456).
route(harbor6,harbor15,tr13,16427,98562).
route(harbor6,harbor15,tr2,16427,49281).
route(harbor6,harbor16,tr13,15722,94332).
route(harbor6,harbor16,tr2,15722,47166).
route(harbor6,prodloc0,tr0,3637,94562).
route(harbor6,prodloc0,tr13,3637,21822).
route(harbor6,prodloc1,tr0,18445,479570).
route(harbor6,prodloc1,tr13,18445,110670).
route(harbor6,prodloc2,tr0,23538,611988).
route(harbor6,prodloc2,tr13,23538,141228).
route(harbor6,prodloc3,tr0,2720,70720).
route(harbor6,prodloc3,tr13,2720,16320).
route(harbor6,prodloc4,tr0,4507,117182).
route(harbor6,prodloc4,tr13,4507,27042).
route(harbor6,prodloc5,tr0,24565,638690).
route(harbor6,prodloc5,tr13,24565,147390).
route(harbor6,prodloc6,tr0,4348,113048).
route(harbor6,prodloc6,tr13,4348,26088).
route(harbor6,prodloc7,tr0,7387,192062).
route(harbor6,prodloc7,tr13,7387,44322).
route(harbor6,prodloc8,tr0,10711,278486).
route(harbor6,prodloc8,tr13,10711,64266).
route(harbor6,prodloc9,tr0,7146,185796).
route(harbor6,prodloc9,tr13,7146,42876).
route(harbor6,prodloc10,tr0,13365,347490).
route(harbor6,prodloc10,tr13,13365,80190).
route(harbor6,prodloc11,tr0,5700,148200).
route(harbor6,prodloc11,tr13,5700,34200).
route(harbor6,prodloc12,tr0,5538,143988).
route(harbor6,prodloc12,tr13,5538,33228).
route(harbor6,prodloc13,tr0,4426,115076).
route(harbor6,prodloc13,tr13,4426,26556).
route(harbor6,prodloc14,tr0,24972,649272).
route(harbor6,prodloc14,tr13,24972,149832).
route(harbor6,prodloc15,tr0,14433,375258).
route(harbor6,prodloc15,tr13,14433,86598).
route(harbor6,prodloc16,tr0,1995,51870).
route(harbor6,prodloc16,tr13,1995,11970).
route(harbor6,prodloc17,tr0,22770,592020).
route(harbor6,prodloc17,tr13,22770,136620).
route(harbor6,prodloc18,tr0,14693,382018).
route(harbor6,prodloc18,tr13,14693,88158).
route(harbor6,prodloc19,tr0,19189,498914).
route(harbor6,prodloc19,tr13,19189,115134).
route(harbor6,prodloc20,tr0,21885,569010).
route(harbor6,prodloc20,tr13,21885,131310).
route(harbor6,prodloc21,tr0,20113,522938).
route(harbor6,prodloc21,tr13,20113,120678).
route(harbor6,prodloc22,tr0,9417,244842).
route(harbor6,prodloc22,tr13,9417,56502).
route(harbor6,prodloc23,tr0,13595,353470).
route(harbor6,prodloc23,tr13,13595,81570).
route(harbor6,prodloc24,tr0,26687,693862).
route(harbor6,prodloc24,tr13,26687,160122).
route(harbor6,prodloc25,tr0,14307,371982).
route(harbor6,prodloc25,tr13,14307,85842).
route(harbor6,prodloc26,tr0,18953,492778).
route(harbor6,prodloc26,tr13,18953,113718).
route(harbor6,prodloc27,tr0,22498,584948).
route(harbor6,prodloc27,tr13,22498,134988).
route(harbor6,prodloc28,tr0,24161,628186).
route(harbor6,prodloc28,tr13,24161,144966).
route(harbor6,prodloc29,tr0,12193,317018).
route(harbor6,prodloc29,tr13,12193,73158).
route(harbor6,prodloc30,tr0,22681,589706).
route(harbor6,prodloc30,tr13,22681,136086).
route(harbor6,prodloc31,tr0,18482,480532).
route(harbor6,prodloc31,tr13,18482,110892).
route(harbor6,prodloc32,tr0,23268,604968).
route(harbor6,prodloc32,tr13,23268,139608).
route(harbor6,prodloc33,tr0,16046,417196).
route(harbor6,prodloc33,tr13,16046,96276).
route(harbor7,harbor0,tr13,28490,170940).
route(harbor7,harbor0,tr2,28490,85470).
route(harbor7,harbor1,tr13,12041,72246).
route(harbor7,harbor1,tr2,12041,36123).
route(harbor7,harbor2,tr13,24098,144588).
route(harbor7,harbor2,tr2,24098,72294).
route(harbor7,harbor3,tr13,27686,166116).
route(harbor7,harbor3,tr2,27686,83058).
route(harbor7,harbor4,tr13,25578,153468).
route(harbor7,harbor4,tr2,25578,76734).
route(harbor7,harbor5,tr13,17331,103986).
route(harbor7,harbor5,tr2,17331,51993).
route(harbor7,harbor6,tr13,6172,37032).
route(harbor7,harbor6,tr2,6172,18516).
route(harbor7,harbor8,tr13,10149,60894).
route(harbor7,harbor8,tr2,10149,30447).
route(harbor7,harbor9,tr13,8749,52494).
route(harbor7,harbor9,tr2,8749,26247).
route(harbor7,harbor10,tr13,22316,133896).
route(harbor7,harbor10,tr2,22316,66948).
route(harbor7,harbor11,tr13,15623,93738).
route(harbor7,harbor11,tr2,15623,46869).
route(harbor7,harbor12,tr13,27326,163956).
route(harbor7,harbor12,tr2,27326,81978).
route(harbor7,harbor13,tr13,4220,25320).
route(harbor7,harbor13,tr2,4220,12660).
route(harbor7,harbor14,tr13,27521,165126).
route(harbor7,harbor14,tr2,27521,82563).
route(harbor7,harbor15,tr13,27484,164904).
route(harbor7,harbor15,tr2,27484,82452).
route(harbor7,harbor16,tr13,9102,54612).
route(harbor7,harbor16,tr2,9102,27306).
route(harbor7,prodloc0,tr0,16384,425984).
route(harbor7,prodloc0,tr13,16384,98304).
route(harbor7,prodloc1,tr0,20818,541268).
route(harbor7,prodloc1,tr13,20818,124908).
route(harbor7,prodloc2,tr0,16601,431626).
route(harbor7,prodloc2,tr13,16601,99606).
route(harbor7,prodloc3,tr0,17489,454714).
route(harbor7,prodloc3,tr13,17489,104934).
route(harbor7,prodloc4,tr0,25850,672100).
route(harbor7,prodloc4,tr13,25850,155100).
route(harbor7,prodloc5,tr0,16774,436124).
route(harbor7,prodloc5,tr13,16774,100644).
route(harbor7,prodloc6,tr0,9476,246376).
route(harbor7,prodloc6,tr13,9476,56856).
route(harbor7,prodloc7,tr0,26442,687492).
route(harbor7,prodloc7,tr13,26442,158652).
route(harbor7,prodloc8,tr0,7128,185328).
route(harbor7,prodloc8,tr13,7128,42768).
route(harbor7,prodloc9,tr0,18631,484406).
route(harbor7,prodloc9,tr13,18631,111786).
route(harbor7,prodloc10,tr0,17254,448604).
route(harbor7,prodloc10,tr13,17254,103524).
route(harbor7,prodloc11,tr0,12803,332878).
route(harbor7,prodloc11,tr13,12803,76818).
route(harbor7,prodloc12,tr0,25126,653276).
route(harbor7,prodloc12,tr13,25126,150756).
route(harbor7,prodloc13,tr0,4418,114868).
route(harbor7,prodloc13,tr13,4418,26508).
route(harbor7,prodloc14,tr0,27031,702806).
route(harbor7,prodloc14,tr13,27031,162186).
route(harbor7,prodloc15,tr0,16017,416442).
route(harbor7,prodloc15,tr13,16017,96102).
route(harbor7,prodloc16,tr0,21217,551642).
route(harbor7,prodloc16,tr13,21217,127302).
route(harbor7,prodloc17,tr0,15594,405444).
route(harbor7,prodloc17,tr13,15594,93564).
route(harbor7,prodloc18,tr0,4073,105898).
route(harbor7,prodloc18,tr13,4073,24438).
route(harbor7,prodloc19,tr0,9544,248144).
route(harbor7,prodloc19,tr13,9544,57264).
route(harbor7,prodloc20,tr0,12915,335790).
route(harbor7,prodloc20,tr13,12915,77490).
route(harbor7,prodloc21,tr0,1052,27352).
route(harbor7,prodloc21,tr13,1052,6312).
route(harbor7,prodloc22,tr0,1147,29822).
route(harbor7,prodloc22,tr13,1147,6882).
route(harbor7,prodloc23,tr0,28475,740350).
route(harbor7,prodloc23,tr13,28475,170850).
route(harbor7,prodloc24,tr0,12174,316524).
route(harbor7,prodloc24,tr13,12174,73044).
route(harbor7,prodloc25,tr0,16602,431652).
route(harbor7,prodloc25,tr13,16602,99612).
route(harbor7,prodloc26,tr0,9704,252304).
route(harbor7,prodloc26,tr13,9704,58224).
route(harbor7,prodloc27,tr0,11373,295698).
route(harbor7,prodloc27,tr13,11373,68238).
route(harbor7,prodloc28,tr0,12292,319592).
route(harbor7,prodloc28,tr13,12292,73752).
route(harbor7,prodloc29,tr0,22904,595504).
route(harbor7,prodloc29,tr13,22904,137424).
route(harbor7,prodloc30,tr0,907,23582).
route(harbor7,prodloc30,tr13,907,5442).
route(harbor7,prodloc31,tr0,20365,529490).
route(harbor7,prodloc31,tr13,20365,122190).
route(harbor7,prodloc32,tr0,4695,122070).
route(harbor7,prodloc32,tr13,4695,28170).
route(harbor7,prodloc33,tr0,27208,707408).
route(harbor7,prodloc33,tr13,27208,163248).
route(harbor8,harbor0,tr13,22587,135522).
route(harbor8,harbor0,tr2,22587,67761).
route(harbor8,harbor1,tr13,504,3024).
route(harbor8,harbor1,tr2,504,1512).
route(harbor8,harbor2,tr13,2641,15846).
route(harbor8,harbor2,tr2,2641,7923).
route(harbor8,harbor3,tr13,27153,162918).
route(harbor8,harbor3,tr2,27153,81459).
route(harbor8,harbor4,tr13,6080,36480).
route(harbor8,harbor4,tr2,6080,18240).
route(harbor8,harbor5,tr13,14740,88440).
route(harbor8,harbor5,tr2,14740,44220).
route(harbor8,harbor6,tr13,19032,114192).
route(harbor8,harbor6,tr2,19032,57096).
route(harbor8,harbor7,tr13,4204,25224).
route(harbor8,harbor7,tr2,4204,12612).
route(harbor8,harbor9,tr13,25189,151134).
route(harbor8,harbor9,tr2,25189,75567).
route(harbor8,harbor10,tr13,27609,165654).
route(harbor8,harbor10,tr2,27609,82827).
route(harbor8,harbor11,tr13,13973,83838).
route(harbor8,harbor11,tr2,13973,41919).
route(harbor8,harbor12,tr13,18514,111084).
route(harbor8,harbor12,tr2,18514,55542).
route(harbor8,harbor13,tr13,20683,124098).
route(harbor8,harbor13,tr2,20683,62049).
route(harbor8,harbor14,tr13,18992,113952).
route(harbor8,harbor14,tr2,18992,56976).
route(harbor8,harbor15,tr13,28772,172632).
route(harbor8,harbor15,tr2,28772,86316).
route(harbor8,harbor16,tr13,3570,21420).
route(harbor8,harbor16,tr2,3570,10710).
route(harbor8,prodloc0,tr0,12215,317590).
route(harbor8,prodloc0,tr13,12215,73290).
route(harbor8,prodloc1,tr0,16463,428038).
route(harbor8,prodloc1,tr13,16463,98778).
route(harbor8,prodloc2,tr0,1299,33774).
route(harbor8,prodloc2,tr13,1299,7794).
route(harbor8,prodloc3,tr0,19703,512278).
route(harbor8,prodloc3,tr13,19703,118218).
route(harbor8,prodloc4,tr0,23454,609804).
route(harbor8,prodloc4,tr13,23454,140724).
route(harbor8,prodloc5,tr0,21495,558870).
route(harbor8,prodloc5,tr13,21495,128970).
route(harbor8,prodloc6,tr0,12084,314184).
route(harbor8,prodloc6,tr13,12084,72504).
route(harbor8,prodloc7,tr0,11737,305162).
route(harbor8,prodloc7,tr13,11737,70422).
route(harbor8,prodloc8,tr0,3484,90584).
route(harbor8,prodloc8,tr13,3484,20904).
route(harbor8,prodloc9,tr0,10481,272506).
route(harbor8,prodloc9,tr13,10481,62886).
route(harbor8,prodloc10,tr0,21307,553982).
route(harbor8,prodloc10,tr13,21307,127842).
route(harbor8,prodloc11,tr0,3348,87048).
route(harbor8,prodloc11,tr13,3348,20088).
route(harbor8,prodloc12,tr0,15621,406146).
route(harbor8,prodloc12,tr13,15621,93726).
route(harbor8,prodloc13,tr0,27636,718536).
route(harbor8,prodloc13,tr13,27636,165816).
route(harbor8,prodloc14,tr0,5564,144664).
route(harbor8,prodloc14,tr13,5564,33384).
route(harbor8,prodloc15,tr0,21175,550550).
route(harbor8,prodloc15,tr13,21175,127050).
route(harbor8,prodloc16,tr0,7727,200902).
route(harbor8,prodloc16,tr13,7727,46362).
route(harbor8,prodloc17,tr0,15626,406276).
route(harbor8,prodloc17,tr13,15626,93756).
route(harbor8,prodloc18,tr0,11968,311168).
route(harbor8,prodloc18,tr13,11968,71808).
route(harbor8,prodloc19,tr0,18889,491114).
route(harbor8,prodloc19,tr13,18889,113334).
route(harbor8,prodloc20,tr0,11348,295048).
route(harbor8,prodloc20,tr13,11348,68088).
route(harbor8,prodloc21,tr0,12183,316758).
route(harbor8,prodloc21,tr13,12183,73098).
route(harbor8,prodloc22,tr0,24688,641888).
route(harbor8,prodloc22,tr13,24688,148128).
route(harbor8,prodloc23,tr0,26481,688506).
route(harbor8,prodloc23,tr13,26481,158886).
route(harbor8,prodloc24,tr0,14076,365976).
route(harbor8,prodloc24,tr13,14076,84456).
route(harbor8,prodloc25,tr0,12287,319462).
route(harbor8,prodloc25,tr13,12287,73722).
route(harbor8,prodloc26,tr0,24338,632788).
route(harbor8,prodloc26,tr13,24338,146028).
route(harbor8,prodloc27,tr0,20602,535652).
route(harbor8,prodloc27,tr13,20602,123612).
route(harbor8,prodloc28,tr0,21964,571064).
route(harbor8,prodloc28,tr13,21964,131784).
route(harbor8,prodloc29,tr0,1266,32916).
route(harbor8,prodloc29,tr13,1266,7596).
route(harbor8,prodloc30,tr0,24070,625820).
route(harbor8,prodloc30,tr13,24070,144420).
route(harbor8,prodloc31,tr0,4612,119912).
route(harbor8,prodloc31,tr13,4612,27672).
route(harbor8,prodloc32,tr0,23264,604864).
route(harbor8,prodloc32,tr13,23264,139584).
route(harbor8,prodloc33,tr0,21727,564902).
route(harbor8,prodloc33,tr13,21727,130362).
route(harbor9,harbor0,tr13,29212,175272).
route(harbor9,harbor0,tr2,29212,87636).
route(harbor9,harbor1,tr13,21352,128112).
route(harbor9,harbor1,tr2,21352,64056).
route(harbor9,harbor2,tr13,10290,61740).
route(harbor9,harbor2,tr2,10290,30870).
route(harbor9,harbor3,tr13,2027,12162).
route(harbor9,harbor3,tr2,2027,6081).
route(harbor9,harbor4,tr13,1093,6558).
route(harbor9,harbor4,tr2,1093,3279).
route(harbor9,harbor5,tr13,7652,45912).
route(harbor9,harbor5,tr2,7652,22956).
route(harbor9,harbor6,tr13,16739,100434).
route(harbor9,harbor6,tr2,16739,50217).
route(harbor9,harbor7,tr13,11842,71052).
route(harbor9,harbor7,tr2,11842,35526).
route(harbor9,harbor8,tr13,15876,95256).
route(harbor9,harbor8,tr2,15876,47628).
route(harbor9,harbor10,tr13,12036,72216).
route(harbor9,harbor10,tr2,12036,36108).
route(harbor9,harbor11,tr13,15627,93762).
route(harbor9,harbor11,tr2,15627,46881).
route(harbor9,harbor12,tr13,18429,110574).
route(harbor9,harbor12,tr2,18429,55287).
route(harbor9,harbor13,tr13,5703,34218).
route(harbor9,harbor13,tr2,5703,17109).
route(harbor9,harbor14,tr13,9917,59502).
route(harbor9,harbor14,tr2,9917,29751).
route(harbor9,harbor15,tr13,4600,27600).
route(harbor9,harbor15,tr2,4600,13800).
route(harbor9,harbor16,tr13,21232,127392).
route(harbor9,harbor16,tr2,21232,63696).
route(harbor9,prodloc0,tr0,8733,227058).
route(harbor9,prodloc0,tr13,8733,52398).
route(harbor9,prodloc1,tr0,25754,669604).
route(harbor9,prodloc1,tr13,25754,154524).
route(harbor9,prodloc2,tr0,747,19422).
route(harbor9,prodloc2,tr13,747,4482).
route(harbor9,prodloc3,tr0,25666,667316).
route(harbor9,prodloc3,tr13,25666,153996).
route(harbor9,prodloc4,tr0,14448,375648).
route(harbor9,prodloc4,tr13,14448,86688).
route(harbor9,prodloc5,tr0,24297,631722).
route(harbor9,prodloc5,tr13,24297,145782).
route(harbor9,prodloc6,tr0,9433,245258).
route(harbor9,prodloc6,tr13,9433,56598).
route(harbor9,prodloc7,tr0,19140,497640).
route(harbor9,prodloc7,tr13,19140,114840).
route(harbor9,prodloc8,tr0,22431,583206).
route(harbor9,prodloc8,tr13,22431,134586).
route(harbor9,prodloc9,tr0,8547,222222).
route(harbor9,prodloc9,tr13,8547,51282).
route(harbor9,prodloc10,tr0,14888,387088).
route(harbor9,prodloc10,tr13,14888,89328).
route(harbor9,prodloc11,tr0,27574,716924).
route(harbor9,prodloc11,tr13,27574,165444).
route(harbor9,prodloc12,tr0,9716,252616).
route(harbor9,prodloc12,tr13,9716,58296).
route(harbor9,prodloc13,tr0,9491,246766).
route(harbor9,prodloc13,tr13,9491,56946).
route(harbor9,prodloc14,tr0,13210,343460).
route(harbor9,prodloc14,tr13,13210,79260).
route(harbor9,prodloc15,tr0,28185,732810).
route(harbor9,prodloc15,tr13,28185,169110).
route(harbor9,prodloc16,tr0,16294,423644).
route(harbor9,prodloc16,tr13,16294,97764).
route(harbor9,prodloc17,tr0,14653,380978).
route(harbor9,prodloc17,tr13,14653,87918).
route(harbor9,prodloc18,tr0,21515,559390).
route(harbor9,prodloc18,tr13,21515,129090).
route(harbor9,prodloc19,tr0,20619,536094).
route(harbor9,prodloc19,tr13,20619,123714).
route(harbor9,prodloc20,tr0,2921,75946).
route(harbor9,prodloc20,tr13,2921,17526).
route(harbor9,prodloc21,tr0,16361,425386).
route(harbor9,prodloc21,tr13,16361,98166).
route(harbor9,prodloc22,tr0,21427,557102).
route(harbor9,prodloc22,tr13,21427,128562).
route(harbor9,prodloc23,tr0,14380,373880).
route(harbor9,prodloc23,tr13,14380,86280).
route(harbor9,prodloc24,tr0,11176,290576).
route(harbor9,prodloc24,tr13,11176,67056).
route(harbor9,prodloc25,tr0,4452,115752).
route(harbor9,prodloc25,tr13,4452,26712).
route(harbor9,prodloc26,tr0,18954,492804).
route(harbor9,prodloc26,tr13,18954,113724).
route(harbor9,prodloc27,tr0,24137,627562).
route(harbor9,prodloc27,tr13,24137,144822).
route(harbor9,prodloc28,tr0,3546,92196).
route(harbor9,prodloc28,tr13,3546,21276).
route(harbor9,prodloc29,tr0,11843,307918).
route(harbor9,prodloc29,tr13,11843,71058).
route(harbor9,prodloc30,tr0,23519,611494).
route(harbor9,prodloc30,tr13,23519,141114).
route(harbor9,prodloc31,tr0,19677,511602).
route(harbor9,prodloc31,tr13,19677,118062).
route(harbor9,prodloc32,tr0,21856,568256).
route(harbor9,prodloc32,tr13,21856,131136).
route(harbor9,prodloc33,tr0,14958,388908).
route(harbor9,prodloc33,tr13,14958,89748).
route(harbor10,harbor0,tr13,11883,71298).
route(harbor10,harbor0,tr2,11883,35649).
route(harbor10,harbor1,tr13,15431,92586).
route(harbor10,harbor1,tr2,15431,46293).
route(harbor10,harbor2,tr13,18803,112818).
route(harbor10,harbor2,tr2,18803,56409).
route(harbor10,harbor3,tr13,12600,75600).
route(harbor10,harbor3,tr2,12600,37800).
route(harbor10,harbor4,tr13,6688,40128).
route(harbor10,harbor4,tr2,6688,20064).
route(harbor10,harbor5,tr13,17941,107646).
route(harbor10,harbor5,tr2,17941,53823).
route(harbor10,harbor6,tr13,17177,103062).
route(harbor10,harbor6,tr2,17177,51531).
route(harbor10,harbor7,tr13,23273,139638).
route(harbor10,harbor7,tr2,23273,69819).
route(harbor10,harbor8,tr13,19365,116190).
route(harbor10,harbor8,tr2,19365,58095).
route(harbor10,harbor9,tr13,5723,34338).
route(harbor10,harbor9,tr2,5723,17169).
route(harbor10,harbor11,tr13,25654,153924).
route(harbor10,harbor11,tr2,25654,76962).
route(harbor10,harbor12,tr13,4817,28902).
route(harbor10,harbor12,tr2,4817,14451).
route(harbor10,harbor13,tr13,16552,99312).
route(harbor10,harbor13,tr2,16552,49656).
route(harbor10,harbor14,tr13,27005,162030).
route(harbor10,harbor14,tr2,27005,81015).
route(harbor10,harbor15,tr13,1160,6960).
route(harbor10,harbor15,tr2,1160,3480).
route(harbor10,harbor16,tr13,2929,17574).
route(harbor10,harbor16,tr2,2929,8787).
route(harbor10,prodloc0,tr0,17965,467090).
route(harbor10,prodloc0,tr13,17965,107790).
route(harbor10,prodloc1,tr0,25989,675714).
route(harbor10,prodloc1,tr13,25989,155934).
route(harbor10,prodloc2,tr0,21801,566826).
route(harbor10,prodloc2,tr13,21801,130806).
route(harbor10,prodloc3,tr0,24875,646750).
route(harbor10,prodloc3,tr13,24875,149250).
route(harbor10,prodloc4,tr0,10205,265330).
route(harbor10,prodloc4,tr13,10205,61230).
route(harbor10,prodloc5,tr0,7134,185484).
route(harbor10,prodloc5,tr13,7134,42804).
route(harbor10,prodloc6,tr0,4830,125580).
route(harbor10,prodloc6,tr13,4830,28980).
route(harbor10,prodloc7,tr0,20843,541918).
route(harbor10,prodloc7,tr13,20843,125058).
route(harbor10,prodloc8,tr0,13134,341484).
route(harbor10,prodloc8,tr13,13134,78804).
route(harbor10,prodloc9,tr0,8306,215956).
route(harbor10,prodloc9,tr13,8306,49836).
route(harbor10,prodloc10,tr0,28892,751192).
route(harbor10,prodloc10,tr13,28892,173352).
route(harbor10,prodloc11,tr0,26188,680888).
route(harbor10,prodloc11,tr13,26188,157128).
route(harbor10,prodloc12,tr0,6467,168142).
route(harbor10,prodloc12,tr13,6467,38802).
route(harbor10,prodloc13,tr0,3792,98592).
route(harbor10,prodloc13,tr13,3792,22752).
route(harbor10,prodloc14,tr0,459,11934).
route(harbor10,prodloc14,tr13,459,2754).
route(harbor10,prodloc15,tr0,1201,31226).
route(harbor10,prodloc15,tr13,1201,7206).
route(harbor10,prodloc16,tr0,14521,377546).
route(harbor10,prodloc16,tr13,14521,87126).
route(harbor10,prodloc17,tr0,23546,612196).
route(harbor10,prodloc17,tr13,23546,141276).
route(harbor10,prodloc18,tr0,27167,706342).
route(harbor10,prodloc18,tr13,27167,163002).
route(harbor10,prodloc19,tr0,6943,180518).
route(harbor10,prodloc19,tr13,6943,41658).
route(harbor10,prodloc20,tr0,10370,269620).
route(harbor10,prodloc20,tr13,10370,62220).
route(harbor10,prodloc21,tr0,10300,267800).
route(harbor10,prodloc21,tr13,10300,61800).
route(harbor10,prodloc22,tr0,916,23816).
route(harbor10,prodloc22,tr13,916,5496).
route(harbor10,prodloc23,tr0,181,4706).
route(harbor10,prodloc23,tr13,181,1086).
route(harbor10,prodloc24,tr0,24121,627146).
route(harbor10,prodloc24,tr13,24121,144726).
route(harbor10,prodloc25,tr0,546,14196).
route(harbor10,prodloc25,tr13,546,3276).
route(harbor10,prodloc26,tr0,24171,628446).
route(harbor10,prodloc26,tr13,24171,145026).
route(harbor10,prodloc27,tr0,4201,109226).
route(harbor10,prodloc27,tr13,4201,25206).
route(harbor10,prodloc28,tr0,18872,490672).
route(harbor10,prodloc28,tr13,18872,113232).
route(harbor10,prodloc29,tr0,9911,257686).
route(harbor10,prodloc29,tr13,9911,59466).
route(harbor10,prodloc30,tr0,20993,545818).
route(harbor10,prodloc30,tr13,20993,125958).
route(harbor10,prodloc31,tr0,10179,264654).
route(harbor10,prodloc31,tr13,10179,61074).
route(harbor10,prodloc32,tr0,363,9438).
route(harbor10,prodloc32,tr13,363,2178).
route(harbor10,prodloc33,tr0,1450,37700).
route(harbor10,prodloc33,tr13,1450,8700).
route(harbor11,harbor0,tr13,26655,159930).
route(harbor11,harbor0,tr2,26655,79965).
route(harbor11,harbor1,tr13,7023,42138).
route(harbor11,harbor1,tr2,7023,21069).
route(harbor11,harbor2,tr13,10812,64872).
route(harbor11,harbor2,tr2,10812,32436).
route(harbor11,harbor3,tr13,10408,62448).
route(harbor11,harbor3,tr2,10408,31224).
route(harbor11,harbor4,tr13,28035,168210).
route(harbor11,harbor4,tr2,28035,84105).
route(harbor11,harbor5,tr13,3092,18552).
route(harbor11,harbor5,tr2,3092,9276).
route(harbor11,harbor6,tr13,13612,81672).
route(harbor11,harbor6,tr2,13612,40836).
route(harbor11,harbor7,tr13,7714,46284).
route(harbor11,harbor7,tr2,7714,23142).
route(harbor11,harbor8,tr13,27777,166662).
route(harbor11,harbor8,tr2,27777,83331).
route(harbor11,harbor9,tr13,44,264).
route(harbor11,harbor9,tr2,44,132).
route(harbor11,harbor10,tr13,28522,171132).
route(harbor11,harbor10,tr2,28522,85566).
route(harbor11,harbor12,tr13,22362,134172).
route(harbor11,harbor12,tr2,22362,67086).
route(harbor11,harbor13,tr13,3170,19020).
route(harbor11,harbor13,tr2,3170,9510).
route(harbor11,harbor14,tr13,16947,101682).
route(harbor11,harbor14,tr2,16947,50841).
route(harbor11,harbor15,tr13,16773,100638).
route(harbor11,harbor15,tr2,16773,50319).
route(harbor11,harbor16,tr13,6667,40002).
route(harbor11,harbor16,tr2,6667,20001).
route(harbor11,prodloc0,tr0,15780,410280).
route(harbor11,prodloc0,tr13,15780,94680).
route(harbor11,prodloc1,tr0,24774,644124).
route(harbor11,prodloc1,tr13,24774,148644).
route(harbor11,prodloc2,tr0,23491,610766).
route(harbor11,prodloc2,tr13,23491,140946).
route(harbor11,prodloc3,tr0,26844,697944).
route(harbor11,prodloc3,tr13,26844,161064).
route(harbor11,prodloc4,tr0,13817,359242).
route(harbor11,prodloc4,tr13,13817,82902).
route(harbor11,prodloc5,tr0,3668,95368).
route(harbor11,prodloc5,tr13,3668,22008).
route(harbor11,prodloc6,tr0,13932,362232).
route(harbor11,prodloc6,tr13,13932,83592).
route(harbor11,prodloc7,tr0,16602,431652).
route(harbor11,prodloc7,tr13,16602,99612).
route(harbor11,prodloc8,tr0,4843,125918).
route(harbor11,prodloc8,tr13,4843,29058).
route(harbor11,prodloc9,tr0,2444,63544).
route(harbor11,prodloc9,tr13,2444,14664).
route(harbor11,prodloc10,tr0,4783,124358).
route(harbor11,prodloc10,tr13,4783,28698).
route(harbor11,prodloc11,tr0,21560,560560).
route(harbor11,prodloc11,tr13,21560,129360).
route(harbor11,prodloc12,tr0,23248,604448).
route(harbor11,prodloc12,tr13,23248,139488).
route(harbor11,prodloc13,tr0,25512,663312).
route(harbor11,prodloc13,tr13,25512,153072).
route(harbor11,prodloc14,tr0,25781,670306).
route(harbor11,prodloc14,tr13,25781,154686).
route(harbor11,prodloc15,tr0,21792,566592).
route(harbor11,prodloc15,tr13,21792,130752).
route(harbor11,prodloc16,tr0,23107,600782).
route(harbor11,prodloc16,tr13,23107,138642).
route(harbor11,prodloc17,tr0,11347,295022).
route(harbor11,prodloc17,tr13,11347,68082).
route(harbor11,prodloc18,tr0,19572,508872).
route(harbor11,prodloc18,tr13,19572,117432).
route(harbor11,prodloc19,tr0,14297,371722).
route(harbor11,prodloc19,tr13,14297,85782).
route(harbor11,prodloc20,tr0,21525,559650).
route(harbor11,prodloc20,tr13,21525,129150).
route(harbor11,prodloc21,tr0,1635,42510).
route(harbor11,prodloc21,tr13,1635,9810).
route(harbor11,prodloc22,tr0,8292,215592).
route(harbor11,prodloc22,tr13,8292,49752).
route(harbor11,prodloc23,tr0,13430,349180).
route(harbor11,prodloc23,tr13,13430,80580).
route(harbor11,prodloc24,tr0,22742,591292).
route(harbor11,prodloc24,tr13,22742,136452).
route(harbor11,prodloc25,tr0,21745,565370).
route(harbor11,prodloc25,tr13,21745,130470).
route(harbor11,prodloc26,tr0,6527,169702).
route(harbor11,prodloc26,tr13,6527,39162).
route(harbor11,prodloc27,tr0,911,23686).
route(harbor11,prodloc27,tr13,911,5466).
route(harbor11,prodloc28,tr0,9331,242606).
route(harbor11,prodloc28,tr13,9331,55986).
route(harbor11,prodloc29,tr0,2107,54782).
route(harbor11,prodloc29,tr13,2107,12642).
route(harbor11,prodloc30,tr0,25223,655798).
route(harbor11,prodloc30,tr13,25223,151338).
route(harbor11,prodloc31,tr0,16001,416026).
route(harbor11,prodloc31,tr13,16001,96006).
route(harbor11,prodloc32,tr0,10326,268476).
route(harbor11,prodloc32,tr13,10326,61956).
route(harbor11,prodloc33,tr0,22809,593034).
route(harbor11,prodloc33,tr13,22809,136854).
route(harbor12,harbor0,tr13,5314,31884).
route(harbor12,harbor0,tr2,5314,15942).
route(harbor12,harbor1,tr13,7420,44520).
route(harbor12,harbor1,tr2,7420,22260).
route(harbor12,harbor2,tr13,1838,11028).
route(harbor12,harbor2,tr2,1838,5514).
route(harbor12,harbor3,tr13,13034,78204).
route(harbor12,harbor3,tr2,13034,39102).
route(harbor12,harbor4,tr13,27142,162852).
route(harbor12,harbor4,tr2,27142,81426).
route(harbor12,harbor5,tr13,22740,136440).
route(harbor12,harbor5,tr2,22740,68220).
route(harbor12,harbor6,tr13,10164,60984).
route(harbor12,harbor6,tr2,10164,30492).
route(harbor12,harbor7,tr13,8651,51906).
route(harbor12,harbor7,tr2,8651,25953).
route(harbor12,harbor8,tr13,10114,60684).
route(harbor12,harbor8,tr2,10114,30342).
route(harbor12,harbor9,tr13,17145,102870).
route(harbor12,harbor9,tr2,17145,51435).
route(harbor12,harbor10,tr13,9097,54582).
route(harbor12,harbor10,tr2,9097,27291).
route(harbor12,harbor11,tr13,19785,118710).
route(harbor12,harbor11,tr2,19785,59355).
route(harbor12,harbor13,tr13,736,4416).
route(harbor12,harbor13,tr2,736,2208).
route(harbor12,harbor14,tr13,13335,80010).
route(harbor12,harbor14,tr2,13335,40005).
route(harbor12,harbor15,tr13,26070,156420).
route(harbor12,harbor15,tr2,26070,78210).
route(harbor12,harbor16,tr13,6860,41160).
route(harbor12,harbor16,tr2,6860,20580).
route(harbor12,prodloc0,tr0,23046,599196).
route(harbor12,prodloc0,tr13,23046,138276).
route(harbor12,prodloc1,tr0,22700,590200).
route(harbor12,prodloc1,tr13,22700,136200).
route(harbor12,prodloc2,tr0,22771,592046).
route(harbor12,prodloc2,tr13,22771,136626).
route(harbor12,prodloc3,tr0,22974,597324).
route(harbor12,prodloc3,tr13,22974,137844).
route(harbor12,prodloc4,tr0,6915,179790).
route(harbor12,prodloc4,tr13,6915,41490).
route(harbor12,prodloc5,tr0,6194,161044).
route(harbor12,prodloc5,tr13,6194,37164).
route(harbor12,prodloc6,tr0,3668,95368).
route(harbor12,prodloc6,tr13,3668,22008).
route(harbor12,prodloc7,tr0,26456,687856).
route(harbor12,prodloc7,tr13,26456,158736).
route(harbor12,prodloc8,tr0,25290,657540).
route(harbor12,prodloc8,tr13,25290,151740).
route(harbor12,prodloc9,tr0,21473,558298).
route(harbor12,prodloc9,tr13,21473,128838).
route(harbor12,prodloc10,tr0,28394,738244).
route(harbor12,prodloc10,tr13,28394,170364).
route(harbor12,prodloc11,tr0,25567,664742).
route(harbor12,prodloc11,tr13,25567,153402).
route(harbor12,prodloc12,tr0,16200,421200).
route(harbor12,prodloc12,tr13,16200,97200).
route(harbor12,prodloc13,tr0,5110,132860).
route(harbor12,prodloc13,tr13,5110,30660).
route(harbor12,prodloc14,tr0,23455,609830).
route(harbor12,prodloc14,tr13,23455,140730).
route(harbor12,prodloc15,tr0,27028,702728).
route(harbor12,prodloc15,tr13,27028,162168).
route(harbor12,prodloc16,tr0,10307,267982).
route(harbor12,prodloc16,tr13,10307,61842).
route(harbor12,prodloc17,tr0,7829,203554).
route(harbor12,prodloc17,tr13,7829,46974).
route(harbor12,prodloc18,tr0,21416,556816).
route(harbor12,prodloc18,tr13,21416,128496).
route(harbor12,prodloc19,tr0,2700,70200).
route(harbor12,prodloc19,tr13,2700,16200).
route(harbor12,prodloc20,tr0,14252,370552).
route(harbor12,prodloc20,tr13,14252,85512).
route(harbor12,prodloc21,tr0,11336,294736).
route(harbor12,prodloc21,tr13,11336,68016).
route(harbor12,prodloc22,tr0,16584,431184).
route(harbor12,prodloc22,tr13,16584,99504).
route(harbor12,prodloc23,tr0,27034,702884).
route(harbor12,prodloc23,tr13,27034,162204).
route(harbor12,prodloc24,tr0,18007,468182).
route(harbor12,prodloc24,tr13,18007,108042).
route(harbor12,prodloc25,tr0,22410,582660).
route(harbor12,prodloc25,tr13,22410,134460).
route(harbor12,prodloc26,tr0,16329,424554).
route(harbor12,prodloc26,tr13,16329,97974).
route(harbor12,prodloc27,tr0,15177,394602).
route(harbor12,prodloc27,tr13,15177,91062).
route(harbor12,prodloc28,tr0,28486,740636).
route(harbor12,prodloc28,tr13,28486,170916).
route(harbor12,prodloc29,tr0,20079,522054).
route(harbor12,prodloc29,tr13,20079,120474).
route(harbor12,prodloc30,tr0,11954,310804).
route(harbor12,prodloc30,tr13,11954,71724).
route(harbor12,prodloc31,tr0,20238,526188).
route(harbor12,prodloc31,tr13,20238,121428).
route(harbor12,prodloc32,tr0,4485,116610).
route(harbor12,prodloc32,tr13,4485,26910).
route(harbor12,prodloc33,tr0,20212,525512).
route(harbor12,prodloc33,tr13,20212,121272).
route(harbor13,harbor0,tr13,5458,32748).
route(harbor13,harbor0,tr2,5458,16374).
route(harbor13,harbor1,tr13,15394,92364).
route(harbor13,harbor1,tr2,15394,46182).
route(harbor13,harbor2,tr13,3200,19200).
route(harbor13,harbor2,tr2,3200,9600).
route(harbor13,harbor3,tr13,7278,43668).
route(harbor13,harbor3,tr2,7278,21834).
route(harbor13,harbor4,tr13,17028,102168).
route(harbor13,harbor4,tr2,17028,51084).
route(harbor13,harbor5,tr13,26132,156792).
route(harbor13,harbor5,tr2,26132,78396).
route(harbor13,harbor6,tr13,11066,66396).
route(harbor13,harbor6,tr2,11066,33198).
route(harbor13,harbor7,tr13,20030,120180).
route(harbor13,harbor7,tr2,20030,60090).
route(harbor13,harbor8,tr13,5328,31968).
route(harbor13,harbor8,tr2,5328,15984).
route(harbor13,harbor9,tr13,18225,109350).
route(harbor13,harbor9,tr2,18225,54675).
route(harbor13,harbor10,tr13,7892,47352).
route(harbor13,harbor10,tr2,7892,23676).
route(harbor13,harbor11,tr13,7267,43602).
route(harbor13,harbor11,tr2,7267,21801).
route(harbor13,harbor12,tr13,13977,83862).
route(harbor13,harbor12,tr2,13977,41931).
route(harbor13,harbor14,tr13,23710,142260).
route(harbor13,harbor14,tr2,23710,71130).
route(harbor13,harbor15,tr13,22187,133122).
route(harbor13,harbor15,tr2,22187,66561).
route(harbor13,harbor16,tr13,19605,117630).
route(harbor13,harbor16,tr2,19605,58815).
route(harbor13,prodloc0,tr0,6587,171262).
route(harbor13,prodloc0,tr13,6587,39522).
route(harbor13,prodloc1,tr0,11070,287820).
route(harbor13,prodloc1,tr13,11070,66420).
route(harbor13,prodloc2,tr0,22533,585858).
route(harbor13,prodloc2,tr13,22533,135198).
route(harbor13,prodloc3,tr0,4209,109434).
route(harbor13,prodloc3,tr13,4209,25254).
route(harbor13,prodloc4,tr0,18461,479986).
route(harbor13,prodloc4,tr13,18461,110766).
route(harbor13,prodloc5,tr0,25375,659750).
route(harbor13,prodloc5,tr13,25375,152250).
route(harbor13,prodloc6,tr0,8737,227162).
route(harbor13,prodloc6,tr13,8737,52422).
route(harbor13,prodloc7,tr0,2364,61464).
route(harbor13,prodloc7,tr13,2364,14184).
route(harbor13,prodloc8,tr0,14568,378768).
route(harbor13,prodloc8,tr13,14568,87408).
route(harbor13,prodloc9,tr0,10595,275470).
route(harbor13,prodloc9,tr13,10595,63570).
route(harbor13,prodloc10,tr0,18725,486850).
route(harbor13,prodloc10,tr13,18725,112350).
route(harbor13,prodloc11,tr0,4621,120146).
route(harbor13,prodloc11,tr13,4621,27726).
route(harbor13,prodloc12,tr0,21656,563056).
route(harbor13,prodloc12,tr13,21656,129936).
route(harbor13,prodloc13,tr0,7755,201630).
route(harbor13,prodloc13,tr13,7755,46530).
route(harbor13,prodloc14,tr0,23593,613418).
route(harbor13,prodloc14,tr13,23593,141558).
route(harbor13,prodloc15,tr0,19460,505960).
route(harbor13,prodloc15,tr13,19460,116760).
route(harbor13,prodloc16,tr0,13034,338884).
route(harbor13,prodloc16,tr13,13034,78204).
route(harbor13,prodloc17,tr0,27524,715624).
route(harbor13,prodloc17,tr13,27524,165144).
route(harbor13,prodloc18,tr0,696,18096).
route(harbor13,prodloc18,tr13,696,4176).
route(harbor13,prodloc19,tr0,10324,268424).
route(harbor13,prodloc19,tr13,10324,61944).
route(harbor13,prodloc20,tr0,13081,340106).
route(harbor13,prodloc20,tr13,13081,78486).
route(harbor13,prodloc21,tr0,11656,303056).
route(harbor13,prodloc21,tr13,11656,69936).
route(harbor13,prodloc22,tr0,25196,655096).
route(harbor13,prodloc22,tr13,25196,151176).
route(harbor13,prodloc23,tr0,10171,264446).
route(harbor13,prodloc23,tr13,10171,61026).
route(harbor13,prodloc24,tr0,3885,101010).
route(harbor13,prodloc24,tr13,3885,23310).
route(harbor13,prodloc25,tr0,3872,100672).
route(harbor13,prodloc25,tr13,3872,23232).
route(harbor13,prodloc26,tr0,12655,329030).
route(harbor13,prodloc26,tr13,12655,75930).
route(harbor13,prodloc27,tr0,22216,577616).
route(harbor13,prodloc27,tr13,22216,133296).
route(harbor13,prodloc28,tr0,28081,730106).
route(harbor13,prodloc28,tr13,28081,168486).
route(harbor13,prodloc29,tr0,21793,566618).
route(harbor13,prodloc29,tr13,21793,130758).
route(harbor13,prodloc30,tr0,28116,731016).
route(harbor13,prodloc30,tr13,28116,168696).
route(harbor13,prodloc31,tr0,14637,380562).
route(harbor13,prodloc31,tr13,14637,87822).
route(harbor13,prodloc32,tr0,13479,350454).
route(harbor13,prodloc32,tr13,13479,80874).
route(harbor13,prodloc33,tr0,19616,510016).
route(harbor13,prodloc33,tr13,19616,117696).
route(harbor14,harbor0,tr13,377,2262).
route(harbor14,harbor0,tr2,377,1131).
route(harbor14,harbor1,tr13,16002,96012).
route(harbor14,harbor1,tr2,16002,48006).
route(harbor14,harbor2,tr13,11106,66636).
route(harbor14,harbor2,tr2,11106,33318).
route(harbor14,harbor3,tr13,17985,107910).
route(harbor14,harbor3,tr2,17985,53955).
route(harbor14,harbor4,tr13,23498,140988).
route(harbor14,harbor4,tr2,23498,70494).
route(harbor14,harbor5,tr13,28998,173988).
route(harbor14,harbor5,tr2,28998,86994).
route(harbor14,harbor6,tr13,28216,169296).
route(harbor14,harbor6,tr2,28216,84648).
route(harbor14,harbor7,tr13,6594,39564).
route(harbor14,harbor7,tr2,6594,19782).
route(harbor14,harbor8,tr13,565,3390).
route(harbor14,harbor8,tr2,565,1695).
route(harbor14,harbor9,tr13,24772,148632).
route(harbor14,harbor9,tr2,24772,74316).
route(harbor14,harbor10,tr13,528,3168).
route(harbor14,harbor10,tr2,528,1584).
route(harbor14,harbor11,tr13,23114,138684).
route(harbor14,harbor11,tr2,23114,69342).
route(harbor14,harbor12,tr13,19929,119574).
route(harbor14,harbor12,tr2,19929,59787).
route(harbor14,harbor13,tr13,22559,135354).
route(harbor14,harbor13,tr2,22559,67677).
route(harbor14,harbor15,tr13,16429,98574).
route(harbor14,harbor15,tr2,16429,49287).
route(harbor14,harbor16,tr13,10479,62874).
route(harbor14,harbor16,tr2,10479,31437).
route(harbor14,prodloc0,tr0,12208,317408).
route(harbor14,prodloc0,tr13,12208,73248).
route(harbor14,prodloc1,tr0,23112,600912).
route(harbor14,prodloc1,tr13,23112,138672).
route(harbor14,prodloc2,tr0,15862,412412).
route(harbor14,prodloc2,tr13,15862,95172).
route(harbor14,prodloc3,tr0,28718,746668).
route(harbor14,prodloc3,tr13,28718,172308).
route(harbor14,prodloc4,tr0,19029,494754).
route(harbor14,prodloc4,tr13,19029,114174).
route(harbor14,prodloc5,tr0,3386,88036).
route(harbor14,prodloc5,tr13,3386,20316).
route(harbor14,prodloc6,tr0,20036,520936).
route(harbor14,prodloc6,tr13,20036,120216).
route(harbor14,prodloc7,tr0,5745,149370).
route(harbor14,prodloc7,tr13,5745,34470).
route(harbor14,prodloc8,tr0,3737,97162).
route(harbor14,prodloc8,tr13,3737,22422).
route(harbor14,prodloc9,tr0,1791,46566).
route(harbor14,prodloc9,tr13,1791,10746).
route(harbor14,prodloc10,tr0,14577,379002).
route(harbor14,prodloc10,tr13,14577,87462).
route(harbor14,prodloc11,tr0,9045,235170).
route(harbor14,prodloc11,tr13,9045,54270).
route(harbor14,prodloc12,tr0,2668,69368).
route(harbor14,prodloc12,tr13,2668,16008).
route(harbor14,prodloc13,tr0,17942,466492).
route(harbor14,prodloc13,tr13,17942,107652).
route(harbor14,prodloc14,tr0,926,24076).
route(harbor14,prodloc14,tr13,926,5556).
route(harbor14,prodloc15,tr0,6499,168974).
route(harbor14,prodloc15,tr13,6499,38994).
route(harbor14,prodloc16,tr0,8140,211640).
route(harbor14,prodloc16,tr13,8140,48840).
route(harbor14,prodloc17,tr0,20690,537940).
route(harbor14,prodloc17,tr13,20690,124140).
route(harbor14,prodloc18,tr0,2447,63622).
route(harbor14,prodloc18,tr13,2447,14682).
route(harbor14,prodloc19,tr0,1963,51038).
route(harbor14,prodloc19,tr13,1963,11778).
route(harbor14,prodloc20,tr0,10990,285740).
route(harbor14,prodloc20,tr13,10990,65940).
route(harbor14,prodloc21,tr0,11295,293670).
route(harbor14,prodloc21,tr13,11295,67770).
route(harbor14,prodloc22,tr0,12607,327782).
route(harbor14,prodloc22,tr13,12607,75642).
route(harbor14,prodloc23,tr0,23224,603824).
route(harbor14,prodloc23,tr13,23224,139344).
route(harbor14,prodloc24,tr0,10257,266682).
route(harbor14,prodloc24,tr13,10257,61542).
route(harbor14,prodloc25,tr0,15967,415142).
route(harbor14,prodloc25,tr13,15967,95802).
route(harbor14,prodloc26,tr0,19836,515736).
route(harbor14,prodloc26,tr13,19836,119016).
route(harbor14,prodloc27,tr0,5186,134836).
route(harbor14,prodloc27,tr13,5186,31116).
route(harbor14,prodloc28,tr0,16080,418080).
route(harbor14,prodloc28,tr13,16080,96480).
route(harbor14,prodloc29,tr0,24135,627510).
route(harbor14,prodloc29,tr13,24135,144810).
route(harbor14,prodloc30,tr0,26071,677846).
route(harbor14,prodloc30,tr13,26071,156426).
route(harbor14,prodloc31,tr0,9007,234182).
route(harbor14,prodloc31,tr13,9007,54042).
route(harbor14,prodloc32,tr0,20602,535652).
route(harbor14,prodloc32,tr13,20602,123612).
route(harbor14,prodloc33,tr0,1938,50388).
route(harbor14,prodloc33,tr13,1938,11628).
route(harbor15,harbor0,tr13,15676,94056).
route(harbor15,harbor0,tr2,15676,47028).
route(harbor15,harbor1,tr13,27460,164760).
route(harbor15,harbor1,tr2,27460,82380).
route(harbor15,harbor2,tr13,15362,92172).
route(harbor15,harbor2,tr2,15362,46086).
route(harbor15,harbor3,tr13,19179,115074).
route(harbor15,harbor3,tr2,19179,57537).
route(harbor15,harbor4,tr13,25014,150084).
route(harbor15,harbor4,tr2,25014,75042).
route(harbor15,harbor5,tr13,8099,48594).
route(harbor15,harbor5,tr2,8099,24297).
route(harbor15,harbor6,tr13,28858,173148).
route(harbor15,harbor6,tr2,28858,86574).
route(harbor15,harbor7,tr13,26398,158388).
route(harbor15,harbor7,tr2,26398,79194).
route(harbor15,harbor8,tr13,17757,106542).
route(harbor15,harbor8,tr2,17757,53271).
route(harbor15,harbor9,tr13,21895,131370).
route(harbor15,harbor9,tr2,21895,65685).
route(harbor15,harbor10,tr13,25697,154182).
route(harbor15,harbor10,tr2,25697,77091).
route(harbor15,harbor11,tr13,22664,135984).
route(harbor15,harbor11,tr2,22664,67992).
route(harbor15,harbor12,tr13,1924,11544).
route(harbor15,harbor12,tr2,1924,5772).
route(harbor15,harbor13,tr13,16870,101220).
route(harbor15,harbor13,tr2,16870,50610).
route(harbor15,harbor14,tr13,25124,150744).
route(harbor15,harbor14,tr2,25124,75372).
route(harbor15,harbor16,tr13,16684,100104).
route(harbor15,harbor16,tr2,16684,50052).
route(harbor15,prodloc0,tr0,21304,553904).
route(harbor15,prodloc0,tr13,21304,127824).
route(harbor15,prodloc1,tr0,13142,341692).
route(harbor15,prodloc1,tr13,13142,78852).
route(harbor15,prodloc2,tr0,14707,382382).
route(harbor15,prodloc2,tr13,14707,88242).
route(harbor15,prodloc3,tr0,17145,445770).
route(harbor15,prodloc3,tr13,17145,102870).
route(harbor15,prodloc4,tr0,15537,403962).
route(harbor15,prodloc4,tr13,15537,93222).
route(harbor15,prodloc5,tr0,28722,746772).
route(harbor15,prodloc5,tr13,28722,172332).
route(harbor15,prodloc6,tr0,26307,683982).
route(harbor15,prodloc6,tr13,26307,157842).
route(harbor15,prodloc7,tr0,21908,569608).
route(harbor15,prodloc7,tr13,21908,131448).
route(harbor15,prodloc8,tr0,5238,136188).
route(harbor15,prodloc8,tr13,5238,31428).
route(harbor15,prodloc9,tr0,3857,100282).
route(harbor15,prodloc9,tr13,3857,23142).
route(harbor15,prodloc10,tr0,18801,488826).
route(harbor15,prodloc10,tr13,18801,112806).
route(harbor15,prodloc11,tr0,20137,523562).
route(harbor15,prodloc11,tr13,20137,120822).
route(harbor15,prodloc12,tr0,16723,434798).
route(harbor15,prodloc12,tr13,16723,100338).
route(harbor15,prodloc13,tr0,26465,688090).
route(harbor15,prodloc13,tr13,26465,158790).
route(harbor15,prodloc14,tr0,22837,593762).
route(harbor15,prodloc14,tr13,22837,137022).
route(harbor15,prodloc15,tr0,5613,145938).
route(harbor15,prodloc15,tr13,5613,33678).
route(harbor15,prodloc16,tr0,10803,280878).
route(harbor15,prodloc16,tr13,10803,64818).
route(harbor15,prodloc17,tr0,24127,627302).
route(harbor15,prodloc17,tr13,24127,144762).
route(harbor15,prodloc18,tr0,9615,249990).
route(harbor15,prodloc18,tr13,9615,57690).
route(harbor15,prodloc19,tr0,18564,482664).
route(harbor15,prodloc19,tr13,18564,111384).
route(harbor15,prodloc20,tr0,17902,465452).
route(harbor15,prodloc20,tr13,17902,107412).
route(harbor15,prodloc21,tr0,13076,339976).
route(harbor15,prodloc21,tr13,13076,78456).
route(harbor15,prodloc22,tr0,20452,531752).
route(harbor15,prodloc22,tr13,20452,122712).
route(harbor15,prodloc23,tr0,3788,98488).
route(harbor15,prodloc23,tr13,3788,22728).
route(harbor15,prodloc24,tr0,14637,380562).
route(harbor15,prodloc24,tr13,14637,87822).
route(harbor15,prodloc25,tr0,18165,472290).
route(harbor15,prodloc25,tr13,18165,108990).
route(harbor15,prodloc26,tr0,5988,155688).
route(harbor15,prodloc26,tr13,5988,35928).
route(harbor15,prodloc27,tr0,9767,253942).
route(harbor15,prodloc27,tr13,9767,58602).
route(harbor15,prodloc28,tr0,5221,135746).
route(harbor15,prodloc28,tr13,5221,31326).
route(harbor15,prodloc29,tr0,24524,637624).
route(harbor15,prodloc29,tr13,24524,147144).
route(harbor15,prodloc30,tr0,25966,675116).
route(harbor15,prodloc30,tr13,25966,155796).
route(harbor15,prodloc31,tr0,11701,304226).
route(harbor15,prodloc31,tr13,11701,70206).
route(harbor15,prodloc32,tr0,11573,300898).
route(harbor15,prodloc32,tr13,11573,69438).
route(harbor15,prodloc33,tr0,17336,450736).
route(harbor15,prodloc33,tr13,17336,104016).
route(harbor16,harbor0,tr13,1859,11154).
route(harbor16,harbor0,tr2,1859,5577).
route(harbor16,harbor1,tr13,22263,133578).
route(harbor16,harbor1,tr2,22263,66789).
route(harbor16,harbor2,tr13,13143,78858).
route(harbor16,harbor2,tr2,13143,39429).
route(harbor16,harbor3,tr13,19912,119472).
route(harbor16,harbor3,tr2,19912,59736).
route(harbor16,harbor4,tr13,9052,54312).
route(harbor16,harbor4,tr2,9052,27156).
route(harbor16,harbor5,tr13,2342,14052).
route(harbor16,harbor5,tr2,2342,7026).
route(harbor16,harbor6,tr13,8111,48666).
route(harbor16,harbor6,tr2,8111,24333).
route(harbor16,harbor7,tr13,18115,108690).
route(harbor16,harbor7,tr2,18115,54345).
route(harbor16,harbor8,tr13,27327,163962).
route(harbor16,harbor8,tr2,27327,81981).
route(harbor16,harbor9,tr13,23435,140610).
route(harbor16,harbor9,tr2,23435,70305).
route(harbor16,harbor10,tr13,22587,135522).
route(harbor16,harbor10,tr2,22587,67761).
route(harbor16,harbor11,tr13,15489,92934).
route(harbor16,harbor11,tr2,15489,46467).
route(harbor16,harbor12,tr13,14392,86352).
route(harbor16,harbor12,tr2,14392,43176).
route(harbor16,harbor13,tr13,9369,56214).
route(harbor16,harbor13,tr2,9369,28107).
route(harbor16,harbor14,tr13,23007,138042).
route(harbor16,harbor14,tr2,23007,69021).
route(harbor16,harbor15,tr13,6252,37512).
route(harbor16,harbor15,tr2,6252,18756).
route(harbor16,prodloc0,tr0,15631,406406).
route(harbor16,prodloc0,tr13,15631,93786).
route(harbor16,prodloc1,tr0,17955,466830).
route(harbor16,prodloc1,tr13,17955,107730).
route(harbor16,prodloc2,tr0,2166,56316).
route(harbor16,prodloc2,tr13,2166,12996).
route(harbor16,prodloc3,tr0,21350,555100).
route(harbor16,prodloc3,tr13,21350,128100).
route(harbor16,prodloc4,tr0,2067,53742).
route(harbor16,prodloc4,tr13,2067,12402).
route(harbor16,prodloc5,tr0,20624,536224).
route(harbor16,prodloc5,tr13,20624,123744).
route(harbor16,prodloc6,tr0,27840,723840).
route(harbor16,prodloc6,tr13,27840,167040).
route(harbor16,prodloc7,tr0,9578,249028).
route(harbor16,prodloc7,tr13,9578,57468).
route(harbor16,prodloc8,tr0,2238,58188).
route(harbor16,prodloc8,tr13,2238,13428).
route(harbor16,prodloc9,tr0,5947,154622).
route(harbor16,prodloc9,tr13,5947,35682).
route(harbor16,prodloc10,tr0,12940,336440).
route(harbor16,prodloc10,tr13,12940,77640).
route(harbor16,prodloc11,tr0,3321,86346).
route(harbor16,prodloc11,tr13,3321,19926).
route(harbor16,prodloc12,tr0,17929,466154).
route(harbor16,prodloc12,tr13,17929,107574).
route(harbor16,prodloc13,tr0,4058,105508).
route(harbor16,prodloc13,tr13,4058,24348).
route(harbor16,prodloc14,tr0,5965,155090).
route(harbor16,prodloc14,tr13,5965,35790).
route(harbor16,prodloc15,tr0,6040,157040).
route(harbor16,prodloc15,tr13,6040,36240).
route(harbor16,prodloc16,tr0,23542,612092).
route(harbor16,prodloc16,tr13,23542,141252).
route(harbor16,prodloc17,tr0,15906,413556).
route(harbor16,prodloc17,tr13,15906,95436).
route(harbor16,prodloc18,tr0,10572,274872).
route(harbor16,prodloc18,tr13,10572,63432).
route(harbor16,prodloc19,tr0,18631,484406).
route(harbor16,prodloc19,tr13,18631,111786).
route(harbor16,prodloc20,tr0,7786,202436).
route(harbor16,prodloc20,tr13,7786,46716).
route(harbor16,prodloc21,tr0,23136,601536).
route(harbor16,prodloc21,tr13,23136,138816).
route(harbor16,prodloc22,tr0,6330,164580).
route(harbor16,prodloc22,tr13,6330,37980).
route(harbor16,prodloc23,tr0,14354,373204).
route(harbor16,prodloc23,tr13,14354,86124).
route(harbor16,prodloc24,tr0,8190,212940).
route(harbor16,prodloc24,tr13,8190,49140).
route(harbor16,prodloc25,tr0,25159,654134).
route(harbor16,prodloc25,tr13,25159,150954).
route(harbor16,prodloc26,tr0,12433,323258).
route(harbor16,prodloc26,tr13,12433,74598).
route(harbor16,prodloc27,tr0,972,25272).
route(harbor16,prodloc27,tr13,972,5832).
route(harbor16,prodloc28,tr0,17037,442962).
route(harbor16,prodloc28,tr13,17037,102222).
route(harbor16,prodloc29,tr0,11414,296764).
route(harbor16,prodloc29,tr13,11414,68484).
route(harbor16,prodloc30,tr0,9991,259766).
route(harbor16,prodloc30,tr13,9991,59946).
route(harbor16,prodloc31,tr0,3911,101686).
route(harbor16,prodloc31,tr13,3911,23466).
route(harbor16,prodloc32,tr0,17272,449072).
route(harbor16,prodloc32,tr13,17272,103632).
route(harbor16,prodloc33,tr0,16925,440050).
route(harbor16,prodloc33,tr13,16925,101550).
route(prodloc0,harbor0,tr0,16092,418392).
route(prodloc0,harbor0,tr13,16092,96552).
route(prodloc0,harbor1,tr0,18760,487760).
route(prodloc0,harbor1,tr13,18760,112560).
route(prodloc0,harbor2,tr0,1295,33670).
route(prodloc0,harbor2,tr13,1295,7770).
route(prodloc0,harbor3,tr0,19113,496938).
route(prodloc0,harbor3,tr13,19113,114678).
route(prodloc0,harbor4,tr0,3097,80522).
route(prodloc0,harbor4,tr13,3097,18582).
route(prodloc0,harbor5,tr0,14536,377936).
route(prodloc0,harbor5,tr13,14536,87216).
route(prodloc0,harbor6,tr0,23864,620464).
route(prodloc0,harbor6,tr13,23864,143184).
route(prodloc0,harbor7,tr0,12065,313690).
route(prodloc0,harbor7,tr13,12065,72390).
route(prodloc0,harbor8,tr0,8347,217022).
route(prodloc0,harbor8,tr13,8347,50082).
route(prodloc0,harbor9,tr0,10767,279942).
route(prodloc0,harbor9,tr13,10767,64602).
route(prodloc0,harbor10,tr0,3482,90532).
route(prodloc0,harbor10,tr13,3482,20892).
route(prodloc0,harbor11,tr0,3452,89752).
route(prodloc0,harbor11,tr13,3452,20712).
route(prodloc0,harbor12,tr0,6335,164710).
route(prodloc0,harbor12,tr13,6335,38010).
route(prodloc0,harbor13,tr0,28577,743002).
route(prodloc0,harbor13,tr13,28577,171462).
route(prodloc0,harbor14,tr0,15944,414544).
route(prodloc0,harbor14,tr13,15944,95664).
route(prodloc0,harbor15,tr0,13909,361634).
route(prodloc0,harbor15,tr13,13909,83454).
route(prodloc0,harbor16,tr0,18602,483652).
route(prodloc0,harbor16,tr13,18602,111612).
route(prodloc0,prodloc1,tr0,14750,383500).
route(prodloc0,prodloc1,tr13,14750,88500).
route(prodloc0,prodloc2,tr0,3294,85644).
route(prodloc0,prodloc2,tr13,3294,19764).
route(prodloc0,prodloc3,tr0,22640,588640).
route(prodloc0,prodloc3,tr13,22640,135840).
route(prodloc0,prodloc4,tr0,27695,720070).
route(prodloc0,prodloc4,tr13,27695,166170).
route(prodloc0,prodloc5,tr0,4267,110942).
route(prodloc0,prodloc5,tr13,4267,25602).
route(prodloc0,prodloc6,tr0,910,23660).
route(prodloc0,prodloc6,tr13,910,5460).
route(prodloc0,prodloc7,tr0,11550,300300).
route(prodloc0,prodloc7,tr13,11550,69300).
route(prodloc0,prodloc8,tr0,4134,107484).
route(prodloc0,prodloc8,tr13,4134,24804).
route(prodloc0,prodloc9,tr0,12773,332098).
route(prodloc0,prodloc9,tr13,12773,76638).
route(prodloc0,prodloc10,tr0,14682,381732).
route(prodloc0,prodloc10,tr13,14682,88092).
route(prodloc0,prodloc11,tr0,10911,283686).
route(prodloc0,prodloc11,tr13,10911,65466).
route(prodloc0,prodloc12,tr0,21961,570986).
route(prodloc0,prodloc12,tr13,21961,131766).
route(prodloc0,prodloc13,tr0,17044,443144).
route(prodloc0,prodloc13,tr13,17044,102264).
route(prodloc0,prodloc14,tr0,22610,587860).
route(prodloc0,prodloc14,tr13,22610,135660).
route(prodloc0,prodloc15,tr0,13900,361400).
route(prodloc0,prodloc15,tr13,13900,83400).
route(prodloc0,prodloc16,tr0,19488,506688).
route(prodloc0,prodloc16,tr13,19488,116928).
route(prodloc0,prodloc17,tr0,3627,94302).
route(prodloc0,prodloc17,tr13,3627,21762).
route(prodloc0,prodloc18,tr13,25725,154350).
route(prodloc0,prodloc18,tr15,25725,823200).
route(prodloc0,prodloc19,tr0,12454,323804).
route(prodloc0,prodloc19,tr13,12454,74724).
route(prodloc0,prodloc20,tr0,15406,400556).
route(prodloc0,prodloc20,tr13,15406,92436).
route(prodloc0,prodloc21,tr13,22162,132972).
route(prodloc0,prodloc21,tr15,22162,709184).
route(prodloc0,prodloc22,tr0,20774,540124).
route(prodloc0,prodloc22,tr13,20774,124644).
route(prodloc0,prodloc23,tr0,13697,356122).
route(prodloc0,prodloc23,tr13,13697,82182).
route(prodloc0,prodloc24,tr0,27298,709748).
route(prodloc0,prodloc24,tr13,27298,163788).
route(prodloc0,prodloc25,tr0,4138,107588).
route(prodloc0,prodloc25,tr13,4138,24828).
route(prodloc0,prodloc26,tr0,25470,662220).
route(prodloc0,prodloc26,tr13,25470,152820).
route(prodloc0,prodloc27,tr0,2433,63258).
route(prodloc0,prodloc27,tr13,2433,14598).
route(prodloc0,prodloc28,tr0,23556,612456).
route(prodloc0,prodloc28,tr13,23556,141336).
route(prodloc0,prodloc29,tr0,5963,155038).
route(prodloc0,prodloc29,tr13,5963,35778).
route(prodloc0,prodloc30,tr0,7718,200668).
route(prodloc0,prodloc30,tr13,7718,46308).
route(prodloc0,prodloc31,tr0,14547,378222).
route(prodloc0,prodloc31,tr13,14547,87282).
route(prodloc0,prodloc32,tr0,6592,171392).
route(prodloc0,prodloc32,tr13,6592,39552).
route(prodloc0,prodloc33,tr0,9049,235274).
route(prodloc0,prodloc33,tr13,9049,54294).
route(prodloc1,harbor0,tr0,19878,516828).
route(prodloc1,harbor0,tr13,19878,119268).
route(prodloc1,harbor1,tr0,18373,477698).
route(prodloc1,harbor1,tr13,18373,110238).
route(prodloc1,harbor2,tr0,27469,714194).
route(prodloc1,harbor2,tr13,27469,164814).
route(prodloc1,harbor3,tr0,21866,568516).
route(prodloc1,harbor3,tr13,21866,131196).
route(prodloc1,harbor4,tr0,27399,712374).
route(prodloc1,harbor4,tr13,27399,164394).
route(prodloc1,harbor5,tr0,4908,127608).
route(prodloc1,harbor5,tr13,4908,29448).
route(prodloc1,harbor6,tr0,6944,180544).
route(prodloc1,harbor6,tr13,6944,41664).
route(prodloc1,harbor7,tr0,17095,444470).
route(prodloc1,harbor7,tr13,17095,102570).
route(prodloc1,harbor8,tr0,41,1066).
route(prodloc1,harbor8,tr13,41,246).
route(prodloc1,harbor9,tr0,26711,694486).
route(prodloc1,harbor9,tr13,26711,160266).
route(prodloc1,harbor10,tr0,10933,284258).
route(prodloc1,harbor10,tr13,10933,65598).
route(prodloc1,harbor11,tr0,11966,311116).
route(prodloc1,harbor11,tr13,11966,71796).
route(prodloc1,harbor12,tr0,2834,73684).
route(prodloc1,harbor12,tr13,2834,17004).
route(prodloc1,harbor13,tr0,26168,680368).
route(prodloc1,harbor13,tr13,26168,157008).
route(prodloc1,harbor14,tr0,5405,140530).
route(prodloc1,harbor14,tr13,5405,32430).
route(prodloc1,harbor15,tr0,16556,430456).
route(prodloc1,harbor15,tr13,16556,99336).
route(prodloc1,harbor16,tr0,10467,272142).
route(prodloc1,harbor16,tr13,10467,62802).
route(prodloc1,prodloc0,tr0,18418,478868).
route(prodloc1,prodloc0,tr13,18418,110508).
route(prodloc1,prodloc2,tr0,27194,707044).
route(prodloc1,prodloc2,tr13,27194,163164).
route(prodloc1,prodloc3,tr0,28095,730470).
route(prodloc1,prodloc3,tr13,28095,168570).
route(prodloc1,prodloc4,tr0,13657,355082).
route(prodloc1,prodloc4,tr13,13657,81942).
route(prodloc1,prodloc5,tr0,23736,617136).
route(prodloc1,prodloc5,tr13,23736,142416).
route(prodloc1,prodloc6,tr0,9840,255840).
route(prodloc1,prodloc6,tr13,9840,59040).
route(prodloc1,prodloc7,tr0,4470,116220).
route(prodloc1,prodloc7,tr13,4470,26820).
route(prodloc1,prodloc8,tr0,7198,187148).
route(prodloc1,prodloc8,tr13,7198,43188).
route(prodloc1,prodloc9,tr0,12341,320866).
route(prodloc1,prodloc9,tr13,12341,74046).
route(prodloc1,prodloc10,tr0,424,11024).
route(prodloc1,prodloc10,tr13,424,2544).
route(prodloc1,prodloc11,tr0,19399,504374).
route(prodloc1,prodloc11,tr13,19399,116394).
route(prodloc1,prodloc12,tr0,3517,91442).
route(prodloc1,prodloc12,tr13,3517,21102).
route(prodloc1,prodloc13,tr0,5047,131222).
route(prodloc1,prodloc13,tr13,5047,30282).
route(prodloc1,prodloc14,tr0,7247,188422).
route(prodloc1,prodloc14,tr13,7247,43482).
route(prodloc1,prodloc15,tr0,2120,55120).
route(prodloc1,prodloc15,tr13,2120,12720).
route(prodloc1,prodloc16,tr0,27827,723502).
route(prodloc1,prodloc16,tr13,27827,166962).
route(prodloc1,prodloc17,tr0,25167,654342).
route(prodloc1,prodloc17,tr13,25167,151002).
route(prodloc1,prodloc18,tr0,5227,135902).
route(prodloc1,prodloc18,tr13,5227,31362).
route(prodloc1,prodloc19,tr0,21103,548678).
route(prodloc1,prodloc19,tr13,21103,126618).
route(prodloc1,prodloc20,tr0,4810,125060).
route(prodloc1,prodloc20,tr13,4810,28860).
route(prodloc1,prodloc21,tr0,16202,421252).
route(prodloc1,prodloc21,tr13,16202,97212).
route(prodloc1,prodloc22,tr0,9450,245700).
route(prodloc1,prodloc22,tr13,9450,56700).
route(prodloc1,prodloc23,tr0,28655,745030).
route(prodloc1,prodloc23,tr13,28655,171930).
route(prodloc1,prodloc24,tr0,17812,463112).
route(prodloc1,prodloc24,tr13,17812,106872).
route(prodloc1,prodloc25,tr0,12692,329992).
route(prodloc1,prodloc25,tr13,12692,76152).
route(prodloc1,prodloc26,tr0,2888,75088).
route(prodloc1,prodloc26,tr13,2888,17328).
route(prodloc1,prodloc27,tr0,14428,375128).
route(prodloc1,prodloc27,tr13,14428,86568).
route(prodloc1,prodloc28,tr0,23295,605670).
route(prodloc1,prodloc28,tr13,23295,139770).
route(prodloc1,prodloc29,tr0,9471,246246).
route(prodloc1,prodloc29,tr13,9471,56826).
route(prodloc1,prodloc30,tr0,2450,63700).
route(prodloc1,prodloc30,tr13,2450,14700).
route(prodloc1,prodloc31,tr0,12606,327756).
route(prodloc1,prodloc31,tr13,12606,75636).
route(prodloc1,prodloc32,tr0,14476,376376).
route(prodloc1,prodloc32,tr13,14476,86856).
route(prodloc1,prodloc33,tr0,16282,423332).
route(prodloc1,prodloc33,tr13,16282,97692).
route(prodloc2,harbor0,tr0,14276,371176).
route(prodloc2,harbor0,tr13,14276,85656).
route(prodloc2,harbor1,tr0,10966,285116).
route(prodloc2,harbor1,tr13,10966,65796).
route(prodloc2,harbor2,tr0,15865,412490).
route(prodloc2,harbor2,tr13,15865,95190).
route(prodloc2,harbor3,tr0,23947,622622).
route(prodloc2,harbor3,tr13,23947,143682).
route(prodloc2,harbor4,tr0,7672,199472).
route(prodloc2,harbor4,tr13,7672,46032).
route(prodloc2,harbor5,tr0,10153,263978).
route(prodloc2,harbor5,tr13,10153,60918).
route(prodloc2,harbor6,tr0,1446,37596).
route(prodloc2,harbor6,tr13,1446,8676).
route(prodloc2,harbor7,tr0,18969,493194).
route(prodloc2,harbor7,tr13,18969,113814).
route(prodloc2,harbor8,tr0,22218,577668).
route(prodloc2,harbor8,tr13,22218,133308).
route(prodloc2,harbor9,tr0,3331,86606).
route(prodloc2,harbor9,tr13,3331,19986).
route(prodloc2,harbor10,tr0,680,17680).
route(prodloc2,harbor10,tr13,680,4080).
route(prodloc2,harbor11,tr0,18343,476918).
route(prodloc2,harbor11,tr13,18343,110058).
route(prodloc2,harbor12,tr0,20352,529152).
route(prodloc2,harbor12,tr13,20352,122112).
route(prodloc2,harbor13,tr0,11868,308568).
route(prodloc2,harbor13,tr13,11868,71208).
route(prodloc2,harbor14,tr0,21302,553852).
route(prodloc2,harbor14,tr13,21302,127812).
route(prodloc2,harbor15,tr0,23061,599586).
route(prodloc2,harbor15,tr13,23061,138366).
route(prodloc2,harbor16,tr0,13939,362414).
route(prodloc2,harbor16,tr13,13939,83634).
route(prodloc2,prodloc0,tr0,413,10738).
route(prodloc2,prodloc0,tr13,413,2478).
route(prodloc2,prodloc1,tr0,23759,617734).
route(prodloc2,prodloc1,tr13,23759,142554).
route(prodloc2,prodloc3,tr0,8461,219986).
route(prodloc2,prodloc3,tr13,8461,50766).
route(prodloc2,prodloc4,tr0,23016,598416).
route(prodloc2,prodloc4,tr13,23016,138096).
route(prodloc2,prodloc5,tr13,12131,72786).
route(prodloc2,prodloc5,tr15,12131,388192).
route(prodloc2,prodloc6,tr0,1347,35022).
route(prodloc2,prodloc6,tr13,1347,8082).
route(prodloc2,prodloc7,tr0,21316,554216).
route(prodloc2,prodloc7,tr13,21316,127896).
route(prodloc2,prodloc8,tr0,20584,535184).
route(prodloc2,prodloc8,tr13,20584,123504).
route(prodloc2,prodloc9,tr0,5782,150332).
route(prodloc2,prodloc9,tr13,5782,34692).
route(prodloc2,prodloc10,tr0,20423,530998).
route(prodloc2,prodloc10,tr13,20423,122538).
route(prodloc2,prodloc11,tr0,2132,55432).
route(prodloc2,prodloc11,tr13,2132,12792).
route(prodloc2,prodloc12,tr0,17871,464646).
route(prodloc2,prodloc12,tr13,17871,107226).
route(prodloc2,prodloc13,tr0,15941,414466).
route(prodloc2,prodloc13,tr13,15941,95646).
route(prodloc2,prodloc14,tr0,1719,44694).
route(prodloc2,prodloc14,tr13,1719,10314).
route(prodloc2,prodloc15,tr0,16505,429130).
route(prodloc2,prodloc15,tr13,16505,99030).
route(prodloc2,prodloc16,tr0,564,14664).
route(prodloc2,prodloc16,tr13,564,3384).
route(prodloc2,prodloc17,tr0,1725,44850).
route(prodloc2,prodloc17,tr13,1725,10350).
route(prodloc2,prodloc18,tr0,23669,615394).
route(prodloc2,prodloc18,tr13,23669,142014).
route(prodloc2,prodloc19,tr0,3291,85566).
route(prodloc2,prodloc19,tr13,3291,19746).
route(prodloc2,prodloc20,tr0,10452,271752).
route(prodloc2,prodloc20,tr13,10452,62712).
route(prodloc2,prodloc21,tr0,4501,117026).
route(prodloc2,prodloc21,tr13,4501,27006).
route(prodloc2,prodloc22,tr0,8188,212888).
route(prodloc2,prodloc22,tr13,8188,49128).
route(prodloc2,prodloc23,tr0,26783,696358).
route(prodloc2,prodloc23,tr13,26783,160698).
route(prodloc2,prodloc24,tr0,11849,308074).
route(prodloc2,prodloc24,tr13,11849,71094).
route(prodloc2,prodloc25,tr0,27677,719602).
route(prodloc2,prodloc25,tr13,27677,166062).
route(prodloc2,prodloc26,tr0,28946,752596).
route(prodloc2,prodloc26,tr13,28946,173676).
route(prodloc2,prodloc27,tr0,11631,302406).
route(prodloc2,prodloc27,tr13,11631,69786).
route(prodloc2,prodloc28,tr0,26244,682344).
route(prodloc2,prodloc28,tr13,26244,157464).
route(prodloc2,prodloc29,tr0,16495,428870).
route(prodloc2,prodloc29,tr13,16495,98970).
route(prodloc2,prodloc30,tr0,21714,564564).
route(prodloc2,prodloc30,tr13,21714,130284).
route(prodloc2,prodloc31,tr0,17662,459212).
route(prodloc2,prodloc31,tr13,17662,105972).
route(prodloc2,prodloc32,tr0,11760,305760).
route(prodloc2,prodloc32,tr13,11760,70560).
route(prodloc2,prodloc33,tr0,27471,714246).
route(prodloc2,prodloc33,tr13,27471,164826).
route(prodloc3,harbor0,tr0,2705,70330).
route(prodloc3,harbor0,tr13,2705,16230).
route(prodloc3,harbor1,tr0,7906,205556).
route(prodloc3,harbor1,tr13,7906,47436).
route(prodloc3,harbor2,tr0,28541,742066).
route(prodloc3,harbor2,tr13,28541,171246).
route(prodloc3,harbor3,tr0,28531,741806).
route(prodloc3,harbor3,tr13,28531,171186).
route(prodloc3,harbor4,tr0,21014,546364).
route(prodloc3,harbor4,tr13,21014,126084).
route(prodloc3,harbor5,tr0,6191,160966).
route(prodloc3,harbor5,tr13,6191,37146).
route(prodloc3,harbor6,tr0,16679,433654).
route(prodloc3,harbor6,tr13,16679,100074).
route(prodloc3,harbor7,tr0,7829,203554).
route(prodloc3,harbor7,tr13,7829,46974).
route(prodloc3,harbor8,tr0,9204,239304).
route(prodloc3,harbor8,tr13,9204,55224).
route(prodloc3,harbor9,tr0,3208,83408).
route(prodloc3,harbor9,tr13,3208,19248).
route(prodloc3,harbor10,tr0,20570,534820).
route(prodloc3,harbor10,tr13,20570,123420).
route(prodloc3,harbor11,tr0,13738,357188).
route(prodloc3,harbor11,tr13,13738,82428).
route(prodloc3,harbor12,tr0,986,25636).
route(prodloc3,harbor12,tr13,986,5916).
route(prodloc3,harbor13,tr0,6289,163514).
route(prodloc3,harbor13,tr13,6289,37734).
route(prodloc3,harbor14,tr0,754,19604).
route(prodloc3,harbor14,tr13,754,4524).
route(prodloc3,harbor15,tr0,3696,96096).
route(prodloc3,harbor15,tr13,3696,22176).
route(prodloc3,harbor16,tr0,25015,650390).
route(prodloc3,harbor16,tr13,25015,150090).
route(prodloc3,prodloc0,tr0,13366,347516).
route(prodloc3,prodloc0,tr13,13366,80196).
route(prodloc3,prodloc1,tr0,10366,269516).
route(prodloc3,prodloc1,tr13,10366,62196).
route(prodloc3,prodloc2,tr0,4861,126386).
route(prodloc3,prodloc2,tr13,4861,29166).
route(prodloc3,prodloc4,tr0,16388,426088).
route(prodloc3,prodloc4,tr13,16388,98328).
route(prodloc3,prodloc5,tr0,8783,228358).
route(prodloc3,prodloc5,tr13,8783,52698).
route(prodloc3,prodloc6,tr0,7415,192790).
route(prodloc3,prodloc6,tr13,7415,44490).
route(prodloc3,prodloc7,tr0,1898,49348).
route(prodloc3,prodloc7,tr13,1898,11388).
route(prodloc3,prodloc8,tr0,10742,279292).
route(prodloc3,prodloc8,tr13,10742,64452).
route(prodloc3,prodloc9,tr0,11662,303212).
route(prodloc3,prodloc9,tr13,11662,69972).
route(prodloc3,prodloc10,tr0,16789,436514).
route(prodloc3,prodloc10,tr13,16789,100734).
route(prodloc3,prodloc11,tr0,12474,324324).
route(prodloc3,prodloc11,tr13,12474,74844).
route(prodloc3,prodloc12,tr0,24997,649922).
route(prodloc3,prodloc12,tr13,24997,149982).
route(prodloc3,prodloc13,tr0,17297,449722).
route(prodloc3,prodloc13,tr13,17297,103782).
route(prodloc3,prodloc14,tr0,5370,139620).
route(prodloc3,prodloc14,tr13,5370,32220).
route(prodloc3,prodloc15,tr0,28139,731614).
route(prodloc3,prodloc15,tr13,28139,168834).
route(prodloc3,prodloc16,tr0,20340,528840).
route(prodloc3,prodloc16,tr13,20340,122040).
route(prodloc3,prodloc17,tr0,10518,273468).
route(prodloc3,prodloc17,tr13,10518,63108).
route(prodloc3,prodloc18,tr0,25914,673764).
route(prodloc3,prodloc18,tr13,25914,155484).
route(prodloc3,prodloc19,tr0,24853,646178).
route(prodloc3,prodloc19,tr13,24853,149118).
route(prodloc3,prodloc20,tr0,20754,539604).
route(prodloc3,prodloc20,tr13,20754,124524).
route(prodloc3,prodloc21,tr0,20574,534924).
route(prodloc3,prodloc21,tr13,20574,123444).
route(prodloc3,prodloc22,tr0,22884,594984).
route(prodloc3,prodloc22,tr13,22884,137304).
route(prodloc3,prodloc23,tr0,9957,258882).
route(prodloc3,prodloc23,tr13,9957,59742).
route(prodloc3,prodloc24,tr0,5237,136162).
route(prodloc3,prodloc24,tr13,5237,31422).
route(prodloc3,prodloc25,tr0,678,17628).
route(prodloc3,prodloc25,tr13,678,4068).
route(prodloc3,prodloc26,tr0,22754,591604).
route(prodloc3,prodloc26,tr13,22754,136524).
route(prodloc3,prodloc27,tr0,8867,230542).
route(prodloc3,prodloc27,tr13,8867,53202).
route(prodloc3,prodloc28,tr0,23941,622466).
route(prodloc3,prodloc28,tr13,23941,143646).
route(prodloc3,prodloc29,tr0,27164,706264).
route(prodloc3,prodloc29,tr13,27164,162984).
route(prodloc3,prodloc30,tr0,523,13598).
route(prodloc3,prodloc30,tr13,523,3138).
route(prodloc3,prodloc31,tr0,17298,449748).
route(prodloc3,prodloc31,tr13,17298,103788).
route(prodloc3,prodloc32,tr0,1440,37440).
route(prodloc3,prodloc32,tr13,1440,8640).
route(prodloc3,prodloc33,tr0,20430,531180).
route(prodloc3,prodloc33,tr13,20430,122580).
route(prodloc4,harbor0,tr0,20006,520156).
route(prodloc4,harbor0,tr13,20006,120036).
route(prodloc4,harbor1,tr0,26301,683826).
route(prodloc4,harbor1,tr13,26301,157806).
route(prodloc4,harbor2,tr0,9681,251706).
route(prodloc4,harbor2,tr13,9681,58086).
route(prodloc4,harbor3,tr0,18131,471406).
route(prodloc4,harbor3,tr13,18131,108786).
route(prodloc4,harbor4,tr0,4613,119938).
route(prodloc4,harbor4,tr13,4613,27678).
route(prodloc4,harbor5,tr0,9861,256386).
route(prodloc4,harbor5,tr13,9861,59166).
route(prodloc4,harbor6,tr0,17800,462800).
route(prodloc4,harbor6,tr13,17800,106800).
route(prodloc4,harbor7,tr0,19686,511836).
route(prodloc4,harbor7,tr13,19686,118116).
route(prodloc4,harbor8,tr0,6791,176566).
route(prodloc4,harbor8,tr13,6791,40746).
route(prodloc4,harbor9,tr0,890,23140).
route(prodloc4,harbor9,tr13,890,5340).
route(prodloc4,harbor10,tr0,4581,119106).
route(prodloc4,harbor10,tr13,4581,27486).
route(prodloc4,harbor11,tr0,22831,593606).
route(prodloc4,harbor11,tr13,22831,136986).
route(prodloc4,harbor12,tr0,1399,36374).
route(prodloc4,harbor12,tr13,1399,8394).
route(prodloc4,harbor13,tr0,23633,614458).
route(prodloc4,harbor13,tr13,23633,141798).
route(prodloc4,harbor14,tr0,17001,442026).
route(prodloc4,harbor14,tr13,17001,102006).
route(prodloc4,harbor15,tr0,24949,648674).
route(prodloc4,harbor15,tr13,24949,149694).
route(prodloc4,harbor16,tr0,19799,514774).
route(prodloc4,harbor16,tr13,19799,118794).
route(prodloc4,prodloc0,tr0,4302,111852).
route(prodloc4,prodloc0,tr13,4302,25812).
route(prodloc4,prodloc1,tr0,11576,300976).
route(prodloc4,prodloc1,tr13,11576,69456).
route(prodloc4,prodloc2,tr0,8957,232882).
route(prodloc4,prodloc2,tr13,8957,53742).
route(prodloc4,prodloc3,tr0,14555,378430).
route(prodloc4,prodloc3,tr13,14555,87330).
route(prodloc4,prodloc5,tr0,23709,616434).
route(prodloc4,prodloc5,tr13,23709,142254).
route(prodloc4,prodloc6,tr0,21929,570154).
route(prodloc4,prodloc6,tr15,21929,701728).
route(prodloc4,prodloc7,tr0,8539,222014).
route(prodloc4,prodloc7,tr13,8539,51234).
route(prodloc4,prodloc8,tr0,11350,295100).
route(prodloc4,prodloc8,tr13,11350,68100).
route(prodloc4,prodloc9,tr0,23061,599586).
route(prodloc4,prodloc9,tr13,23061,138366).
route(prodloc4,prodloc10,tr0,9905,257530).
route(prodloc4,prodloc10,tr13,9905,59430).
route(prodloc4,prodloc11,tr0,23350,607100).
route(prodloc4,prodloc11,tr13,23350,140100).
route(prodloc4,prodloc12,tr0,22380,581880).
route(prodloc4,prodloc12,tr13,22380,134280).
route(prodloc4,prodloc13,tr0,4444,115544).
route(prodloc4,prodloc13,tr13,4444,26664).
route(prodloc4,prodloc14,tr13,11921,71526).
route(prodloc4,prodloc14,tr15,11921,381472).
route(prodloc4,prodloc15,tr0,14985,389610).
route(prodloc4,prodloc15,tr13,14985,89910).
route(prodloc4,prodloc16,tr0,14576,378976).
route(prodloc4,prodloc16,tr13,14576,87456).
route(prodloc4,prodloc17,tr0,20109,522834).
route(prodloc4,prodloc17,tr13,20109,120654).
route(prodloc4,prodloc18,tr0,22752,591552).
route(prodloc4,prodloc18,tr13,22752,136512).
route(prodloc4,prodloc19,tr0,7508,195208).
route(prodloc4,prodloc19,tr13,7508,45048).
route(prodloc4,prodloc20,tr0,24807,644982).
route(prodloc4,prodloc20,tr13,24807,148842).
route(prodloc4,prodloc21,tr0,17119,445094).
route(prodloc4,prodloc21,tr13,17119,102714).
route(prodloc4,prodloc22,tr0,22103,574678).
route(prodloc4,prodloc22,tr15,22103,707296).
route(prodloc4,prodloc23,tr0,20555,534430).
route(prodloc4,prodloc23,tr13,20555,123330).
route(prodloc4,prodloc24,tr0,26302,683852).
route(prodloc4,prodloc24,tr13,26302,157812).
route(prodloc4,prodloc25,tr0,17892,465192).
route(prodloc4,prodloc25,tr13,17892,107352).
route(prodloc4,prodloc26,tr0,10474,272324).
route(prodloc4,prodloc26,tr13,10474,62844).
route(prodloc4,prodloc27,tr0,27033,702858).
route(prodloc4,prodloc27,tr13,27033,162198).
route(prodloc4,prodloc28,tr0,2804,72904).
route(prodloc4,prodloc28,tr13,2804,16824).
route(prodloc4,prodloc29,tr0,17416,452816).
route(prodloc4,prodloc29,tr13,17416,104496).
route(prodloc4,prodloc30,tr0,8452,219752).
route(prodloc4,prodloc30,tr13,8452,50712).
route(prodloc4,prodloc31,tr0,18720,486720).
route(prodloc4,prodloc31,tr13,18720,112320).
route(prodloc4,prodloc32,tr0,24942,648492).
route(prodloc4,prodloc32,tr13,24942,149652).
route(prodloc4,prodloc33,tr0,21937,570362).
route(prodloc4,prodloc33,tr13,21937,131622).
route(prodloc5,harbor0,tr0,42,1092).
route(prodloc5,harbor0,tr13,42,252).
route(prodloc5,harbor1,tr0,28461,739986).
route(prodloc5,harbor1,tr13,28461,170766).
route(prodloc5,harbor2,tr0,9424,245024).
route(prodloc5,harbor2,tr13,9424,56544).
route(prodloc5,harbor3,tr0,11227,291902).
route(prodloc5,harbor3,tr13,11227,67362).
route(prodloc5,harbor4,tr0,16548,430248).
route(prodloc5,harbor4,tr13,16548,99288).
route(prodloc5,harbor5,tr0,3840,99840).
route(prodloc5,harbor5,tr13,3840,23040).
route(prodloc5,harbor6,tr0,8961,232986).
route(prodloc5,harbor6,tr13,8961,53766).
route(prodloc5,harbor7,tr0,498,12948).
route(prodloc5,harbor7,tr13,498,2988).
route(prodloc5,harbor8,tr0,9,234).
route(prodloc5,harbor8,tr13,9,54).
route(prodloc5,harbor9,tr0,19060,495560).
route(prodloc5,harbor9,tr13,19060,114360).
route(prodloc5,harbor10,tr0,15300,397800).
route(prodloc5,harbor10,tr13,15300,91800).
route(prodloc5,harbor11,tr0,22735,591110).
route(prodloc5,harbor11,tr13,22735,136410).
route(prodloc5,harbor12,tr0,13167,342342).
route(prodloc5,harbor12,tr13,13167,79002).
route(prodloc5,harbor13,tr0,20530,533780).
route(prodloc5,harbor13,tr13,20530,123180).
route(prodloc5,harbor14,tr0,28829,749554).
route(prodloc5,harbor14,tr13,28829,172974).
route(prodloc5,harbor15,tr0,22930,596180).
route(prodloc5,harbor15,tr13,22930,137580).
route(prodloc5,harbor16,tr0,19051,495326).
route(prodloc5,harbor16,tr13,19051,114306).
route(prodloc5,prodloc0,tr0,17386,452036).
route(prodloc5,prodloc0,tr13,17386,104316).
route(prodloc5,prodloc1,tr0,6575,170950).
route(prodloc5,prodloc1,tr13,6575,39450).
route(prodloc5,prodloc2,tr0,27844,723944).
route(prodloc5,prodloc2,tr13,27844,167064).
route(prodloc5,prodloc3,tr0,467,12142).
route(prodloc5,prodloc3,tr13,467,2802).
route(prodloc5,prodloc4,tr0,22680,589680).
route(prodloc5,prodloc4,tr13,22680,136080).
route(prodloc5,prodloc6,tr13,7,42).
route(prodloc5,prodloc6,tr15,7,224).
route(prodloc5,prodloc7,tr0,4222,109772).
route(prodloc5,prodloc7,tr13,4222,25332).
route(prodloc5,prodloc8,tr0,26402,686452).
route(prodloc5,prodloc8,tr13,26402,158412).
route(prodloc5,prodloc9,tr0,20520,533520).
route(prodloc5,prodloc9,tr13,20520,123120).
route(prodloc5,prodloc10,tr0,18316,476216).
route(prodloc5,prodloc10,tr13,18316,109896).
route(prodloc5,prodloc11,tr0,1650,42900).
route(prodloc5,prodloc11,tr13,1650,9900).
route(prodloc5,prodloc12,tr0,10984,285584).
route(prodloc5,prodloc12,tr13,10984,65904).
route(prodloc5,prodloc13,tr0,27442,713492).
route(prodloc5,prodloc13,tr13,27442,164652).
route(prodloc5,prodloc14,tr0,10931,284206).
route(prodloc5,prodloc14,tr15,10931,349792).
route(prodloc5,prodloc15,tr0,18316,476216).
route(prodloc5,prodloc15,tr13,18316,109896).
route(prodloc5,prodloc16,tr0,20680,537680).
route(prodloc5,prodloc16,tr13,20680,124080).
route(prodloc5,prodloc17,tr0,7228,187928).
route(prodloc5,prodloc17,tr13,7228,43368).
route(prodloc5,prodloc18,tr0,25350,659100).
route(prodloc5,prodloc18,tr13,25350,152100).
route(prodloc5,prodloc19,tr0,12333,320658).
route(prodloc5,prodloc19,tr13,12333,73998).
route(prodloc5,prodloc20,tr0,18206,473356).
route(prodloc5,prodloc20,tr13,18206,109236).
route(prodloc5,prodloc21,tr0,18500,481000).
route(prodloc5,prodloc21,tr13,18500,111000).
route(prodloc5,prodloc22,tr0,6728,174928).
route(prodloc5,prodloc22,tr13,6728,40368).
route(prodloc5,prodloc23,tr0,16042,417092).
route(prodloc5,prodloc23,tr13,16042,96252).
route(prodloc5,prodloc24,tr0,14853,386178).
route(prodloc5,prodloc24,tr13,14853,89118).
route(prodloc5,prodloc25,tr0,24744,643344).
route(prodloc5,prodloc25,tr13,24744,148464).
route(prodloc5,prodloc26,tr0,9727,252902).
route(prodloc5,prodloc26,tr13,9727,58362).
route(prodloc5,prodloc27,tr0,13286,345436).
route(prodloc5,prodloc27,tr13,13286,79716).
route(prodloc5,prodloc28,tr0,23646,614796).
route(prodloc5,prodloc28,tr13,23646,141876).
route(prodloc5,prodloc29,tr0,26006,676156).
route(prodloc5,prodloc29,tr13,26006,156036).
route(prodloc5,prodloc30,tr0,16997,441922).
route(prodloc5,prodloc30,tr13,16997,101982).
route(prodloc5,prodloc31,tr0,19082,496132).
route(prodloc5,prodloc31,tr13,19082,114492).
route(prodloc5,prodloc32,tr0,28433,739258).
route(prodloc5,prodloc32,tr13,28433,170598).
route(prodloc5,prodloc33,tr0,13953,362778).
route(prodloc5,prodloc33,tr13,13953,83718).
route(prodloc6,harbor0,tr0,16092,418392).
route(prodloc6,harbor0,tr13,16092,96552).
route(prodloc6,harbor1,tr0,27527,715702).
route(prodloc6,harbor1,tr13,27527,165162).
route(prodloc6,harbor2,tr0,24478,636428).
route(prodloc6,harbor2,tr13,24478,146868).
route(prodloc6,harbor3,tr0,25758,669708).
route(prodloc6,harbor3,tr13,25758,154548).
route(prodloc6,harbor4,tr0,3103,80678).
route(prodloc6,harbor4,tr13,3103,18618).
route(prodloc6,harbor5,tr0,27559,716534).
route(prodloc6,harbor5,tr13,27559,165354).
route(prodloc6,harbor6,tr0,12687,329862).
route(prodloc6,harbor6,tr13,12687,76122).
route(prodloc6,harbor7,tr0,17367,451542).
route(prodloc6,harbor7,tr13,17367,104202).
route(prodloc6,harbor8,tr0,10576,274976).
route(prodloc6,harbor8,tr13,10576,63456).
route(prodloc6,harbor9,tr0,13936,362336).
route(prodloc6,harbor9,tr13,13936,83616).
route(prodloc6,harbor10,tr0,27215,707590).
route(prodloc6,harbor10,tr13,27215,163290).
route(prodloc6,harbor11,tr0,16323,424398).
route(prodloc6,harbor11,tr13,16323,97938).
route(prodloc6,harbor12,tr0,17890,465140).
route(prodloc6,harbor12,tr13,17890,107340).
route(prodloc6,harbor13,tr0,12337,320762).
route(prodloc6,harbor13,tr13,12337,74022).
route(prodloc6,harbor14,tr0,19731,513006).
route(prodloc6,harbor14,tr13,19731,118386).
route(prodloc6,harbor15,tr0,21857,568282).
route(prodloc6,harbor15,tr13,21857,131142).
route(prodloc6,harbor16,tr0,2037,52962).
route(prodloc6,harbor16,tr13,2037,12222).
route(prodloc6,prodloc0,tr0,17431,453206).
route(prodloc6,prodloc0,tr13,17431,104586).
route(prodloc6,prodloc1,tr0,27205,707330).
route(prodloc6,prodloc1,tr13,27205,163230).
route(prodloc6,prodloc2,tr0,28798,748748).
route(prodloc6,prodloc2,tr13,28798,172788).
route(prodloc6,prodloc3,tr0,26332,684632).
route(prodloc6,prodloc3,tr13,26332,157992).
route(prodloc6,prodloc4,tr0,25492,662792).
route(prodloc6,prodloc4,tr13,25492,152952).
route(prodloc6,prodloc5,tr0,21828,567528).
route(prodloc6,prodloc5,tr13,21828,130968).
route(prodloc6,prodloc7,tr0,6504,169104).
route(prodloc6,prodloc7,tr13,6504,39024).
route(prodloc6,prodloc8,tr0,26337,684762).
route(prodloc6,prodloc8,tr13,26337,158022).
route(prodloc6,prodloc9,tr0,7667,199342).
route(prodloc6,prodloc9,tr13,7667,46002).
route(prodloc6,prodloc10,tr0,18412,478712).
route(prodloc6,prodloc10,tr13,18412,110472).
route(prodloc6,prodloc11,tr0,5238,136188).
route(prodloc6,prodloc11,tr13,5238,31428).
route(prodloc6,prodloc12,tr0,12733,331058).
route(prodloc6,prodloc12,tr13,12733,76398).
route(prodloc6,prodloc13,tr0,13613,353938).
route(prodloc6,prodloc13,tr13,13613,81678).
route(prodloc6,prodloc14,tr0,10385,270010).
route(prodloc6,prodloc14,tr13,10385,62310).
route(prodloc6,prodloc15,tr0,7944,206544).
route(prodloc6,prodloc15,tr13,7944,47664).
route(prodloc6,prodloc16,tr0,8617,224042).
route(prodloc6,prodloc16,tr13,8617,51702).
route(prodloc6,prodloc17,tr0,18019,468494).
route(prodloc6,prodloc17,tr13,18019,108114).
route(prodloc6,prodloc18,tr0,11044,287144).
route(prodloc6,prodloc18,tr13,11044,66264).
route(prodloc6,prodloc19,tr0,26237,682162).
route(prodloc6,prodloc19,tr13,26237,157422).
route(prodloc6,prodloc20,tr0,16416,426816).
route(prodloc6,prodloc20,tr13,16416,98496).
route(prodloc6,prodloc21,tr0,353,9178).
route(prodloc6,prodloc21,tr13,353,2118).
route(prodloc6,prodloc22,tr0,28239,734214).
route(prodloc6,prodloc22,tr13,28239,169434).
route(prodloc6,prodloc23,tr0,9806,254956).
route(prodloc6,prodloc23,tr13,9806,58836).
route(prodloc6,prodloc24,tr0,7744,201344).
route(prodloc6,prodloc24,tr13,7744,46464).
route(prodloc6,prodloc25,tr0,13721,356746).
route(prodloc6,prodloc25,tr13,13721,82326).
route(prodloc6,prodloc26,tr0,12830,333580).
route(prodloc6,prodloc26,tr13,12830,76980).
route(prodloc6,prodloc27,tr0,17578,457028).
route(prodloc6,prodloc27,tr13,17578,105468).
route(prodloc6,prodloc28,tr0,8564,222664).
route(prodloc6,prodloc28,tr13,8564,51384).
route(prodloc6,prodloc29,tr0,27687,719862).
route(prodloc6,prodloc29,tr13,27687,166122).
route(prodloc6,prodloc30,tr0,15789,410514).
route(prodloc6,prodloc30,tr13,15789,94734).
route(prodloc6,prodloc31,tr0,10921,283946).
route(prodloc6,prodloc31,tr13,10921,65526).
route(prodloc6,prodloc32,tr0,2001,52026).
route(prodloc6,prodloc32,tr13,2001,12006).
route(prodloc6,prodloc33,tr0,15876,412776).
route(prodloc6,prodloc33,tr13,15876,95256).
route(prodloc7,harbor0,tr0,20412,530712).
route(prodloc7,harbor0,tr13,20412,122472).
route(prodloc7,harbor1,tr0,7511,195286).
route(prodloc7,harbor1,tr13,7511,45066).
route(prodloc7,harbor2,tr0,28124,731224).
route(prodloc7,harbor2,tr13,28124,168744).
route(prodloc7,harbor3,tr0,18816,489216).
route(prodloc7,harbor3,tr13,18816,112896).
route(prodloc7,harbor4,tr0,5676,147576).
route(prodloc7,harbor4,tr13,5676,34056).
route(prodloc7,harbor5,tr0,11754,305604).
route(prodloc7,harbor5,tr13,11754,70524).
route(prodloc7,harbor6,tr0,5538,143988).
route(prodloc7,harbor6,tr13,5538,33228).
route(prodloc7,harbor7,tr0,28541,742066).
route(prodloc7,harbor7,tr13,28541,171246).
route(prodloc7,harbor8,tr0,23949,622674).
route(prodloc7,harbor8,tr13,23949,143694).
route(prodloc7,harbor9,tr0,5250,136500).
route(prodloc7,harbor9,tr13,5250,31500).
route(prodloc7,harbor10,tr0,24756,643656).
route(prodloc7,harbor10,tr13,24756,148536).
route(prodloc7,harbor11,tr0,7575,196950).
route(prodloc7,harbor11,tr13,7575,45450).
route(prodloc7,harbor12,tr0,6236,162136).
route(prodloc7,harbor12,tr13,6236,37416).
route(prodloc7,harbor13,tr0,26818,697268).
route(prodloc7,harbor13,tr13,26818,160908).
route(prodloc7,harbor14,tr0,1992,51792).
route(prodloc7,harbor14,tr13,1992,11952).
route(prodloc7,harbor15,tr0,21954,570804).
route(prodloc7,harbor15,tr13,21954,131724).
route(prodloc7,harbor16,tr0,21320,554320).
route(prodloc7,harbor16,tr13,21320,127920).
route(prodloc7,prodloc0,tr0,12441,323466).
route(prodloc7,prodloc0,tr13,12441,74646).
route(prodloc7,prodloc1,tr13,18699,112194).
route(prodloc7,prodloc1,tr15,18699,598368).
route(prodloc7,prodloc2,tr0,17114,444964).
route(prodloc7,prodloc2,tr13,17114,102684).
route(prodloc7,prodloc3,tr0,7492,194792).
route(prodloc7,prodloc3,tr13,7492,44952).
route(prodloc7,prodloc4,tr0,18503,481078).
route(prodloc7,prodloc4,tr13,18503,111018).
route(prodloc7,prodloc5,tr0,3266,84916).
route(prodloc7,prodloc5,tr13,3266,19596).
route(prodloc7,prodloc6,tr0,4123,107198).
route(prodloc7,prodloc6,tr13,4123,24738).
route(prodloc7,prodloc8,tr0,21730,564980).
route(prodloc7,prodloc8,tr13,21730,130380).
route(prodloc7,prodloc9,tr0,8508,221208).
route(prodloc7,prodloc9,tr13,8508,51048).
route(prodloc7,prodloc10,tr0,9641,250666).
route(prodloc7,prodloc10,tr13,9641,57846).
route(prodloc7,prodloc11,tr0,1126,29276).
route(prodloc7,prodloc11,tr13,1126,6756).
route(prodloc7,prodloc12,tr0,4958,128908).
route(prodloc7,prodloc12,tr13,4958,29748).
route(prodloc7,prodloc13,tr0,22575,586950).
route(prodloc7,prodloc13,tr13,22575,135450).
route(prodloc7,prodloc14,tr0,15870,412620).
route(prodloc7,prodloc14,tr13,15870,95220).
route(prodloc7,prodloc15,tr0,2593,67418).
route(prodloc7,prodloc15,tr13,2593,15558).
route(prodloc7,prodloc16,tr0,11962,311012).
route(prodloc7,prodloc16,tr13,11962,71772).
route(prodloc7,prodloc17,tr0,27953,726778).
route(prodloc7,prodloc17,tr13,27953,167718).
route(prodloc7,prodloc18,tr0,3244,84344).
route(prodloc7,prodloc18,tr13,3244,19464).
route(prodloc7,prodloc19,tr0,19986,519636).
route(prodloc7,prodloc19,tr13,19986,119916).
route(prodloc7,prodloc20,tr0,23448,609648).
route(prodloc7,prodloc20,tr13,23448,140688).
route(prodloc7,prodloc21,tr0,16784,436384).
route(prodloc7,prodloc21,tr13,16784,100704).
route(prodloc7,prodloc22,tr0,17346,450996).
route(prodloc7,prodloc22,tr13,17346,104076).
route(prodloc7,prodloc23,tr0,8765,227890).
route(prodloc7,prodloc23,tr13,8765,52590).
route(prodloc7,prodloc24,tr0,25435,661310).
route(prodloc7,prodloc24,tr13,25435,152610).
route(prodloc7,prodloc25,tr0,28486,740636).
route(prodloc7,prodloc25,tr13,28486,170916).
route(prodloc7,prodloc26,tr0,21339,554814).
route(prodloc7,prodloc26,tr13,21339,128034).
route(prodloc7,prodloc27,tr0,3751,97526).
route(prodloc7,prodloc27,tr13,3751,22506).
route(prodloc7,prodloc28,tr0,24321,632346).
route(prodloc7,prodloc28,tr13,24321,145926).
route(prodloc7,prodloc29,tr0,19025,494650).
route(prodloc7,prodloc29,tr13,19025,114150).
route(prodloc7,prodloc30,tr0,21770,566020).
route(prodloc7,prodloc30,tr13,21770,130620).
route(prodloc7,prodloc31,tr0,27195,707070).
route(prodloc7,prodloc31,tr13,27195,163170).
route(prodloc7,prodloc32,tr0,4273,111098).
route(prodloc7,prodloc32,tr13,4273,25638).
route(prodloc7,prodloc33,tr0,21553,560378).
route(prodloc7,prodloc33,tr13,21553,129318).
route(prodloc8,harbor0,tr0,23316,606216).
route(prodloc8,harbor0,tr13,23316,139896).
route(prodloc8,harbor1,tr0,1618,42068).
route(prodloc8,harbor1,tr13,1618,9708).
route(prodloc8,harbor2,tr0,21012,546312).
route(prodloc8,harbor2,tr13,21012,126072).
route(prodloc8,harbor3,tr0,3661,95186).
route(prodloc8,harbor3,tr13,3661,21966).
route(prodloc8,harbor4,tr0,11369,295594).
route(prodloc8,harbor4,tr13,11369,68214).
route(prodloc8,harbor5,tr0,9361,243386).
route(prodloc8,harbor5,tr13,9361,56166).
route(prodloc8,harbor6,tr0,11506,299156).
route(prodloc8,harbor6,tr13,11506,69036).
route(prodloc8,harbor7,tr0,23948,622648).
route(prodloc8,harbor7,tr13,23948,143688).
route(prodloc8,harbor8,tr0,8989,233714).
route(prodloc8,harbor8,tr13,8989,53934).
route(prodloc8,harbor9,tr0,4491,116766).
route(prodloc8,harbor9,tr13,4491,26946).
route(prodloc8,harbor10,tr0,25768,669968).
route(prodloc8,harbor10,tr13,25768,154608).
route(prodloc8,harbor11,tr0,22498,584948).
route(prodloc8,harbor11,tr13,22498,134988).
route(prodloc8,harbor12,tr0,18747,487422).
route(prodloc8,harbor12,tr13,18747,112482).
route(prodloc8,harbor13,tr0,1989,51714).
route(prodloc8,harbor13,tr13,1989,11934).
route(prodloc8,harbor14,tr0,28736,747136).
route(prodloc8,harbor14,tr13,28736,172416).
route(prodloc8,harbor15,tr0,21045,547170).
route(prodloc8,harbor15,tr13,21045,126270).
route(prodloc8,harbor16,tr0,20816,541216).
route(prodloc8,harbor16,tr13,20816,124896).
route(prodloc8,prodloc0,tr0,22960,596960).
route(prodloc8,prodloc0,tr13,22960,137760).
route(prodloc8,prodloc1,tr0,5248,136448).
route(prodloc8,prodloc1,tr13,5248,31488).
route(prodloc8,prodloc2,tr0,24717,642642).
route(prodloc8,prodloc2,tr13,24717,148302).
route(prodloc8,prodloc3,tr0,13252,344552).
route(prodloc8,prodloc3,tr13,13252,79512).
route(prodloc8,prodloc4,tr0,290,7540).
route(prodloc8,prodloc4,tr13,290,1740).
route(prodloc8,prodloc5,tr0,790,20540).
route(prodloc8,prodloc5,tr13,790,4740).
route(prodloc8,prodloc6,tr0,14360,373360).
route(prodloc8,prodloc6,tr13,14360,86160).
route(prodloc8,prodloc7,tr0,15340,398840).
route(prodloc8,prodloc7,tr13,15340,92040).
route(prodloc8,prodloc9,tr0,12059,313534).
route(prodloc8,prodloc9,tr13,12059,72354).
route(prodloc8,prodloc10,tr0,13239,344214).
route(prodloc8,prodloc10,tr13,13239,79434).
route(prodloc8,prodloc11,tr0,7432,193232).
route(prodloc8,prodloc11,tr13,7432,44592).
route(prodloc8,prodloc12,tr0,21766,565916).
route(prodloc8,prodloc12,tr13,21766,130596).
route(prodloc8,prodloc13,tr0,1819,47294).
route(prodloc8,prodloc13,tr13,1819,10914).
route(prodloc8,prodloc14,tr0,11790,306540).
route(prodloc8,prodloc14,tr13,11790,70740).
route(prodloc8,prodloc15,tr0,19357,503282).
route(prodloc8,prodloc15,tr13,19357,116142).
route(prodloc8,prodloc16,tr0,22110,574860).
route(prodloc8,prodloc16,tr13,22110,132660).
route(prodloc8,prodloc17,tr0,15352,399152).
route(prodloc8,prodloc17,tr13,15352,92112).
route(prodloc8,prodloc18,tr0,10978,285428).
route(prodloc8,prodloc18,tr13,10978,65868).
route(prodloc8,prodloc19,tr0,9853,256178).
route(prodloc8,prodloc19,tr13,9853,59118).
route(prodloc8,prodloc20,tr0,17969,467194).
route(prodloc8,prodloc20,tr13,17969,107814).
route(prodloc8,prodloc21,tr0,13444,349544).
route(prodloc8,prodloc21,tr13,13444,80664).
route(prodloc8,prodloc22,tr0,4373,113698).
route(prodloc8,prodloc22,tr13,4373,26238).
route(prodloc8,prodloc23,tr0,8820,229320).
route(prodloc8,prodloc23,tr13,8820,52920).
route(prodloc8,prodloc24,tr0,14075,365950).
route(prodloc8,prodloc24,tr13,14075,84450).
route(prodloc8,prodloc25,tr0,2275,59150).
route(prodloc8,prodloc25,tr13,2275,13650).
route(prodloc8,prodloc26,tr0,2464,64064).
route(prodloc8,prodloc26,tr13,2464,14784).
route(prodloc8,prodloc27,tr0,7367,191542).
route(prodloc8,prodloc27,tr13,7367,44202).
route(prodloc8,prodloc28,tr0,10807,280982).
route(prodloc8,prodloc28,tr13,10807,64842).
route(prodloc8,prodloc29,tr0,6304,163904).
route(prodloc8,prodloc29,tr13,6304,37824).
route(prodloc8,prodloc30,tr0,24217,629642).
route(prodloc8,prodloc30,tr13,24217,145302).
route(prodloc8,prodloc31,tr0,17339,450814).
route(prodloc8,prodloc31,tr13,17339,104034).
route(prodloc8,prodloc32,tr0,13255,344630).
route(prodloc8,prodloc32,tr13,13255,79530).
route(prodloc8,prodloc33,tr0,1797,46722).
route(prodloc8,prodloc33,tr13,1797,10782).
route(prodloc9,harbor0,tr0,14645,380770).
route(prodloc9,harbor0,tr13,14645,87870).
route(prodloc9,harbor1,tr0,9606,249756).
route(prodloc9,harbor1,tr13,9606,57636).
route(prodloc9,harbor2,tr0,7694,200044).
route(prodloc9,harbor2,tr13,7694,46164).
route(prodloc9,harbor3,tr0,10107,262782).
route(prodloc9,harbor3,tr13,10107,60642).
route(prodloc9,harbor4,tr0,27016,702416).
route(prodloc9,harbor4,tr13,27016,162096).
route(prodloc9,harbor5,tr0,10602,275652).
route(prodloc9,harbor5,tr13,10602,63612).
route(prodloc9,harbor6,tr0,9042,235092).
route(prodloc9,harbor6,tr13,9042,54252).
route(prodloc9,harbor7,tr0,13402,348452).
route(prodloc9,harbor7,tr13,13402,80412).
route(prodloc9,harbor8,tr0,1939,50414).
route(prodloc9,harbor8,tr13,1939,11634).
route(prodloc9,harbor9,tr0,63,1638).
route(prodloc9,harbor9,tr13,63,378).
route(prodloc9,harbor10,tr0,278,7228).
route(prodloc9,harbor10,tr13,278,1668).
route(prodloc9,harbor11,tr0,14014,364364).
route(prodloc9,harbor11,tr13,14014,84084).
route(prodloc9,harbor12,tr0,25348,659048).
route(prodloc9,harbor12,tr13,25348,152088).
route(prodloc9,harbor13,tr0,28658,745108).
route(prodloc9,harbor13,tr13,28658,171948).
route(prodloc9,harbor14,tr0,1060,27560).
route(prodloc9,harbor14,tr13,1060,6360).
route(prodloc9,harbor15,tr0,21349,555074).
route(prodloc9,harbor15,tr13,21349,128094).
route(prodloc9,harbor16,tr0,6306,163956).
route(prodloc9,harbor16,tr13,6306,37836).
route(prodloc9,prodloc0,tr0,7476,194376).
route(prodloc9,prodloc0,tr13,7476,44856).
route(prodloc9,prodloc1,tr0,17921,465946).
route(prodloc9,prodloc1,tr13,17921,107526).
route(prodloc9,prodloc2,tr13,3450,20700).
route(prodloc9,prodloc2,tr15,3450,110400).
route(prodloc9,prodloc3,tr0,26053,677378).
route(prodloc9,prodloc3,tr13,26053,156318).
route(prodloc9,prodloc4,tr0,27458,713908).
route(prodloc9,prodloc4,tr13,27458,164748).
route(prodloc9,prodloc5,tr0,2598,67548).
route(prodloc9,prodloc5,tr13,2598,15588).
route(prodloc9,prodloc6,tr0,15583,405158).
route(prodloc9,prodloc6,tr13,15583,93498).
route(prodloc9,prodloc7,tr0,20173,524498).
route(prodloc9,prodloc7,tr13,20173,121038).
route(prodloc9,prodloc8,tr0,20134,523484).
route(prodloc9,prodloc8,tr13,20134,120804).
route(prodloc9,prodloc10,tr0,19515,507390).
route(prodloc9,prodloc10,tr13,19515,117090).
route(prodloc9,prodloc11,tr0,4395,114270).
route(prodloc9,prodloc11,tr13,4395,26370).
route(prodloc9,prodloc12,tr0,5978,155428).
route(prodloc9,prodloc12,tr13,5978,35868).
route(prodloc9,prodloc13,tr0,14474,376324).
route(prodloc9,prodloc13,tr13,14474,86844).
route(prodloc9,prodloc14,tr0,16181,420706).
route(prodloc9,prodloc14,tr13,16181,97086).
route(prodloc9,prodloc15,tr0,28262,734812).
route(prodloc9,prodloc15,tr13,28262,169572).
route(prodloc9,prodloc16,tr0,23344,606944).
route(prodloc9,prodloc16,tr13,23344,140064).
route(prodloc9,prodloc17,tr0,22220,577720).
route(prodloc9,prodloc17,tr13,22220,133320).
route(prodloc9,prodloc18,tr0,2454,63804).
route(prodloc9,prodloc18,tr13,2454,14724).
route(prodloc9,prodloc19,tr0,26236,682136).
route(prodloc9,prodloc19,tr13,26236,157416).
route(prodloc9,prodloc20,tr0,1018,26468).
route(prodloc9,prodloc20,tr13,1018,6108).
route(prodloc9,prodloc21,tr0,18143,471718).
route(prodloc9,prodloc21,tr13,18143,108858).
route(prodloc9,prodloc22,tr0,8509,221234).
route(prodloc9,prodloc22,tr13,8509,51054).
route(prodloc9,prodloc23,tr0,9415,244790).
route(prodloc9,prodloc23,tr13,9415,56490).
route(prodloc9,prodloc24,tr0,1647,42822).
route(prodloc9,prodloc24,tr13,1647,9882).
route(prodloc9,prodloc25,tr0,18102,470652).
route(prodloc9,prodloc25,tr13,18102,108612).
route(prodloc9,prodloc26,tr0,11511,299286).
route(prodloc9,prodloc26,tr13,11511,69066).
route(prodloc9,prodloc27,tr0,2636,68536).
route(prodloc9,prodloc27,tr13,2636,15816).
route(prodloc9,prodloc28,tr0,8874,230724).
route(prodloc9,prodloc28,tr13,8874,53244).
route(prodloc9,prodloc29,tr0,12036,312936).
route(prodloc9,prodloc29,tr13,12036,72216).
route(prodloc9,prodloc30,tr0,16541,430066).
route(prodloc9,prodloc30,tr13,16541,99246).
route(prodloc9,prodloc31,tr0,28078,730028).
route(prodloc9,prodloc31,tr13,28078,168468).
route(prodloc9,prodloc32,tr0,10078,262028).
route(prodloc9,prodloc32,tr13,10078,60468).
route(prodloc9,prodloc33,tr0,15206,395356).
route(prodloc9,prodloc33,tr15,15206,486592).
route(prodloc10,harbor0,tr0,17575,456950).
route(prodloc10,harbor0,tr13,17575,105450).
route(prodloc10,harbor1,tr0,7656,199056).
route(prodloc10,harbor1,tr13,7656,45936).
route(prodloc10,harbor2,tr0,7901,205426).
route(prodloc10,harbor2,tr13,7901,47406).
route(prodloc10,harbor3,tr0,2048,53248).
route(prodloc10,harbor3,tr13,2048,12288).
route(prodloc10,harbor4,tr0,2332,60632).
route(prodloc10,harbor4,tr13,2332,13992).
route(prodloc10,harbor5,tr0,7428,193128).
route(prodloc10,harbor5,tr13,7428,44568).
route(prodloc10,harbor6,tr0,14406,374556).
route(prodloc10,harbor6,tr13,14406,86436).
route(prodloc10,harbor7,tr0,10160,264160).
route(prodloc10,harbor7,tr13,10160,60960).
route(prodloc10,harbor8,tr0,1590,41340).
route(prodloc10,harbor8,tr13,1590,9540).
route(prodloc10,harbor9,tr0,27763,721838).
route(prodloc10,harbor9,tr13,27763,166578).
route(prodloc10,harbor10,tr0,3765,97890).
route(prodloc10,harbor10,tr13,3765,22590).
route(prodloc10,harbor11,tr0,14215,369590).
route(prodloc10,harbor11,tr13,14215,85290).
route(prodloc10,harbor12,tr0,18108,470808).
route(prodloc10,harbor12,tr13,18108,108648).
route(prodloc10,harbor13,tr0,8612,223912).
route(prodloc10,harbor13,tr13,8612,51672).
route(prodloc10,harbor14,tr0,28466,740116).
route(prodloc10,harbor14,tr13,28466,170796).
route(prodloc10,harbor15,tr0,13366,347516).
route(prodloc10,harbor15,tr13,13366,80196).
route(prodloc10,harbor16,tr0,23725,616850).
route(prodloc10,harbor16,tr13,23725,142350).
route(prodloc10,prodloc0,tr13,22151,132906).
route(prodloc10,prodloc0,tr15,22151,708832).
route(prodloc10,prodloc1,tr0,3747,97422).
route(prodloc10,prodloc1,tr15,3747,119904).
route(prodloc10,prodloc2,tr0,4520,117520).
route(prodloc10,prodloc2,tr13,4520,27120).
route(prodloc10,prodloc3,tr0,22975,597350).
route(prodloc10,prodloc3,tr13,22975,137850).
route(prodloc10,prodloc4,tr0,24805,644930).
route(prodloc10,prodloc4,tr13,24805,148830).
route(prodloc10,prodloc5,tr0,10273,267098).
route(prodloc10,prodloc5,tr13,10273,61638).
route(prodloc10,prodloc6,tr0,27753,721578).
route(prodloc10,prodloc6,tr13,27753,166518).
route(prodloc10,prodloc7,tr0,13699,356174).
route(prodloc10,prodloc7,tr13,13699,82194).
route(prodloc10,prodloc8,tr0,22461,583986).
route(prodloc10,prodloc8,tr13,22461,134766).
route(prodloc10,prodloc9,tr0,23599,613574).
route(prodloc10,prodloc9,tr13,23599,141594).
route(prodloc10,prodloc11,tr0,28403,738478).
route(prodloc10,prodloc11,tr13,28403,170418).
route(prodloc10,prodloc12,tr0,11441,297466).
route(prodloc10,prodloc12,tr13,11441,68646).
route(prodloc10,prodloc13,tr0,26053,677378).
route(prodloc10,prodloc13,tr13,26053,156318).
route(prodloc10,prodloc14,tr0,16021,416546).
route(prodloc10,prodloc14,tr13,16021,96126).
route(prodloc10,prodloc15,tr0,12341,320866).
route(prodloc10,prodloc15,tr13,12341,74046).
route(prodloc10,prodloc16,tr0,15984,415584).
route(prodloc10,prodloc16,tr13,15984,95904).
route(prodloc10,prodloc17,tr0,22251,578526).
route(prodloc10,prodloc17,tr13,22251,133506).
route(prodloc10,prodloc18,tr0,15883,412958).
route(prodloc10,prodloc18,tr13,15883,95298).
route(prodloc10,prodloc19,tr0,16763,435838).
route(prodloc10,prodloc19,tr13,16763,100578).
route(prodloc10,prodloc20,tr0,2425,63050).
route(prodloc10,prodloc20,tr13,2425,14550).
route(prodloc10,prodloc21,tr0,27185,706810).
route(prodloc10,prodloc21,tr13,27185,163110).
route(prodloc10,prodloc22,tr0,12864,334464).
route(prodloc10,prodloc22,tr13,12864,77184).
route(prodloc10,prodloc23,tr0,11182,290732).
route(prodloc10,prodloc23,tr13,11182,67092).
route(prodloc10,prodloc24,tr0,12452,323752).
route(prodloc10,prodloc24,tr13,12452,74712).
route(prodloc10,prodloc25,tr0,10671,277446).
route(prodloc10,prodloc25,tr13,10671,64026).
route(prodloc10,prodloc26,tr0,13751,357526).
route(prodloc10,prodloc26,tr13,13751,82506).
route(prodloc10,prodloc27,tr0,10082,262132).
route(prodloc10,prodloc27,tr13,10082,60492).
route(prodloc10,prodloc28,tr0,9400,244400).
route(prodloc10,prodloc28,tr13,9400,56400).
route(prodloc10,prodloc29,tr0,15455,401830).
route(prodloc10,prodloc29,tr13,15455,92730).
route(prodloc10,prodloc30,tr0,14701,382226).
route(prodloc10,prodloc30,tr13,14701,88206).
route(prodloc10,prodloc31,tr0,10,260).
route(prodloc10,prodloc31,tr13,10,60).
route(prodloc10,prodloc32,tr0,24275,631150).
route(prodloc10,prodloc32,tr13,24275,145650).
route(prodloc10,prodloc33,tr0,8107,210782).
route(prodloc10,prodloc33,tr13,8107,48642).
route(prodloc11,harbor0,tr0,2412,62712).
route(prodloc11,harbor0,tr13,2412,14472).
route(prodloc11,harbor1,tr0,8655,225030).
route(prodloc11,harbor1,tr13,8655,51930).
route(prodloc11,harbor2,tr0,2467,64142).
route(prodloc11,harbor2,tr13,2467,14802).
route(prodloc11,harbor3,tr0,20672,537472).
route(prodloc11,harbor3,tr13,20672,124032).
route(prodloc11,harbor4,tr0,17535,455910).
route(prodloc11,harbor4,tr13,17535,105210).
route(prodloc11,harbor5,tr0,18934,492284).
route(prodloc11,harbor5,tr13,18934,113604).
route(prodloc11,harbor6,tr0,1646,42796).
route(prodloc11,harbor6,tr13,1646,9876).
route(prodloc11,harbor7,tr0,26187,680862).
route(prodloc11,harbor7,tr13,26187,157122).
route(prodloc11,harbor8,tr0,4519,117494).
route(prodloc11,harbor8,tr13,4519,27114).
route(prodloc11,harbor9,tr0,1072,27872).
route(prodloc11,harbor9,tr13,1072,6432).
route(prodloc11,harbor10,tr0,28723,746798).
route(prodloc11,harbor10,tr13,28723,172338).
route(prodloc11,harbor11,tr0,314,8164).
route(prodloc11,harbor11,tr13,314,1884).
route(prodloc11,harbor12,tr0,3559,92534).
route(prodloc11,harbor12,tr13,3559,21354).
route(prodloc11,harbor13,tr0,19910,517660).
route(prodloc11,harbor13,tr13,19910,119460).
route(prodloc11,harbor14,tr0,7063,183638).
route(prodloc11,harbor14,tr13,7063,42378).
route(prodloc11,harbor15,tr0,17188,446888).
route(prodloc11,harbor15,tr13,17188,103128).
route(prodloc11,harbor16,tr0,16183,420758).
route(prodloc11,harbor16,tr13,16183,97098).
route(prodloc11,prodloc0,tr0,14642,380692).
route(prodloc11,prodloc0,tr13,14642,87852).
route(prodloc11,prodloc1,tr0,9637,250562).
route(prodloc11,prodloc1,tr13,9637,57822).
route(prodloc11,prodloc2,tr0,6737,175162).
route(prodloc11,prodloc2,tr13,6737,40422).
route(prodloc11,prodloc3,tr0,2860,74360).
route(prodloc11,prodloc3,tr13,2860,17160).
route(prodloc11,prodloc4,tr0,9462,246012).
route(prodloc11,prodloc4,tr13,9462,56772).
route(prodloc11,prodloc5,tr0,18380,477880).
route(prodloc11,prodloc5,tr13,18380,110280).
route(prodloc11,prodloc6,tr0,28592,743392).
route(prodloc11,prodloc6,tr13,28592,171552).
route(prodloc11,prodloc7,tr0,10333,268658).
route(prodloc11,prodloc7,tr13,10333,61998).
route(prodloc11,prodloc8,tr0,9957,258882).
route(prodloc11,prodloc8,tr13,9957,59742).
route(prodloc11,prodloc9,tr0,15956,414856).
route(prodloc11,prodloc9,tr13,15956,95736).
route(prodloc11,prodloc10,tr0,5106,132756).
route(prodloc11,prodloc10,tr13,5106,30636).
route(prodloc11,prodloc12,tr0,28479,740454).
route(prodloc11,prodloc12,tr13,28479,170874).
route(prodloc11,prodloc13,tr0,20276,527176).
route(prodloc11,prodloc13,tr13,20276,121656).
route(prodloc11,prodloc14,tr0,14746,383396).
route(prodloc11,prodloc14,tr13,14746,88476).
route(prodloc11,prodloc15,tr0,11511,299286).
route(prodloc11,prodloc15,tr13,11511,69066).
route(prodloc11,prodloc16,tr0,27601,717626).
route(prodloc11,prodloc16,tr13,27601,165606).
route(prodloc11,prodloc17,tr0,8584,223184).
route(prodloc11,prodloc17,tr13,8584,51504).
route(prodloc11,prodloc18,tr0,9593,249418).
route(prodloc11,prodloc18,tr13,9593,57558).
route(prodloc11,prodloc19,tr0,5954,154804).
route(prodloc11,prodloc19,tr13,5954,35724).
route(prodloc11,prodloc20,tr0,13191,342966).
route(prodloc11,prodloc20,tr13,13191,79146).
route(prodloc11,prodloc21,tr0,25581,665106).
route(prodloc11,prodloc21,tr13,25581,153486).
route(prodloc11,prodloc22,tr0,9754,253604).
route(prodloc11,prodloc22,tr13,9754,58524).
route(prodloc11,prodloc23,tr0,938,24388).
route(prodloc11,prodloc23,tr13,938,5628).
route(prodloc11,prodloc24,tr0,23826,619476).
route(prodloc11,prodloc24,tr13,23826,142956).
route(prodloc11,prodloc25,tr0,22820,593320).
route(prodloc11,prodloc25,tr13,22820,136920).
route(prodloc11,prodloc26,tr0,3961,102986).
route(prodloc11,prodloc26,tr13,3961,23766).
route(prodloc11,prodloc27,tr0,582,15132).
route(prodloc11,prodloc27,tr13,582,3492).
route(prodloc11,prodloc28,tr0,23704,616304).
route(prodloc11,prodloc28,tr13,23704,142224).
route(prodloc11,prodloc29,tr0,7196,187096).
route(prodloc11,prodloc29,tr13,7196,43176).
route(prodloc11,prodloc30,tr0,22658,589108).
route(prodloc11,prodloc30,tr13,22658,135948).
route(prodloc11,prodloc31,tr0,13379,347854).
route(prodloc11,prodloc31,tr13,13379,80274).
route(prodloc11,prodloc32,tr0,18049,469274).
route(prodloc11,prodloc32,tr13,18049,108294).
route(prodloc11,prodloc33,tr0,7077,184002).
route(prodloc11,prodloc33,tr13,7077,42462).
route(prodloc12,harbor0,tr0,18772,488072).
route(prodloc12,harbor0,tr13,18772,112632).
route(prodloc12,harbor1,tr0,4740,123240).
route(prodloc12,harbor1,tr13,4740,28440).
route(prodloc12,harbor2,tr0,27015,702390).
route(prodloc12,harbor2,tr13,27015,162090).
route(prodloc12,harbor3,tr0,4555,118430).
route(prodloc12,harbor3,tr13,4555,27330).
route(prodloc12,harbor4,tr0,28594,743444).
route(prodloc12,harbor4,tr13,28594,171564).
route(prodloc12,harbor5,tr0,20131,523406).
route(prodloc12,harbor5,tr13,20131,120786).
route(prodloc12,harbor6,tr0,3253,84578).
route(prodloc12,harbor6,tr13,3253,19518).
route(prodloc12,harbor7,tr0,5782,150332).
route(prodloc12,harbor7,tr13,5782,34692).
route(prodloc12,harbor8,tr0,8468,220168).
route(prodloc12,harbor8,tr13,8468,50808).
route(prodloc12,harbor9,tr0,15079,392054).
route(prodloc12,harbor9,tr13,15079,90474).
route(prodloc12,harbor10,tr0,14699,382174).
route(prodloc12,harbor10,tr13,14699,88194).
route(prodloc12,harbor11,tr0,28908,751608).
route(prodloc12,harbor11,tr13,28908,173448).
route(prodloc12,harbor12,tr0,28349,737074).
route(prodloc12,harbor12,tr13,28349,170094).
route(prodloc12,harbor13,tr0,5875,152750).
route(prodloc12,harbor13,tr13,5875,35250).
route(prodloc12,harbor14,tr0,19136,497536).
route(prodloc12,harbor14,tr13,19136,114816).
route(prodloc12,harbor15,tr0,8110,210860).
route(prodloc12,harbor15,tr13,8110,48660).
route(prodloc12,harbor16,tr0,22363,581438).
route(prodloc12,harbor16,tr13,22363,134178).
route(prodloc12,prodloc0,tr0,12483,324558).
route(prodloc12,prodloc0,tr13,12483,74898).
route(prodloc12,prodloc1,tr0,10039,261014).
route(prodloc12,prodloc1,tr13,10039,60234).
route(prodloc12,prodloc2,tr0,13397,348322).
route(prodloc12,prodloc2,tr13,13397,80382).
route(prodloc12,prodloc3,tr0,20105,522730).
route(prodloc12,prodloc3,tr13,20105,120630).
route(prodloc12,prodloc4,tr0,28560,742560).
route(prodloc12,prodloc4,tr13,28560,171360).
route(prodloc12,prodloc5,tr0,13640,354640).
route(prodloc12,prodloc5,tr15,13640,436480).
route(prodloc12,prodloc6,tr0,22569,586794).
route(prodloc12,prodloc6,tr13,22569,135414).
route(prodloc12,prodloc7,tr0,954,24804).
route(prodloc12,prodloc7,tr13,954,5724).
route(prodloc12,prodloc8,tr0,5166,134316).
route(prodloc12,prodloc8,tr13,5166,30996).
route(prodloc12,prodloc9,tr0,19990,519740).
route(prodloc12,prodloc9,tr13,19990,119940).
route(prodloc12,prodloc10,tr0,65,1690).
route(prodloc12,prodloc10,tr13,65,390).
route(prodloc12,prodloc11,tr0,25595,665470).
route(prodloc12,prodloc11,tr13,25595,153570).
route(prodloc12,prodloc13,tr0,22700,590200).
route(prodloc12,prodloc13,tr13,22700,136200).
route(prodloc12,prodloc14,tr0,14903,387478).
route(prodloc12,prodloc14,tr13,14903,89418).
route(prodloc12,prodloc15,tr0,3547,92222).
route(prodloc12,prodloc15,tr13,3547,21282).
route(prodloc12,prodloc16,tr0,27505,715130).
route(prodloc12,prodloc16,tr13,27505,165030).
route(prodloc12,prodloc17,tr0,4471,116246).
route(prodloc12,prodloc17,tr13,4471,26826).
route(prodloc12,prodloc18,tr0,11647,302822).
route(prodloc12,prodloc18,tr13,11647,69882).
route(prodloc12,prodloc19,tr0,24555,638430).
route(prodloc12,prodloc19,tr13,24555,147330).
route(prodloc12,prodloc20,tr0,14799,384774).
route(prodloc12,prodloc20,tr13,14799,88794).
route(prodloc12,prodloc21,tr0,3948,102648).
route(prodloc12,prodloc21,tr13,3948,23688).
route(prodloc12,prodloc22,tr0,14167,368342).
route(prodloc12,prodloc22,tr13,14167,85002).
route(prodloc12,prodloc23,tr0,9037,234962).
route(prodloc12,prodloc23,tr13,9037,54222).
route(prodloc12,prodloc24,tr0,3094,80444).
route(prodloc12,prodloc24,tr13,3094,18564).
route(prodloc12,prodloc25,tr0,1205,31330).
route(prodloc12,prodloc25,tr13,1205,7230).
route(prodloc12,prodloc26,tr0,2343,60918).
route(prodloc12,prodloc26,tr13,2343,14058).
route(prodloc12,prodloc27,tr0,9331,242606).
route(prodloc12,prodloc27,tr13,9331,55986).
route(prodloc12,prodloc28,tr0,20900,543400).
route(prodloc12,prodloc28,tr15,20900,668800).
route(prodloc12,prodloc29,tr0,26377,685802).
route(prodloc12,prodloc29,tr13,26377,158262).
route(prodloc12,prodloc30,tr0,6018,156468).
route(prodloc12,prodloc30,tr13,6018,36108).
route(prodloc12,prodloc31,tr0,25328,658528).
route(prodloc12,prodloc31,tr13,25328,151968).
route(prodloc12,prodloc32,tr0,13538,351988).
route(prodloc12,prodloc32,tr13,13538,81228).
route(prodloc12,prodloc33,tr0,10688,277888).
route(prodloc12,prodloc33,tr13,10688,64128).
route(prodloc13,harbor0,tr0,2049,53274).
route(prodloc13,harbor0,tr13,2049,12294).
route(prodloc13,harbor1,tr0,13698,356148).
route(prodloc13,harbor1,tr13,13698,82188).
route(prodloc13,harbor2,tr0,10983,285558).
route(prodloc13,harbor2,tr13,10983,65898).
route(prodloc13,harbor3,tr0,1377,35802).
route(prodloc13,harbor3,tr13,1377,8262).
route(prodloc13,harbor4,tr0,16393,426218).
route(prodloc13,harbor4,tr13,16393,98358).
route(prodloc13,harbor5,tr0,240,6240).
route(prodloc13,harbor5,tr13,240,1440).
route(prodloc13,harbor6,tr0,18869,490594).
route(prodloc13,harbor6,tr13,18869,113214).
route(prodloc13,harbor7,tr0,4552,118352).
route(prodloc13,harbor7,tr13,4552,27312).
route(prodloc13,harbor8,tr0,15543,404118).
route(prodloc13,harbor8,tr13,15543,93258).
route(prodloc13,harbor9,tr0,20839,541814).
route(prodloc13,harbor9,tr13,20839,125034).
route(prodloc13,harbor10,tr0,26637,692562).
route(prodloc13,harbor10,tr13,26637,159822).
route(prodloc13,harbor11,tr0,4254,110604).
route(prodloc13,harbor11,tr13,4254,25524).
route(prodloc13,harbor12,tr0,23996,623896).
route(prodloc13,harbor12,tr13,23996,143976).
route(prodloc13,harbor13,tr0,21680,563680).
route(prodloc13,harbor13,tr13,21680,130080).
route(prodloc13,harbor14,tr0,14755,383630).
route(prodloc13,harbor14,tr13,14755,88530).
route(prodloc13,harbor15,tr0,4259,110734).
route(prodloc13,harbor15,tr13,4259,25554).
route(prodloc13,harbor16,tr0,8589,223314).
route(prodloc13,harbor16,tr13,8589,51534).
route(prodloc13,prodloc0,tr0,15401,400426).
route(prodloc13,prodloc0,tr13,15401,92406).
route(prodloc13,prodloc1,tr0,16953,440778).
route(prodloc13,prodloc1,tr13,16953,101718).
route(prodloc13,prodloc2,tr0,24575,638950).
route(prodloc13,prodloc2,tr13,24575,147450).
route(prodloc13,prodloc3,tr0,12695,330070).
route(prodloc13,prodloc3,tr13,12695,76170).
route(prodloc13,prodloc4,tr0,8822,229372).
route(prodloc13,prodloc4,tr13,8822,52932).
route(prodloc13,prodloc5,tr0,10420,270920).
route(prodloc13,prodloc5,tr13,10420,62520).
route(prodloc13,prodloc6,tr0,27039,703014).
route(prodloc13,prodloc6,tr13,27039,162234).
route(prodloc13,prodloc7,tr0,10497,272922).
route(prodloc13,prodloc7,tr13,10497,62982).
route(prodloc13,prodloc8,tr0,18975,493350).
route(prodloc13,prodloc8,tr13,18975,113850).
route(prodloc13,prodloc9,tr0,9529,247754).
route(prodloc13,prodloc9,tr13,9529,57174).
route(prodloc13,prodloc10,tr0,11258,292708).
route(prodloc13,prodloc10,tr13,11258,67548).
route(prodloc13,prodloc11,tr0,516,13416).
route(prodloc13,prodloc11,tr13,516,3096).
route(prodloc13,prodloc12,tr0,6952,180752).
route(prodloc13,prodloc12,tr13,6952,41712).
route(prodloc13,prodloc14,tr0,23819,619294).
route(prodloc13,prodloc14,tr13,23819,142914).
route(prodloc13,prodloc15,tr0,5365,139490).
route(prodloc13,prodloc15,tr13,5365,32190).
route(prodloc13,prodloc16,tr0,12839,333814).
route(prodloc13,prodloc16,tr13,12839,77034).
route(prodloc13,prodloc17,tr0,9870,256620).
route(prodloc13,prodloc17,tr13,9870,59220).
route(prodloc13,prodloc18,tr0,6132,159432).
route(prodloc13,prodloc18,tr13,6132,36792).
route(prodloc13,prodloc19,tr0,2951,76726).
route(prodloc13,prodloc19,tr13,2951,17706).
route(prodloc13,prodloc20,tr0,10192,264992).
route(prodloc13,prodloc20,tr13,10192,61152).
route(prodloc13,prodloc21,tr0,9771,254046).
route(prodloc13,prodloc21,tr13,9771,58626).
route(prodloc13,prodloc22,tr0,1349,35074).
route(prodloc13,prodloc22,tr13,1349,8094).
route(prodloc13,prodloc23,tr0,5392,140192).
route(prodloc13,prodloc23,tr13,5392,32352).
route(prodloc13,prodloc24,tr0,15409,400634).
route(prodloc13,prodloc24,tr13,15409,92454).
route(prodloc13,prodloc25,tr0,8572,222872).
route(prodloc13,prodloc25,tr13,8572,51432).
route(prodloc13,prodloc26,tr0,19119,497094).
route(prodloc13,prodloc26,tr13,19119,114714).
route(prodloc13,prodloc27,tr0,4459,115934).
route(prodloc13,prodloc27,tr13,4459,26754).
route(prodloc13,prodloc28,tr0,20356,529256).
route(prodloc13,prodloc28,tr13,20356,122136).
route(prodloc13,prodloc29,tr0,20276,527176).
route(prodloc13,prodloc29,tr13,20276,121656).
route(prodloc13,prodloc30,tr0,14575,378950).
route(prodloc13,prodloc30,tr13,14575,87450).
route(prodloc13,prodloc31,tr0,14056,365456).
route(prodloc13,prodloc31,tr13,14056,84336).
route(prodloc13,prodloc32,tr0,4928,128128).
route(prodloc13,prodloc32,tr13,4928,29568).
route(prodloc13,prodloc33,tr0,20705,538330).
route(prodloc13,prodloc33,tr13,20705,124230).
route(prodloc14,harbor0,tr0,6436,167336).
route(prodloc14,harbor0,tr13,6436,38616).
route(prodloc14,harbor1,tr0,28838,749788).
route(prodloc14,harbor1,tr13,28838,173028).
route(prodloc14,harbor2,tr0,18401,478426).
route(prodloc14,harbor2,tr13,18401,110406).
route(prodloc14,harbor3,tr0,28069,729794).
route(prodloc14,harbor3,tr13,28069,168414).
route(prodloc14,harbor4,tr0,13513,351338).
route(prodloc14,harbor4,tr13,13513,81078).
route(prodloc14,harbor5,tr0,10313,268138).
route(prodloc14,harbor5,tr13,10313,61878).
route(prodloc14,harbor6,tr0,9935,258310).
route(prodloc14,harbor6,tr13,9935,59610).
route(prodloc14,harbor7,tr0,1369,35594).
route(prodloc14,harbor7,tr13,1369,8214).
route(prodloc14,harbor8,tr0,23768,617968).
route(prodloc14,harbor8,tr13,23768,142608).
route(prodloc14,harbor9,tr0,9164,238264).
route(prodloc14,harbor9,tr13,9164,54984).
route(prodloc14,harbor10,tr0,16874,438724).
route(prodloc14,harbor10,tr13,16874,101244).
route(prodloc14,harbor11,tr0,6567,170742).
route(prodloc14,harbor11,tr13,6567,39402).
route(prodloc14,harbor12,tr0,18546,482196).
route(prodloc14,harbor12,tr13,18546,111276).
route(prodloc14,harbor13,tr0,22671,589446).
route(prodloc14,harbor13,tr13,22671,136026).
route(prodloc14,harbor14,tr0,13808,359008).
route(prodloc14,harbor14,tr13,13808,82848).
route(prodloc14,harbor15,tr0,16777,436202).
route(prodloc14,harbor15,tr13,16777,100662).
route(prodloc14,harbor16,tr0,24993,649818).
route(prodloc14,harbor16,tr13,24993,149958).
route(prodloc14,prodloc0,tr0,26621,692146).
route(prodloc14,prodloc0,tr13,26621,159726).
route(prodloc14,prodloc1,tr0,5302,137852).
route(prodloc14,prodloc1,tr13,5302,31812).
route(prodloc14,prodloc2,tr0,25797,670722).
route(prodloc14,prodloc2,tr13,25797,154782).
route(prodloc14,prodloc3,tr0,15239,396214).
route(prodloc14,prodloc3,tr13,15239,91434).
route(prodloc14,prodloc4,tr0,2600,67600).
route(prodloc14,prodloc4,tr13,2600,15600).
route(prodloc14,prodloc5,tr0,20073,521898).
route(prodloc14,prodloc5,tr13,20073,120438).
route(prodloc14,prodloc6,tr0,6816,177216).
route(prodloc14,prodloc6,tr13,6816,40896).
route(prodloc14,prodloc7,tr0,25018,650468).
route(prodloc14,prodloc7,tr13,25018,150108).
route(prodloc14,prodloc9,tr0,434,11284).
route(prodloc14,prodloc9,tr13,434,2604).
route(prodloc14,prodloc10,tr0,3779,98254).
route(prodloc14,prodloc10,tr13,3779,22674).
route(prodloc14,prodloc11,tr0,4146,107796).
route(prodloc14,prodloc11,tr13,4146,24876).
route(prodloc14,prodloc12,tr0,8766,227916).
route(prodloc14,prodloc12,tr13,8766,52596).
route(prodloc14,prodloc13,tr0,18214,473564).
route(prodloc14,prodloc13,tr13,18214,109284).
route(prodloc14,prodloc15,tr0,21863,568438).
route(prodloc14,prodloc15,tr13,21863,131178).
route(prodloc14,prodloc16,tr0,25608,665808).
route(prodloc14,prodloc16,tr13,25608,153648).
route(prodloc14,prodloc17,tr0,6872,178672).
route(prodloc14,prodloc17,tr13,6872,41232).
route(prodloc14,prodloc18,tr0,21622,562172).
route(prodloc14,prodloc18,tr13,21622,129732).
route(prodloc14,prodloc19,tr0,1149,29874).
route(prodloc14,prodloc19,tr13,1149,6894).
route(prodloc14,prodloc20,tr0,13741,357266).
route(prodloc14,prodloc20,tr13,13741,82446).
route(prodloc14,prodloc21,tr0,5062,131612).
route(prodloc14,prodloc21,tr13,5062,30372).
route(prodloc14,prodloc22,tr0,16380,425880).
route(prodloc14,prodloc22,tr13,16380,98280).
route(prodloc14,prodloc23,tr0,22521,585546).
route(prodloc14,prodloc23,tr13,22521,135126).
route(prodloc14,prodloc24,tr0,25059,651534).
route(prodloc14,prodloc24,tr13,25059,150354).
route(prodloc14,prodloc25,tr0,24698,642148).
route(prodloc14,prodloc25,tr13,24698,148188).
route(prodloc14,prodloc26,tr0,11307,293982).
route(prodloc14,prodloc26,tr13,11307,67842).
route(prodloc14,prodloc27,tr0,18630,484380).
route(prodloc14,prodloc27,tr13,18630,111780).
route(prodloc14,prodloc28,tr0,9913,257738).
route(prodloc14,prodloc28,tr13,9913,59478).
route(prodloc14,prodloc29,tr0,13336,346736).
route(prodloc14,prodloc29,tr13,13336,80016).
route(prodloc14,prodloc30,tr0,6749,175474).
route(prodloc14,prodloc30,tr13,6749,40494).
route(prodloc14,prodloc31,tr0,873,22698).
route(prodloc14,prodloc31,tr13,873,5238).
route(prodloc14,prodloc32,tr0,13066,339716).
route(prodloc14,prodloc32,tr13,13066,78396).
route(prodloc14,prodloc33,tr0,14256,370656).
route(prodloc14,prodloc33,tr13,14256,85536).
route(prodloc15,harbor0,tr0,13722,356772).
route(prodloc15,harbor0,tr13,13722,82332).
route(prodloc15,harbor1,tr0,17072,443872).
route(prodloc15,harbor1,tr13,17072,102432).
route(prodloc15,harbor2,tr0,26355,685230).
route(prodloc15,harbor2,tr13,26355,158130).
route(prodloc15,harbor3,tr0,9849,256074).
route(prodloc15,harbor3,tr13,9849,59094).
route(prodloc15,harbor4,tr0,665,17290).
route(prodloc15,harbor4,tr13,665,3990).
route(prodloc15,harbor5,tr0,13373,347698).
route(prodloc15,harbor5,tr13,13373,80238).
route(prodloc15,harbor6,tr0,7527,195702).
route(prodloc15,harbor6,tr13,7527,45162).
route(prodloc15,harbor7,tr0,12207,317382).
route(prodloc15,harbor7,tr13,12207,73242).
route(prodloc15,harbor8,tr0,15013,390338).
route(prodloc15,harbor8,tr13,15013,90078).
route(prodloc15,harbor9,tr0,8599,223574).
route(prodloc15,harbor9,tr13,8599,51594).
route(prodloc15,harbor10,tr0,2584,67184).
route(prodloc15,harbor10,tr13,2584,15504).
route(prodloc15,harbor11,tr0,14458,375908).
route(prodloc15,harbor11,tr13,14458,86748).
route(prodloc15,harbor12,tr0,4020,104520).
route(prodloc15,harbor12,tr13,4020,24120).
route(prodloc15,harbor13,tr0,1374,35724).
route(prodloc15,harbor13,tr13,1374,8244).
route(prodloc15,harbor14,tr0,20337,528762).
route(prodloc15,harbor14,tr13,20337,122022).
route(prodloc15,harbor15,tr0,15292,397592).
route(prodloc15,harbor15,tr13,15292,91752).
route(prodloc15,harbor16,tr0,25246,656396).
route(prodloc15,harbor16,tr13,25246,151476).
route(prodloc15,prodloc0,tr0,17329,450554).
route(prodloc15,prodloc0,tr13,17329,103974).
route(prodloc15,prodloc1,tr0,6099,158574).
route(prodloc15,prodloc1,tr13,6099,36594).
route(prodloc15,prodloc2,tr0,10412,270712).
route(prodloc15,prodloc2,tr13,10412,62472).
route(prodloc15,prodloc3,tr0,7165,186290).
route(prodloc15,prodloc3,tr13,7165,42990).
route(prodloc15,prodloc4,tr0,10893,283218).
route(prodloc15,prodloc4,tr13,10893,65358).
route(prodloc15,prodloc5,tr0,27326,710476).
route(prodloc15,prodloc5,tr13,27326,163956).
route(prodloc15,prodloc6,tr0,22675,589550).
route(prodloc15,prodloc6,tr13,22675,136050).
route(prodloc15,prodloc7,tr0,4158,108108).
route(prodloc15,prodloc7,tr13,4158,24948).
route(prodloc15,prodloc8,tr0,4325,112450).
route(prodloc15,prodloc8,tr13,4325,25950).
route(prodloc15,prodloc9,tr0,12003,312078).
route(prodloc15,prodloc9,tr13,12003,72018).
route(prodloc15,prodloc10,tr0,8316,216216).
route(prodloc15,prodloc10,tr13,8316,49896).
route(prodloc15,prodloc11,tr0,22695,590070).
route(prodloc15,prodloc11,tr13,22695,136170).
route(prodloc15,prodloc12,tr0,21657,563082).
route(prodloc15,prodloc12,tr13,21657,129942).
route(prodloc15,prodloc13,tr0,26396,686296).
route(prodloc15,prodloc13,tr15,26396,844672).
route(prodloc15,prodloc14,tr0,5302,137852).
route(prodloc15,prodloc14,tr13,5302,31812).
route(prodloc15,prodloc16,tr0,2718,70668).
route(prodloc15,prodloc16,tr13,2718,16308).
route(prodloc15,prodloc17,tr0,582,15132).
route(prodloc15,prodloc17,tr13,582,3492).
route(prodloc15,prodloc18,tr0,17144,445744).
route(prodloc15,prodloc18,tr13,17144,102864).
route(prodloc15,prodloc19,tr0,10508,273208).
route(prodloc15,prodloc19,tr13,10508,63048).
route(prodloc15,prodloc20,tr0,25663,667238).
route(prodloc15,prodloc20,tr13,25663,153978).
route(prodloc15,prodloc21,tr0,15314,398164).
route(prodloc15,prodloc21,tr13,15314,91884).
route(prodloc15,prodloc22,tr0,2464,64064).
route(prodloc15,prodloc22,tr13,2464,14784).
route(prodloc15,prodloc23,tr0,17310,450060).
route(prodloc15,prodloc23,tr13,17310,103860).
route(prodloc15,prodloc24,tr0,27209,707434).
route(prodloc15,prodloc24,tr13,27209,163254).
route(prodloc15,prodloc25,tr13,20392,122352).
route(prodloc15,prodloc25,tr15,20392,652544).
route(prodloc15,prodloc26,tr0,23738,617188).
route(prodloc15,prodloc26,tr13,23738,142428).
route(prodloc15,prodloc27,tr0,1152,29952).
route(prodloc15,prodloc27,tr13,1152,6912).
route(prodloc15,prodloc28,tr0,11483,298558).
route(prodloc15,prodloc28,tr13,11483,68898).
route(prodloc15,prodloc29,tr0,1442,37492).
route(prodloc15,prodloc29,tr13,1442,8652).
route(prodloc15,prodloc30,tr0,4974,129324).
route(prodloc15,prodloc30,tr13,4974,29844).
route(prodloc15,prodloc31,tr0,16138,419588).
route(prodloc15,prodloc31,tr13,16138,96828).
route(prodloc15,prodloc32,tr0,6097,158522).
route(prodloc15,prodloc32,tr13,6097,36582).
route(prodloc15,prodloc33,tr0,20593,535418).
route(prodloc15,prodloc33,tr13,20593,123558).
route(prodloc16,harbor0,tr0,4139,107614).
route(prodloc16,harbor0,tr13,4139,24834).
route(prodloc16,harbor1,tr0,23451,609726).
route(prodloc16,harbor1,tr13,23451,140706).
route(prodloc16,harbor2,tr0,12486,324636).
route(prodloc16,harbor2,tr13,12486,74916).
route(prodloc16,harbor3,tr0,20689,537914).
route(prodloc16,harbor3,tr13,20689,124134).
route(prodloc16,harbor4,tr0,5277,137202).
route(prodloc16,harbor4,tr13,5277,31662).
route(prodloc16,harbor5,tr0,26548,690248).
route(prodloc16,harbor5,tr13,26548,159288).
route(prodloc16,harbor6,tr0,23408,608608).
route(prodloc16,harbor6,tr13,23408,140448).
route(prodloc16,harbor7,tr0,18355,477230).
route(prodloc16,harbor7,tr13,18355,110130).
route(prodloc16,harbor8,tr0,11554,300404).
route(prodloc16,harbor8,tr13,11554,69324).
route(prodloc16,harbor9,tr0,25619,666094).
route(prodloc16,harbor9,tr13,25619,153714).
route(prodloc16,harbor10,tr0,4125,107250).
route(prodloc16,harbor10,tr13,4125,24750).
route(prodloc16,harbor11,tr0,11440,297440).
route(prodloc16,harbor11,tr13,11440,68640).
route(prodloc16,harbor12,tr0,12032,312832).
route(prodloc16,harbor12,tr13,12032,72192).
route(prodloc16,harbor13,tr0,1398,36348).
route(prodloc16,harbor13,tr13,1398,8388).
route(prodloc16,harbor14,tr0,26943,700518).
route(prodloc16,harbor14,tr13,26943,161658).
route(prodloc16,harbor15,tr0,17977,467402).
route(prodloc16,harbor15,tr13,17977,107862).
route(prodloc16,harbor16,tr0,11011,286286).
route(prodloc16,harbor16,tr13,11011,66066).
route(prodloc16,prodloc0,tr0,2231,58006).
route(prodloc16,prodloc0,tr13,2231,13386).
route(prodloc16,prodloc1,tr0,6692,173992).
route(prodloc16,prodloc1,tr13,6692,40152).
route(prodloc16,prodloc2,tr0,19239,500214).
route(prodloc16,prodloc2,tr13,19239,115434).
route(prodloc16,prodloc3,tr0,15837,411762).
route(prodloc16,prodloc3,tr13,15837,95022).
route(prodloc16,prodloc4,tr13,16129,96774).
route(prodloc16,prodloc4,tr15,16129,516128).
route(prodloc16,prodloc5,tr0,10830,281580).
route(prodloc16,prodloc5,tr13,10830,64980).
route(prodloc16,prodloc6,tr0,17005,442130).
route(prodloc16,prodloc6,tr13,17005,102030).
route(prodloc16,prodloc7,tr0,5278,137228).
route(prodloc16,prodloc7,tr13,5278,31668).
route(prodloc16,prodloc8,tr0,24556,638456).
route(prodloc16,prodloc8,tr13,24556,147336).
route(prodloc16,prodloc9,tr0,25002,650052).
route(prodloc16,prodloc9,tr13,25002,150012).
route(prodloc16,prodloc10,tr0,4728,122928).
route(prodloc16,prodloc10,tr13,4728,28368).
route(prodloc16,prodloc11,tr0,19167,498342).
route(prodloc16,prodloc11,tr13,19167,115002).
route(prodloc16,prodloc12,tr0,22879,594854).
route(prodloc16,prodloc12,tr13,22879,137274).
route(prodloc16,prodloc13,tr0,19495,506870).
route(prodloc16,prodloc13,tr13,19495,116970).
route(prodloc16,prodloc14,tr0,25289,657514).
route(prodloc16,prodloc14,tr13,25289,151734).
route(prodloc16,prodloc15,tr0,20358,529308).
route(prodloc16,prodloc15,tr13,20358,122148).
route(prodloc16,prodloc17,tr0,12648,328848).
route(prodloc16,prodloc17,tr13,12648,75888).
route(prodloc16,prodloc18,tr0,16228,421928).
route(prodloc16,prodloc18,tr13,16228,97368).
route(prodloc16,prodloc19,tr0,7307,189982).
route(prodloc16,prodloc19,tr13,7307,43842).
route(prodloc16,prodloc20,tr0,18179,472654).
route(prodloc16,prodloc20,tr13,18179,109074).
route(prodloc16,prodloc21,tr0,23254,604604).
route(prodloc16,prodloc21,tr13,23254,139524).
route(prodloc16,prodloc22,tr0,22141,575666).
route(prodloc16,prodloc22,tr13,22141,132846).
route(prodloc16,prodloc23,tr0,13154,342004).
route(prodloc16,prodloc23,tr13,13154,78924).
route(prodloc16,prodloc24,tr0,92,2392).
route(prodloc16,prodloc24,tr13,92,552).
route(prodloc16,prodloc25,tr0,19473,506298).
route(prodloc16,prodloc25,tr13,19473,116838).
route(prodloc16,prodloc26,tr0,19600,509600).
route(prodloc16,prodloc26,tr13,19600,117600).
route(prodloc16,prodloc27,tr0,10509,273234).
route(prodloc16,prodloc27,tr13,10509,63054).
route(prodloc16,prodloc28,tr0,11739,305214).
route(prodloc16,prodloc28,tr13,11739,70434).
route(prodloc16,prodloc29,tr0,4986,129636).
route(prodloc16,prodloc29,tr13,4986,29916).
route(prodloc16,prodloc30,tr0,3752,97552).
route(prodloc16,prodloc30,tr13,3752,22512).
route(prodloc16,prodloc31,tr0,21095,548470).
route(prodloc16,prodloc31,tr13,21095,126570).
route(prodloc16,prodloc32,tr0,16827,437502).
route(prodloc16,prodloc32,tr13,16827,100962).
route(prodloc16,prodloc33,tr0,28068,729768).
route(prodloc16,prodloc33,tr13,28068,168408).
route(prodloc17,harbor0,tr0,18392,478192).
route(prodloc17,harbor0,tr13,18392,110352).
route(prodloc17,harbor1,tr0,4007,104182).
route(prodloc17,harbor1,tr13,4007,24042).
route(prodloc17,harbor2,tr0,24322,632372).
route(prodloc17,harbor2,tr13,24322,145932).
route(prodloc17,harbor3,tr0,21219,551694).
route(prodloc17,harbor3,tr13,21219,127314).
route(prodloc17,harbor4,tr0,14056,365456).
route(prodloc17,harbor4,tr13,14056,84336).
route(prodloc17,harbor5,tr0,23066,599716).
route(prodloc17,harbor5,tr13,23066,138396).
route(prodloc17,harbor6,tr0,3403,88478).
route(prodloc17,harbor6,tr13,3403,20418).
route(prodloc17,harbor7,tr0,7029,182754).
route(prodloc17,harbor7,tr13,7029,42174).
route(prodloc17,harbor8,tr0,1297,33722).
route(prodloc17,harbor8,tr13,1297,7782).
route(prodloc17,harbor9,tr0,22320,580320).
route(prodloc17,harbor9,tr13,22320,133920).
route(prodloc17,harbor10,tr0,5907,153582).
route(prodloc17,harbor10,tr13,5907,35442).
route(prodloc17,harbor11,tr0,4536,117936).
route(prodloc17,harbor11,tr13,4536,27216).
route(prodloc17,harbor12,tr0,12767,331942).
route(prodloc17,harbor12,tr13,12767,76602).
route(prodloc17,harbor13,tr0,5697,148122).
route(prodloc17,harbor13,tr13,5697,34182).
route(prodloc17,harbor14,tr0,9702,252252).
route(prodloc17,harbor14,tr13,9702,58212).
route(prodloc17,harbor15,tr0,3954,102804).
route(prodloc17,harbor15,tr13,3954,23724).
route(prodloc17,harbor16,tr0,18819,489294).
route(prodloc17,harbor16,tr13,18819,112914).
route(prodloc17,prodloc0,tr0,10575,274950).
route(prodloc17,prodloc0,tr13,10575,63450).
route(prodloc17,prodloc1,tr0,201,5226).
route(prodloc17,prodloc1,tr13,201,1206).
route(prodloc17,prodloc2,tr0,23012,598312).
route(prodloc17,prodloc2,tr13,23012,138072).
route(prodloc17,prodloc3,tr0,27886,725036).
route(prodloc17,prodloc3,tr13,27886,167316).
route(prodloc17,prodloc4,tr0,23150,601900).
route(prodloc17,prodloc4,tr13,23150,138900).
route(prodloc17,prodloc5,tr0,27477,714402).
route(prodloc17,prodloc5,tr13,27477,164862).
route(prodloc17,prodloc6,tr0,17622,458172).
route(prodloc17,prodloc6,tr13,17622,105732).
route(prodloc17,prodloc7,tr0,1372,35672).
route(prodloc17,prodloc7,tr13,1372,8232).
route(prodloc17,prodloc8,tr0,26079,678054).
route(prodloc17,prodloc8,tr13,26079,156474).
route(prodloc17,prodloc9,tr0,16176,420576).
route(prodloc17,prodloc9,tr13,16176,97056).
route(prodloc17,prodloc10,tr0,4349,113074).
route(prodloc17,prodloc10,tr13,4349,26094).
route(prodloc17,prodloc11,tr0,9318,242268).
route(prodloc17,prodloc11,tr13,9318,55908).
route(prodloc17,prodloc12,tr0,18775,488150).
route(prodloc17,prodloc12,tr13,18775,112650).
route(prodloc17,prodloc13,tr0,25980,675480).
route(prodloc17,prodloc13,tr13,25980,155880).
route(prodloc17,prodloc14,tr0,421,10946).
route(prodloc17,prodloc14,tr13,421,2526).
route(prodloc17,prodloc15,tr0,21786,566436).
route(prodloc17,prodloc15,tr13,21786,130716).
route(prodloc17,prodloc16,tr0,3712,96512).
route(prodloc17,prodloc16,tr13,3712,22272).
route(prodloc17,prodloc18,tr0,14895,387270).
route(prodloc17,prodloc18,tr13,14895,89370).
route(prodloc17,prodloc19,tr0,19902,517452).
route(prodloc17,prodloc19,tr13,19902,119412).
route(prodloc17,prodloc20,tr0,5717,148642).
route(prodloc17,prodloc20,tr13,5717,34302).
route(prodloc17,prodloc21,tr0,13589,353314).
route(prodloc17,prodloc21,tr13,13589,81534).
route(prodloc17,prodloc22,tr0,10210,265460).
route(prodloc17,prodloc22,tr13,10210,61260).
route(prodloc17,prodloc23,tr0,8831,229606).
route(prodloc17,prodloc23,tr13,8831,52986).
route(prodloc17,prodloc24,tr0,15868,412568).
route(prodloc17,prodloc24,tr13,15868,95208).
route(prodloc17,prodloc25,tr0,21035,546910).
route(prodloc17,prodloc25,tr13,21035,126210).
route(prodloc17,prodloc26,tr0,13522,351572).
route(prodloc17,prodloc26,tr13,13522,81132).
route(prodloc17,prodloc27,tr0,27099,704574).
route(prodloc17,prodloc27,tr13,27099,162594).
route(prodloc17,prodloc28,tr0,20365,529490).
route(prodloc17,prodloc28,tr13,20365,122190).
route(prodloc17,prodloc29,tr0,10303,267878).
route(prodloc17,prodloc29,tr13,10303,61818).
route(prodloc17,prodloc30,tr0,11277,293202).
route(prodloc17,prodloc30,tr13,11277,67662).
route(prodloc17,prodloc31,tr0,2155,56030).
route(prodloc17,prodloc31,tr13,2155,12930).
route(prodloc17,prodloc32,tr0,26919,699894).
route(prodloc17,prodloc32,tr13,26919,161514).
route(prodloc17,prodloc33,tr0,18112,470912).
route(prodloc17,prodloc33,tr13,18112,108672).
route(prodloc18,harbor0,tr0,15606,405756).
route(prodloc18,harbor0,tr13,15606,93636).
route(prodloc18,harbor1,tr0,5064,131664).
route(prodloc18,harbor1,tr13,5064,30384).
route(prodloc18,harbor2,tr0,11685,303810).
route(prodloc18,harbor2,tr13,11685,70110).
route(prodloc18,harbor3,tr0,28626,744276).
route(prodloc18,harbor3,tr13,28626,171756).
route(prodloc18,harbor4,tr0,27663,719238).
route(prodloc18,harbor4,tr13,27663,165978).
route(prodloc18,harbor5,tr0,13188,342888).
route(prodloc18,harbor5,tr13,13188,79128).
route(prodloc18,harbor6,tr0,13430,349180).
route(prodloc18,harbor6,tr13,13430,80580).
route(prodloc18,harbor7,tr0,17602,457652).
route(prodloc18,harbor7,tr13,17602,105612).
route(prodloc18,harbor8,tr0,4534,117884).
route(prodloc18,harbor8,tr13,4534,27204).
route(prodloc18,harbor9,tr0,1951,50726).
route(prodloc18,harbor9,tr13,1951,11706).
route(prodloc18,harbor10,tr0,28878,750828).
route(prodloc18,harbor10,tr13,28878,173268).
route(prodloc18,harbor11,tr0,2560,66560).
route(prodloc18,harbor11,tr13,2560,15360).
route(prodloc18,harbor12,tr0,26333,684658).
route(prodloc18,harbor12,tr13,26333,157998).
route(prodloc18,harbor13,tr0,27257,708682).
route(prodloc18,harbor13,tr13,27257,163542).
route(prodloc18,harbor14,tr0,14373,373698).
route(prodloc18,harbor14,tr13,14373,86238).
route(prodloc18,harbor15,tr0,13128,341328).
route(prodloc18,harbor15,tr13,13128,78768).
route(prodloc18,harbor16,tr0,21355,555230).
route(prodloc18,harbor16,tr13,21355,128130).
route(prodloc18,prodloc0,tr0,7669,199394).
route(prodloc18,prodloc0,tr13,7669,46014).
route(prodloc18,prodloc1,tr0,13102,340652).
route(prodloc18,prodloc1,tr13,13102,78612).
route(prodloc18,prodloc2,tr0,17146,445796).
route(prodloc18,prodloc2,tr13,17146,102876).
route(prodloc18,prodloc3,tr0,10620,276120).
route(prodloc18,prodloc3,tr13,10620,63720).
route(prodloc18,prodloc4,tr0,17268,448968).
route(prodloc18,prodloc4,tr13,17268,103608).
route(prodloc18,prodloc5,tr0,6027,156702).
route(prodloc18,prodloc5,tr13,6027,36162).
route(prodloc18,prodloc6,tr13,24054,144324).
route(prodloc18,prodloc6,tr15,24054,769728).
route(prodloc18,prodloc7,tr0,1575,40950).
route(prodloc18,prodloc7,tr13,1575,9450).
route(prodloc18,prodloc8,tr0,4595,119470).
route(prodloc18,prodloc8,tr13,4595,27570).
route(prodloc18,prodloc9,tr0,4828,125528).
route(prodloc18,prodloc9,tr13,4828,28968).
route(prodloc18,prodloc10,tr0,26773,696098).
route(prodloc18,prodloc10,tr13,26773,160638).
route(prodloc18,prodloc11,tr0,17618,458068).
route(prodloc18,prodloc11,tr13,17618,105708).
route(prodloc18,prodloc12,tr0,3272,85072).
route(prodloc18,prodloc12,tr13,3272,19632).
route(prodloc18,prodloc13,tr0,9484,246584).
route(prodloc18,prodloc13,tr13,9484,56904).
route(prodloc18,prodloc14,tr0,1085,28210).
route(prodloc18,prodloc14,tr13,1085,6510).
route(prodloc18,prodloc15,tr0,19735,513110).
route(prodloc18,prodloc15,tr13,19735,118410).
route(prodloc18,prodloc16,tr0,12137,315562).
route(prodloc18,prodloc16,tr13,12137,72822).
route(prodloc18,prodloc17,tr0,2178,56628).
route(prodloc18,prodloc17,tr13,2178,13068).
route(prodloc18,prodloc19,tr0,16818,437268).
route(prodloc18,prodloc19,tr13,16818,100908).
route(prodloc18,prodloc20,tr0,27143,705718).
route(prodloc18,prodloc20,tr13,27143,162858).
route(prodloc18,prodloc21,tr0,5735,149110).
route(prodloc18,prodloc21,tr13,5735,34410).
route(prodloc18,prodloc22,tr0,17659,459134).
route(prodloc18,prodloc22,tr15,17659,565088).
route(prodloc18,prodloc23,tr0,15164,394264).
route(prodloc18,prodloc23,tr13,15164,90984).
route(prodloc18,prodloc24,tr0,6650,172900).
route(prodloc18,prodloc24,tr13,6650,39900).
route(prodloc18,prodloc25,tr0,12002,312052).
route(prodloc18,prodloc25,tr13,12002,72012).
route(prodloc18,prodloc26,tr0,1664,43264).
route(prodloc18,prodloc26,tr13,1664,9984).
route(prodloc18,prodloc27,tr0,20890,543140).
route(prodloc18,prodloc27,tr13,20890,125340).
route(prodloc18,prodloc28,tr0,17472,454272).
route(prodloc18,prodloc28,tr13,17472,104832).
route(prodloc18,prodloc29,tr0,25387,660062).
route(prodloc18,prodloc29,tr13,25387,152322).
route(prodloc18,prodloc30,tr0,26158,680108).
route(prodloc18,prodloc30,tr13,26158,156948).
route(prodloc18,prodloc31,tr0,8152,211952).
route(prodloc18,prodloc31,tr13,8152,48912).
route(prodloc18,prodloc32,tr0,7823,203398).
route(prodloc18,prodloc32,tr13,7823,46938).
route(prodloc18,prodloc33,tr0,28662,745212).
route(prodloc18,prodloc33,tr13,28662,171972).
route(prodloc19,harbor0,tr0,7174,186524).
route(prodloc19,harbor0,tr13,7174,43044).
route(prodloc19,harbor1,tr0,19950,518700).
route(prodloc19,harbor1,tr13,19950,119700).
route(prodloc19,harbor2,tr0,21040,547040).
route(prodloc19,harbor2,tr13,21040,126240).
route(prodloc19,harbor3,tr0,16804,436904).
route(prodloc19,harbor3,tr13,16804,100824).
route(prodloc19,harbor4,tr0,26903,699478).
route(prodloc19,harbor4,tr13,26903,161418).
route(prodloc19,harbor5,tr0,10004,260104).
route(prodloc19,harbor5,tr13,10004,60024).
route(prodloc19,harbor6,tr0,11615,301990).
route(prodloc19,harbor6,tr13,11615,69690).
route(prodloc19,harbor7,tr0,8172,212472).
route(prodloc19,harbor7,tr13,8172,49032).
route(prodloc19,harbor8,tr0,23005,598130).
route(prodloc19,harbor8,tr13,23005,138030).
route(prodloc19,harbor9,tr0,5566,144716).
route(prodloc19,harbor9,tr13,5566,33396).
route(prodloc19,harbor10,tr0,12354,321204).
route(prodloc19,harbor10,tr13,12354,74124).
route(prodloc19,harbor11,tr0,2140,55640).
route(prodloc19,harbor11,tr13,2140,12840).
route(prodloc19,harbor12,tr0,11449,297674).
route(prodloc19,harbor12,tr13,11449,68694).
route(prodloc19,harbor13,tr0,5740,149240).
route(prodloc19,harbor13,tr13,5740,34440).
route(prodloc19,harbor14,tr0,17237,448162).
route(prodloc19,harbor14,tr13,17237,103422).
route(prodloc19,harbor15,tr0,11462,298012).
route(prodloc19,harbor15,tr13,11462,68772).
route(prodloc19,harbor16,tr0,3166,82316).
route(prodloc19,harbor16,tr13,3166,18996).
route(prodloc19,prodloc0,tr0,22529,585754).
route(prodloc19,prodloc0,tr13,22529,135174).
route(prodloc19,prodloc1,tr0,13090,340340).
route(prodloc19,prodloc1,tr13,13090,78540).
route(prodloc19,prodloc2,tr0,7122,185172).
route(prodloc19,prodloc2,tr13,7122,42732).
route(prodloc19,prodloc3,tr0,1773,46098).
route(prodloc19,prodloc3,tr13,1773,10638).
route(prodloc19,prodloc4,tr0,19721,512746).
route(prodloc19,prodloc4,tr13,19721,118326).
route(prodloc19,prodloc5,tr0,13537,351962).
route(prodloc19,prodloc5,tr13,13537,81222).
route(prodloc19,prodloc6,tr0,2160,56160).
route(prodloc19,prodloc6,tr13,2160,12960).
route(prodloc19,prodloc7,tr0,7225,187850).
route(prodloc19,prodloc7,tr13,7225,43350).
route(prodloc19,prodloc8,tr0,26314,684164).
route(prodloc19,prodloc8,tr13,26314,157884).
route(prodloc19,prodloc9,tr0,22244,578344).
route(prodloc19,prodloc9,tr13,22244,133464).
route(prodloc19,prodloc10,tr0,8745,227370).
route(prodloc19,prodloc10,tr13,8745,52470).
route(prodloc19,prodloc11,tr0,25839,671814).
route(prodloc19,prodloc11,tr13,25839,155034).
route(prodloc19,prodloc12,tr0,24052,625352).
route(prodloc19,prodloc12,tr13,24052,144312).
route(prodloc19,prodloc13,tr0,4466,116116).
route(prodloc19,prodloc13,tr13,4466,26796).
route(prodloc19,prodloc14,tr0,11378,295828).
route(prodloc19,prodloc14,tr13,11378,68268).
route(prodloc19,prodloc15,tr0,25442,661492).
route(prodloc19,prodloc15,tr13,25442,152652).
route(prodloc19,prodloc16,tr0,20274,527124).
route(prodloc19,prodloc16,tr13,20274,121644).
route(prodloc19,prodloc17,tr0,24615,639990).
route(prodloc19,prodloc17,tr13,24615,147690).
route(prodloc19,prodloc18,tr0,5245,136370).
route(prodloc19,prodloc18,tr13,5245,31470).
route(prodloc19,prodloc20,tr0,12353,321178).
route(prodloc19,prodloc20,tr13,12353,74118).
route(prodloc19,prodloc21,tr0,14224,369824).
route(prodloc19,prodloc21,tr13,14224,85344).
route(prodloc19,prodloc22,tr0,2663,69238).
route(prodloc19,prodloc22,tr13,2663,15978).
route(prodloc19,prodloc23,tr0,3460,89960).
route(prodloc19,prodloc23,tr13,3460,20760).
route(prodloc19,prodloc24,tr0,20839,541814).
route(prodloc19,prodloc24,tr13,20839,125034).
route(prodloc19,prodloc25,tr0,21843,567918).
route(prodloc19,prodloc25,tr13,21843,131058).
route(prodloc19,prodloc26,tr0,8340,216840).
route(prodloc19,prodloc26,tr13,8340,50040).
route(prodloc19,prodloc27,tr0,17626,458276).
route(prodloc19,prodloc27,tr13,17626,105756).
route(prodloc19,prodloc28,tr0,21167,550342).
route(prodloc19,prodloc28,tr13,21167,127002).
route(prodloc19,prodloc29,tr0,12817,333242).
route(prodloc19,prodloc29,tr13,12817,76902).
route(prodloc19,prodloc30,tr0,16314,424164).
route(prodloc19,prodloc30,tr13,16314,97884).
route(prodloc19,prodloc31,tr0,23329,606554).
route(prodloc19,prodloc31,tr13,23329,139974).
route(prodloc19,prodloc32,tr0,22139,575614).
route(prodloc19,prodloc32,tr13,22139,132834).
route(prodloc19,prodloc33,tr0,23065,599690).
route(prodloc19,prodloc33,tr13,23065,138390).
route(prodloc20,harbor0,tr0,23111,600886).
route(prodloc20,harbor0,tr13,23111,138666).
route(prodloc20,harbor1,tr0,26343,684918).
route(prodloc20,harbor1,tr13,26343,158058).
route(prodloc20,harbor2,tr0,20472,532272).
route(prodloc20,harbor2,tr13,20472,122832).
route(prodloc20,harbor3,tr0,7750,201500).
route(prodloc20,harbor3,tr13,7750,46500).
route(prodloc20,harbor4,tr0,4962,129012).
route(prodloc20,harbor4,tr13,4962,29772).
route(prodloc20,harbor5,tr0,17466,454116).
route(prodloc20,harbor5,tr13,17466,104796).
route(prodloc20,harbor6,tr0,18676,485576).
route(prodloc20,harbor6,tr13,18676,112056).
route(prodloc20,harbor7,tr0,27813,723138).
route(prodloc20,harbor7,tr13,27813,166878).
route(prodloc20,harbor8,tr0,27243,708318).
route(prodloc20,harbor8,tr13,27243,163458).
route(prodloc20,harbor9,tr0,12151,315926).
route(prodloc20,harbor9,tr13,12151,72906).
route(prodloc20,harbor10,tr0,5274,137124).
route(prodloc20,harbor10,tr13,5274,31644).
route(prodloc20,harbor11,tr0,151,3926).
route(prodloc20,harbor11,tr13,151,906).
route(prodloc20,harbor12,tr0,10143,263718).
route(prodloc20,harbor12,tr13,10143,60858).
route(prodloc20,harbor13,tr0,8761,227786).
route(prodloc20,harbor13,tr13,8761,52566).
route(prodloc20,harbor14,tr0,612,15912).
route(prodloc20,harbor14,tr13,612,3672).
route(prodloc20,harbor15,tr0,28758,747708).
route(prodloc20,harbor15,tr13,28758,172548).
route(prodloc20,harbor16,tr0,18605,483730).
route(prodloc20,harbor16,tr13,18605,111630).
route(prodloc20,prodloc0,tr0,15451,401726).
route(prodloc20,prodloc0,tr13,15451,92706).
route(prodloc20,prodloc1,tr0,15642,406692).
route(prodloc20,prodloc1,tr13,15642,93852).
route(prodloc20,prodloc2,tr0,12434,323284).
route(prodloc20,prodloc2,tr13,12434,74604).
route(prodloc20,prodloc3,tr0,3596,93496).
route(prodloc20,prodloc3,tr13,3596,21576).
route(prodloc20,prodloc4,tr0,23130,601380).
route(prodloc20,prodloc4,tr13,23130,138780).
route(prodloc20,prodloc5,tr0,28339,736814).
route(prodloc20,prodloc5,tr13,28339,170034).
route(prodloc20,prodloc6,tr0,22633,588458).
route(prodloc20,prodloc6,tr13,22633,135798).
route(prodloc20,prodloc7,tr0,8219,213694).
route(prodloc20,prodloc7,tr13,8219,49314).
route(prodloc20,prodloc8,tr0,23289,605514).
route(prodloc20,prodloc8,tr13,23289,139734).
route(prodloc20,prodloc9,tr0,14510,377260).
route(prodloc20,prodloc9,tr13,14510,87060).
route(prodloc20,prodloc10,tr0,28926,752076).
route(prodloc20,prodloc10,tr13,28926,173556).
route(prodloc20,prodloc11,tr0,4859,126334).
route(prodloc20,prodloc11,tr13,4859,29154).
route(prodloc20,prodloc12,tr0,17186,446836).
route(prodloc20,prodloc12,tr13,17186,103116).
route(prodloc20,prodloc13,tr0,5794,150644).
route(prodloc20,prodloc13,tr13,5794,34764).
route(prodloc20,prodloc14,tr0,18711,486486).
route(prodloc20,prodloc14,tr13,18711,112266).
route(prodloc20,prodloc15,tr0,13102,340652).
route(prodloc20,prodloc15,tr13,13102,78612).
route(prodloc20,prodloc16,tr0,23150,601900).
route(prodloc20,prodloc16,tr13,23150,138900).
route(prodloc20,prodloc17,tr0,26855,698230).
route(prodloc20,prodloc17,tr13,26855,161130).
route(prodloc20,prodloc18,tr0,434,11284).
route(prodloc20,prodloc18,tr13,434,2604).
route(prodloc20,prodloc19,tr0,8457,219882).
route(prodloc20,prodloc19,tr13,8457,50742).
route(prodloc20,prodloc21,tr0,5090,132340).
route(prodloc20,prodloc21,tr13,5090,30540).
route(prodloc20,prodloc22,tr0,7489,194714).
route(prodloc20,prodloc22,tr13,7489,44934).
route(prodloc20,prodloc23,tr0,4943,128518).
route(prodloc20,prodloc23,tr13,4943,29658).
route(prodloc20,prodloc24,tr0,18892,491192).
route(prodloc20,prodloc24,tr13,18892,113352).
route(prodloc20,prodloc25,tr0,10047,261222).
route(prodloc20,prodloc25,tr13,10047,60282).
route(prodloc20,prodloc26,tr0,2171,56446).
route(prodloc20,prodloc26,tr13,2171,13026).
route(prodloc20,prodloc27,tr0,26479,688454).
route(prodloc20,prodloc27,tr13,26479,158874).
route(prodloc20,prodloc28,tr0,27879,724854).
route(prodloc20,prodloc28,tr13,27879,167274).
route(prodloc20,prodloc29,tr0,28296,735696).
route(prodloc20,prodloc29,tr13,28296,169776).
route(prodloc20,prodloc30,tr0,24192,628992).
route(prodloc20,prodloc30,tr13,24192,145152).
route(prodloc20,prodloc31,tr0,2468,64168).
route(prodloc20,prodloc31,tr15,2468,78976).
route(prodloc20,prodloc32,tr0,18347,477022).
route(prodloc20,prodloc32,tr13,18347,110082).
route(prodloc20,prodloc33,tr0,26284,683384).
route(prodloc20,prodloc33,tr13,26284,157704).
route(prodloc21,harbor0,tr0,818,21268).
route(prodloc21,harbor0,tr13,818,4908).
route(prodloc21,harbor1,tr0,16223,421798).
route(prodloc21,harbor1,tr13,16223,97338).
route(prodloc21,harbor2,tr0,9416,244816).
route(prodloc21,harbor2,tr13,9416,56496).
route(prodloc21,harbor3,tr0,15791,410566).
route(prodloc21,harbor3,tr13,15791,94746).
route(prodloc21,harbor4,tr0,16714,434564).
route(prodloc21,harbor4,tr13,16714,100284).
route(prodloc21,harbor5,tr0,24108,626808).
route(prodloc21,harbor5,tr13,24108,144648).
route(prodloc21,harbor6,tr0,12491,324766).
route(prodloc21,harbor6,tr13,12491,74946).
route(prodloc21,harbor7,tr0,5299,137774).
route(prodloc21,harbor7,tr13,5299,31794).
route(prodloc21,harbor8,tr0,14811,385086).
route(prodloc21,harbor8,tr13,14811,88866).
route(prodloc21,harbor9,tr0,20662,537212).
route(prodloc21,harbor9,tr13,20662,123972).
route(prodloc21,harbor10,tr0,10321,268346).
route(prodloc21,harbor10,tr13,10321,61926).
route(prodloc21,harbor11,tr0,6994,181844).
route(prodloc21,harbor11,tr13,6994,41964).
route(prodloc21,harbor12,tr0,17245,448370).
route(prodloc21,harbor12,tr13,17245,103470).
route(prodloc21,harbor13,tr0,23477,610402).
route(prodloc21,harbor13,tr13,23477,140862).
route(prodloc21,harbor14,tr0,14197,369122).
route(prodloc21,harbor14,tr13,14197,85182).
route(prodloc21,harbor15,tr0,15501,403026).
route(prodloc21,harbor15,tr13,15501,93006).
route(prodloc21,harbor16,tr0,11963,311038).
route(prodloc21,harbor16,tr13,11963,71778).
route(prodloc21,prodloc0,tr0,22083,574158).
route(prodloc21,prodloc0,tr13,22083,132498).
route(prodloc21,prodloc1,tr0,15851,412126).
route(prodloc21,prodloc1,tr13,15851,95106).
route(prodloc21,prodloc2,tr0,19924,518024).
route(prodloc21,prodloc2,tr13,19924,119544).
route(prodloc21,prodloc3,tr0,21722,564772).
route(prodloc21,prodloc3,tr13,21722,130332).
route(prodloc21,prodloc4,tr0,142,3692).
route(prodloc21,prodloc4,tr13,142,852).
route(prodloc21,prodloc5,tr0,28071,729846).
route(prodloc21,prodloc5,tr13,28071,168426).
route(prodloc21,prodloc6,tr0,26108,678808).
route(prodloc21,prodloc6,tr13,26108,156648).
route(prodloc21,prodloc7,tr0,24277,631202).
route(prodloc21,prodloc7,tr13,24277,145662).
route(prodloc21,prodloc8,tr0,4822,125372).
route(prodloc21,prodloc8,tr13,4822,28932).
route(prodloc21,prodloc9,tr0,8478,220428).
route(prodloc21,prodloc9,tr13,8478,50868).
route(prodloc21,prodloc10,tr0,28922,751972).
route(prodloc21,prodloc10,tr13,28922,173532).
route(prodloc21,prodloc11,tr0,24602,639652).
route(prodloc21,prodloc11,tr13,24602,147612).
route(prodloc21,prodloc12,tr0,9784,254384).
route(prodloc21,prodloc12,tr13,9784,58704).
route(prodloc21,prodloc13,tr0,20206,525356).
route(prodloc21,prodloc13,tr13,20206,121236).
route(prodloc21,prodloc14,tr0,9513,247338).
route(prodloc21,prodloc14,tr13,9513,57078).
route(prodloc21,prodloc15,tr0,17191,446966).
route(prodloc21,prodloc15,tr13,17191,103146).
route(prodloc21,prodloc16,tr0,5030,130780).
route(prodloc21,prodloc16,tr13,5030,30180).
route(prodloc21,prodloc17,tr0,23006,598156).
route(prodloc21,prodloc17,tr13,23006,138036).
route(prodloc21,prodloc18,tr0,19719,512694).
route(prodloc21,prodloc18,tr13,19719,118314).
route(prodloc21,prodloc19,tr0,27306,709956).
route(prodloc21,prodloc19,tr13,27306,163836).
route(prodloc21,prodloc20,tr0,22439,583414).
route(prodloc21,prodloc20,tr13,22439,134634).
route(prodloc21,prodloc22,tr0,9577,249002).
route(prodloc21,prodloc22,tr13,9577,57462).
route(prodloc21,prodloc23,tr0,26515,689390).
route(prodloc21,prodloc23,tr13,26515,159090).
route(prodloc21,prodloc24,tr0,9516,247416).
route(prodloc21,prodloc24,tr13,9516,57096).
route(prodloc21,prodloc25,tr0,24268,630968).
route(prodloc21,prodloc25,tr13,24268,145608).
route(prodloc21,prodloc26,tr0,17509,455234).
route(prodloc21,prodloc26,tr13,17509,105054).
route(prodloc21,prodloc27,tr0,24264,630864).
route(prodloc21,prodloc27,tr13,24264,145584).
route(prodloc21,prodloc28,tr0,3179,82654).
route(prodloc21,prodloc28,tr13,3179,19074).
route(prodloc21,prodloc29,tr0,7627,198302).
route(prodloc21,prodloc29,tr13,7627,45762).
route(prodloc21,prodloc30,tr0,25782,670332).
route(prodloc21,prodloc30,tr13,25782,154692).
route(prodloc21,prodloc31,tr0,22285,579410).
route(prodloc21,prodloc31,tr13,22285,133710).
route(prodloc21,prodloc32,tr0,6620,172120).
route(prodloc21,prodloc32,tr13,6620,39720).
route(prodloc21,prodloc33,tr0,6079,158054).
route(prodloc21,prodloc33,tr13,6079,36474).
route(prodloc22,harbor0,tr0,10154,264004).
route(prodloc22,harbor0,tr13,10154,60924).
route(prodloc22,harbor1,tr0,13405,348530).
route(prodloc22,harbor1,tr13,13405,80430).
route(prodloc22,harbor2,tr0,25641,666666).
route(prodloc22,harbor2,tr13,25641,153846).
route(prodloc22,harbor3,tr0,17895,465270).
route(prodloc22,harbor3,tr13,17895,107370).
route(prodloc22,harbor4,tr0,19158,498108).
route(prodloc22,harbor4,tr13,19158,114948).
route(prodloc22,harbor5,tr0,8513,221338).
route(prodloc22,harbor5,tr13,8513,51078).
route(prodloc22,harbor6,tr0,23333,606658).
route(prodloc22,harbor6,tr13,23333,139998).
route(prodloc22,harbor7,tr0,4037,104962).
route(prodloc22,harbor7,tr13,4037,24222).
route(prodloc22,harbor8,tr0,2606,67756).
route(prodloc22,harbor8,tr13,2606,15636).
route(prodloc22,harbor9,tr0,22028,572728).
route(prodloc22,harbor9,tr13,22028,132168).
route(prodloc22,harbor10,tr0,6098,158548).
route(prodloc22,harbor10,tr13,6098,36588).
route(prodloc22,harbor11,tr0,20058,521508).
route(prodloc22,harbor11,tr13,20058,120348).
route(prodloc22,harbor12,tr0,15514,403364).
route(prodloc22,harbor12,tr13,15514,93084).
route(prodloc22,harbor13,tr0,13191,342966).
route(prodloc22,harbor13,tr13,13191,79146).
route(prodloc22,harbor14,tr0,2045,53170).
route(prodloc22,harbor14,tr13,2045,12270).
route(prodloc22,harbor15,tr0,5742,149292).
route(prodloc22,harbor15,tr13,5742,34452).
route(prodloc22,harbor16,tr0,12850,334100).
route(prodloc22,harbor16,tr13,12850,77100).
route(prodloc22,prodloc0,tr0,28195,733070).
route(prodloc22,prodloc0,tr13,28195,169170).
route(prodloc22,prodloc1,tr0,3251,84526).
route(prodloc22,prodloc1,tr13,3251,19506).
route(prodloc22,prodloc2,tr0,19267,500942).
route(prodloc22,prodloc2,tr13,19267,115602).
route(prodloc22,prodloc3,tr0,28262,734812).
route(prodloc22,prodloc3,tr13,28262,169572).
route(prodloc22,prodloc4,tr0,7716,200616).
route(prodloc22,prodloc4,tr13,7716,46296).
route(prodloc22,prodloc5,tr0,2202,57252).
route(prodloc22,prodloc5,tr13,2202,13212).
route(prodloc22,prodloc6,tr0,8147,211822).
route(prodloc22,prodloc6,tr13,8147,48882).
route(prodloc22,prodloc7,tr0,17337,450762).
route(prodloc22,prodloc7,tr13,17337,104022).
route(prodloc22,prodloc8,tr0,13606,353756).
route(prodloc22,prodloc8,tr13,13606,81636).
route(prodloc22,prodloc9,tr0,5184,134784).
route(prodloc22,prodloc9,tr13,5184,31104).
route(prodloc22,prodloc10,tr0,4418,114868).
route(prodloc22,prodloc10,tr13,4418,26508).
route(prodloc22,prodloc11,tr0,14451,375726).
route(prodloc22,prodloc11,tr13,14451,86706).
route(prodloc22,prodloc12,tr0,24895,647270).
route(prodloc22,prodloc12,tr13,24895,149370).
route(prodloc22,prodloc13,tr0,25385,660010).
route(prodloc22,prodloc13,tr13,25385,152310).
route(prodloc22,prodloc14,tr0,6237,162162).
route(prodloc22,prodloc14,tr13,6237,37422).
route(prodloc22,prodloc15,tr0,8973,233298).
route(prodloc22,prodloc15,tr13,8973,53838).
route(prodloc22,prodloc16,tr0,952,24752).
route(prodloc22,prodloc16,tr13,952,5712).
route(prodloc22,prodloc17,tr0,11174,290524).
route(prodloc22,prodloc17,tr13,11174,67044).
route(prodloc22,prodloc18,tr0,9200,239200).
route(prodloc22,prodloc18,tr13,9200,55200).
route(prodloc22,prodloc19,tr0,26398,686348).
route(prodloc22,prodloc19,tr13,26398,158388).
route(prodloc22,prodloc20,tr0,1220,31720).
route(prodloc22,prodloc20,tr13,1220,7320).
route(prodloc22,prodloc21,tr0,10827,281502).
route(prodloc22,prodloc21,tr13,10827,64962).
route(prodloc22,prodloc23,tr0,24180,628680).
route(prodloc22,prodloc23,tr13,24180,145080).
route(prodloc22,prodloc24,tr0,15421,400946).
route(prodloc22,prodloc24,tr13,15421,92526).
route(prodloc22,prodloc25,tr0,9177,238602).
route(prodloc22,prodloc25,tr13,9177,55062).
route(prodloc22,prodloc26,tr0,18185,472810).
route(prodloc22,prodloc26,tr13,18185,109110).
route(prodloc22,prodloc27,tr0,21412,556712).
route(prodloc22,prodloc27,tr13,21412,128472).
route(prodloc22,prodloc28,tr0,8890,231140).
route(prodloc22,prodloc28,tr13,8890,53340).
route(prodloc22,prodloc29,tr0,12000,312000).
route(prodloc22,prodloc29,tr13,12000,72000).
route(prodloc22,prodloc30,tr0,6021,156546).
route(prodloc22,prodloc30,tr13,6021,36126).
route(prodloc22,prodloc31,tr0,1522,39572).
route(prodloc22,prodloc31,tr13,1522,9132).
route(prodloc22,prodloc32,tr0,983,25558).
route(prodloc22,prodloc32,tr13,983,5898).
route(prodloc22,prodloc33,tr0,18359,477334).
route(prodloc22,prodloc33,tr15,18359,587488).
route(prodloc23,harbor0,tr0,9785,254410).
route(prodloc23,harbor0,tr13,9785,58710).
route(prodloc23,harbor1,tr0,6182,160732).
route(prodloc23,harbor1,tr13,6182,37092).
route(prodloc23,harbor2,tr0,23259,604734).
route(prodloc23,harbor2,tr13,23259,139554).
route(prodloc23,harbor3,tr0,9608,249808).
route(prodloc23,harbor3,tr13,9608,57648).
route(prodloc23,harbor4,tr0,7572,196872).
route(prodloc23,harbor4,tr13,7572,45432).
route(prodloc23,harbor5,tr0,28673,745498).
route(prodloc23,harbor5,tr13,28673,172038).
route(prodloc23,harbor6,tr0,10601,275626).
route(prodloc23,harbor6,tr13,10601,63606).
route(prodloc23,harbor7,tr0,23017,598442).
route(prodloc23,harbor7,tr13,23017,138102).
route(prodloc23,harbor8,tr0,28275,735150).
route(prodloc23,harbor8,tr13,28275,169650).
route(prodloc23,harbor9,tr0,2427,63102).
route(prodloc23,harbor9,tr13,2427,14562).
route(prodloc23,harbor10,tr0,23392,608192).
route(prodloc23,harbor10,tr13,23392,140352).
route(prodloc23,harbor11,tr0,7011,182286).
route(prodloc23,harbor11,tr13,7011,42066).
route(prodloc23,harbor12,tr0,18715,486590).
route(prodloc23,harbor12,tr13,18715,112290).
route(prodloc23,harbor13,tr0,22724,590824).
route(prodloc23,harbor13,tr13,22724,136344).
route(prodloc23,harbor14,tr0,10175,264550).
route(prodloc23,harbor14,tr13,10175,61050).
route(prodloc23,harbor15,tr0,24728,642928).
route(prodloc23,harbor15,tr13,24728,148368).
route(prodloc23,harbor16,tr0,23028,598728).
route(prodloc23,harbor16,tr13,23028,138168).
route(prodloc23,prodloc0,tr0,5045,131170).
route(prodloc23,prodloc0,tr13,5045,30270).
route(prodloc23,prodloc1,tr0,27011,702286).
route(prodloc23,prodloc1,tr13,27011,162066).
route(prodloc23,prodloc2,tr0,26865,698490).
route(prodloc23,prodloc2,tr13,26865,161190).
route(prodloc23,prodloc3,tr0,21623,562198).
route(prodloc23,prodloc3,tr13,21623,129738).
route(prodloc23,prodloc4,tr0,673,17498).
route(prodloc23,prodloc4,tr13,673,4038).
route(prodloc23,prodloc5,tr0,16428,427128).
route(prodloc23,prodloc5,tr13,16428,98568).
route(prodloc23,prodloc6,tr0,19350,503100).
route(prodloc23,prodloc6,tr13,19350,116100).
route(prodloc23,prodloc7,tr0,21376,555776).
route(prodloc23,prodloc7,tr13,21376,128256).
route(prodloc23,prodloc8,tr0,2286,59436).
route(prodloc23,prodloc8,tr13,2286,13716).
route(prodloc23,prodloc9,tr0,22544,586144).
route(prodloc23,prodloc9,tr13,22544,135264).
route(prodloc23,prodloc10,tr0,12753,331578).
route(prodloc23,prodloc10,tr13,12753,76518).
route(prodloc23,prodloc11,tr0,5353,139178).
route(prodloc23,prodloc11,tr13,5353,32118).
route(prodloc23,prodloc12,tr0,7000,182000).
route(prodloc23,prodloc12,tr13,7000,42000).
route(prodloc23,prodloc13,tr0,23322,606372).
route(prodloc23,prodloc13,tr13,23322,139932).
route(prodloc23,prodloc14,tr0,7810,203060).
route(prodloc23,prodloc14,tr13,7810,46860).
route(prodloc23,prodloc15,tr0,4141,107666).
route(prodloc23,prodloc15,tr13,4141,24846).
route(prodloc23,prodloc16,tr0,11863,308438).
route(prodloc23,prodloc16,tr13,11863,71178).
route(prodloc23,prodloc17,tr0,27977,727402).
route(prodloc23,prodloc17,tr13,27977,167862).
route(prodloc23,prodloc18,tr0,15111,392886).
route(prodloc23,prodloc18,tr13,15111,90666).
route(prodloc23,prodloc19,tr0,11240,292240).
route(prodloc23,prodloc19,tr13,11240,67440).
route(prodloc23,prodloc20,tr0,24574,638924).
route(prodloc23,prodloc20,tr13,24574,147444).
route(prodloc23,prodloc21,tr0,2941,76466).
route(prodloc23,prodloc21,tr13,2941,17646).
route(prodloc23,prodloc22,tr0,24525,637650).
route(prodloc23,prodloc22,tr13,24525,147150).
route(prodloc23,prodloc24,tr0,588,15288).
route(prodloc23,prodloc24,tr13,588,3528).
route(prodloc23,prodloc25,tr0,15168,394368).
route(prodloc23,prodloc25,tr13,15168,91008).
route(prodloc23,prodloc26,tr0,19845,515970).
route(prodloc23,prodloc26,tr13,19845,119070).
route(prodloc23,prodloc27,tr0,23308,606008).
route(prodloc23,prodloc27,tr13,23308,139848).
route(prodloc23,prodloc28,tr0,2303,59878).
route(prodloc23,prodloc28,tr13,2303,13818).
route(prodloc23,prodloc29,tr0,20008,520208).
route(prodloc23,prodloc29,tr13,20008,120048).
route(prodloc23,prodloc30,tr0,13292,345592).
route(prodloc23,prodloc30,tr13,13292,79752).
route(prodloc23,prodloc31,tr0,27378,711828).
route(prodloc23,prodloc31,tr13,27378,164268).
route(prodloc23,prodloc32,tr0,1426,37076).
route(prodloc23,prodloc32,tr13,1426,8556).
route(prodloc23,prodloc33,tr0,9560,248560).
route(prodloc23,prodloc33,tr13,9560,57360).
route(prodloc24,harbor0,tr0,22558,586508).
route(prodloc24,harbor0,tr13,22558,135348).
route(prodloc24,harbor1,tr0,3903,101478).
route(prodloc24,harbor1,tr13,3903,23418).
route(prodloc24,harbor2,tr0,28290,735540).
route(prodloc24,harbor2,tr13,28290,169740).
route(prodloc24,harbor3,tr0,13339,346814).
route(prodloc24,harbor3,tr13,13339,80034).
route(prodloc24,harbor4,tr0,814,21164).
route(prodloc24,harbor4,tr13,814,4884).
route(prodloc24,harbor5,tr0,28551,742326).
route(prodloc24,harbor5,tr13,28551,171306).
route(prodloc24,harbor6,tr0,20103,522678).
route(prodloc24,harbor6,tr13,20103,120618).
route(prodloc24,harbor7,tr0,21231,552006).
route(prodloc24,harbor7,tr13,21231,127386).
route(prodloc24,harbor8,tr0,15174,394524).
route(prodloc24,harbor8,tr13,15174,91044).
route(prodloc24,harbor9,tr0,18248,474448).
route(prodloc24,harbor9,tr13,18248,109488).
route(prodloc24,harbor10,tr0,12088,314288).
route(prodloc24,harbor10,tr13,12088,72528).
route(prodloc24,harbor11,tr0,18876,490776).
route(prodloc24,harbor11,tr13,18876,113256).
route(prodloc24,harbor12,tr0,10203,265278).
route(prodloc24,harbor12,tr13,10203,61218).
route(prodloc24,harbor13,tr0,15353,399178).
route(prodloc24,harbor13,tr13,15353,92118).
route(prodloc24,harbor14,tr0,17679,459654).
route(prodloc24,harbor14,tr13,17679,106074).
route(prodloc24,harbor15,tr0,20983,545558).
route(prodloc24,harbor15,tr13,20983,125898).
route(prodloc24,harbor16,tr0,7333,190658).
route(prodloc24,harbor16,tr13,7333,43998).
route(prodloc24,prodloc0,tr0,22530,585780).
route(prodloc24,prodloc0,tr13,22530,135180).
route(prodloc24,prodloc1,tr0,9088,236288).
route(prodloc24,prodloc1,tr13,9088,54528).
route(prodloc24,prodloc2,tr0,23574,612924).
route(prodloc24,prodloc2,tr13,23574,141444).
route(prodloc24,prodloc3,tr0,3336,86736).
route(prodloc24,prodloc3,tr13,3336,20016).
route(prodloc24,prodloc4,tr0,3558,92508).
route(prodloc24,prodloc4,tr13,3558,21348).
route(prodloc24,prodloc5,tr0,25024,650624).
route(prodloc24,prodloc5,tr13,25024,150144).
route(prodloc24,prodloc6,tr0,18344,476944).
route(prodloc24,prodloc6,tr13,18344,110064).
route(prodloc24,prodloc7,tr0,7286,189436).
route(prodloc24,prodloc7,tr13,7286,43716).
route(prodloc24,prodloc8,tr0,10058,261508).
route(prodloc24,prodloc8,tr13,10058,60348).
route(prodloc24,prodloc9,tr0,19270,501020).
route(prodloc24,prodloc9,tr13,19270,115620).
route(prodloc24,prodloc10,tr0,6041,157066).
route(prodloc24,prodloc10,tr13,6041,36246).
route(prodloc24,prodloc11,tr0,25359,659334).
route(prodloc24,prodloc11,tr13,25359,152154).
route(prodloc24,prodloc12,tr0,2276,59176).
route(prodloc24,prodloc12,tr13,2276,13656).
route(prodloc24,prodloc13,tr0,8399,218374).
route(prodloc24,prodloc13,tr13,8399,50394).
route(prodloc24,prodloc14,tr0,6290,163540).
route(prodloc24,prodloc14,tr13,6290,37740).
route(prodloc24,prodloc15,tr0,21359,555334).
route(prodloc24,prodloc15,tr13,21359,128154).
route(prodloc24,prodloc16,tr0,16533,429858).
route(prodloc24,prodloc16,tr13,16533,99198).
route(prodloc24,prodloc17,tr0,22268,578968).
route(prodloc24,prodloc17,tr13,22268,133608).
route(prodloc24,prodloc18,tr0,25306,657956).
route(prodloc24,prodloc18,tr13,25306,151836).
route(prodloc24,prodloc19,tr0,14050,365300).
route(prodloc24,prodloc19,tr13,14050,84300).
route(prodloc24,prodloc20,tr0,25251,656526).
route(prodloc24,prodloc20,tr13,25251,151506).
route(prodloc24,prodloc21,tr0,25662,667212).
route(prodloc24,prodloc21,tr13,25662,153972).
route(prodloc24,prodloc22,tr0,25803,670878).
route(prodloc24,prodloc22,tr13,25803,154818).
route(prodloc24,prodloc23,tr0,14027,364702).
route(prodloc24,prodloc23,tr13,14027,84162).
route(prodloc24,prodloc25,tr0,13929,362154).
route(prodloc24,prodloc25,tr13,13929,83574).
route(prodloc24,prodloc26,tr0,4748,123448).
route(prodloc24,prodloc26,tr13,4748,28488).
route(prodloc24,prodloc27,tr0,3601,93626).
route(prodloc24,prodloc27,tr13,3601,21606).
route(prodloc24,prodloc28,tr0,2994,77844).
route(prodloc24,prodloc28,tr13,2994,17964).
route(prodloc24,prodloc29,tr0,8097,210522).
route(prodloc24,prodloc29,tr13,8097,48582).
route(prodloc24,prodloc30,tr0,4788,124488).
route(prodloc24,prodloc30,tr13,4788,28728).
route(prodloc24,prodloc31,tr0,23783,618358).
route(prodloc24,prodloc31,tr13,23783,142698).
route(prodloc24,prodloc32,tr0,22529,585754).
route(prodloc24,prodloc32,tr13,22529,135174).
route(prodloc24,prodloc33,tr0,16549,430274).
route(prodloc24,prodloc33,tr13,16549,99294).
route(prodloc25,harbor0,tr0,18766,487916).
route(prodloc25,harbor0,tr13,18766,112596).
route(prodloc25,harbor1,tr0,4631,120406).
route(prodloc25,harbor1,tr13,4631,27786).
route(prodloc25,harbor2,tr0,7528,195728).
route(prodloc25,harbor2,tr13,7528,45168).
route(prodloc25,harbor3,tr0,24644,640744).
route(prodloc25,harbor3,tr13,24644,147864).
route(prodloc25,harbor4,tr0,389,10114).
route(prodloc25,harbor4,tr13,389,2334).
route(prodloc25,harbor5,tr0,19418,504868).
route(prodloc25,harbor5,tr13,19418,116508).
route(prodloc25,harbor6,tr0,17765,461890).
route(prodloc25,harbor6,tr13,17765,106590).
route(prodloc25,harbor7,tr0,15675,407550).
route(prodloc25,harbor7,tr13,15675,94050).
route(prodloc25,harbor8,tr0,8566,222716).
route(prodloc25,harbor8,tr13,8566,51396).
route(prodloc25,harbor9,tr0,1943,50518).
route(prodloc25,harbor9,tr13,1943,11658).
route(prodloc25,harbor10,tr0,19649,510874).
route(prodloc25,harbor10,tr13,19649,117894).
route(prodloc25,harbor11,tr0,9936,258336).
route(prodloc25,harbor11,tr13,9936,59616).
route(prodloc25,harbor12,tr0,27645,718770).
route(prodloc25,harbor12,tr13,27645,165870).
route(prodloc25,harbor13,tr0,18284,475384).
route(prodloc25,harbor13,tr13,18284,109704).
route(prodloc25,harbor14,tr0,7314,190164).
route(prodloc25,harbor14,tr13,7314,43884).
route(prodloc25,harbor15,tr0,13230,343980).
route(prodloc25,harbor15,tr13,13230,79380).
route(prodloc25,harbor16,tr0,17403,452478).
route(prodloc25,harbor16,tr13,17403,104418).
route(prodloc25,prodloc0,tr0,20071,521846).
route(prodloc25,prodloc0,tr13,20071,120426).
route(prodloc25,prodloc1,tr0,25585,665210).
route(prodloc25,prodloc1,tr13,25585,153510).
route(prodloc25,prodloc2,tr0,21898,569348).
route(prodloc25,prodloc2,tr13,21898,131388).
route(prodloc25,prodloc3,tr0,12204,317304).
route(prodloc25,prodloc3,tr13,12204,73224).
route(prodloc25,prodloc4,tr0,10878,282828).
route(prodloc25,prodloc4,tr13,10878,65268).
route(prodloc25,prodloc5,tr0,23944,622544).
route(prodloc25,prodloc5,tr13,23944,143664).
route(prodloc25,prodloc6,tr0,17441,453466).
route(prodloc25,prodloc6,tr13,17441,104646).
route(prodloc25,prodloc7,tr0,13612,353912).
route(prodloc25,prodloc7,tr13,13612,81672).
route(prodloc25,prodloc8,tr0,12348,321048).
route(prodloc25,prodloc8,tr13,12348,74088).
route(prodloc25,prodloc9,tr0,11249,292474).
route(prodloc25,prodloc9,tr13,11249,67494).
route(prodloc25,prodloc10,tr0,20844,541944).
route(prodloc25,prodloc10,tr13,20844,125064).
route(prodloc25,prodloc11,tr0,8957,232882).
route(prodloc25,prodloc11,tr13,8957,53742).
route(prodloc25,prodloc12,tr0,24833,645658).
route(prodloc25,prodloc12,tr13,24833,148998).
route(prodloc25,prodloc13,tr0,22354,581204).
route(prodloc25,prodloc13,tr13,22354,134124).
route(prodloc25,prodloc14,tr0,3677,95602).
route(prodloc25,prodloc14,tr13,3677,22062).
route(prodloc25,prodloc15,tr0,2116,55016).
route(prodloc25,prodloc15,tr13,2116,12696).
route(prodloc25,prodloc16,tr0,1302,33852).
route(prodloc25,prodloc16,tr13,1302,7812).
route(prodloc25,prodloc17,tr0,26483,688558).
route(prodloc25,prodloc17,tr13,26483,158898).
route(prodloc25,prodloc18,tr0,7008,182208).
route(prodloc25,prodloc18,tr13,7008,42048).
route(prodloc25,prodloc19,tr0,21642,562692).
route(prodloc25,prodloc19,tr13,21642,129852).
route(prodloc25,prodloc20,tr0,2133,55458).
route(prodloc25,prodloc20,tr13,2133,12798).
route(prodloc25,prodloc21,tr0,5359,139334).
route(prodloc25,prodloc21,tr13,5359,32154).
route(prodloc25,prodloc22,tr0,5602,145652).
route(prodloc25,prodloc22,tr13,5602,33612).
route(prodloc25,prodloc23,tr0,1006,26156).
route(prodloc25,prodloc23,tr13,1006,6036).
route(prodloc25,prodloc24,tr0,16558,430508).
route(prodloc25,prodloc24,tr13,16558,99348).
route(prodloc25,prodloc26,tr0,16569,430794).
route(prodloc25,prodloc26,tr13,16569,99414).
route(prodloc25,prodloc27,tr0,18395,478270).
route(prodloc25,prodloc27,tr13,18395,110370).
route(prodloc25,prodloc28,tr0,674,17524).
route(prodloc25,prodloc28,tr13,674,4044).
route(prodloc25,prodloc29,tr0,22724,590824).
route(prodloc25,prodloc29,tr13,22724,136344).
route(prodloc25,prodloc30,tr0,21485,558610).
route(prodloc25,prodloc30,tr13,21485,128910).
route(prodloc25,prodloc31,tr0,4157,108082).
route(prodloc25,prodloc31,tr13,4157,24942).
route(prodloc25,prodloc32,tr0,7916,205816).
route(prodloc25,prodloc32,tr13,7916,47496).
route(prodloc25,prodloc33,tr0,27821,723346).
route(prodloc25,prodloc33,tr13,27821,166926).
route(prodloc26,harbor0,tr0,17305,449930).
route(prodloc26,harbor0,tr13,17305,103830).
route(prodloc26,harbor1,tr0,6445,167570).
route(prodloc26,harbor1,tr13,6445,38670).
route(prodloc26,harbor2,tr0,4950,128700).
route(prodloc26,harbor2,tr13,4950,29700).
route(prodloc26,harbor3,tr0,25594,665444).
route(prodloc26,harbor3,tr13,25594,153564).
route(prodloc26,harbor4,tr0,12999,337974).
route(prodloc26,harbor4,tr13,12999,77994).
route(prodloc26,harbor5,tr0,12955,336830).
route(prodloc26,harbor5,tr13,12955,77730).
route(prodloc26,harbor6,tr0,2534,65884).
route(prodloc26,harbor6,tr13,2534,15204).
route(prodloc26,harbor7,tr0,16891,439166).
route(prodloc26,harbor7,tr13,16891,101346).
route(prodloc26,harbor8,tr0,21535,559910).
route(prodloc26,harbor8,tr13,21535,129210).
route(prodloc26,harbor9,tr0,27460,713960).
route(prodloc26,harbor9,tr13,27460,164760).
route(prodloc26,harbor10,tr0,11869,308594).
route(prodloc26,harbor10,tr13,11869,71214).
route(prodloc26,harbor11,tr0,17692,459992).
route(prodloc26,harbor11,tr13,17692,106152).
route(prodloc26,harbor12,tr0,1983,51558).
route(prodloc26,harbor12,tr13,1983,11898).
route(prodloc26,harbor13,tr0,10202,265252).
route(prodloc26,harbor13,tr13,10202,61212).
route(prodloc26,harbor14,tr0,17971,467246).
route(prodloc26,harbor14,tr13,17971,107826).
route(prodloc26,harbor15,tr0,23361,607386).
route(prodloc26,harbor15,tr13,23361,140166).
route(prodloc26,harbor16,tr0,2660,69160).
route(prodloc26,harbor16,tr13,2660,15960).
route(prodloc26,prodloc0,tr0,26812,697112).
route(prodloc26,prodloc0,tr13,26812,160872).
route(prodloc26,prodloc1,tr0,17834,463684).
route(prodloc26,prodloc1,tr13,17834,107004).
route(prodloc26,prodloc2,tr0,27292,709592).
route(prodloc26,prodloc2,tr13,27292,163752).
route(prodloc26,prodloc3,tr0,18192,472992).
route(prodloc26,prodloc3,tr13,18192,109152).
route(prodloc26,prodloc4,tr0,14138,367588).
route(prodloc26,prodloc4,tr13,14138,84828).
route(prodloc26,prodloc5,tr0,3380,87880).
route(prodloc26,prodloc5,tr13,3380,20280).
route(prodloc26,prodloc6,tr0,9612,249912).
route(prodloc26,prodloc6,tr13,9612,57672).
route(prodloc26,prodloc7,tr0,9157,238082).
route(prodloc26,prodloc7,tr13,9157,54942).
route(prodloc26,prodloc8,tr0,25727,668902).
route(prodloc26,prodloc8,tr13,25727,154362).
route(prodloc26,prodloc9,tr0,13932,362232).
route(prodloc26,prodloc9,tr13,13932,83592).
route(prodloc26,prodloc10,tr0,4407,114582).
route(prodloc26,prodloc10,tr13,4407,26442).
route(prodloc26,prodloc11,tr0,16688,433888).
route(prodloc26,prodloc11,tr13,16688,100128).
route(prodloc26,prodloc12,tr0,11423,296998).
route(prodloc26,prodloc12,tr13,11423,68538).
route(prodloc26,prodloc13,tr13,10160,60960).
route(prodloc26,prodloc13,tr15,10160,325120).
route(prodloc26,prodloc14,tr0,25352,659152).
route(prodloc26,prodloc14,tr13,25352,152112).
route(prodloc26,prodloc15,tr0,23774,618124).
route(prodloc26,prodloc15,tr13,23774,142644).
route(prodloc26,prodloc16,tr0,15172,394472).
route(prodloc26,prodloc16,tr13,15172,91032).
route(prodloc26,prodloc17,tr0,1959,50934).
route(prodloc26,prodloc17,tr13,1959,11754).
route(prodloc26,prodloc18,tr0,18851,490126).
route(prodloc26,prodloc18,tr13,18851,113106).
route(prodloc26,prodloc19,tr0,28457,739882).
route(prodloc26,prodloc19,tr13,28457,170742).
route(prodloc26,prodloc20,tr0,9701,252226).
route(prodloc26,prodloc20,tr13,9701,58206).
route(prodloc26,prodloc21,tr0,24072,625872).
route(prodloc26,prodloc21,tr13,24072,144432).
route(prodloc26,prodloc22,tr0,23690,615940).
route(prodloc26,prodloc22,tr13,23690,142140).
route(prodloc26,prodloc23,tr0,7767,201942).
route(prodloc26,prodloc23,tr13,7767,46602).
route(prodloc26,prodloc24,tr0,18037,468962).
route(prodloc26,prodloc24,tr13,18037,108222).
route(prodloc26,prodloc25,tr0,12720,330720).
route(prodloc26,prodloc25,tr13,12720,76320).
route(prodloc26,prodloc27,tr0,2725,70850).
route(prodloc26,prodloc27,tr13,2725,16350).
route(prodloc26,prodloc28,tr0,15687,407862).
route(prodloc26,prodloc28,tr13,15687,94122).
route(prodloc26,prodloc29,tr0,3547,92222).
route(prodloc26,prodloc29,tr13,3547,21282).
route(prodloc26,prodloc30,tr0,25210,655460).
route(prodloc26,prodloc30,tr15,25210,806720).
route(prodloc26,prodloc31,tr0,8124,211224).
route(prodloc26,prodloc31,tr13,8124,48744).
route(prodloc26,prodloc32,tr0,15926,414076).
route(prodloc26,prodloc32,tr13,15926,95556).
route(prodloc26,prodloc33,tr0,2822,73372).
route(prodloc26,prodloc33,tr13,2822,16932).
route(prodloc27,harbor0,tr0,591,15366).
route(prodloc27,harbor0,tr13,591,3546).
route(prodloc27,harbor1,tr0,26144,679744).
route(prodloc27,harbor1,tr13,26144,156864).
route(prodloc27,harbor2,tr0,12958,336908).
route(prodloc27,harbor2,tr13,12958,77748).
route(prodloc27,harbor3,tr0,28152,731952).
route(prodloc27,harbor3,tr13,28152,168912).
route(prodloc27,harbor4,tr0,24104,626704).
route(prodloc27,harbor4,tr13,24104,144624).
route(prodloc27,harbor5,tr0,15025,390650).
route(prodloc27,harbor5,tr13,15025,90150).
route(prodloc27,harbor6,tr0,2853,74178).
route(prodloc27,harbor6,tr13,2853,17118).
route(prodloc27,harbor7,tr0,25014,650364).
route(prodloc27,harbor7,tr13,25014,150084).
route(prodloc27,harbor8,tr0,16541,430066).
route(prodloc27,harbor8,tr13,16541,99246).
route(prodloc27,harbor9,tr0,26202,681252).
route(prodloc27,harbor9,tr13,26202,157212).
route(prodloc27,harbor10,tr0,421,10946).
route(prodloc27,harbor10,tr13,421,2526).
route(prodloc27,harbor11,tr0,28118,731068).
route(prodloc27,harbor11,tr13,28118,168708).
route(prodloc27,harbor12,tr0,7022,182572).
route(prodloc27,harbor12,tr13,7022,42132).
route(prodloc27,harbor13,tr0,20289,527514).
route(prodloc27,harbor13,tr13,20289,121734).
route(prodloc27,harbor14,tr0,21296,553696).
route(prodloc27,harbor14,tr13,21296,127776).
route(prodloc27,harbor15,tr0,16471,428246).
route(prodloc27,harbor15,tr13,16471,98826).
route(prodloc27,harbor16,tr0,19677,511602).
route(prodloc27,harbor16,tr13,19677,118062).
route(prodloc27,prodloc0,tr0,1120,29120).
route(prodloc27,prodloc0,tr13,1120,6720).
route(prodloc27,prodloc1,tr0,25338,658788).
route(prodloc27,prodloc1,tr13,25338,152028).
route(prodloc27,prodloc2,tr0,7188,186888).
route(prodloc27,prodloc2,tr13,7188,43128).
route(prodloc27,prodloc3,tr0,2880,74880).
route(prodloc27,prodloc3,tr13,2880,17280).
route(prodloc27,prodloc4,tr0,11043,287118).
route(prodloc27,prodloc4,tr13,11043,66258).
route(prodloc27,prodloc5,tr0,17338,450788).
route(prodloc27,prodloc5,tr13,17338,104028).
route(prodloc27,prodloc6,tr0,7381,191906).
route(prodloc27,prodloc6,tr15,7381,236192).
route(prodloc27,prodloc7,tr0,11777,306202).
route(prodloc27,prodloc7,tr13,11777,70662).
route(prodloc27,prodloc8,tr0,7276,189176).
route(prodloc27,prodloc8,tr13,7276,43656).
route(prodloc27,prodloc9,tr0,26789,696514).
route(prodloc27,prodloc9,tr13,26789,160734).
route(prodloc27,prodloc10,tr0,27274,709124).
route(prodloc27,prodloc10,tr13,27274,163644).
route(prodloc27,prodloc11,tr0,26033,676858).
route(prodloc27,prodloc11,tr13,26033,156198).
route(prodloc27,prodloc12,tr0,24084,626184).
route(prodloc27,prodloc12,tr13,24084,144504).
route(prodloc27,prodloc13,tr0,24002,624052).
route(prodloc27,prodloc13,tr13,24002,144012).
route(prodloc27,prodloc14,tr0,6669,173394).
route(prodloc27,prodloc14,tr13,6669,40014).
route(prodloc27,prodloc15,tr0,10170,264420).
route(prodloc27,prodloc15,tr13,10170,61020).
route(prodloc27,prodloc16,tr0,26660,693160).
route(prodloc27,prodloc16,tr13,26660,159960).
route(prodloc27,prodloc17,tr0,4623,120198).
route(prodloc27,prodloc17,tr13,4623,27738).
route(prodloc27,prodloc18,tr0,10942,284492).
route(prodloc27,prodloc18,tr13,10942,65652).
route(prodloc27,prodloc19,tr0,8249,214474).
route(prodloc27,prodloc19,tr15,8249,263968).
route(prodloc27,prodloc20,tr0,19870,516620).
route(prodloc27,prodloc20,tr13,19870,119220).
route(prodloc27,prodloc21,tr0,14367,373542).
route(prodloc27,prodloc21,tr13,14367,86202).
route(prodloc27,prodloc22,tr0,2911,75686).
route(prodloc27,prodloc22,tr13,2911,17466).
route(prodloc27,prodloc23,tr0,12146,315796).
route(prodloc27,prodloc23,tr13,12146,72876).
route(prodloc27,prodloc24,tr0,2448,63648).
route(prodloc27,prodloc24,tr13,2448,14688).
route(prodloc27,prodloc25,tr0,8547,222222).
route(prodloc27,prodloc25,tr13,8547,51282).
route(prodloc27,prodloc26,tr0,13367,347542).
route(prodloc27,prodloc26,tr13,13367,80202).
route(prodloc27,prodloc28,tr0,5955,154830).
route(prodloc27,prodloc28,tr13,5955,35730).
route(prodloc27,prodloc29,tr0,8641,224666).
route(prodloc27,prodloc29,tr13,8641,51846).
route(prodloc27,prodloc30,tr0,4639,120614).
route(prodloc27,prodloc30,tr13,4639,27834).
route(prodloc27,prodloc31,tr0,12984,337584).
route(prodloc27,prodloc31,tr13,12984,77904).
route(prodloc27,prodloc32,tr0,7029,182754).
route(prodloc27,prodloc32,tr13,7029,42174).
route(prodloc27,prodloc33,tr0,5901,153426).
route(prodloc27,prodloc33,tr13,5901,35406).
route(prodloc28,harbor0,tr0,4453,115778).
route(prodloc28,harbor0,tr13,4453,26718).
route(prodloc28,harbor1,tr0,24622,640172).
route(prodloc28,harbor1,tr13,24622,147732).
route(prodloc28,harbor2,tr0,646,16796).
route(prodloc28,harbor2,tr13,646,3876).
route(prodloc28,harbor3,tr0,3123,81198).
route(prodloc28,harbor3,tr13,3123,18738).
route(prodloc28,harbor4,tr0,18691,485966).
route(prodloc28,harbor4,tr13,18691,112146).
route(prodloc28,harbor5,tr0,19616,510016).
route(prodloc28,harbor5,tr13,19616,117696).
route(prodloc28,harbor6,tr0,5579,145054).
route(prodloc28,harbor6,tr13,5579,33474).
route(prodloc28,harbor7,tr0,10722,278772).
route(prodloc28,harbor7,tr13,10722,64332).
route(prodloc28,harbor8,tr0,893,23218).
route(prodloc28,harbor8,tr13,893,5358).
route(prodloc28,harbor9,tr0,11008,286208).
route(prodloc28,harbor9,tr13,11008,66048).
route(prodloc28,harbor10,tr0,19840,515840).
route(prodloc28,harbor10,tr13,19840,119040).
route(prodloc28,harbor11,tr0,20975,545350).
route(prodloc28,harbor11,tr13,20975,125850).
route(prodloc28,harbor12,tr0,546,14196).
route(prodloc28,harbor12,tr13,546,3276).
route(prodloc28,harbor13,tr0,3486,90636).
route(prodloc28,harbor13,tr13,3486,20916).
route(prodloc28,harbor14,tr0,24588,639288).
route(prodloc28,harbor14,tr13,24588,147528).
route(prodloc28,harbor15,tr0,24397,634322).
route(prodloc28,harbor15,tr13,24397,146382).
route(prodloc28,harbor16,tr0,15276,397176).
route(prodloc28,harbor16,tr13,15276,91656).
route(prodloc28,prodloc0,tr0,8329,216554).
route(prodloc28,prodloc0,tr13,8329,49974).
route(prodloc28,prodloc1,tr0,24252,630552).
route(prodloc28,prodloc1,tr13,24252,145512).
route(prodloc28,prodloc2,tr0,5856,152256).
route(prodloc28,prodloc2,tr13,5856,35136).
route(prodloc28,prodloc3,tr0,26922,699972).
route(prodloc28,prodloc3,tr13,26922,161532).
route(prodloc28,prodloc4,tr0,18603,483678).
route(prodloc28,prodloc4,tr13,18603,111618).
route(prodloc28,prodloc5,tr0,4742,123292).
route(prodloc28,prodloc5,tr13,4742,28452).
route(prodloc28,prodloc6,tr0,353,9178).
route(prodloc28,prodloc6,tr13,353,2118).
route(prodloc28,prodloc7,tr0,7551,196326).
route(prodloc28,prodloc7,tr13,7551,45306).
route(prodloc28,prodloc8,tr0,8598,223548).
route(prodloc28,prodloc8,tr13,8598,51588).
route(prodloc28,prodloc9,tr0,11097,288522).
route(prodloc28,prodloc9,tr13,11097,66582).
route(prodloc28,prodloc10,tr0,11296,293696).
route(prodloc28,prodloc10,tr13,11296,67776).
route(prodloc28,prodloc11,tr0,13943,362518).
route(prodloc28,prodloc11,tr13,13943,83658).
route(prodloc28,prodloc12,tr0,17836,463736).
route(prodloc28,prodloc12,tr13,17836,107016).
route(prodloc28,prodloc13,tr0,9723,252798).
route(prodloc28,prodloc13,tr15,9723,311136).
route(prodloc28,prodloc14,tr0,14260,370760).
route(prodloc28,prodloc14,tr13,14260,85560).
route(prodloc28,prodloc15,tr0,22923,595998).
route(prodloc28,prodloc15,tr13,22923,137538).
route(prodloc28,prodloc16,tr0,16477,428402).
route(prodloc28,prodloc16,tr13,16477,98862).
route(prodloc28,prodloc17,tr0,24511,637286).
route(prodloc28,prodloc17,tr13,24511,147066).
route(prodloc28,prodloc18,tr0,25158,654108).
route(prodloc28,prodloc18,tr13,25158,150948).
route(prodloc28,prodloc19,tr0,8832,229632).
route(prodloc28,prodloc19,tr13,8832,52992).
route(prodloc28,prodloc20,tr0,2770,72020).
route(prodloc28,prodloc20,tr13,2770,16620).
route(prodloc28,prodloc21,tr0,2904,75504).
route(prodloc28,prodloc21,tr13,2904,17424).
route(prodloc28,prodloc22,tr0,12268,318968).
route(prodloc28,prodloc22,tr13,12268,73608).
route(prodloc28,prodloc23,tr0,6672,173472).
route(prodloc28,prodloc23,tr13,6672,40032).
route(prodloc28,prodloc24,tr0,7749,201474).
route(prodloc28,prodloc24,tr13,7749,46494).
route(prodloc28,prodloc25,tr0,24126,627276).
route(prodloc28,prodloc25,tr13,24126,144756).
route(prodloc28,prodloc26,tr0,13947,362622).
route(prodloc28,prodloc26,tr13,13947,83682).
route(prodloc28,prodloc27,tr0,1391,36166).
route(prodloc28,prodloc27,tr13,1391,8346).
route(prodloc28,prodloc29,tr0,11697,304122).
route(prodloc28,prodloc29,tr13,11697,70182).
route(prodloc28,prodloc30,tr0,18855,490230).
route(prodloc28,prodloc30,tr13,18855,113130).
route(prodloc28,prodloc31,tr0,7902,205452).
route(prodloc28,prodloc31,tr13,7902,47412).
route(prodloc28,prodloc32,tr0,12422,322972).
route(prodloc28,prodloc32,tr13,12422,74532).
route(prodloc28,prodloc33,tr0,25007,650182).
route(prodloc28,prodloc33,tr13,25007,150042).
route(prodloc29,harbor0,tr0,50,1300).
route(prodloc29,harbor0,tr13,50,300).
route(prodloc29,harbor1,tr0,2303,59878).
route(prodloc29,harbor1,tr13,2303,13818).
route(prodloc29,harbor2,tr0,1165,30290).
route(prodloc29,harbor2,tr13,1165,6990).
route(prodloc29,harbor3,tr0,12829,333554).
route(prodloc29,harbor3,tr13,12829,76974).
route(prodloc29,harbor4,tr0,23935,622310).
route(prodloc29,harbor4,tr13,23935,143610).
route(prodloc29,harbor5,tr0,13880,360880).
route(prodloc29,harbor5,tr13,13880,83280).
route(prodloc29,harbor6,tr0,7010,182260).
route(prodloc29,harbor6,tr13,7010,42060).
route(prodloc29,harbor7,tr0,25483,662558).
route(prodloc29,harbor7,tr13,25483,152898).
route(prodloc29,harbor8,tr0,4183,108758).
route(prodloc29,harbor8,tr13,4183,25098).
route(prodloc29,harbor9,tr0,20855,542230).
route(prodloc29,harbor9,tr13,20855,125130).
route(prodloc29,harbor10,tr0,2960,76960).
route(prodloc29,harbor10,tr13,2960,17760).
route(prodloc29,harbor11,tr0,27214,707564).
route(prodloc29,harbor11,tr13,27214,163284).
route(prodloc29,harbor12,tr0,28328,736528).
route(prodloc29,harbor12,tr13,28328,169968).
route(prodloc29,harbor13,tr0,16333,424658).
route(prodloc29,harbor13,tr13,16333,97998).
route(prodloc29,harbor14,tr0,24584,639184).
route(prodloc29,harbor14,tr13,24584,147504).
route(prodloc29,harbor15,tr0,25142,653692).
route(prodloc29,harbor15,tr13,25142,150852).
route(prodloc29,harbor16,tr0,11243,292318).
route(prodloc29,harbor16,tr13,11243,67458).
route(prodloc29,prodloc0,tr0,5773,150098).
route(prodloc29,prodloc0,tr13,5773,34638).
route(prodloc29,prodloc1,tr0,24601,639626).
route(prodloc29,prodloc1,tr13,24601,147606).
route(prodloc29,prodloc2,tr0,6638,172588).
route(prodloc29,prodloc2,tr13,6638,39828).
route(prodloc29,prodloc3,tr0,22002,572052).
route(prodloc29,prodloc3,tr13,22002,132012).
route(prodloc29,prodloc4,tr0,788,20488).
route(prodloc29,prodloc4,tr13,788,4728).
route(prodloc29,prodloc5,tr0,27,702).
route(prodloc29,prodloc5,tr13,27,162).
route(prodloc29,prodloc6,tr0,15185,394810).
route(prodloc29,prodloc6,tr13,15185,91110).
route(prodloc29,prodloc7,tr0,26223,681798).
route(prodloc29,prodloc7,tr13,26223,157338).
route(prodloc29,prodloc8,tr0,10635,276510).
route(prodloc29,prodloc8,tr13,10635,63810).
route(prodloc29,prodloc9,tr0,23182,602732).
route(prodloc29,prodloc9,tr13,23182,139092).
route(prodloc29,prodloc10,tr0,6546,170196).
route(prodloc29,prodloc10,tr13,6546,39276).
route(prodloc29,prodloc11,tr0,9817,255242).
route(prodloc29,prodloc11,tr13,9817,58902).
route(prodloc29,prodloc12,tr13,2749,16494).
route(prodloc29,prodloc12,tr15,2749,87968).
route(prodloc29,prodloc13,tr0,4740,123240).
route(prodloc29,prodloc13,tr13,4740,28440).
route(prodloc29,prodloc14,tr0,18037,468962).
route(prodloc29,prodloc14,tr13,18037,108222).
route(prodloc29,prodloc15,tr0,3256,84656).
route(prodloc29,prodloc15,tr13,3256,19536).
route(prodloc29,prodloc16,tr0,17094,444444).
route(prodloc29,prodloc16,tr13,17094,102564).
route(prodloc29,prodloc17,tr0,16799,436774).
route(prodloc29,prodloc17,tr13,16799,100794).
route(prodloc29,prodloc18,tr0,13596,353496).
route(prodloc29,prodloc18,tr13,13596,81576).
route(prodloc29,prodloc19,tr0,5467,142142).
route(prodloc29,prodloc19,tr13,5467,32802).
route(prodloc29,prodloc20,tr0,41,1066).
route(prodloc29,prodloc20,tr13,41,246).
route(prodloc29,prodloc21,tr0,12907,335582).
route(prodloc29,prodloc21,tr13,12907,77442).
route(prodloc29,prodloc22,tr0,18415,478790).
route(prodloc29,prodloc22,tr13,18415,110490).
route(prodloc29,prodloc23,tr0,25045,651170).
route(prodloc29,prodloc23,tr13,25045,150270).
route(prodloc29,prodloc24,tr0,22906,595556).
route(prodloc29,prodloc24,tr13,22906,137436).
route(prodloc29,prodloc25,tr0,10277,267202).
route(prodloc29,prodloc25,tr13,10277,61662).
route(prodloc29,prodloc26,tr0,8209,213434).
route(prodloc29,prodloc26,tr13,8209,49254).
route(prodloc29,prodloc27,tr0,9765,253890).
route(prodloc29,prodloc27,tr13,9765,58590).
route(prodloc29,prodloc28,tr0,5141,133666).
route(prodloc29,prodloc28,tr13,5141,30846).
route(prodloc29,prodloc30,tr0,11198,291148).
route(prodloc29,prodloc30,tr13,11198,67188).
route(prodloc29,prodloc31,tr0,7252,188552).
route(prodloc29,prodloc31,tr13,7252,43512).
route(prodloc29,prodloc32,tr0,25568,664768).
route(prodloc29,prodloc32,tr13,25568,153408).
route(prodloc29,prodloc33,tr0,3887,101062).
route(prodloc29,prodloc33,tr13,3887,23322).
route(prodloc30,harbor0,tr0,10931,284206).
route(prodloc30,harbor0,tr13,10931,65586).
route(prodloc30,harbor1,tr0,2769,71994).
route(prodloc30,harbor1,tr13,2769,16614).
route(prodloc30,harbor2,tr0,17587,457262).
route(prodloc30,harbor2,tr13,17587,105522).
route(prodloc30,harbor3,tr0,14809,385034).
route(prodloc30,harbor3,tr13,14809,88854).
route(prodloc30,harbor4,tr0,18846,489996).
route(prodloc30,harbor4,tr13,18846,113076).
route(prodloc30,harbor5,tr0,27570,716820).
route(prodloc30,harbor5,tr13,27570,165420).
route(prodloc30,harbor6,tr0,23023,598598).
route(prodloc30,harbor6,tr13,23023,138138).
route(prodloc30,harbor7,tr0,15618,406068).
route(prodloc30,harbor7,tr13,15618,93708).
route(prodloc30,harbor8,tr0,15145,393770).
route(prodloc30,harbor8,tr13,15145,90870).
route(prodloc30,harbor9,tr0,21933,570258).
route(prodloc30,harbor9,tr13,21933,131598).
route(prodloc30,harbor10,tr0,12032,312832).
route(prodloc30,harbor10,tr13,12032,72192).
route(prodloc30,harbor11,tr0,2627,68302).
route(prodloc30,harbor11,tr13,2627,15762).
route(prodloc30,harbor12,tr0,3130,81380).
route(prodloc30,harbor12,tr13,3130,18780).
route(prodloc30,harbor13,tr0,22638,588588).
route(prodloc30,harbor13,tr13,22638,135828).
route(prodloc30,harbor14,tr0,12184,316784).
route(prodloc30,harbor14,tr13,12184,73104).
route(prodloc30,harbor15,tr0,23507,611182).
route(prodloc30,harbor15,tr13,23507,141042).
route(prodloc30,harbor16,tr0,23860,620360).
route(prodloc30,harbor16,tr13,23860,143160).
route(prodloc30,prodloc0,tr0,10369,269594).
route(prodloc30,prodloc0,tr13,10369,62214).
route(prodloc30,prodloc1,tr0,10677,277602).
route(prodloc30,prodloc1,tr13,10677,64062).
route(prodloc30,prodloc2,tr0,10167,264342).
route(prodloc30,prodloc2,tr13,10167,61002).
route(prodloc30,prodloc3,tr0,24990,649740).
route(prodloc30,prodloc3,tr13,24990,149940).
route(prodloc30,prodloc4,tr0,10760,279760).
route(prodloc30,prodloc4,tr13,10760,64560).
route(prodloc30,prodloc5,tr0,22934,596284).
route(prodloc30,prodloc5,tr13,22934,137604).
route(prodloc30,prodloc6,tr0,2642,68692).
route(prodloc30,prodloc6,tr13,2642,15852).
route(prodloc30,prodloc7,tr0,23257,604682).
route(prodloc30,prodloc7,tr13,23257,139542).
route(prodloc30,prodloc8,tr0,28493,740818).
route(prodloc30,prodloc8,tr13,28493,170958).
route(prodloc30,prodloc9,tr0,25151,653926).
route(prodloc30,prodloc9,tr13,25151,150906).
route(prodloc30,prodloc10,tr0,21210,551460).
route(prodloc30,prodloc10,tr13,21210,127260).
route(prodloc30,prodloc11,tr0,24577,639002).
route(prodloc30,prodloc11,tr13,24577,147462).
route(prodloc30,prodloc12,tr0,20320,528320).
route(prodloc30,prodloc12,tr13,20320,121920).
route(prodloc30,prodloc13,tr0,18409,478634).
route(prodloc30,prodloc13,tr13,18409,110454).
route(prodloc30,prodloc14,tr0,27640,718640).
route(prodloc30,prodloc14,tr13,27640,165840).
route(prodloc30,prodloc15,tr0,23141,601666).
route(prodloc30,prodloc15,tr13,23141,138846).
route(prodloc30,prodloc16,tr0,19794,514644).
route(prodloc30,prodloc16,tr13,19794,118764).
route(prodloc30,prodloc17,tr0,13517,351442).
route(prodloc30,prodloc17,tr13,13517,81102).
route(prodloc30,prodloc18,tr0,10154,264004).
route(prodloc30,prodloc18,tr13,10154,60924).
route(prodloc30,prodloc19,tr0,28007,728182).
route(prodloc30,prodloc19,tr13,28007,168042).
route(prodloc30,prodloc20,tr0,16241,422266).
route(prodloc30,prodloc20,tr13,16241,97446).
route(prodloc30,prodloc21,tr0,7451,193726).
route(prodloc30,prodloc21,tr13,7451,44706).
route(prodloc30,prodloc22,tr0,9220,239720).
route(prodloc30,prodloc22,tr13,9220,55320).
route(prodloc30,prodloc23,tr0,24477,636402).
route(prodloc30,prodloc23,tr13,24477,146862).
route(prodloc30,prodloc24,tr0,15957,414882).
route(prodloc30,prodloc24,tr13,15957,95742).
route(prodloc30,prodloc25,tr0,7877,204802).
route(prodloc30,prodloc25,tr13,7877,47262).
route(prodloc30,prodloc26,tr0,4098,106548).
route(prodloc30,prodloc26,tr13,4098,24588).
route(prodloc30,prodloc27,tr0,17996,467896).
route(prodloc30,prodloc27,tr13,17996,107976).
route(prodloc30,prodloc28,tr0,7782,202332).
route(prodloc30,prodloc28,tr13,7782,46692).
route(prodloc30,prodloc29,tr0,3497,90922).
route(prodloc30,prodloc29,tr13,3497,20982).
route(prodloc30,prodloc31,tr0,12022,312572).
route(prodloc30,prodloc31,tr13,12022,72132).
route(prodloc30,prodloc32,tr0,25767,669942).
route(prodloc30,prodloc32,tr13,25767,154602).
route(prodloc30,prodloc33,tr0,23937,622362).
route(prodloc30,prodloc33,tr13,23937,143622).
route(prodloc31,harbor0,tr0,17722,460772).
route(prodloc31,harbor0,tr13,17722,106332).
route(prodloc31,harbor1,tr0,17054,443404).
route(prodloc31,harbor1,tr13,17054,102324).
route(prodloc31,harbor2,tr0,8410,218660).
route(prodloc31,harbor2,tr13,8410,50460).
route(prodloc31,harbor3,tr0,13123,341198).
route(prodloc31,harbor3,tr13,13123,78738).
route(prodloc31,harbor4,tr0,6893,179218).
route(prodloc31,harbor4,tr13,6893,41358).
route(prodloc31,harbor5,tr0,19342,502892).
route(prodloc31,harbor5,tr13,19342,116052).
route(prodloc31,harbor6,tr0,13697,356122).
route(prodloc31,harbor6,tr13,13697,82182).
route(prodloc31,harbor7,tr0,23728,616928).
route(prodloc31,harbor7,tr13,23728,142368).
route(prodloc31,harbor8,tr0,7325,190450).
route(prodloc31,harbor8,tr13,7325,43950).
route(prodloc31,harbor9,tr0,6859,178334).
route(prodloc31,harbor9,tr13,6859,41154).
route(prodloc31,harbor10,tr0,1042,27092).
route(prodloc31,harbor10,tr13,1042,6252).
route(prodloc31,harbor11,tr0,16046,417196).
route(prodloc31,harbor11,tr13,16046,96276).
route(prodloc31,harbor12,tr0,27581,717106).
route(prodloc31,harbor12,tr13,27581,165486).
route(prodloc31,harbor13,tr0,22846,593996).
route(prodloc31,harbor13,tr13,22846,137076).
route(prodloc31,harbor14,tr0,19389,504114).
route(prodloc31,harbor14,tr13,19389,116334).
route(prodloc31,harbor15,tr0,18523,481598).
route(prodloc31,harbor15,tr13,18523,111138).
route(prodloc31,harbor16,tr0,17713,460538).
route(prodloc31,harbor16,tr13,17713,106278).
route(prodloc31,prodloc0,tr0,18292,475592).
route(prodloc31,prodloc0,tr13,18292,109752).
route(prodloc31,prodloc1,tr0,17862,464412).
route(prodloc31,prodloc1,tr13,17862,107172).
route(prodloc31,prodloc2,tr0,19074,495924).
route(prodloc31,prodloc2,tr13,19074,114444).
route(prodloc31,prodloc3,tr0,11483,298558).
route(prodloc31,prodloc3,tr13,11483,68898).
route(prodloc31,prodloc4,tr0,6486,168636).
route(prodloc31,prodloc4,tr13,6486,38916).
route(prodloc31,prodloc5,tr0,21623,562198).
route(prodloc31,prodloc5,tr13,21623,129738).
route(prodloc31,prodloc6,tr0,28617,744042).
route(prodloc31,prodloc6,tr13,28617,171702).
route(prodloc31,prodloc7,tr0,7929,206154).
route(prodloc31,prodloc7,tr13,7929,47574).
route(prodloc31,prodloc8,tr0,28474,740324).
route(prodloc31,prodloc8,tr13,28474,170844).
route(prodloc31,prodloc9,tr0,16698,434148).
route(prodloc31,prodloc9,tr15,16698,534336).
route(prodloc31,prodloc10,tr0,16403,426478).
route(prodloc31,prodloc10,tr13,16403,98418).
route(prodloc31,prodloc11,tr0,6220,161720).
route(prodloc31,prodloc11,tr13,6220,37320).
route(prodloc31,prodloc12,tr0,8092,210392).
route(prodloc31,prodloc12,tr13,8092,48552).
route(prodloc31,prodloc13,tr0,7568,196768).
route(prodloc31,prodloc13,tr13,7568,45408).
route(prodloc31,prodloc14,tr0,8936,232336).
route(prodloc31,prodloc14,tr13,8936,53616).
route(prodloc31,prodloc15,tr0,12441,323466).
route(prodloc31,prodloc15,tr13,12441,74646).
route(prodloc31,prodloc16,tr0,14654,381004).
route(prodloc31,prodloc16,tr13,14654,87924).
route(prodloc31,prodloc17,tr0,22782,592332).
route(prodloc31,prodloc17,tr13,22782,136692).
route(prodloc31,prodloc18,tr0,7277,189202).
route(prodloc31,prodloc18,tr13,7277,43662).
route(prodloc31,prodloc19,tr0,26787,696462).
route(prodloc31,prodloc19,tr13,26787,160722).
route(prodloc31,prodloc20,tr0,5292,137592).
route(prodloc31,prodloc20,tr13,5292,31752).
route(prodloc31,prodloc21,tr0,2192,56992).
route(prodloc31,prodloc21,tr13,2192,13152).
route(prodloc31,prodloc22,tr0,16350,425100).
route(prodloc31,prodloc22,tr13,16350,98100).
route(prodloc31,prodloc23,tr0,18934,492284).
route(prodloc31,prodloc23,tr13,18934,113604).
route(prodloc31,prodloc24,tr0,27646,718796).
route(prodloc31,prodloc24,tr13,27646,165876).
route(prodloc31,prodloc25,tr0,16562,430612).
route(prodloc31,prodloc25,tr13,16562,99372).
route(prodloc31,prodloc26,tr0,3174,82524).
route(prodloc31,prodloc26,tr13,3174,19044).
route(prodloc31,prodloc27,tr0,3561,92586).
route(prodloc31,prodloc27,tr13,3561,21366).
route(prodloc31,prodloc28,tr0,7728,200928).
route(prodloc31,prodloc28,tr13,7728,46368).
route(prodloc31,prodloc29,tr0,2174,56524).
route(prodloc31,prodloc29,tr13,2174,13044).
route(prodloc31,prodloc30,tr0,20975,545350).
route(prodloc31,prodloc30,tr13,20975,125850).
route(prodloc31,prodloc32,tr0,28860,750360).
route(prodloc31,prodloc32,tr13,28860,173160).
route(prodloc31,prodloc33,tr0,9778,254228).
route(prodloc31,prodloc33,tr13,9778,58668).
route(prodloc32,harbor0,tr0,12127,315302).
route(prodloc32,harbor0,tr13,12127,72762).
route(prodloc32,harbor1,tr0,7225,187850).
route(prodloc32,harbor1,tr13,7225,43350).
route(prodloc32,harbor2,tr0,1084,28184).
route(prodloc32,harbor2,tr13,1084,6504).
route(prodloc32,harbor3,tr0,22141,575666).
route(prodloc32,harbor3,tr13,22141,132846).
route(prodloc32,harbor4,tr0,10721,278746).
route(prodloc32,harbor4,tr13,10721,64326).
route(prodloc32,harbor5,tr0,19133,497458).
route(prodloc32,harbor5,tr13,19133,114798).
route(prodloc32,harbor6,tr0,6814,177164).
route(prodloc32,harbor6,tr13,6814,40884).
route(prodloc32,harbor7,tr0,8805,228930).
route(prodloc32,harbor7,tr13,8805,52830).
route(prodloc32,harbor8,tr0,16248,422448).
route(prodloc32,harbor8,tr13,16248,97488).
route(prodloc32,harbor9,tr0,23769,617994).
route(prodloc32,harbor9,tr13,23769,142614).
route(prodloc32,harbor10,tr0,26462,688012).
route(prodloc32,harbor10,tr13,26462,158772).
route(prodloc32,harbor11,tr0,9604,249704).
route(prodloc32,harbor11,tr13,9604,57624).
route(prodloc32,harbor12,tr0,27338,710788).
route(prodloc32,harbor12,tr13,27338,164028).
route(prodloc32,harbor13,tr0,2548,66248).
route(prodloc32,harbor13,tr13,2548,15288).
route(prodloc32,harbor14,tr0,9467,246142).
route(prodloc32,harbor14,tr13,9467,56802).
route(prodloc32,harbor15,tr0,16596,431496).
route(prodloc32,harbor15,tr13,16596,99576).
route(prodloc32,harbor16,tr0,6312,164112).
route(prodloc32,harbor16,tr13,6312,37872).
route(prodloc32,prodloc0,tr0,2102,54652).
route(prodloc32,prodloc0,tr13,2102,12612).
route(prodloc32,prodloc1,tr0,2950,76700).
route(prodloc32,prodloc1,tr13,2950,17700).
route(prodloc32,prodloc2,tr0,18940,492440).
route(prodloc32,prodloc2,tr13,18940,113640).
route(prodloc32,prodloc3,tr0,6807,176982).
route(prodloc32,prodloc3,tr13,6807,40842).
route(prodloc32,prodloc4,tr0,27800,722800).
route(prodloc32,prodloc4,tr13,27800,166800).
route(prodloc32,prodloc5,tr0,16117,419042).
route(prodloc32,prodloc5,tr13,16117,96702).
route(prodloc32,prodloc6,tr0,19963,519038).
route(prodloc32,prodloc6,tr13,19963,119778).
route(prodloc32,prodloc7,tr0,12431,323206).
route(prodloc32,prodloc7,tr13,12431,74586).
route(prodloc32,prodloc8,tr0,22406,582556).
route(prodloc32,prodloc8,tr13,22406,134436).
route(prodloc32,prodloc9,tr0,18362,477412).
route(prodloc32,prodloc9,tr13,18362,110172).
route(prodloc32,prodloc10,tr0,9705,252330).
route(prodloc32,prodloc10,tr13,9705,58230).
route(prodloc32,prodloc11,tr0,25895,673270).
route(prodloc32,prodloc11,tr13,25895,155370).
route(prodloc32,prodloc12,tr0,21323,554398).
route(prodloc32,prodloc12,tr13,21323,127938).
route(prodloc32,prodloc13,tr13,13781,82686).
route(prodloc32,prodloc13,tr15,13781,440992).
route(prodloc32,prodloc14,tr13,2569,15414).
route(prodloc32,prodloc14,tr15,2569,82208).
route(prodloc32,prodloc15,tr0,18820,489320).
route(prodloc32,prodloc15,tr13,18820,112920).
route(prodloc32,prodloc16,tr0,26070,677820).
route(prodloc32,prodloc16,tr13,26070,156420).
route(prodloc32,prodloc17,tr0,17571,456846).
route(prodloc32,prodloc17,tr13,17571,105426).
route(prodloc32,prodloc18,tr0,18682,485732).
route(prodloc32,prodloc18,tr13,18682,112092).
route(prodloc32,prodloc19,tr0,222,5772).
route(prodloc32,prodloc19,tr13,222,1332).
route(prodloc32,prodloc20,tr0,5453,141778).
route(prodloc32,prodloc20,tr13,5453,32718).
route(prodloc32,prodloc21,tr0,20605,535730).
route(prodloc32,prodloc21,tr13,20605,123630).
route(prodloc32,prodloc22,tr13,25572,153432).
route(prodloc32,prodloc22,tr15,25572,818304).
route(prodloc32,prodloc23,tr0,24698,642148).
route(prodloc32,prodloc23,tr13,24698,148188).
route(prodloc32,prodloc24,tr0,21486,558636).
route(prodloc32,prodloc24,tr13,21486,128916).
route(prodloc32,prodloc25,tr0,27805,722930).
route(prodloc32,prodloc25,tr13,27805,166830).
route(prodloc32,prodloc26,tr0,23161,602186).
route(prodloc32,prodloc26,tr13,23161,138966).
route(prodloc32,prodloc27,tr0,17010,442260).
route(prodloc32,prodloc27,tr13,17010,102060).
route(prodloc32,prodloc28,tr0,18619,484094).
route(prodloc32,prodloc28,tr13,18619,111714).
route(prodloc32,prodloc29,tr0,3780,98280).
route(prodloc32,prodloc29,tr13,3780,22680).
route(prodloc32,prodloc30,tr0,7794,202644).
route(prodloc32,prodloc30,tr13,7794,46764).
route(prodloc32,prodloc31,tr0,13774,358124).
route(prodloc32,prodloc31,tr13,13774,82644).
route(prodloc32,prodloc33,tr0,17528,455728).
route(prodloc32,prodloc33,tr13,17528,105168).
route(prodloc33,harbor0,tr0,8756,227656).
route(prodloc33,harbor0,tr13,8756,52536).
route(prodloc33,harbor1,tr0,9239,240214).
route(prodloc33,harbor1,tr13,9239,55434).
route(prodloc33,harbor2,tr0,16568,430768).
route(prodloc33,harbor2,tr13,16568,99408).
route(prodloc33,harbor3,tr0,25851,672126).
route(prodloc33,harbor3,tr13,25851,155106).
route(prodloc33,harbor4,tr0,4068,105768).
route(prodloc33,harbor4,tr13,4068,24408).
route(prodloc33,harbor5,tr0,24471,636246).
route(prodloc33,harbor5,tr13,24471,146826).
route(prodloc33,harbor6,tr0,3853,100178).
route(prodloc33,harbor6,tr13,3853,23118).
route(prodloc33,harbor7,tr0,22295,579670).
route(prodloc33,harbor7,tr13,22295,133770).
route(prodloc33,harbor8,tr0,12191,316966).
route(prodloc33,harbor8,tr13,12191,73146).
route(prodloc33,harbor9,tr0,15387,400062).
route(prodloc33,harbor9,tr13,15387,92322).
route(prodloc33,harbor10,tr0,5126,133276).
route(prodloc33,harbor10,tr13,5126,30756).
route(prodloc33,harbor11,tr0,25874,672724).
route(prodloc33,harbor11,tr13,25874,155244).
route(prodloc33,harbor12,tr0,20030,520780).
route(prodloc33,harbor12,tr13,20030,120180).
route(prodloc33,harbor13,tr0,657,17082).
route(prodloc33,harbor13,tr13,657,3942).
route(prodloc33,harbor14,tr0,12994,337844).
route(prodloc33,harbor14,tr13,12994,77964).
route(prodloc33,harbor15,tr0,24804,644904).
route(prodloc33,harbor15,tr13,24804,148824).
route(prodloc33,harbor16,tr0,19856,516256).
route(prodloc33,harbor16,tr13,19856,119136).
route(prodloc33,prodloc0,tr0,17856,464256).
route(prodloc33,prodloc0,tr13,17856,107136).
route(prodloc33,prodloc1,tr0,6063,157638).
route(prodloc33,prodloc1,tr13,6063,36378).
route(prodloc33,prodloc2,tr0,4860,126360).
route(prodloc33,prodloc2,tr13,4860,29160).
route(prodloc33,prodloc3,tr0,19026,494676).
route(prodloc33,prodloc3,tr13,19026,114156).
route(prodloc33,prodloc4,tr0,22381,581906).
route(prodloc33,prodloc4,tr13,22381,134286).
route(prodloc33,prodloc5,tr0,28817,749242).
route(prodloc33,prodloc5,tr13,28817,172902).
route(prodloc33,prodloc6,tr0,2517,65442).
route(prodloc33,prodloc6,tr13,2517,15102).
route(prodloc33,prodloc7,tr0,1405,36530).
route(prodloc33,prodloc7,tr13,1405,8430).
route(prodloc33,prodloc8,tr0,18593,483418).
route(prodloc33,prodloc8,tr13,18593,111558).
route(prodloc33,prodloc9,tr0,1657,43082).
route(prodloc33,prodloc9,tr13,1657,9942).
route(prodloc33,prodloc10,tr0,1696,44096).
route(prodloc33,prodloc10,tr13,1696,10176).
route(prodloc33,prodloc11,tr0,10587,275262).
route(prodloc33,prodloc11,tr13,10587,63522).
route(prodloc33,prodloc12,tr0,22714,590564).
route(prodloc33,prodloc12,tr13,22714,136284).
route(prodloc33,prodloc13,tr0,25790,670540).
route(prodloc33,prodloc13,tr13,25790,154740).
route(prodloc33,prodloc14,tr0,15772,410072).
route(prodloc33,prodloc14,tr13,15772,94632).
route(prodloc33,prodloc15,tr0,8752,227552).
route(prodloc33,prodloc15,tr13,8752,52512).
route(prodloc33,prodloc16,tr0,1969,51194).
route(prodloc33,prodloc16,tr13,1969,11814).
route(prodloc33,prodloc17,tr0,7917,205842).
route(prodloc33,prodloc17,tr13,7917,47502).
route(prodloc33,prodloc18,tr0,26193,681018).
route(prodloc33,prodloc18,tr13,26193,157158).
route(prodloc33,prodloc19,tr0,4043,105118).
route(prodloc33,prodloc19,tr13,4043,24258).
route(prodloc33,prodloc20,tr0,14982,389532).
route(prodloc33,prodloc20,tr13,14982,89892).
route(prodloc33,prodloc21,tr0,3148,81848).
route(prodloc33,prodloc21,tr13,3148,18888).
route(prodloc33,prodloc22,tr0,9530,247780).
route(prodloc33,prodloc22,tr13,9530,57180).
route(prodloc33,prodloc23,tr0,18480,480480).
route(prodloc33,prodloc23,tr13,18480,110880).
route(prodloc33,prodloc24,tr0,10247,266422).
route(prodloc33,prodloc24,tr13,10247,61482).
route(prodloc33,prodloc25,tr0,21069,547794).
route(prodloc33,prodloc25,tr13,21069,126414).
route(prodloc33,prodloc26,tr0,21052,547352).
route(prodloc33,prodloc26,tr13,21052,126312).
route(prodloc33,prodloc27,tr0,15892,413192).
route(prodloc33,prodloc27,tr13,15892,95352).
route(prodloc33,prodloc28,tr0,24063,625638).
route(prodloc33,prodloc28,tr13,24063,144378).
route(prodloc33,prodloc29,tr0,28555,742430).
route(prodloc33,prodloc29,tr13,28555,171330).
route(prodloc33,prodloc31,tr0,1857,48282).
route(prodloc33,prodloc31,tr13,1857,11142).
route(prodloc33,prodloc32,tr0,4600,119600).
route(prodloc33,prodloc32,tr13,4600,27600).
hub(harbor2).
hub(harbor5).
hub(harbor8).
hub(prodloc0).
hub(prodloc6).
hub(prodloc12).
hub(prodloc21).
hub(prodloc26).
hub(prodloc28).
hub(prodloc30).
