% Multibatching benchmark instance
% Source: instances.lp
% seed=17  harbors=17  prodlocs=34  hubs=10  disruptions=2

% ---- locations ----
location(harbor0).
location(harbor1).
location(harbor2).
location(harbor3).
location(harbor4).
location(harbor5).
location(harbor6).
location(harbor7).
location(harbor8).
location(harbor9).
location(harbor10).
location(harbor11).
location(harbor12).
location(harbor13).
location(harbor14).
location(harbor15).
location(harbor16).
location(prodloc0).
location(prodloc1).
location(prodloc2).
location(prodloc3).
location(prodloc4).
location(prodloc5).
location(prodloc6).
location(prodloc7).
location(prodloc8).
location(prodloc9).
location(prodloc10).
location(prodloc11).
location(prodloc12).
location(prodloc13).
location(prodloc14).
location(prodloc15).
location(prodloc16).
location(prodloc17).
location(prodloc18).
location(prodloc19).
location(prodloc20).
location(prodloc21).
location(prodloc22).
location(prodloc23).
location(prodloc24).
location(prodloc25).
location(prodloc26).
location(prodloc27).
location(prodloc28).
location(prodloc29).
location(prodloc30).
location(prodloc31).
location(prodloc32).
location(prodloc33).

% ---- transport resources ----
transportCapacity(tr0,1800).
transportCO2(tr0,1680).
transportCost(tr0,26).
transportSpeed(tr0,12).
transportCapacity(tr1,65).
transportCO2(tr1,90).
transportCost(tr1,1).
transportSpeed(tr1,35).
transportCapacity(tr10,1).
transportCO2(tr10,700).
transportCost(tr10,4).
transportSpeed(tr10,40).
transportCapacity(tr11,65).
transportCO2(tr11,62).
transportCost(tr11,1).
transportSpeed(tr11,25).
transportCapacity(tr12,65).
transportCO2(tr12,709).
transportCost(tr12,3).
transportSpeed(tr12,55).
transportCapacity(tr13,68).
transportCO2(tr13,160).
transportCost(tr13,6).
transportSpeed(tr13,25).
transportCapacity(tr14,146).
transportCO2(tr14,780).
transportCost(tr14,4).
transportSpeed(tr14,50).
transportCapacity(tr15,2217).
transportCO2(tr15,49470).
transportCost(tr15,32).
transportSpeed(tr15,625).
transportCapacity(tr2,96).
transportCO2(tr2,709).
transportCost(tr2,3).
transportSpeed(tr2,55).
transportCapacity(tr3,1).
transportCO2(tr3,6250).
transportCost(tr3,108).
transportSpeed(tr3,25).
transportCapacity(tr4,148).
transportCO2(tr4,780).
transportCost(tr4,4).
transportSpeed(tr4,50).
transportCapacity(tr5,65).
transportCO2(tr5,780).
transportCost(tr5,3).
transportSpeed(tr5,50).
transportCapacity(tr6,1).
transportCO2(tr6,100).
transportCost(tr6,40).
transportSpeed(tr6,25).
transportCapacity(tr7,1).
transportCO2(tr7,18000).
transportCost(tr7,278).
transportSpeed(tr7,10).
transportCapacity(tr8,1).
transportCO2(tr8,14400).
transportCost(tr8,107).
transportSpeed(tr8,25).
transportCapacity(tr9,65).
transportCO2(tr9,708).
transportCost(tr9,2).
transportSpeed(tr9,60).

% ---- parts ----
part(part0).
partSize(part0,21).
valid_transport(part0,tr0).
valid_transport(part0,tr15).
valid_transport(part0,tr14).
valid_transport(part0,tr13).
valid_transport(part0,tr4).
part(part1).
partSize(part1,1).
valid_transport(part1,tr0).
valid_transport(part1,tr2).
valid_transport(part1,tr15).
valid_transport(part1,tr9).
valid_transport(part1,tr12).
valid_transport(part1,tr13).
valid_transport(part1,tr11).
part(part10).
partSize(part10,1).
valid_transport(part10,tr0).
valid_transport(part10,tr2).
valid_transport(part10,tr15).
valid_transport(part10,tr9).
valid_transport(part10,tr12).
valid_transport(part10,tr13).
valid_transport(part10,tr11).
part(part11).
partSize(part11,83).
valid_transport(part11,tr0).
valid_transport(part11,tr7).
valid_transport(part11,tr8).
valid_transport(part11,tr15).
valid_transport(part11,tr3).
valid_transport(part11,tr13).
part(part12).
partSize(part12,273).
valid_transport(part12,tr0).
valid_transport(part12,tr7).
valid_transport(part12,tr8).
valid_transport(part12,tr15).
valid_transport(part12,tr3).
valid_transport(part12,tr13).
part(part13).
partSize(part13,1).
valid_transport(part13,tr0).
valid_transport(part13,tr2).
valid_transport(part13,tr15).
valid_transport(part13,tr9).
valid_transport(part13,tr12).
valid_transport(part13,tr13).
valid_transport(part13,tr11).
part(part14).
partSize(part14,68).
valid_transport(part14,tr0).
valid_transport(part14,tr15).
valid_transport(part14,tr13).
part(part15).
partSize(part15,4).
valid_transport(part15,tr0).
valid_transport(part15,tr2).
valid_transport(part15,tr15).
valid_transport(part15,tr9).
valid_transport(part15,tr12).
valid_transport(part15,tr13).
valid_transport(part15,tr11).
part(part16).
partSize(part16,4).
valid_transport(part16,tr0).
valid_transport(part16,tr2).
valid_transport(part16,tr15).
valid_transport(part16,tr9).
valid_transport(part16,tr12).
valid_transport(part16,tr13).
valid_transport(part16,tr11).
part(part17).
partSize(part17,8).
valid_transport(part17,tr0).
valid_transport(part17,tr15).
valid_transport(part17,tr14).
valid_transport(part17,tr13).
valid_transport(part17,tr4).
part(part18).
partSize(part18,24).
valid_transport(part18,tr0).
valid_transport(part18,tr15).
valid_transport(part18,tr14).
valid_transport(part18,tr13).
valid_transport(part18,tr4).
part(part19).
partSize(part19,6).
valid_transport(part19,tr0).
valid_transport(part19,tr2).
valid_transport(part19,tr15).
valid_transport(part19,tr9).
valid_transport(part19,tr12).
valid_transport(part19,tr13).
valid_transport(part19,tr11).
part(part2).
partSize(part2,19).
valid_transport(part2,tr0).
valid_transport(part2,tr15).
valid_transport(part2,tr14).
valid_transport(part2,tr13).
valid_transport(part2,tr4).
part(part20).
partSize(part20,128).
valid_transport(part20,tr0).
valid_transport(part20,tr7).
valid_transport(part20,tr8).
valid_transport(part20,tr15).
valid_transport(part20,tr3).
valid_transport(part20,tr13).
part(part21).
partSize(part21,25).
valid_transport(part21,tr0).
valid_transport(part21,tr15).
valid_transport(part21,tr14).
valid_transport(part21,tr13).
valid_transport(part21,tr4).
part(part22).
partSize(part22,7).
valid_transport(part22,tr0).
valid_transport(part22,tr2).
valid_transport(part22,tr15).
valid_transport(part22,tr9).
valid_transport(part22,tr12).
valid_transport(part22,tr13).
valid_transport(part22,tr11).
part(part23).
partSize(part23,5).
valid_transport(part23,tr0).
valid_transport(part23,tr15).
valid_transport(part23,tr14).
valid_transport(part23,tr13).
valid_transport(part23,tr4).
part(part24).
partSize(part24,55).
valid_transport(part24,tr0).
valid_transport(part24,tr7).
valid_transport(part24,tr8).
valid_transport(part24,tr15).
valid_transport(part24,tr3).
valid_transport(part24,tr13).
part(part25).
partSize(part25,5).
valid_transport(part25,tr0).
valid_transport(part25,tr4).
valid_transport(part25,tr2).
valid_transport(part25,tr15).
valid_transport(part25,tr13).
part(part26).
partSize(part26,32).
valid_transport(part26,tr0).
valid_transport(part26,tr7).
valid_transport(part26,tr8).
valid_transport(part26,tr15).
valid_transport(part26,tr3).
valid_transport(part26,tr13).
part(part27).
partSize(part27,5).
valid_transport(part27,tr0).
valid_transport(part27,tr2).
valid_transport(part27,tr15).
valid_transport(part27,tr9).
valid_transport(part27,tr12).
valid_transport(part27,tr13).
valid_transport(part27,tr11).
part(part28).
partSize(part28,3).
valid_transport(part28,tr0).
valid_transport(part28,tr4).
valid_transport(part28,tr2).
valid_transport(part28,tr15).
valid_transport(part28,tr14).
valid_transport(part28,tr13).
part(part29).
partSize(part29,627).
part(part3).
partSize(part3,48).
valid_transport(part3,tr0).
valid_transport(part3,tr7).
valid_transport(part3,tr8).
valid_transport(part3,tr15).
valid_transport(part3,tr3).
valid_transport(part3,tr13).
part(part30).
partSize(part30,2).
valid_transport(part30,tr0).
valid_transport(part30,tr2).
valid_transport(part30,tr15).
valid_transport(part30,tr9).
valid_transport(part30,tr12).
valid_transport(part30,tr13).
valid_transport(part30,tr11).
part(part31).
partSize(part31,144).
valid_transport(part31,tr0).
valid_transport(part31,tr7).
valid_transport(part31,tr8).
valid_transport(part31,tr15).
valid_transport(part31,tr3).
valid_transport(part31,tr13).
part(part32).
partSize(part32,16).
valid_transport(part32,tr0).
valid_transport(part32,tr4).
valid_transport(part32,tr2).
valid_transport(part32,tr15).
valid_transport(part32,tr14).
valid_transport(part32,tr13).
part(part33).
partSize(part33,7).
valid_transport(part33,tr0).
valid_transport(part33,tr2).
valid_transport(part33,tr15).
valid_transport(part33,tr9).
valid_transport(part33,tr12).
valid_transport(part33,tr13).
valid_transport(part33,tr11).
part(part3345).
partSize(part3345,353).
valid_transport(part3345,tr0).
valid_transport(part3345,tr7).
valid_transport(part3345,tr8).
valid_transport(part3345,tr15).
valid_transport(part3345,tr3).
valid_transport(part3345,tr13).
part(part34).
partSize(part34,2).
valid_transport(part34,tr0).
valid_transport(part34,tr2).
valid_transport(part34,tr15).
valid_transport(part34,tr9).
valid_transport(part34,tr12).
valid_transport(part34,tr13).
valid_transport(part34,tr11).
part(part4).
partSize(part4,2).
valid_transport(part4,tr0).
valid_transport(part4,tr2).
valid_transport(part4,tr15).
valid_transport(part4,tr9).
valid_transport(part4,tr12).
valid_transport(part4,tr13).
valid_transport(part4,tr11).
part(part5).
partSize(part5,2).
valid_transport(part5,tr0).
valid_transport(part5,tr2).
valid_transport(part5,tr15).
valid_transport(part5,tr9).
valid_transport(part5,tr12).
valid_transport(part5,tr14).
valid_transport(part5,tr13).
valid_transport(part5,tr11).
part(part6).
partSize(part6,111).
valid_transport(part6,tr0).
valid_transport(part6,tr7).
valid_transport(part6,tr8).
valid_transport(part6,tr15).
valid_transport(part6,tr3).
valid_transport(part6,tr13).
part(part8).
partSize(part8,163).
valid_transport(part8,tr0).
valid_transport(part8,tr7).
valid_transport(part8,tr8).
valid_transport(part8,tr15).
valid_transport(part8,tr3).
valid_transport(part8,tr13).
part(part9).
partSize(part9,2).
valid_transport(part9,tr0).
valid_transport(part9,tr2).
valid_transport(part9,tr15).
valid_transport(part9,tr9).
valid_transport(part9,tr12).
valid_transport(part9,tr13).
valid_transport(part9,tr11).

% ---- demand ----
demandOffer(part0,prodloc33,40).
demandOffer(part0,prodloc26,40).
demandOffer(part0,prodloc19,-27).
demandOffer(part0,prodloc23,-53).
demandOffer(part1,prodloc18,20).
demandOffer(part1,prodloc11,20).
demandOffer(part1,prodloc17,-20).
demandOffer(part1,prodloc7,-20).
demandOffer(part10,prodloc1,20).
demandOffer(part10,prodloc15,20).
demandOffer(part10,prodloc24,-20).
demandOffer(part10,prodloc26,-20).
demandOffer(part12,prodloc16,10).
demandOffer(part12,prodloc32,20).
demandOffer(part12,prodloc20,-10).
demandOffer(part12,prodloc25,-10).
demandOffer(part12,prodloc8,-10).
demandOffer(part13,prodloc3,20).
demandOffer(part13,prodloc8,20).
demandOffer(part13,prodloc12,-20).
demandOffer(part13,prodloc9,-20).
demandOffer(part14,prodloc13,26).
demandOffer(part14,prodloc21,-26).
demandOffer(part15,prodloc7,53).
demandOffer(part15,prodloc4,27).
demandOffer(part15,prodloc19,-53).
demandOffer(part15,prodloc26,-27).
demandOffer(part16,prodloc5,53).
demandOffer(part16,prodloc32,27).
demandOffer(part16,prodloc30,-53).
demandOffer(part16,prodloc9,-27).
demandOffer(part17,prodloc26,20).
demandOffer(part17,prodloc32,-20).
demandOffer(part18,prodloc21,40).
demandOffer(part18,prodloc1,40).
demandOffer(part18,prodloc27,-27).
demandOffer(part18,prodloc23,-53).
demandOffer(part19,prodloc3,26).
demandOffer(part19,prodloc22,-26).
demandOffer(part2,prodloc3,40).
demandOffer(part2,prodloc30,40).
demandOffer(part2,prodloc23,-27).
demandOffer(part2,prodloc0,-53).
demandOffer(part20,prodloc25,53).
demandOffer(part20,prodloc15,27).
demandOffer(part20,prodloc7,-14).
demandOffer(part20,prodloc13,-46).
demandOffer(part20,prodloc33,-20).
demandOffer(part21,prodloc23,26).
demandOffer(part21,prodloc3,-26).
demandOffer(part22,prodloc17,53).
demandOffer(part22,prodloc4,27).
demandOffer(part22,prodloc12,-53).
demandOffer(part22,prodloc8,-27).
demandOffer(part23,prodloc16,20).
demandOffer(part23,prodloc19,20).
demandOffer(part23,prodloc22,-20).
demandOffer(part23,prodloc20,-20).
demandOffer(part25,prodloc10,20).
demandOffer(part25,prodloc21,-20).
demandOffer(part26,prodloc6,20).
demandOffer(part26,prodloc17,20).
demandOffer(part26,prodloc21,-14).
demandOffer(part26,prodloc0,-26).
demandOffer(part27,prodloc3,53).
demandOffer(part27,prodloc22,27).
demandOffer(part27,prodloc1,-53).
demandOffer(part27,prodloc29,-27).
demandOffer(part28,prodloc17,20).
demandOffer(part28,prodloc30,20).
demandOffer(part28,prodloc3,-20).
demandOffer(part28,prodloc12,-20).
demandOffer(part3,prodloc19,40).
demandOffer(part3,prodloc16,-14).
demandOffer(part3,prodloc4,-26).
demandOffer(part30,prodloc31,40).
demandOffer(part30,prodloc1,40).
demandOffer(part30,prodloc33,-27).
demandOffer(part30,prodloc8,-53).
demandOffer(part31,prodloc25,7).
demandOffer(part31,prodloc31,7).
demandOffer(part31,prodloc11,-14).
demandOffer(part32,prodloc12,53).
demandOffer(part32,prodloc16,27).
demandOffer(part32,prodloc9,-53).
demandOffer(part32,prodloc7,-27).
demandOffer(part33,prodloc13,53).
demandOffer(part33,prodloc3,27).
demandOffer(part33,prodloc19,-53).
demandOffer(part33,prodloc20,-27).
demandOffer(part34,prodloc20,20).
demandOffer(part34,prodloc3,-20).
demandOffer(part4,prodloc10,26).
demandOffer(part4,prodloc26,-26).
demandOffer(part5,prodloc5,20).
demandOffer(part5,prodloc19,-20).
demandOffer(part6,prodloc16,27).
demandOffer(part6,prodloc25,53).
demandOffer(part6,prodloc30,-24).
demandOffer(part6,prodloc2,-36).
demandOffer(part6,prodloc17,-10).
demandOffer(part6,prodloc31,-10).
demandOffer(part8,prodloc15,3).
demandOffer(part8,prodloc14,17).
demandOffer(part8,prodloc16,-10).
demandOffer(part8,prodloc10,-10).
demandOffer(part9,prodloc18,20).
demandOffer(part9,prodloc3,-20).

% ---- network (ASP-generated) ----
route(harbor0,harbor1,tr13,23782,142692).
route(harbor0,harbor1,tr2,23782,71346).
route(harbor0,harbor2,tr13,29118,174708).
route(harbor0,harbor2,tr2,29118,87354).
route(harbor0,harbor3,tr13,15981,95886).
route(harbor0,harbor3,tr2,15981,47943).
route(harbor0,harbor4,tr13,19245,115470).
route(harbor0,harbor4,tr2,19245,57735).
route(harbor0,harbor5,tr13,12900,77400).
route(harbor0,harbor5,tr2,12900,38700).
route(harbor0,harbor6,tr13,27045,162270).
route(harbor0,harbor6,tr2,27045,81135).
route(harbor0,harbor7,tr13,15971,95826).
route(harbor0,harbor7,tr2,15971,47913).
route(harbor0,harbor8,tr13,7320,43920).
route(harbor0,harbor8,tr2,7320,21960).
route(harbor0,harbor9,tr13,18182,109092).
route(harbor0,harbor9,tr2,18182,54546).
route(harbor0,harbor10,tr13,13395,80370).
route(harbor0,harbor10,tr2,13395,40185).
route(harbor0,harbor11,tr13,16927,101562).
route(harbor0,harbor11,tr2,16927,50781).
route(harbor0,harbor12,tr13,20569,123414).
route(harbor0,harbor12,tr2,20569,61707).
route(harbor0,harbor13,tr13,14613,87678).
route(harbor0,harbor13,tr2,14613,43839).
route(harbor0,harbor14,tr13,2566,15396).
route(harbor0,harbor14,tr2,2566,7698).
route(harbor0,harbor15,tr13,15082,90492).
route(harbor0,harbor15,tr2,15082,45246).
route(harbor0,harbor16,tr13,24662,147972).
route(harbor0,harbor16,tr2,24662,73986).
route(harbor0,prodloc0,tr0,7166,186316).
route(harbor0,prodloc0,tr13,7166,42996).
route(harbor0,prodloc1,tr0,7507,195182).
route(harbor0,prodloc1,tr13,7507,45042).
route(harbor0,prodloc2,tr0,15827,411502).
route(harbor0,prodloc2,tr13,15827,94962).
route(harbor0,prodloc3,tr0,10430,271180).
route(harbor0,prodloc3,tr13,10430,62580).
route(harbor0,prodloc4,tr0,26859,698334).
route(harbor0,prodloc4,tr13,26859,161154).
route(harbor0,prodloc5,tr0,6188,160888).
route(harbor0,prodloc5,tr13,6188,37128).
route(harbor0,prodloc6,tr0,11932,310232).
route(harbor0,prodloc6,tr13,11932,71592).
route(harbor0,prodloc7,tr0,19602,509652).
route(harbor0,prodloc7,tr13,19602,117612).
route(harbor0,prodloc8,tr0,931,24206).
route(harbor0,prodloc8,tr13,931,5586).
route(harbor0,prodloc9,tr0,24397,634322).
route(harbor0,prodloc9,tr13,24397,146382).
route(harbor0,prodloc10,tr0,18942,492492).
route(harbor0,prodloc10,tr13,18942,113652).
route(harbor0,prodloc11,tr0,18610,483860).
route(harbor0,prodloc11,tr13,18610,111660).
route(harbor0,prodloc12,tr0,17023,442598).
route(harbor0,prodloc12,tr13,17023,102138).
route(harbor0,prodloc13,tr0,13852,360152).
route(harbor0,prodloc13,tr13,13852,83112).
route(harbor0,prodloc14,tr0,1761,45786).
route(harbor0,prodloc14,tr13,1761,10566).
route(harbor0,prodloc15,tr0,27274,709124).
route(harbor0,prodloc15,tr13,27274,163644).
route(harbor0,prodloc16,tr0,10774,280124).
route(harbor0,prodloc16,tr13,10774,64644).
route(harbor0,prodloc17,tr0,18961,492986).
route(harbor0,prodloc17,tr13,18961,113766).
route(harbor0,prodloc18,tr0,5543,144118).
route(harbor0,prodloc18,tr13,5543,33258).
route(harbor0,prodloc19,tr0,18216,473616).
route(harbor0,prodloc19,tr13,18216,109296).
route(harbor0,prodloc20,tr0,7574,196924).
route(harbor0,prodloc20,tr13,7574,45444).
route(harbor0,prodloc21,tr0,20087,522262).
route(harbor0,prodloc21,tr13,20087,120522).
route(harbor0,prodloc22,tr0,10273,267098).
route(harbor0,prodloc22,tr13,10273,61638).
route(harbor0,prodloc23,tr0,12059,313534).
route(harbor0,prodloc23,tr13,12059,72354).
route(harbor0,prodloc24,tr0,5643,146718).
route(harbor0,prodloc24,tr13,5643,33858).
route(harbor0,prodloc25,tr0,24734,643084).
route(harbor0,prodloc25,tr13,24734,148404).
route(harbor0,prodloc26,tr0,6918,179868).
route(harbor0,prodloc26,tr13,6918,41508).
route(harbor0,prodloc27,tr0,9942,258492).
route(harbor0,prodloc27,tr13,9942,59652).
route(harbor0,prodloc28,tr0,14217,369642).
route(harbor0,prodloc28,tr13,14217,85302).
route(harbor0,prodloc29,tr0,11651,302926).
route(harbor0,prodloc29,tr13,11651,69906).
route(harbor0,prodloc30,tr0,14716,382616).
route(harbor0,prodloc30,tr13,14716,88296).
route(harbor0,prodloc31,tr0,19384,503984).
route(harbor0,prodloc31,tr13,19384,116304).
route(harbor0,prodloc32,tr0,3063,79638).
route(harbor0,prodloc32,tr13,3063,18378).
route(harbor0,prodloc33,tr0,16996,441896).
route(harbor0,prodloc33,tr13,16996,101976).
route(harbor1,harbor0,tr13,3487,20922).
route(harbor1,harbor0,tr2,3487,10461).
route(harbor1,harbor2,tr13,17177,103062).
route(harbor1,harbor2,tr2,17177,51531).
route(harbor1,harbor3,tr13,374,2244).
route(harbor1,harbor3,tr2,374,1122).
route(harbor1,harbor4,tr13,6324,37944).
route(harbor1,harbor4,tr2,6324,18972).
route(harbor1,harbor5,tr13,18894,113364).
route(harbor1,harbor5,tr2,18894,56682).
route(harbor1,harbor6,tr13,23096,138576).
route(harbor1,harbor6,tr2,23096,69288).
route(harbor1,harbor7,tr13,18166,108996).
route(harbor1,harbor7,tr2,18166,54498).
route(harbor1,harbor8,tr13,25097,150582).
route(harbor1,harbor8,tr2,25097,75291).
route(harbor1,harbor9,tr13,5887,35322).
route(harbor1,harbor9,tr2,5887,17661).
route(harbor1,harbor10,tr13,14755,88530).
route(harbor1,harbor10,tr2,14755,44265).
route(harbor1,harbor11,tr13,15222,91332).
route(harbor1,harbor11,tr2,15222,45666).
route(harbor1,harbor12,tr13,14630,87780).
route(harbor1,harbor12,tr2,14630,43890).
route(harbor1,harbor13,tr13,28068,168408).
route(harbor1,harbor13,tr2,28068,84204).
route(harbor1,harbor14,tr13,16553,99318).
route(harbor1,harbor14,tr2,16553,49659).
route(harbor1,harbor15,tr13,4524,27144).
route(harbor1,harbor15,tr2,4524,13572).
route(harbor1,harbor16,tr13,17601,105606).
route(harbor1,harbor16,tr2,17601,52803).
route(harbor1,prodloc0,tr0,18003,468078).
route(harbor1,prodloc0,tr13,18003,108018).
route(harbor1,prodloc1,tr0,15564,404664).
route(harbor1,prodloc1,tr13,15564,93384).
route(harbor1,prodloc2,tr0,14839,385814).
route(harbor1,prodloc2,tr13,14839,89034).
route(harbor1,prodloc3,tr0,398,10348).
route(harbor1,prodloc3,tr13,398,2388).
route(harbor1,prodloc4,tr0,9643,250718).
route(harbor1,prodloc4,tr13,9643,57858).
route(harbor1,prodloc5,tr0,8633,224458).
route(harbor1,prodloc5,tr13,8633,51798).
route(harbor1,prodloc6,tr0,6032,156832).
route(harbor1,prodloc6,tr13,6032,36192).
route(harbor1,prodloc7,tr0,270,7020).
route(harbor1,prodloc7,tr13,270,1620).
route(harbor1,prodloc8,tr0,27078,704028).
route(harbor1,prodloc8,tr13,27078,162468).
route(harbor1,prodloc9,tr0,15316,398216).
route(harbor1,prodloc9,tr13,15316,91896).
route(harbor1,prodloc10,tr0,11056,287456).
route(harbor1,prodloc10,tr13,11056,66336).
route(harbor1,prodloc11,tr0,24642,640692).
route(harbor1,prodloc11,tr13,24642,147852).
route(harbor1,prodloc12,tr0,10774,280124).
route(harbor1,prodloc12,tr13,10774,64644).
route(harbor1,prodloc13,tr0,6924,180024).
route(harbor1,prodloc13,tr13,6924,41544).
route(harbor1,prodloc14,tr0,1699,44174).
route(harbor1,prodloc14,tr13,1699,10194).
route(harbor1,prodloc15,tr0,8756,227656).
route(harbor1,prodloc15,tr13,8756,52536).
route(harbor1,prodloc16,tr0,3231,84006).
route(harbor1,prodloc16,tr13,3231,19386).
route(harbor1,prodloc17,tr0,16963,441038).
route(harbor1,prodloc17,tr13,16963,101778).
route(harbor1,prodloc18,tr0,21862,568412).
route(harbor1,prodloc18,tr13,21862,131172).
route(harbor1,prodloc19,tr0,22916,595816).
route(harbor1,prodloc19,tr13,22916,137496).
route(harbor1,prodloc20,tr0,503,13078).
route(harbor1,prodloc20,tr13,503,3018).
route(harbor1,prodloc21,tr0,905,23530).
route(harbor1,prodloc21,tr13,905,5430).
route(harbor1,prodloc22,tr0,3698,96148).
route(harbor1,prodloc22,tr13,3698,22188).
route(harbor1,prodloc23,tr0,15459,401934).
route(harbor1,prodloc23,tr13,15459,92754).
route(harbor1,prodloc24,tr0,23275,605150).
route(harbor1,prodloc24,tr13,23275,139650).
route(harbor1,prodloc25,tr0,9878,256828).
route(harbor1,prodloc25,tr13,9878,59268).
route(harbor1,prodloc26,tr0,20064,521664).
route(harbor1,prodloc26,tr13,20064,120384).
route(harbor1,prodloc27,tr0,6688,173888).
route(harbor1,prodloc27,tr13,6688,40128).
route(harbor1,prodloc28,tr0,25561,664586).
route(harbor1,prodloc28,tr13,25561,153366).
route(harbor1,prodloc29,tr0,3235,84110).
route(harbor1,prodloc29,tr13,3235,19410).
route(harbor1,prodloc30,tr0,25496,662896).
route(harbor1,prodloc30,tr13,25496,152976).
route(harbor1,prodloc31,tr0,26871,698646).
route(harbor1,prodloc31,tr13,26871,161226).
route(harbor1,prodloc32,tr0,27441,713466).
route(harbor1,prodloc32,tr13,27441,164646).
route(harbor1,prodloc33,tr0,859,22334).
route(harbor1,prodloc33,tr13,859,5154).
route(harbor2,harbor0,tr13,14951,89706).
route(harbor2,harbor0,tr2,14951,44853).
route(harbor2,harbor1,tr13,17612,105672).
route(harbor2,harbor1,tr2,17612,52836).
route(harbor2,harbor3,tr13,26941,161646).
route(harbor2,harbor3,tr2,26941,80823).
route(harbor2,harbor4,tr13,24910,149460).
route(harbor2,harbor4,tr2,24910,74730).
route(harbor2,harbor5,tr13,7306,43836).
route(harbor2,harbor5,tr2,7306,21918).
route(harbor2,harbor6,tr13,28450,170700).
route(harbor2,harbor6,tr2,28450,85350).
route(harbor2,harbor7,tr13,21306,127836).
route(harbor2,harbor7,tr2,21306,63918).
route(harbor2,harbor8,tr13,1010,6060).
route(harbor2,harbor8,tr2,1010,3030).
route(harbor2,harbor9,tr13,27899,167394).
route(harbor2,harbor9,tr2,27899,83697).
route(harbor2,harbor10,tr13,13136,78816).
route(harbor2,harbor10,tr2,13136,39408).
route(harbor2,harbor11,tr13,26046,156276).
route(harbor2,harbor11,tr2,26046,78138).
route(harbor2,harbor12,tr13,4051,24306).
route(harbor2,harbor12,tr2,4051,12153).
route(harbor2,harbor13,tr13,14058,84348).
route(harbor2,harbor13,tr2,14058,42174).
route(harbor2,harbor14,tr13,1941,11646).
route(harbor2,harbor14,tr2,1941,5823).
route(harbor2,harbor15,tr13,24223,145338).
route(harbor2,harbor15,tr2,24223,72669).
route(harbor2,harbor16,tr13,17697,106182).
route(harbor2,harbor16,tr2,17697,53091).
route(harbor2,prodloc0,tr0,1962,51012).
route(harbor2,prodloc0,tr13,1962,11772).
route(harbor2,prodloc1,tr0,6165,160290).
route(harbor2,prodloc1,tr13,6165,36990).
route(harbor2,prodloc2,tr0,17654,459004).
route(harbor2,prodloc2,tr13,17654,105924).
route(harbor2,prodloc3,tr0,8598,223548).
route(harbor2,prodloc3,tr13,8598,51588).
route(harbor2,prodloc4,tr0,8830,229580).
route(harbor2,prodloc4,tr13,8830,52980).
route(harbor2,prodloc5,tr0,11696,304096).
route(harbor2,prodloc5,tr13,11696,70176).
route(harbor2,prodloc6,tr0,11382,295932).
route(harbor2,prodloc6,tr13,11382,68292).
route(harbor2,prodloc7,tr0,17819,463294).
route(harbor2,prodloc7,tr13,17819,106914).
route(harbor2,prodloc8,tr0,19049,495274).
route(harbor2,prodloc8,tr13,19049,114294).
route(harbor2,prodloc9,tr0,26858,698308).
route(harbor2,prodloc9,tr13,26858,161148).
route(harbor2,prodloc10,tr0,13654,355004).
route(harbor2,prodloc10,tr13,13654,81924).
route(harbor2,prodloc11,tr0,13290,345540).
route(harbor2,prodloc11,tr13,13290,79740).
route(harbor2,prodloc12,tr0,246,6396).
route(harbor2,prodloc12,tr13,246,1476).
route(harbor2,prodloc13,tr0,17229,447954).
route(harbor2,prodloc13,tr13,17229,103374).
route(harbor2,prodloc14,tr0,24583,639158).
route(harbor2,prodloc14,tr13,24583,147498).
route(harbor2,prodloc15,tr0,11118,289068).
route(harbor2,prodloc15,tr13,11118,66708).
route(harbor2,prodloc16,tr0,2653,68978).
route(harbor2,prodloc16,tr13,2653,15918).
route(harbor2,prodloc17,tr0,24827,645502).
route(harbor2,prodloc17,tr13,24827,148962).
route(harbor2,prodloc18,tr0,24561,638586).
route(harbor2,prodloc18,tr13,24561,147366).
route(harbor2,prodloc19,tr0,27218,707668).
route(harbor2,prodloc19,tr13,27218,163308).
route(harbor2,prodloc20,tr0,26020,676520).
route(harbor2,prodloc20,tr13,26020,156120).
route(harbor2,prodloc21,tr0,1100,28600).
route(harbor2,prodloc21,tr13,1100,6600).
route(harbor2,prodloc22,tr0,20529,533754).
route(harbor2,prodloc22,tr13,20529,123174).
route(harbor2,prodloc23,tr0,23949,622674).
route(harbor2,prodloc23,tr13,23949,143694).
route(harbor2,prodloc24,tr0,28350,737100).
route(harbor2,prodloc24,tr13,28350,170100).
route(harbor2,prodloc25,tr0,9335,242710).
route(harbor2,prodloc25,tr13,9335,56010).
route(harbor2,prodloc26,tr0,10664,277264).
route(harbor2,prodloc26,tr13,10664,63984).
route(harbor2,prodloc27,tr0,10541,274066).
route(harbor2,prodloc27,tr13,10541,63246).
route(harbor2,prodloc28,tr0,3851,100126).
route(harbor2,prodloc28,tr13,3851,23106).
route(harbor2,prodloc29,tr0,10954,284804).
route(harbor2,prodloc29,tr13,10954,65724).
route(harbor2,prodloc30,tr0,4171,108446).
route(harbor2,prodloc30,tr13,4171,25026).
route(harbor2,prodloc31,tr0,17643,458718).
route(harbor2,prodloc31,tr13,17643,105858).
route(harbor2,prodloc32,tr0,27430,713180).
route(harbor2,prodloc32,tr13,27430,164580).
route(harbor2,prodloc33,tr0,7973,207298).
route(harbor2,prodloc33,tr13,7973,47838).
route(harbor3,harbor0,tr13,16232,97392).
route(harbor3,harbor0,tr2,16232,48696).
route(harbor3,harbor1,tr13,26959,161754).
route(harbor3,harbor1,tr2,26959,80877).
route(harbor3,harbor2,tr13,9313,55878).
route(harbor3,harbor2,tr2,9313,27939).
route(harbor3,harbor4,tr13,14531,87186).
route(harbor3,harbor4,tr2,14531,43593).
route(harbor3,harbor5,tr13,4114,24684).
route(harbor3,harbor5,tr2,4114,12342).
route(harbor3,harbor6,tr13,8384,50304).
route(harbor3,harbor6,tr2,8384,25152).
route(harbor3,harbor7,tr13,8221,49326).
route(harbor3,harbor7,tr2,8221,24663).
route(harbor3,harbor8,tr13,2445,14670).
route(harbor3,harbor8,tr2,2445,7335).
route(harbor3,harbor9,tr13,22342,134052).
route(harbor3,harbor9,tr2,22342,67026).
route(harbor3,harbor10,tr13,13808,82848).
route(harbor3,harbor10,tr2,13808,41424).
route(harbor3,harbor11,tr13,10205,61230).
route(harbor3,harbor11,tr2,10205,30615).
route(harbor3,harbor12,tr13,22471,134826).
route(harbor3,harbor12,tr2,22471,67413).
route(harbor3,harbor13,tr13,6593,39558).
route(harbor3,harbor13,tr2,6593,19779).
route(harbor3,harbor14,tr13,15851,95106).
route(harbor3,harbor14,tr2,15851,47553).
route(harbor3,harbor15,tr13,12009,72054).
route(harbor3,harbor15,tr2,12009,36027).
route(harbor3,harbor16,tr13,4230,25380).
route(harbor3,harbor16,tr2,4230,12690).
route(harbor3,prodloc0,tr0,7002,182052).
route(harbor3,prodloc0,tr13,7002,42012).
route(harbor3,prodloc1,tr0,16544,430144).
route(harbor3,prodloc1,tr13,16544,99264).
route(harbor3,prodloc2,tr0,25798,670748).
route(harbor3,prodloc2,tr13,25798,154788).
route(harbor3,prodloc3,tr0,18746,487396).
route(harbor3,prodloc3,tr13,18746,112476).
route(harbor3,prodloc4,tr0,4971,129246).
route(harbor3,prodloc4,tr13,4971,29826).
route(harbor3,prodloc5,tr0,25713,668538).
route(harbor3,prodloc5,tr13,25713,154278).
route(harbor3,prodloc6,tr0,9629,250354).
route(harbor3,prodloc6,tr13,9629,57774).
route(harbor3,prodloc7,tr0,2728,70928).
route(harbor3,prodloc7,tr13,2728,16368).
route(harbor3,prodloc8,tr0,14285,371410).
route(harbor3,prodloc8,tr13,14285,85710).
route(harbor3,prodloc9,tr0,14338,372788).
route(harbor3,prodloc9,tr13,14338,86028).
route(harbor3,prodloc10,tr0,17305,449930).
route(harbor3,prodloc10,tr13,17305,103830).
route(harbor3,prodloc11,tr0,12730,330980).
route(harbor3,prodloc11,tr13,12730,76380).
route(harbor3,prodloc12,tr0,25594,665444).
route(harbor3,prodloc12,tr13,25594,153564).
route(harbor3,prodloc13,tr0,17150,445900).
route(harbor3,prodloc13,tr13,17150,102900).
route(harbor3,prodloc14,tr0,19807,514982).
route(harbor3,prodloc14,tr13,19807,118842).
route(harbor3,prodloc15,tr0,24909,647634).
route(harbor3,prodloc15,tr13,24909,149454).
route(harbor3,prodloc16,tr0,5053,131378).
route(harbor3,prodloc16,tr13,5053,30318).
route(harbor3,prodloc17,tr0,21735,565110).
route(harbor3,prodloc17,tr13,21735,130410).
route(harbor3,prodloc18,tr0,18326,476476).
route(harbor3,prodloc18,tr13,18326,109956).
route(harbor3,prodloc19,tr0,4676,121576).
route(harbor3,prodloc19,tr13,4676,28056).
route(harbor3,prodloc20,tr0,5391,140166).
route(harbor3,prodloc20,tr13,5391,32346).
route(harbor3,prodloc21,tr0,19219,499694).
route(harbor3,prodloc21,tr13,19219,115314).
route(harbor3,prodloc22,tr0,17526,455676).
route(harbor3,prodloc22,tr13,17526,105156).
route(harbor3,prodloc23,tr0,10392,270192).
route(harbor3,prodloc23,tr13,10392,62352).
route(harbor3,prodloc24,tr0,16162,420212).
route(harbor3,prodloc24,tr13,16162,96972).
route(harbor3,prodloc25,tr0,26320,684320).
route(harbor3,prodloc25,tr13,26320,157920).
route(harbor3,prodloc26,tr0,28614,743964).
route(harbor3,prodloc26,tr13,28614,171684).
route(harbor3,prodloc27,tr0,28870,750620).
route(harbor3,prodloc27,tr13,28870,173220).
route(harbor3,prodloc28,tr0,9228,239928).
route(harbor3,prodloc28,tr13,9228,55368).
route(harbor3,prodloc29,tr0,13343,346918).
route(harbor3,prodloc29,tr13,13343,80058).
route(harbor3,prodloc30,tr0,2159,56134).
route(harbor3,prodloc30,tr13,2159,12954).
route(harbor3,prodloc31,tr0,20211,525486).
route(harbor3,prodloc31,tr13,20211,121266).
route(harbor3,prodloc32,tr0,7740,201240).
route(harbor3,prodloc32,tr13,7740,46440).
route(harbor3,prodloc33,tr0,5527,143702).
route(harbor3,prodloc33,tr13,5527,33162).
route(harbor4,harbor0,tr13,23348,140088).
route(harbor4,harbor0,tr2,23348,70044).
route(harbor4,harbor1,tr13,4975,29850).
route(harbor4,harbor1,tr2,4975,14925).
route(harbor4,harbor2,tr13,25524,153144).
route(harbor4,harbor2,tr2,25524,76572).
route(harbor4,harbor3,tr13,7751,46506).
route(harbor4,harbor3,tr2,7751,23253).
route(harbor4,harbor5,tr13,14022,84132).
route(harbor4,harbor5,tr2,14022,42066).
route(harbor4,harbor6,tr13,17962,107772).
route(harbor4,harbor6,tr2,17962,53886).
route(harbor4,harbor7,tr13,10571,63426).
route(harbor4,harbor7,tr2,10571,31713).
route(harbor4,harbor8,tr13,17741,106446).
route(harbor4,harbor8,tr2,17741,53223).
route(harbor4,harbor9,tr13,24870,149220).
route(harbor4,harbor9,tr2,24870,74610).
route(harbor4,harbor10,tr13,14552,87312).
route(harbor4,harbor10,tr2,14552,43656).
route(harbor4,harbor11,tr13,24617,147702).
route(harbor4,harbor11,tr2,24617,73851).
route(harbor4,harbor12,tr13,16474,98844).
route(harbor4,harbor12,tr2,16474,49422).
route(harbor4,harbor13,tr13,26221,157326).
route(harbor4,harbor13,tr2,26221,78663).
route(harbor4,harbor14,tr13,4240,25440).
route(harbor4,harbor14,tr2,4240,12720).
route(harbor4,harbor15,tr13,9489,56934).
route(harbor4,harbor15,tr2,9489,28467).
route(harbor4,harbor16,tr13,7979,47874).
route(harbor4,harbor16,tr2,7979,23937).
route(harbor4,prodloc0,tr0,16245,422370).
route(harbor4,prodloc0,tr13,16245,97470).
route(harbor4,prodloc1,tr0,8215,213590).
route(harbor4,prodloc1,tr13,8215,49290).
route(harbor4,prodloc2,tr0,16463,428038).
route(harbor4,prodloc2,tr13,16463,98778).
route(harbor4,prodloc3,tr0,6261,162786).
route(harbor4,prodloc3,tr13,6261,37566).
route(harbor4,prodloc4,tr0,12206,317356).
route(harbor4,prodloc4,tr13,12206,73236).
route(harbor4,prodloc5,tr0,231,6006).
route(harbor4,prodloc5,tr13,231,1386).
route(harbor4,prodloc6,tr0,20825,541450).
route(harbor4,prodloc6,tr13,20825,124950).
route(harbor4,prodloc7,tr0,4013,104338).
route(harbor4,prodloc7,tr13,4013,24078).
route(harbor4,prodloc8,tr0,10979,285454).
route(harbor4,prodloc8,tr13,10979,65874).
route(harbor4,prodloc9,tr0,16147,419822).
route(harbor4,prodloc9,tr13,16147,96882).
route(harbor4,prodloc10,tr0,2520,65520).
route(harbor4,prodloc10,tr13,2520,15120).
route(harbor4,prodloc11,tr0,14110,366860).
route(harbor4,prodloc11,tr13,14110,84660).
route(harbor4,prodloc12,tr0,2838,73788).
route(harbor4,prodloc12,tr13,2838,17028).
route(harbor4,prodloc13,tr0,16885,439010).
route(harbor4,prodloc13,tr13,16885,101310).
route(harbor4,prodloc14,tr0,12395,322270).
route(harbor4,prodloc14,tr13,12395,74370).
route(harbor4,prodloc15,tr0,7990,207740).
route(harbor4,prodloc15,tr13,7990,47940).
route(harbor4,prodloc16,tr0,5583,145158).
route(harbor4,prodloc16,tr13,5583,33498).
route(harbor4,prodloc17,tr0,2314,60164).
route(harbor4,prodloc17,tr13,2314,13884).
route(harbor4,prodloc18,tr0,9723,252798).
route(harbor4,prodloc18,tr13,9723,58338).
route(harbor4,prodloc19,tr0,2388,62088).
route(harbor4,prodloc19,tr13,2388,14328).
route(harbor4,prodloc20,tr0,9455,245830).
route(harbor4,prodloc20,tr13,9455,56730).
route(harbor4,prodloc21,tr0,11135,289510).
route(harbor4,prodloc21,tr13,11135,66810).
route(harbor4,prodloc22,tr0,25024,650624).
route(harbor4,prodloc22,tr13,25024,150144).
route(harbor4,prodloc23,tr0,15159,394134).
route(harbor4,prodloc23,tr13,15159,90954).
route(harbor4,prodloc24,tr0,10531,273806).
route(harbor4,prodloc24,tr13,10531,63186).
route(harbor4,prodloc25,tr0,4869,126594).
route(harbor4,prodloc25,tr13,4869,29214).
route(harbor4,prodloc26,tr0,4900,127400).
route(harbor4,prodloc26,tr13,4900,29400).
route(harbor4,prodloc27,tr0,24364,633464).
route(harbor4,prodloc27,tr13,24364,146184).
route(harbor4,prodloc28,tr0,8719,226694).
route(harbor4,prodloc28,tr13,8719,52314).
route(harbor4,prodloc29,tr0,10104,262704).
route(harbor4,prodloc29,tr13,10104,60624).
route(harbor4,prodloc30,tr0,12565,326690).
route(harbor4,prodloc30,tr13,12565,75390).
route(harbor4,prodloc31,tr0,28294,735644).
route(harbor4,prodloc31,tr13,28294,169764).
route(harbor4,prodloc32,tr0,10669,277394).
route(harbor4,prodloc32,tr13,10669,64014).
route(harbor4,prodloc33,tr0,18836,489736).
route(harbor4,prodloc33,tr13,18836,113016).
route(harbor5,harbor0,tr13,16872,101232).
route(harbor5,harbor0,tr2,16872,50616).
route(harbor5,harbor1,tr13,20748,124488).
route(harbor5,harbor1,tr2,20748,62244).
route(harbor5,harbor2,tr13,4733,28398).
route(harbor5,harbor2,tr2,4733,14199).
route(harbor5,harbor3,tr13,14324,85944).
route(harbor5,harbor3,tr2,14324,42972).
route(harbor5,harbor4,tr13,3440,20640).
route(harbor5,harbor4,tr2,3440,10320).
route(harbor5,harbor6,tr13,26831,160986).
route(harbor5,harbor6,tr2,26831,80493).
route(harbor5,harbor7,tr13,24766,148596).
route(harbor5,harbor7,tr2,24766,74298).
route(harbor5,harbor8,tr13,29126,174756).
route(harbor5,harbor8,tr2,29126,87378).
route(harbor5,harbor9,tr13,21456,128736).
route(harbor5,harbor9,tr2,21456,64368).
route(harbor5,harbor10,tr13,20528,123168).
route(harbor5,harbor10,tr2,20528,61584).
route(harbor5,harbor11,tr13,25387,152322).
route(harbor5,harbor11,tr2,25387,76161).
route(harbor5,harbor12,tr13,26036,156216).
route(harbor5,harbor12,tr2,26036,78108).
route(harbor5,harbor13,tr13,8466,50796).
route(harbor5,harbor13,tr2,8466,25398).
route(harbor5,harbor14,tr13,7800,46800).
route(harbor5,harbor14,tr2,7800,23400).
route(harbor5,harbor15,tr13,7131,42786).
route(harbor5,harbor15,tr2,7131,21393).
route(harbor5,harbor16,tr13,7017,42102).
route(harbor5,harbor16,tr2,7017,21051).
route(harbor5,prodloc0,tr0,17847,464022).
route(harbor5,prodloc0,tr13,17847,107082).
route(harbor5,prodloc1,tr0,28432,739232).
route(harbor5,prodloc1,tr13,28432,170592).
route(harbor5,prodloc2,tr0,12104,314704).
route(harbor5,prodloc2,tr13,12104,72624).
route(harbor5,prodloc3,tr0,27502,715052).
route(harbor5,prodloc3,tr13,27502,165012).
route(harbor5,prodloc4,tr0,23813,619138).
route(harbor5,prodloc4,tr13,23813,142878).
route(harbor5,prodloc5,tr0,14294,371644).
route(harbor5,prodloc5,tr13,14294,85764).
route(harbor5,prodloc6,tr0,12304,319904).
route(harbor5,prodloc6,tr13,12304,73824).
route(harbor5,prodloc7,tr0,8857,230282).
route(harbor5,prodloc7,tr13,8857,53142).
route(harbor5,prodloc8,tr0,2582,67132).
route(harbor5,prodloc8,tr13,2582,15492).
route(harbor5,prodloc9,tr0,10085,262210).
route(harbor5,prodloc9,tr13,10085,60510).
route(harbor5,prodloc10,tr0,13254,344604).
route(harbor5,prodloc10,tr13,13254,79524).
route(harbor5,prodloc11,tr0,21189,550914).
route(harbor5,prodloc11,tr13,21189,127134).
route(harbor5,prodloc12,tr0,6666,173316).
route(harbor5,prodloc12,tr13,6666,39996).
route(harbor5,prodloc13,tr0,28879,750854).
route(harbor5,prodloc13,tr13,28879,173274).
route(harbor5,prodloc14,tr0,10351,269126).
route(harbor5,prodloc14,tr13,10351,62106).
route(harbor5,prodloc15,tr0,392,10192).
route(harbor5,prodloc15,tr13,392,2352).
route(harbor5,prodloc16,tr0,1154,30004).
route(harbor5,prodloc16,tr13,1154,6924).
route(harbor5,prodloc17,tr0,28476,740376).
route(harbor5,prodloc17,tr13,28476,170856).
route(harbor5,prodloc18,tr0,18643,484718).
route(harbor5,prodloc18,tr13,18643,111858).
route(harbor5,prodloc19,tr0,19074,495924).
route(harbor5,prodloc19,tr13,19074,114444).
route(harbor5,prodloc20,tr0,1970,51220).
route(harbor5,prodloc20,tr13,1970,11820).
route(harbor5,prodloc21,tr0,11537,299962).
route(harbor5,prodloc21,tr13,11537,69222).
route(harbor5,prodloc22,tr0,22116,575016).
route(harbor5,prodloc22,tr13,22116,132696).
route(harbor5,prodloc23,tr0,21301,553826).
route(harbor5,prodloc23,tr13,21301,127806).
route(harbor5,prodloc24,tr0,16124,419224).
route(harbor5,prodloc24,tr13,16124,96744).
route(harbor5,prodloc25,tr0,13237,344162).
route(harbor5,prodloc25,tr13,13237,79422).
route(harbor5,prodloc26,tr0,13868,360568).
route(harbor5,prodloc26,tr13,13868,83208).
route(harbor5,prodloc27,tr0,19991,519766).
route(harbor5,prodloc27,tr13,19991,119946).
route(harbor5,prodloc28,tr0,8499,220974).
route(harbor5,prodloc28,tr13,8499,50994).
route(harbor5,prodloc29,tr0,22589,587314).
route(harbor5,prodloc29,tr13,22589,135534).
route(harbor5,prodloc30,tr0,9916,257816).
route(harbor5,prodloc30,tr13,9916,59496).
route(harbor5,prodloc31,tr0,14725,382850).
route(harbor5,prodloc31,tr13,14725,88350).
route(harbor5,prodloc32,tr0,25303,657878).
route(harbor5,prodloc32,tr13,25303,151818).
route(harbor5,prodloc33,tr0,5321,138346).
route(harbor5,prodloc33,tr13,5321,31926).
route(harbor6,harbor0,tr13,24670,148020).
route(harbor6,harbor0,tr2,24670,74010).
route(harbor6,harbor1,tr13,13625,81750).
route(harbor6,harbor1,tr2,13625,40875).
route(harbor6,harbor2,tr13,7008,42048).
route(harbor6,harbor2,tr2,7008,21024).
route(harbor6,harbor3,tr13,6234,37404).
route(harbor6,harbor3,tr2,6234,18702).
route(harbor6,harbor4,tr13,6847,41082).
route(harbor6,harbor4,tr2,6847,20541).
route(harbor6,harbor5,tr13,28009,168054).
route(harbor6,harbor5,tr2,28009,84027).
route(harbor6,harbor7,tr13,11917,71502).
route(harbor6,harbor7,tr2,11917,35751).
route(harbor6,harbor8,tr13,24184,145104).
route(harbor6,harbor8,tr2,24184,72552).
route(harbor6,harbor9,tr13,28729,172374).
route(harbor6,harbor9,tr2,28729,86187).
route(harbor6,harbor10,tr13,23203,139218).
route(harbor6,harbor10,tr2,23203,69609).
route(harbor6,harbor11,tr13,6449,38694).
route(harbor6,harbor11,tr2,6449,19347).
route(harbor6,harbor12,tr13,7566,45396).
route(harbor6,harbor12,tr2,7566,22698).
route(harbor6,harbor13,tr13,25076,150456).
route(harbor6,harbor13,tr2,25076,75228).
route(harbor6,harbor14,tr13,20785,124710).
route(harbor6,harbor14,tr2,20785,62355).
route(harbor6,harbor15,tr13,27621,165726).
route(harbor6,harbor15,tr2,27621,82863).
route(harbor6,harbor16,tr13,12473,74838).
route(harbor6,harbor16,tr2,12473,37419).
route(harbor6,prodloc0,tr0,2339,60814).
route(harbor6,prodloc0,tr13,2339,14034).
route(harbor6,prodloc1,tr0,14929,388154).
route(harbor6,prodloc1,tr13,14929,89574).
route(harbor6,prodloc2,tr0,21594,561444).
route(harbor6,prodloc2,tr13,21594,129564).
route(harbor6,prodloc3,tr0,6477,168402).
route(harbor6,prodloc3,tr13,6477,38862).
route(harbor6,prodloc4,tr0,11635,302510).
route(harbor6,prodloc4,tr13,11635,69810).
route(harbor6,prodloc5,tr0,23646,614796).
route(harbor6,prodloc5,tr13,23646,141876).
route(harbor6,prodloc6,tr0,16406,426556).
route(harbor6,prodloc6,tr13,16406,98436).
route(harbor6,prodloc7,tr0,25628,666328).
route(harbor6,prodloc7,tr13,25628,153768).
route(harbor6,prodloc8,tr0,4099,106574).
route(harbor6,prodloc8,tr13,4099,24594).
route(harbor6,prodloc9,tr0,19143,497718).
route(harbor6,prodloc9,tr13,19143,114858).
route(harbor6,prodloc10,tr0,15867,412542).
route(harbor6,prodloc10,tr13,15867,95202).
route(harbor6,prodloc11,tr0,24173,628498).
route(harbor6,prodloc11,tr13,24173,145038).
route(harbor6,prodloc12,tr0,14476,376376).
route(harbor6,prodloc12,tr13,14476,86856).
route(harbor6,prodloc13,tr0,26674,693524).
route(harbor6,prodloc13,tr13,26674,160044).
route(harbor6,prodloc14,tr0,21179,550654).
route(harbor6,prodloc14,tr13,21179,127074).
route(harbor6,prodloc15,tr0,2880,74880).
route(harbor6,prodloc15,tr13,2880,17280).
route(harbor6,prodloc16,tr0,4304,111904).
route(harbor6,prodloc16,tr13,4304,25824).
route(harbor6,prodloc17,tr0,7724,200824).
route(harbor6,prodloc17,tr13,7724,46344).
route(harbor6,prodloc18,tr0,28787,748462).
route(harbor6,prodloc18,tr13,28787,172722).
route(harbor6,prodloc19,tr0,14288,371488).
route(harbor6,prodloc19,tr13,14288,85728).
route(harbor6,prodloc20,tr0,25167,654342).
route(harbor6,prodloc20,tr13,25167,151002).
route(harbor6,prodloc21,tr0,12904,335504).
route(harbor6,prodloc21,tr13,12904,77424).
route(harbor6,prodloc22,tr0,7464,194064).
route(harbor6,prodloc22,tr13,7464,44784).
route(harbor6,prodloc23,tr0,22459,583934).
route(harbor6,prodloc23,tr13,22459,134754).
route(harbor6,prodloc24,tr0,13169,342394).
route(harbor6,prodloc24,tr13,13169,79014).
route(harbor6,prodloc25,tr0,12402,322452).
route(harbor6,prodloc25,tr13,12402,74412).
route(harbor6,prodloc26,tr0,15928,414128).
route(harbor6,prodloc26,tr13,15928,95568).
route(harbor6,prodloc27,tr0,10963,285038).
route(harbor6,prodloc27,tr13,10963,65778).
route(harbor6,prodloc28,tr0,27916,725816).
route(harbor6,prodloc28,tr13,27916,167496).
route(harbor6,prodloc29,tr0,28562,742612).
route(harbor6,prodloc29,tr13,28562,171372).
route(harbor6,prodloc30,tr0,22701,590226).
route(harbor6,prodloc30,tr13,22701,136206).
route(harbor6,prodloc31,tr0,26034,676884).
route(harbor6,prodloc31,tr13,26034,156204).
route(harbor6,prodloc32,tr0,7838,203788).
route(harbor6,prodloc32,tr13,7838,47028).
route(harbor6,prodloc33,tr0,10707,278382).
route(harbor6,prodloc33,tr13,10707,64242).
route(harbor7,harbor0,tr13,12674,76044).
route(harbor7,harbor0,tr2,12674,38022).
route(harbor7,harbor1,tr13,7046,42276).
route(harbor7,harbor1,tr2,7046,21138).
route(harbor7,harbor2,tr13,28138,168828).
route(harbor7,harbor2,tr2,28138,84414).
route(harbor7,harbor3,tr13,5716,34296).
route(harbor7,harbor3,tr2,5716,17148).
route(harbor7,harbor4,tr13,16174,97044).
route(harbor7,harbor4,tr2,16174,48522).
route(harbor7,harbor5,tr13,410,2460).
route(harbor7,harbor5,tr2,410,1230).
route(harbor7,harbor6,tr13,15535,93210).
route(harbor7,harbor6,tr2,15535,46605).
route(harbor7,harbor8,tr13,3245,19470).
route(harbor7,harbor8,tr2,3245,9735).
route(harbor7,harbor9,tr13,13350,80100).
route(harbor7,harbor9,tr2,13350,40050).
route(harbor7,harbor10,tr13,28642,171852).
route(harbor7,harbor10,tr2,28642,85926).
route(harbor7,harbor11,tr13,21343,128058).
route(harbor7,harbor11,tr2,21343,64029).
route(harbor7,harbor12,tr13,15807,94842).
route(harbor7,harbor12,tr2,15807,47421).
route(harbor7,harbor13,tr13,3289,19734).
route(harbor7,harbor13,tr2,3289,9867).
route(harbor7,harbor14,tr13,6058,36348).
route(harbor7,harbor14,tr2,6058,18174).
route(harbor7,harbor15,tr13,16306,97836).
route(harbor7,harbor15,tr2,16306,48918).
route(harbor7,harbor16,tr13,1022,6132).
route(harbor7,harbor16,tr2,1022,3066).
route(harbor7,prodloc0,tr0,8672,225472).
route(harbor7,prodloc0,tr13,8672,52032).
route(harbor7,prodloc1,tr0,15473,402298).
route(harbor7,prodloc1,tr13,15473,92838).
route(harbor7,prodloc2,tr0,4226,109876).
route(harbor7,prodloc2,tr13,4226,25356).
route(harbor7,prodloc3,tr0,6515,169390).
route(harbor7,prodloc3,tr13,6515,39090).
route(harbor7,prodloc4,tr0,5140,133640).
route(harbor7,prodloc4,tr13,5140,30840).
route(harbor7,prodloc5,tr0,8409,218634).
route(harbor7,prodloc5,tr13,8409,50454).
route(harbor7,prodloc6,tr0,4807,124982).
route(harbor7,prodloc6,tr13,4807,28842).
route(harbor7,prodloc7,tr0,1181,30706).
route(harbor7,prodloc7,tr13,1181,7086).
route(harbor7,prodloc8,tr0,28087,730262).
route(harbor7,prodloc8,tr13,28087,168522).
route(harbor7,prodloc9,tr0,4078,106028).
route(harbor7,prodloc9,tr13,4078,24468).
route(harbor7,prodloc10,tr0,9540,248040).
route(harbor7,prodloc10,tr13,9540,57240).
route(harbor7,prodloc11,tr0,14456,375856).
route(harbor7,prodloc11,tr13,14456,86736).
route(harbor7,prodloc12,tr0,1772,46072).
route(harbor7,prodloc12,tr13,1772,10632).
route(harbor7,prodloc13,tr0,2870,74620).
route(harbor7,prodloc13,tr13,2870,17220).
route(harbor7,prodloc14,tr0,9713,252538).
route(harbor7,prodloc14,tr13,9713,58278).
route(harbor7,prodloc15,tr0,27802,722852).
route(harbor7,prodloc15,tr13,27802,166812).
route(harbor7,prodloc16,tr0,20072,521872).
route(harbor7,prodloc16,tr13,20072,120432).
route(harbor7,prodloc17,tr0,21182,550732).
route(harbor7,prodloc17,tr13,21182,127092).
route(harbor7,prodloc18,tr0,8520,221520).
route(harbor7,prodloc18,tr13,8520,51120).
route(harbor7,prodloc19,tr0,17412,452712).
route(harbor7,prodloc19,tr13,17412,104472).
route(harbor7,prodloc20,tr0,10205,265330).
route(harbor7,prodloc20,tr13,10205,61230).
route(harbor7,prodloc21,tr0,21213,551538).
route(harbor7,prodloc21,tr13,21213,127278).
route(harbor7,prodloc22,tr0,12402,322452).
route(harbor7,prodloc22,tr13,12402,74412).
route(harbor7,prodloc23,tr0,16955,440830).
route(harbor7,prodloc23,tr13,16955,101730).
route(harbor7,prodloc24,tr0,8629,224354).
route(harbor7,prodloc24,tr13,8629,51774).
route(harbor7,prodloc25,tr0,26519,689494).
route(harbor7,prodloc25,tr13,26519,159114).
route(harbor7,prodloc26,tr0,18462,480012).
route(harbor7,prodloc26,tr13,18462,110772).
route(harbor7,prodloc27,tr0,1111,28886).
route(harbor7,prodloc27,tr13,1111,6666).
route(harbor7,prodloc28,tr0,25457,661882).
route(harbor7,prodloc28,tr13,25457,152742).
route(harbor7,prodloc29,tr0,21227,551902).
route(harbor7,prodloc29,tr13,21227,127362).
route(harbor7,prodloc30,tr0,1021,26546).
route(harbor7,prodloc30,tr13,1021,6126).
route(harbor7,prodloc31,tr0,23241,604266).
route(harbor7,prodloc31,tr13,23241,139446).
route(harbor7,prodloc32,tr0,17580,457080).
route(harbor7,prodloc32,tr13,17580,105480).
route(harbor7,prodloc33,tr0,9338,242788).
route(harbor7,prodloc33,tr13,9338,56028).
route(harbor8,harbor0,tr13,17552,105312).
route(harbor8,harbor0,tr2,17552,52656).
route(harbor8,harbor1,tr13,20077,120462).
route(harbor8,harbor1,tr2,20077,60231).
route(harbor8,harbor2,tr13,2379,14274).
route(harbor8,harbor2,tr2,2379,7137).
route(harbor8,harbor3,tr13,23101,138606).
route(harbor8,harbor3,tr2,23101,69303).
route(harbor8,harbor4,tr13,1851,11106).
route(harbor8,harbor4,tr2,1851,5553).
route(harbor8,harbor5,tr13,9030,54180).
route(harbor8,harbor5,tr2,9030,27090).
route(harbor8,harbor6,tr13,9681,58086).
route(harbor8,harbor6,tr2,9681,29043).
route(harbor8,harbor7,tr13,20217,121302).
route(harbor8,harbor7,tr2,20217,60651).
route(harbor8,harbor9,tr13,11548,69288).
route(harbor8,harbor9,tr2,11548,34644).
route(harbor8,harbor10,tr13,15815,94890).
route(harbor8,harbor10,tr2,15815,47445).
route(harbor8,harbor11,tr13,6985,41910).
route(harbor8,harbor11,tr2,6985,20955).
route(harbor8,harbor12,tr13,25179,151074).
route(harbor8,harbor12,tr2,25179,75537).
route(harbor8,harbor13,tr13,16457,98742).
route(harbor8,harbor13,tr2,16457,49371).
route(harbor8,harbor14,tr13,3555,21330).
route(harbor8,harbor14,tr2,3555,10665).
route(harbor8,harbor15,tr13,1457,8742).
route(harbor8,harbor15,tr2,1457,4371).
route(harbor8,harbor16,tr13,12217,73302).
route(harbor8,harbor16,tr2,12217,36651).
route(harbor8,prodloc0,tr0,12199,317174).
route(harbor8,prodloc0,tr13,12199,73194).
route(harbor8,prodloc1,tr0,15688,407888).
route(harbor8,prodloc1,tr13,15688,94128).
route(harbor8,prodloc2,tr0,14631,380406).
route(harbor8,prodloc2,tr13,14631,87786).
route(harbor8,prodloc3,tr0,10791,280566).
route(harbor8,prodloc3,tr13,10791,64746).
route(harbor8,prodloc4,tr0,26309,684034).
route(harbor8,prodloc4,tr13,26309,157854).
route(harbor8,prodloc5,tr0,24861,646386).
route(harbor8,prodloc5,tr13,24861,149166).
route(harbor8,prodloc6,tr0,16156,420056).
route(harbor8,prodloc6,tr13,16156,96936).
route(harbor8,prodloc7,tr0,12024,312624).
route(harbor8,prodloc7,tr13,12024,72144).
route(harbor8,prodloc8,tr0,7201,187226).
route(harbor8,prodloc8,tr13,7201,43206).
route(harbor8,prodloc9,tr0,258,6708).
route(harbor8,prodloc9,tr13,258,1548).
route(harbor8,prodloc10,tr0,19693,512018).
route(harbor8,prodloc10,tr13,19693,118158).
route(harbor8,prodloc11,tr0,26475,688350).
route(harbor8,prodloc11,tr13,26475,158850).
route(harbor8,prodloc12,tr0,26076,677976).
route(harbor8,prodloc12,tr13,26076,156456).
route(harbor8,prodloc13,tr0,3723,96798).
route(harbor8,prodloc13,tr13,3723,22338).
route(harbor8,prodloc14,tr0,11415,296790).
route(harbor8,prodloc14,tr13,11415,68490).
route(harbor8,prodloc15,tr0,16994,441844).
route(harbor8,prodloc15,tr13,16994,101964).
route(harbor8,prodloc16,tr0,25813,671138).
route(harbor8,prodloc16,tr13,25813,154878).
route(harbor8,prodloc17,tr0,4880,126880).
route(harbor8,prodloc17,tr13,4880,29280).
route(harbor8,prodloc18,tr0,27905,725530).
route(harbor8,prodloc18,tr13,27905,167430).
route(harbor8,prodloc19,tr0,12528,325728).
route(harbor8,prodloc19,tr13,12528,75168).
route(harbor8,prodloc20,tr0,3776,98176).
route(harbor8,prodloc20,tr13,3776,22656).
route(harbor8,prodloc21,tr0,20033,520858).
route(harbor8,prodloc21,tr13,20033,120198).
route(harbor8,prodloc22,tr0,18288,475488).
route(harbor8,prodloc22,tr13,18288,109728).
route(harbor8,prodloc23,tr0,2594,67444).
route(harbor8,prodloc23,tr13,2594,15564).
route(harbor8,prodloc24,tr0,1341,34866).
route(harbor8,prodloc24,tr13,1341,8046).
route(harbor8,prodloc25,tr0,23388,608088).
route(harbor8,prodloc25,tr13,23388,140328).
route(harbor8,prodloc26,tr0,12838,333788).
route(harbor8,prodloc26,tr13,12838,77028).
route(harbor8,prodloc27,tr0,3590,93340).
route(harbor8,prodloc27,tr13,3590,21540).
route(harbor8,prodloc28,tr0,22170,576420).
route(harbor8,prodloc28,tr13,22170,133020).
route(harbor8,prodloc29,tr0,24348,633048).
route(harbor8,prodloc29,tr13,24348,146088).
route(harbor8,prodloc30,tr0,15107,392782).
route(harbor8,prodloc30,tr13,15107,90642).
route(harbor8,prodloc31,tr0,4707,122382).
route(harbor8,prodloc31,tr13,4707,28242).
route(harbor8,prodloc32,tr0,21279,553254).
route(harbor8,prodloc32,tr13,21279,127674).
route(harbor8,prodloc33,tr0,6454,167804).
route(harbor8,prodloc33,tr13,6454,38724).
route(harbor9,harbor0,tr13,17974,107844).
route(harbor9,harbor0,tr2,17974,53922).
route(harbor9,harbor1,tr13,26532,159192).
route(harbor9,harbor1,tr2,26532,79596).
route(harbor9,harbor2,tr13,14528,87168).
route(harbor9,harbor2,tr2,14528,43584).
route(harbor9,harbor3,tr13,1572,9432).
route(harbor9,harbor3,tr2,1572,4716).
route(harbor9,harbor4,tr13,22258,133548).
route(harbor9,harbor4,tr2,22258,66774).
route(harbor9,harbor5,tr13,29039,174234).
route(harbor9,harbor5,tr2,29039,87117).
route(harbor9,harbor6,tr13,27608,165648).
route(harbor9,harbor6,tr2,27608,82824).
route(harbor9,harbor7,tr13,8818,52908).
route(harbor9,harbor7,tr2,8818,26454).
route(harbor9,harbor8,tr13,626,3756).
route(harbor9,harbor8,tr2,626,1878).
route(harbor9,harbor10,tr13,19464,116784).
route(harbor9,harbor10,tr2,19464,58392).
route(harbor9,harbor11,tr13,3510,21060).
route(harbor9,harbor11,tr2,3510,10530).
route(harbor9,harbor12,tr13,25372,152232).
route(harbor9,harbor12,tr2,25372,76116).
route(harbor9,harbor13,tr13,3180,19080).
route(harbor9,harbor13,tr2,3180,9540).
route(harbor9,harbor14,tr13,4632,27792).
route(harbor9,harbor14,tr2,4632,13896).
route(harbor9,harbor15,tr13,15629,93774).
route(harbor9,harbor15,tr2,15629,46887).
route(harbor9,harbor16,tr13,7250,43500).
route(harbor9,harbor16,tr2,7250,21750).
route(harbor9,prodloc0,tr0,10125,263250).
route(harbor9,prodloc0,tr13,10125,60750).
route(harbor9,prodloc1,tr0,25881,672906).
route(harbor9,prodloc1,tr13,25881,155286).
route(harbor9,prodloc2,tr0,21107,548782).
route(harbor9,prodloc2,tr13,21107,126642).
route(harbor9,prodloc3,tr0,9849,256074).
route(harbor9,prodloc3,tr13,9849,59094).
route(harbor9,prodloc4,tr0,9924,258024).
route(harbor9,prodloc4,tr13,9924,59544).
route(harbor9,prodloc5,tr0,19857,516282).
route(harbor9,prodloc5,tr13,19857,119142).
route(harbor9,prodloc6,tr0,10838,281788).
route(harbor9,prodloc6,tr13,10838,65028).
route(harbor9,prodloc7,tr0,18108,470808).
route(harbor9,prodloc7,tr13,18108,108648).
route(harbor9,prodloc8,tr0,547,14222).
route(harbor9,prodloc8,tr13,547,3282).
route(harbor9,prodloc9,tr0,14336,372736).
route(harbor9,prodloc9,tr13,14336,86016).
route(harbor9,prodloc10,tr0,2902,75452).
route(harbor9,prodloc10,tr13,2902,17412).
route(harbor9,prodloc11,tr0,12578,327028).
route(harbor9,prodloc11,tr13,12578,75468).
route(harbor9,prodloc12,tr0,103,2678).
route(harbor9,prodloc12,tr13,103,618).
route(harbor9,prodloc13,tr0,20787,540462).
route(harbor9,prodloc13,tr13,20787,124722).
route(harbor9,prodloc14,tr0,15119,393094).
route(harbor9,prodloc14,tr13,15119,90714).
route(harbor9,prodloc15,tr0,3404,88504).
route(harbor9,prodloc15,tr13,3404,20424).
route(harbor9,prodloc16,tr0,28706,746356).
route(harbor9,prodloc16,tr13,28706,172236).
route(harbor9,prodloc17,tr0,10696,278096).
route(harbor9,prodloc17,tr13,10696,64176).
route(harbor9,prodloc18,tr0,17592,457392).
route(harbor9,prodloc18,tr13,17592,105552).
route(harbor9,prodloc19,tr0,24684,641784).
route(harbor9,prodloc19,tr13,24684,148104).
route(harbor9,prodloc20,tr0,10598,275548).
route(harbor9,prodloc20,tr13,10598,63588).
route(harbor9,prodloc21,tr0,24116,627016).
route(harbor9,prodloc21,tr13,24116,144696).
route(harbor9,prodloc22,tr0,15049,391274).
route(harbor9,prodloc22,tr13,15049,90294).
route(harbor9,prodloc23,tr0,25092,652392).
route(harbor9,prodloc23,tr13,25092,150552).
route(harbor9,prodloc24,tr0,1876,48776).
route(harbor9,prodloc24,tr13,1876,11256).
route(harbor9,prodloc25,tr0,28528,741728).
route(harbor9,prodloc25,tr13,28528,171168).
route(harbor9,prodloc26,tr0,15967,415142).
route(harbor9,prodloc26,tr13,15967,95802).
route(harbor9,prodloc27,tr0,3053,79378).
route(harbor9,prodloc27,tr13,3053,18318).
route(harbor9,prodloc28,tr0,17506,455156).
route(harbor9,prodloc28,tr13,17506,105036).
route(harbor9,prodloc29,tr0,21185,550810).
route(harbor9,prodloc29,tr13,21185,127110).
route(harbor9,prodloc30,tr0,15339,398814).
route(harbor9,prodloc30,tr13,15339,92034).
route(harbor9,prodloc31,tr0,9731,253006).
route(harbor9,prodloc31,tr13,9731,58386).
route(harbor9,prodloc32,tr0,19907,517582).
route(harbor9,prodloc32,tr13,19907,119442).
route(harbor9,prodloc33,tr0,4028,104728).
route(harbor9,prodloc33,tr13,4028,24168).
route(harbor10,harbor0,tr13,23784,142704).
route(harbor10,harbor0,tr2,23784,71352).
route(harbor10,harbor1,tr13,28440,170640).
route(harbor10,harbor1,tr2,28440,85320).
route(harbor10,harbor2,tr13,19366,116196).
route(harbor10,harbor2,tr2,19366,58098).
route(harbor10,harbor3,tr13,27260,163560).
route(harbor10,harbor3,tr2,27260,81780).
route(harbor10,harbor4,tr13,21856,131136).
route(harbor10,harbor4,tr2,21856,65568).
route(harbor10,harbor5,tr13,5075,30450).
route(harbor10,harbor5,tr2,5075,15225).
route(harbor10,harbor6,tr13,24999,149994).
route(harbor10,harbor6,tr2,24999,74997).
route(harbor10,harbor7,tr13,2355,14130).
route(harbor10,harbor7,tr2,2355,7065).
route(harbor10,harbor8,tr13,22222,133332).
route(harbor10,harbor8,tr2,22222,66666).
route(harbor10,harbor9,tr13,10588,63528).
route(harbor10,harbor9,tr2,10588,31764).
route(harbor10,harbor11,tr13,22316,133896).
route(harbor10,harbor11,tr2,22316,66948).
route(harbor10,harbor12,tr13,1308,7848).
route(harbor10,harbor12,tr2,1308,3924).
route(harbor10,harbor13,tr13,27973,167838).
route(harbor10,harbor13,tr2,27973,83919).
route(harbor10,harbor14,tr13,5080,30480).
route(harbor10,harbor14,tr2,5080,15240).
route(harbor10,harbor15,tr13,27619,165714).
route(harbor10,harbor15,tr2,27619,82857).
route(harbor10,harbor16,tr13,18776,112656).
route(harbor10,harbor16,tr2,18776,56328).
route(harbor10,prodloc0,tr0,22233,578058).
route(harbor10,prodloc0,tr13,22233,133398).
route(harbor10,prodloc1,tr0,6567,170742).
route(harbor10,prodloc1,tr13,6567,39402).
route(harbor10,prodloc2,tr0,28650,744900).
route(harbor10,prodloc2,tr13,28650,171900).
route(harbor10,prodloc3,tr0,9668,251368).
route(harbor10,prodloc3,tr13,9668,58008).
route(harbor10,prodloc4,tr0,24529,637754).
route(harbor10,prodloc4,tr13,24529,147174).
route(harbor10,prodloc5,tr0,13745,357370).
route(harbor10,prodloc5,tr13,13745,82470).
route(harbor10,prodloc6,tr0,26030,676780).
route(harbor10,prodloc6,tr13,26030,156180).
route(harbor10,prodloc7,tr0,2798,72748).
route(harbor10,prodloc7,tr13,2798,16788).
route(harbor10,prodloc8,tr0,3538,91988).
route(harbor10,prodloc8,tr13,3538,21228).
route(harbor10,prodloc9,tr0,26702,694252).
route(harbor10,prodloc9,tr13,26702,160212).
route(harbor10,prodloc10,tr0,25080,652080).
route(harbor10,prodloc10,tr13,25080,150480).
route(harbor10,prodloc11,tr0,12489,324714).
route(harbor10,prodloc11,tr13,12489,74934).
route(harbor10,prodloc12,tr0,26240,682240).
route(harbor10,prodloc12,tr13,26240,157440).
route(harbor10,prodloc13,tr0,1849,48074).
route(harbor10,prodloc13,tr13,1849,11094).
route(harbor10,prodloc14,tr0,16035,416910).
route(harbor10,prodloc14,tr13,16035,96210).
route(harbor10,prodloc15,tr0,16865,438490).
route(harbor10,prodloc15,tr13,16865,101190).
route(harbor10,prodloc16,tr0,13439,349414).
route(harbor10,prodloc16,tr13,13439,80634).
route(harbor10,prodloc17,tr0,13560,352560).
route(harbor10,prodloc17,tr13,13560,81360).
route(harbor10,prodloc18,tr0,26146,679796).
route(harbor10,prodloc18,tr13,26146,156876).
route(harbor10,prodloc19,tr0,25003,650078).
route(harbor10,prodloc19,tr13,25003,150018).
route(harbor10,prodloc20,tr0,22114,574964).
route(harbor10,prodloc20,tr13,22114,132684).
route(harbor10,prodloc21,tr0,8633,224458).
route(harbor10,prodloc21,tr13,8633,51798).
route(harbor10,prodloc22,tr0,18906,491556).
route(harbor10,prodloc22,tr13,18906,113436).
route(harbor10,prodloc23,tr0,7812,203112).
route(harbor10,prodloc23,tr13,7812,46872).
route(harbor10,prodloc24,tr0,18442,479492).
route(harbor10,prodloc24,tr13,18442,110652).
route(harbor10,prodloc25,tr0,16438,427388).
route(harbor10,prodloc25,tr13,16438,98628).
route(harbor10,prodloc26,tr0,24071,625846).
route(harbor10,prodloc26,tr13,24071,144426).
route(harbor10,prodloc27,tr0,13266,344916).
route(harbor10,prodloc27,tr13,13266,79596).
route(harbor10,prodloc28,tr0,19738,513188).
route(harbor10,prodloc28,tr13,19738,118428).
route(harbor10,prodloc29,tr0,4241,110266).
route(harbor10,prodloc29,tr13,4241,25446).
route(harbor10,prodloc30,tr0,25287,657462).
route(harbor10,prodloc30,tr13,25287,151722).
route(harbor10,prodloc31,tr0,24101,626626).
route(harbor10,prodloc31,tr13,24101,144606).
route(harbor10,prodloc32,tr0,7276,189176).
route(harbor10,prodloc32,tr13,7276,43656).
route(harbor10,prodloc33,tr0,28380,737880).
route(harbor10,prodloc33,tr13,28380,170280).
route(harbor11,harbor0,tr13,10889,65334).
route(harbor11,harbor0,tr2,10889,32667).
route(harbor11,harbor1,tr13,27263,163578).
route(harbor11,harbor1,tr2,27263,81789).
route(harbor11,harbor2,tr13,7617,45702).
route(harbor11,harbor2,tr2,7617,22851).
route(harbor11,harbor3,tr13,21583,129498).
route(harbor11,harbor3,tr2,21583,64749).
route(harbor11,harbor4,tr13,10430,62580).
route(harbor11,harbor4,tr2,10430,31290).
route(harbor11,harbor5,tr13,15460,92760).
route(harbor11,harbor5,tr2,15460,46380).
route(harbor11,harbor6,tr13,10344,62064).
route(harbor11,harbor6,tr2,10344,31032).
route(harbor11,harbor7,tr13,25930,155580).
route(harbor11,harbor7,tr2,25930,77790).
route(harbor11,harbor8,tr13,6944,41664).
route(harbor11,harbor8,tr2,6944,20832).
route(harbor11,harbor9,tr13,20357,122142).
route(harbor11,harbor9,tr2,20357,61071).
route(harbor11,harbor10,tr13,3272,19632).
route(harbor11,harbor10,tr2,3272,9816).
route(harbor11,harbor12,tr13,27385,164310).
route(harbor11,harbor12,tr2,27385,82155).
route(harbor11,harbor13,tr13,6747,40482).
route(harbor11,harbor13,tr2,6747,20241).
route(harbor11,harbor14,tr13,24671,148026).
route(harbor11,harbor14,tr2,24671,74013).
route(harbor11,harbor15,tr13,17416,104496).
route(harbor11,harbor15,tr2,17416,52248).
route(harbor11,harbor16,tr13,15360,92160).
route(harbor11,harbor16,tr2,15360,46080).
route(harbor11,prodloc0,tr0,6823,177398).
route(harbor11,prodloc0,tr13,6823,40938).
route(harbor11,prodloc1,tr0,14415,374790).
route(harbor11,prodloc1,tr13,14415,86490).
route(harbor11,prodloc2,tr0,14280,371280).
route(harbor11,prodloc2,tr13,14280,85680).
route(harbor11,prodloc3,tr0,11971,311246).
route(harbor11,prodloc3,tr13,11971,71826).
route(harbor11,prodloc4,tr0,26627,692302).
route(harbor11,prodloc4,tr13,26627,159762).
route(harbor11,prodloc5,tr0,14320,372320).
route(harbor11,prodloc5,tr13,14320,85920).
route(harbor11,prodloc6,tr0,20240,526240).
route(harbor11,prodloc6,tr13,20240,121440).
route(harbor11,prodloc7,tr0,1720,44720).
route(harbor11,prodloc7,tr13,1720,10320).
route(harbor11,prodloc8,tr0,6521,169546).
route(harbor11,prodloc8,tr13,6521,39126).
route(harbor11,prodloc9,tr0,3995,103870).
route(harbor11,prodloc9,tr13,3995,23970).
route(harbor11,prodloc10,tr0,8170,212420).
route(harbor11,prodloc10,tr13,8170,49020).
route(harbor11,prodloc11,tr0,189,4914).
route(harbor11,prodloc11,tr13,189,1134).
route(harbor11,prodloc12,tr0,8494,220844).
route(harbor11,prodloc12,tr13,8494,50964).
route(harbor11,prodloc13,tr0,1677,43602).
route(harbor11,prodloc13,tr13,1677,10062).
route(harbor11,prodloc14,tr0,8572,222872).
route(harbor11,prodloc14,tr13,8572,51432).
route(harbor11,prodloc15,tr0,28458,739908).
route(harbor11,prodloc15,tr13,28458,170748).
route(harbor11,prodloc16,tr0,23334,606684).
route(harbor11,prodloc16,tr13,23334,140004).
route(harbor11,prodloc17,tr0,11855,308230).
route(harbor11,prodloc17,tr13,11855,71130).
route(harbor11,prodloc18,tr0,27181,706706).
route(harbor11,prodloc18,tr13,27181,163086).
route(harbor11,prodloc19,tr0,14041,365066).
route(harbor11,prodloc19,tr13,14041,84246).
route(harbor11,prodloc20,tr0,12661,329186).
route(harbor11,prodloc20,tr13,12661,75966).
route(harbor11,prodloc21,tr0,23143,601718).
route(harbor11,prodloc21,tr13,23143,138858).
route(harbor11,prodloc22,tr0,1503,39078).
route(harbor11,prodloc22,tr13,1503,9018).
route(harbor11,prodloc23,tr0,17509,455234).
route(harbor11,prodloc23,tr13,17509,105054).
route(harbor11,prodloc24,tr0,18339,476814).
route(harbor11,prodloc24,tr13,18339,110034).
route(harbor11,prodloc25,tr0,17087,444262).
route(harbor11,prodloc25,tr13,17087,102522).
route(harbor11,prodloc26,tr0,25094,652444).
route(harbor11,prodloc26,tr13,25094,150564).
route(harbor11,prodloc27,tr0,501,13026).
route(harbor11,prodloc27,tr13,501,3006).
route(harbor11,prodloc28,tr0,778,20228).
route(harbor11,prodloc28,tr13,778,4668).
route(harbor11,prodloc29,tr0,20609,535834).
route(harbor11,prodloc29,tr13,20609,123654).
route(harbor11,prodloc30,tr0,17741,461266).
route(harbor11,prodloc30,tr13,17741,106446).
route(harbor11,prodloc31,tr0,24789,644514).
route(harbor11,prodloc31,tr13,24789,148734).
route(harbor11,prodloc32,tr0,10613,275938).
route(harbor11,prodloc32,tr13,10613,63678).
route(harbor11,prodloc33,tr0,22955,596830).
route(harbor11,prodloc33,tr13,22955,137730).
route(harbor12,harbor0,tr13,19424,116544).
route(harbor12,harbor0,tr2,19424,58272).
route(harbor12,harbor1,tr13,10559,63354).
route(harbor12,harbor1,tr2,10559,31677).
route(harbor12,harbor2,tr13,26608,159648).
route(harbor12,harbor2,tr2,26608,79824).
route(harbor12,harbor3,tr13,25686,154116).
route(harbor12,harbor3,tr2,25686,77058).
route(harbor12,harbor4,tr13,21856,131136).
route(harbor12,harbor4,tr2,21856,65568).
route(harbor12,harbor5,tr13,29031,174186).
route(harbor12,harbor5,tr2,29031,87093).
route(harbor12,harbor6,tr13,5689,34134).
route(harbor12,harbor6,tr2,5689,17067).
route(harbor12,harbor7,tr13,25795,154770).
route(harbor12,harbor7,tr2,25795,77385).
route(harbor12,harbor8,tr13,11773,70638).
route(harbor12,harbor8,tr2,11773,35319).
route(harbor12,harbor9,tr13,19228,115368).
route(harbor12,harbor9,tr2,19228,57684).
route(harbor12,harbor10,tr13,19967,119802).
route(harbor12,harbor10,tr2,19967,59901).
route(harbor12,harbor11,tr13,21662,129972).
route(harbor12,harbor11,tr2,21662,64986).
route(harbor12,harbor13,tr13,10418,62508).
route(harbor12,harbor13,tr2,10418,31254).
route(harbor12,harbor14,tr13,19655,117930).
route(harbor12,harbor14,tr2,19655,58965).
route(harbor12,harbor15,tr13,7851,47106).
route(harbor12,harbor15,tr2,7851,23553).
route(harbor12,harbor16,tr13,27087,162522).
route(harbor12,harbor16,tr2,27087,81261).
route(harbor12,prodloc0,tr0,8710,226460).
route(harbor12,prodloc0,tr13,8710,52260).
route(harbor12,prodloc1,tr0,18727,486902).
route(harbor12,prodloc1,tr13,18727,112362).
route(harbor12,prodloc2,tr0,14503,377078).
route(harbor12,prodloc2,tr13,14503,87018).
route(harbor12,prodloc3,tr0,14632,380432).
route(harbor12,prodloc3,tr13,14632,87792).
route(harbor12,prodloc4,tr0,3626,94276).
route(harbor12,prodloc4,tr13,3626,21756).
route(harbor12,prodloc5,tr0,4205,109330).
route(harbor12,prodloc5,tr13,4205,25230).
route(harbor12,prodloc6,tr0,783,20358).
route(harbor12,prodloc6,tr13,783,4698).
route(harbor12,prodloc7,tr0,4510,117260).
route(harbor12,prodloc7,tr13,4510,27060).
route(harbor12,prodloc8,tr0,14880,386880).
route(harbor12,prodloc8,tr13,14880,89280).
route(harbor12,prodloc9,tr0,16630,432380).
route(harbor12,prodloc9,tr13,16630,99780).
route(harbor12,prodloc10,tr0,5017,130442).
route(harbor12,prodloc10,tr13,5017,30102).
route(harbor12,prodloc11,tr0,23548,612248).
route(harbor12,prodloc11,tr13,23548,141288).
route(harbor12,prodloc12,tr0,14578,379028).
route(harbor12,prodloc12,tr13,14578,87468).
route(harbor12,prodloc13,tr0,19221,499746).
route(harbor12,prodloc13,tr13,19221,115326).
route(harbor12,prodloc14,tr0,240,6240).
route(harbor12,prodloc14,tr13,240,1440).
route(harbor12,prodloc15,tr0,257,6682).
route(harbor12,prodloc15,tr13,257,1542).
route(harbor12,prodloc16,tr0,5675,147550).
route(harbor12,prodloc16,tr13,5675,34050).
route(harbor12,prodloc17,tr0,12537,325962).
route(harbor12,prodloc17,tr13,12537,75222).
route(harbor12,prodloc18,tr0,12306,319956).
route(harbor12,prodloc18,tr13,12306,73836).
route(harbor12,prodloc19,tr0,21540,560040).
route(harbor12,prodloc19,tr13,21540,129240).
route(harbor12,prodloc20,tr0,22919,595894).
route(harbor12,prodloc20,tr13,22919,137514).
route(harbor12,prodloc21,tr0,13073,339898).
route(harbor12,prodloc21,tr13,13073,78438).
route(harbor12,prodloc22,tr0,3259,84734).
route(harbor12,prodloc22,tr13,3259,19554).
route(harbor12,prodloc23,tr0,9171,238446).
route(harbor12,prodloc23,tr13,9171,55026).
route(harbor12,prodloc24,tr0,6275,163150).
route(harbor12,prodloc24,tr13,6275,37650).
route(harbor12,prodloc25,tr0,6641,172666).
route(harbor12,prodloc25,tr13,6641,39846).
route(harbor12,prodloc26,tr0,4612,119912).
route(harbor12,prodloc26,tr13,4612,27672).
route(harbor12,prodloc27,tr0,23356,607256).
route(harbor12,prodloc27,tr13,23356,140136).
route(harbor12,prodloc28,tr0,595,15470).
route(harbor12,prodloc28,tr13,595,3570).
route(harbor12,prodloc29,tr0,19876,516776).
route(harbor12,prodloc29,tr13,19876,119256).
route(harbor12,prodloc30,tr0,15332,398632).
route(harbor12,prodloc30,tr13,15332,91992).
route(harbor12,prodloc31,tr0,10721,278746).
route(harbor12,prodloc31,tr13,10721,64326).
route(harbor12,prodloc32,tr0,4917,127842).
route(harbor12,prodloc32,tr13,4917,29502).
route(harbor12,prodloc33,tr0,15601,405626).
route(harbor12,prodloc33,tr13,15601,93606).
route(harbor13,harbor0,tr13,7272,43632).
route(harbor13,harbor0,tr2,7272,21816).
route(harbor13,harbor1,tr13,13866,83196).
route(harbor13,harbor1,tr2,13866,41598).
route(harbor13,harbor2,tr13,22961,137766).
route(harbor13,harbor2,tr2,22961,68883).
route(harbor13,harbor3,tr13,11882,71292).
route(harbor13,harbor3,tr2,11882,35646).
route(harbor13,harbor4,tr13,8594,51564).
route(harbor13,harbor4,tr2,8594,25782).
route(harbor13,harbor5,tr13,23321,139926).
route(harbor13,harbor5,tr2,23321,69963).
route(harbor13,harbor6,tr13,23912,143472).
route(harbor13,harbor6,tr2,23912,71736).
route(harbor13,harbor7,tr13,14685,88110).
route(harbor13,harbor7,tr2,14685,44055).
route(harbor13,harbor8,tr13,15411,92466).
route(harbor13,harbor8,tr2,15411,46233).
route(harbor13,harbor9,tr13,2966,17796).
route(harbor13,harbor9,tr2,2966,8898).
route(harbor13,harbor10,tr13,5666,33996).
route(harbor13,harbor10,tr2,5666,16998).
route(harbor13,harbor11,tr13,3477,20862).
route(harbor13,harbor11,tr2,3477,10431).
route(harbor13,harbor12,tr13,8151,48906).
route(harbor13,harbor12,tr2,8151,24453).
route(harbor13,harbor14,tr13,16355,98130).
route(harbor13,harbor14,tr2,16355,49065).
route(harbor13,harbor15,tr13,8198,49188).
route(harbor13,harbor15,tr2,8198,24594).
route(harbor13,harbor16,tr13,10233,61398).
route(harbor13,harbor16,tr2,10233,30699).
route(harbor13,prodloc0,tr0,3350,87100).
route(harbor13,prodloc0,tr13,3350,20100).
route(harbor13,prodloc1,tr0,8508,221208).
route(harbor13,prodloc1,tr13,8508,51048).
route(harbor13,prodloc2,tr0,16958,440908).
route(harbor13,prodloc2,tr13,16958,101748).
route(harbor13,prodloc3,tr0,23703,616278).
route(harbor13,prodloc3,tr13,23703,142218).
route(harbor13,prodloc4,tr0,19026,494676).
route(harbor13,prodloc4,tr13,19026,114156).
route(harbor13,prodloc5,tr0,8447,219622).
route(harbor13,prodloc5,tr13,8447,50682).
route(harbor13,prodloc6,tr0,10592,275392).
route(harbor13,prodloc6,tr13,10592,63552).
route(harbor13,prodloc7,tr0,14779,384254).
route(harbor13,prodloc7,tr13,14779,88674).
route(harbor13,prodloc8,tr0,8551,222326).
route(harbor13,prodloc8,tr13,8551,51306).
route(harbor13,prodloc9,tr0,16662,433212).
route(harbor13,prodloc9,tr13,16662,99972).
route(harbor13,prodloc10,tr0,12809,333034).
route(harbor13,prodloc10,tr13,12809,76854).
route(harbor13,prodloc11,tr0,262,6812).
route(harbor13,prodloc11,tr13,262,1572).
route(harbor13,prodloc12,tr0,14847,386022).
route(harbor13,prodloc12,tr13,14847,89082).
route(harbor13,prodloc13,tr0,26352,685152).
route(harbor13,prodloc13,tr13,26352,158112).
route(harbor13,prodloc14,tr0,8773,228098).
route(harbor13,prodloc14,tr13,8773,52638).
route(harbor13,prodloc15,tr0,24545,638170).
route(harbor13,prodloc15,tr13,24545,147270).
route(harbor13,prodloc16,tr0,5301,137826).
route(harbor13,prodloc16,tr13,5301,31806).
route(harbor13,prodloc17,tr0,16861,438386).
route(harbor13,prodloc17,tr13,16861,101166).
route(harbor13,prodloc18,tr0,6956,180856).
route(harbor13,prodloc18,tr13,6956,41736).
route(harbor13,prodloc19,tr0,6987,181662).
route(harbor13,prodloc19,tr13,6987,41922).
route(harbor13,prodloc20,tr0,3425,89050).
route(harbor13,prodloc20,tr13,3425,20550).
route(harbor13,prodloc21,tr0,1060,27560).
route(harbor13,prodloc21,tr13,1060,6360).
route(harbor13,prodloc22,tr0,11720,304720).
route(harbor13,prodloc22,tr13,11720,70320).
route(harbor13,prodloc23,tr0,3728,96928).
route(harbor13,prodloc23,tr13,3728,22368).
route(harbor13,prodloc24,tr0,23423,608998).
route(harbor13,prodloc24,tr13,23423,140538).
route(harbor13,prodloc25,tr0,1321,34346).
route(harbor13,prodloc25,tr13,1321,7926).
route(harbor13,prodloc26,tr0,6165,160290).
route(harbor13,prodloc26,tr13,6165,36990).
route(harbor13,prodloc27,tr0,11613,301938).
route(harbor13,prodloc27,tr13,11613,69678).
route(harbor13,prodloc28,tr0,25101,652626).
route(harbor13,prodloc28,tr13,25101,150606).
route(harbor13,prodloc29,tr0,10698,278148).
route(harbor13,prodloc29,tr13,10698,64188).
route(harbor13,prodloc30,tr0,7452,193752).
route(harbor13,prodloc30,tr13,7452,44712).
route(harbor13,prodloc31,tr0,6877,178802).
route(harbor13,prodloc31,tr13,6877,41262).
route(harbor13,prodloc32,tr0,16588,431288).
route(harbor13,prodloc32,tr13,16588,99528).
route(harbor13,prodloc33,tr0,5735,149110).
route(harbor13,prodloc33,tr13,5735,34410).
route(harbor14,harbor0,tr13,5366,32196).
route(harbor14,harbor0,tr2,5366,16098).
route(harbor14,harbor1,tr13,27721,166326).
route(harbor14,harbor1,tr2,27721,83163).
route(harbor14,harbor2,tr13,18894,113364).
route(harbor14,harbor2,tr2,18894,56682).
route(harbor14,harbor3,tr13,19912,119472).
route(harbor14,harbor3,tr2,19912,59736).
route(harbor14,harbor4,tr13,20301,121806).
route(harbor14,harbor4,tr2,20301,60903).
route(harbor14,harbor5,tr13,343,2058).
route(harbor14,harbor5,tr2,343,1029).
route(harbor14,harbor6,tr13,16035,96210).
route(harbor14,harbor6,tr2,16035,48105).
route(harbor14,harbor7,tr13,27957,167742).
route(harbor14,harbor7,tr2,27957,83871).
route(harbor14,harbor8,tr13,1090,6540).
route(harbor14,harbor8,tr2,1090,3270).
route(harbor14,harbor9,tr13,23369,140214).
route(harbor14,harbor9,tr2,23369,70107).
route(harbor14,harbor10,tr13,25063,150378).
route(harbor14,harbor10,tr2,25063,75189).
route(harbor14,harbor11,tr13,26764,160584).
route(harbor14,harbor11,tr2,26764,80292).
route(harbor14,harbor12,tr13,21451,128706).
route(harbor14,harbor12,tr2,21451,64353).
route(harbor14,harbor13,tr13,15096,90576).
route(harbor14,harbor13,tr2,15096,45288).
route(harbor14,harbor15,tr13,13495,80970).
route(harbor14,harbor15,tr2,13495,40485).
route(harbor14,harbor16,tr13,13627,81762).
route(harbor14,harbor16,tr2,13627,40881).
route(harbor14,prodloc0,tr0,10985,285610).
route(harbor14,prodloc0,tr13,10985,65910).
route(harbor14,prodloc1,tr0,17030,442780).
route(harbor14,prodloc1,tr13,17030,102180).
route(harbor14,prodloc2,tr0,17736,461136).
route(harbor14,prodloc2,tr13,17736,106416).
route(harbor14,prodloc3,tr0,15262,396812).
route(harbor14,prodloc3,tr13,15262,91572).
route(harbor14,prodloc4,tr0,19049,495274).
route(harbor14,prodloc4,tr13,19049,114294).
route(harbor14,prodloc5,tr0,27619,718094).
route(harbor14,prodloc5,tr13,27619,165714).
route(harbor14,prodloc6,tr0,1861,48386).
route(harbor14,prodloc6,tr13,1861,11166).
route(harbor14,prodloc7,tr0,869,22594).
route(harbor14,prodloc7,tr13,869,5214).
route(harbor14,prodloc8,tr0,2923,75998).
route(harbor14,prodloc8,tr13,2923,17538).
route(harbor14,prodloc9,tr0,2083,54158).
route(harbor14,prodloc9,tr13,2083,12498).
route(harbor14,prodloc10,tr0,20466,532116).
route(harbor14,prodloc10,tr13,20466,122796).
route(harbor14,prodloc11,tr0,5502,143052).
route(harbor14,prodloc11,tr13,5502,33012).
route(harbor14,prodloc12,tr0,9312,242112).
route(harbor14,prodloc12,tr13,9312,55872).
route(harbor14,prodloc13,tr0,25084,652184).
route(harbor14,prodloc13,tr13,25084,150504).
route(harbor14,prodloc14,tr0,19008,494208).
route(harbor14,prodloc14,tr13,19008,114048).
route(harbor14,prodloc15,tr0,26508,689208).
route(harbor14,prodloc15,tr13,26508,159048).
route(harbor14,prodloc16,tr0,12545,326170).
route(harbor14,prodloc16,tr13,12545,75270).
route(harbor14,prodloc17,tr0,21417,556842).
route(harbor14,prodloc17,tr13,21417,128502).
route(harbor14,prodloc18,tr0,1121,29146).
route(harbor14,prodloc18,tr13,1121,6726).
route(harbor14,prodloc19,tr0,5100,132600).
route(harbor14,prodloc19,tr13,5100,30600).
route(harbor14,prodloc20,tr0,26994,701844).
route(harbor14,prodloc20,tr13,26994,161964).
route(harbor14,prodloc21,tr0,9380,243880).
route(harbor14,prodloc21,tr13,9380,56280).
route(harbor14,prodloc22,tr0,6124,159224).
route(harbor14,prodloc22,tr13,6124,36744).
route(harbor14,prodloc23,tr0,26471,688246).
route(harbor14,prodloc23,tr13,26471,158826).
route(harbor14,prodloc24,tr0,10933,284258).
route(harbor14,prodloc24,tr13,10933,65598).
route(harbor14,prodloc25,tr0,27366,711516).
route(harbor14,prodloc25,tr13,27366,164196).
route(harbor14,prodloc26,tr0,24365,633490).
route(harbor14,prodloc26,tr13,24365,146190).
route(harbor14,prodloc27,tr0,5363,139438).
route(harbor14,prodloc27,tr13,5363,32178).
route(harbor14,prodloc28,tr0,23938,622388).
route(harbor14,prodloc28,tr13,23938,143628).
route(harbor14,prodloc29,tr0,28066,729716).
route(harbor14,prodloc29,tr13,28066,168396).
route(harbor14,prodloc30,tr0,11154,290004).
route(harbor14,prodloc30,tr13,11154,66924).
route(harbor14,prodloc31,tr0,10473,272298).
route(harbor14,prodloc31,tr13,10473,62838).
route(harbor14,prodloc32,tr0,16018,416468).
route(harbor14,prodloc32,tr13,16018,96108).
route(harbor14,prodloc33,tr0,7655,199030).
route(harbor14,prodloc33,tr13,7655,45930).
route(harbor15,harbor0,tr13,18501,111006).
route(harbor15,harbor0,tr2,18501,55503).
route(harbor15,harbor1,tr13,15061,90366).
route(harbor15,harbor1,tr2,15061,45183).
route(harbor15,harbor2,tr13,27157,162942).
route(harbor15,harbor2,tr2,27157,81471).
route(harbor15,harbor3,tr13,9634,57804).
route(harbor15,harbor3,tr2,9634,28902).
route(harbor15,harbor4,tr13,21302,127812).
route(harbor15,harbor4,tr2,21302,63906).
route(harbor15,harbor5,tr13,24157,144942).
route(harbor15,harbor5,tr2,24157,72471).
route(harbor15,harbor6,tr13,20511,123066).
route(harbor15,harbor6,tr2,20511,61533).
route(harbor15,harbor7,tr13,23167,139002).
route(harbor15,harbor7,tr2,23167,69501).
route(harbor15,harbor8,tr13,13618,81708).
route(harbor15,harbor8,tr2,13618,40854).
route(harbor15,harbor9,tr13,7105,42630).
route(harbor15,harbor9,tr2,7105,21315).
route(harbor15,harbor10,tr13,5565,33390).
route(harbor15,harbor10,tr2,5565,16695).
route(harbor15,harbor11,tr13,18604,111624).
route(harbor15,harbor11,tr2,18604,55812).
route(harbor15,harbor12,tr13,19662,117972).
route(harbor15,harbor12,tr2,19662,58986).
route(harbor15,harbor13,tr13,14035,84210).
route(harbor15,harbor13,tr2,14035,42105).
route(harbor15,harbor14,tr13,28884,173304).
route(harbor15,harbor14,tr2,28884,86652).
route(harbor15,harbor16,tr13,10180,61080).
route(harbor15,harbor16,tr2,10180,30540).
route(harbor15,prodloc0,tr0,15221,395746).
route(harbor15,prodloc0,tr13,15221,91326).
route(harbor15,prodloc1,tr0,17839,463814).
route(harbor15,prodloc1,tr13,17839,107034).
route(harbor15,prodloc2,tr0,10168,264368).
route(harbor15,prodloc2,tr13,10168,61008).
route(harbor15,prodloc3,tr0,20725,538850).
route(harbor15,prodloc3,tr13,20725,124350).
route(harbor15,prodloc4,tr0,2048,53248).
route(harbor15,prodloc4,tr13,2048,12288).
route(harbor15,prodloc5,tr0,23128,601328).
route(harbor15,prodloc5,tr13,23128,138768).
route(harbor15,prodloc6,tr0,25200,655200).
route(harbor15,prodloc6,tr13,25200,151200).
route(harbor15,prodloc7,tr0,25794,670644).
route(harbor15,prodloc7,tr13,25794,154764).
route(harbor15,prodloc8,tr0,17321,450346).
route(harbor15,prodloc8,tr13,17321,103926).
route(harbor15,prodloc9,tr0,24498,636948).
route(harbor15,prodloc9,tr13,24498,146988).
route(harbor15,prodloc10,tr0,10822,281372).
route(harbor15,prodloc10,tr13,10822,64932).
route(harbor15,prodloc11,tr0,4366,113516).
route(harbor15,prodloc11,tr13,4366,26196).
route(harbor15,prodloc12,tr0,10720,278720).
route(harbor15,prodloc12,tr13,10720,64320).
route(harbor15,prodloc13,tr0,1226,31876).
route(harbor15,prodloc13,tr13,1226,7356).
route(harbor15,prodloc14,tr0,160,4160).
route(harbor15,prodloc14,tr13,160,960).
route(harbor15,prodloc15,tr0,23972,623272).
route(harbor15,prodloc15,tr13,23972,143832).
route(harbor15,prodloc16,tr0,9955,258830).
route(harbor15,prodloc16,tr13,9955,59730).
route(harbor15,prodloc17,tr0,25763,669838).
route(harbor15,prodloc17,tr13,25763,154578).
route(harbor15,prodloc18,tr0,3296,85696).
route(harbor15,prodloc18,tr13,3296,19776).
route(harbor15,prodloc19,tr0,2785,72410).
route(harbor15,prodloc19,tr13,2785,16710).
route(harbor15,prodloc20,tr0,11879,308854).
route(harbor15,prodloc20,tr13,11879,71274).
route(harbor15,prodloc21,tr0,19217,499642).
route(harbor15,prodloc21,tr13,19217,115302).
route(harbor15,prodloc22,tr0,3738,97188).
route(harbor15,prodloc22,tr13,3738,22428).
route(harbor15,prodloc23,tr0,16390,426140).
route(harbor15,prodloc23,tr13,16390,98340).
route(harbor15,prodloc24,tr0,6923,179998).
route(harbor15,prodloc24,tr13,6923,41538).
route(harbor15,prodloc25,tr0,2860,74360).
route(harbor15,prodloc25,tr13,2860,17160).
route(harbor15,prodloc26,tr0,26612,691912).
route(harbor15,prodloc26,tr13,26612,159672).
route(harbor15,prodloc27,tr0,24739,643214).
route(harbor15,prodloc27,tr13,24739,148434).
route(harbor15,prodloc28,tr0,12128,315328).
route(harbor15,prodloc28,tr13,12128,72768).
route(harbor15,prodloc29,tr0,5138,133588).
route(harbor15,prodloc29,tr13,5138,30828).
route(harbor15,prodloc30,tr0,16188,420888).
route(harbor15,prodloc30,tr13,16188,97128).
route(harbor15,prodloc31,tr0,27696,720096).
route(harbor15,prodloc31,tr13,27696,166176).
route(harbor15,prodloc32,tr0,19613,509938).
route(harbor15,prodloc32,tr13,19613,117678).
route(harbor15,prodloc33,tr0,15571,404846).
route(harbor15,prodloc33,tr13,15571,93426).
route(harbor16,harbor0,tr13,10438,62628).
route(harbor16,harbor0,tr2,10438,31314).
route(harbor16,harbor1,tr13,4447,26682).
route(harbor16,harbor1,tr2,4447,13341).
route(harbor16,harbor2,tr13,26719,160314).
route(harbor16,harbor2,tr2,26719,80157).
route(harbor16,harbor3,tr13,14487,86922).
route(harbor16,harbor3,tr2,14487,43461).
route(harbor16,harbor4,tr13,27156,162936).
route(harbor16,harbor4,tr2,27156,81468).
route(harbor16,harbor5,tr13,27736,166416).
route(harbor16,harbor5,tr2,27736,83208).
route(harbor16,harbor6,tr13,15585,93510).
route(harbor16,harbor6,tr2,15585,46755).
route(harbor16,harbor7,tr13,7163,42978).
route(harbor16,harbor7,tr2,7163,21489).
route(harbor16,harbor8,tr13,19949,119694).
route(harbor16,harbor8,tr2,19949,59847).
route(harbor16,harbor9,tr13,7448,44688).
route(harbor16,harbor9,tr2,7448,22344).
route(harbor16,harbor10,tr13,26296,157776).
route(harbor16,harbor10,tr2,26296,78888).
route(harbor16,harbor11,tr13,13746,82476).
route(harbor16,harbor11,tr2,13746,41238).
route(harbor16,harbor12,tr13,1002,6012).
route(harbor16,harbor12,tr2,1002,3006).
route(harbor16,harbor13,tr13,25775,154650).
route(harbor16,harbor13,tr2,25775,77325).
route(harbor16,harbor14,tr13,7842,47052).
route(harbor16,harbor14,tr2,7842,23526).
route(harbor16,harbor15,tr13,26570,159420).
route(harbor16,harbor15,tr2,26570,79710).
route(harbor16,prodloc0,tr0,18120,471120).
route(harbor16,prodloc0,tr13,18120,108720).
route(harbor16,prodloc1,tr0,27005,702130).
route(harbor16,prodloc1,tr13,27005,162030).
route(harbor16,prodloc2,tr0,6335,164710).
route(harbor16,prodloc2,tr13,6335,38010).
route(harbor16,prodloc3,tr0,25193,655018).
route(harbor16,prodloc3,tr13,25193,151158).
route(harbor16,prodloc4,tr0,17194,447044).
route(harbor16,prodloc4,tr13,17194,103164).
route(harbor16,prodloc5,tr0,21028,546728).
route(harbor16,prodloc5,tr13,21028,126168).
route(harbor16,prodloc6,tr0,2421,62946).
route(harbor16,prodloc6,tr13,2421,14526).
route(harbor16,prodloc7,tr0,13531,351806).
route(harbor16,prodloc7,tr13,13531,81186).
route(harbor16,prodloc8,tr0,19060,495560).
route(harbor16,prodloc8,tr13,19060,114360).
route(harbor16,prodloc9,tr0,8136,211536).
route(harbor16,prodloc9,tr13,8136,48816).
route(harbor16,prodloc10,tr0,15490,402740).
route(harbor16,prodloc10,tr13,15490,92940).
route(harbor16,prodloc11,tr0,8974,233324).
route(harbor16,prodloc11,tr13,8974,53844).
route(harbor16,prodloc12,tr0,19371,503646).
route(harbor16,prodloc12,tr13,19371,116226).
route(harbor16,prodloc13,tr0,9578,249028).
route(harbor16,prodloc13,tr13,9578,57468).
route(harbor16,prodloc14,tr0,17435,453310).
route(harbor16,prodloc14,tr13,17435,104610).
route(harbor16,prodloc15,tr0,5708,148408).
route(harbor16,prodloc15,tr13,5708,34248).
route(harbor16,prodloc16,tr0,11240,292240).
route(harbor16,prodloc16,tr13,11240,67440).
route(harbor16,prodloc17,tr0,14732,383032).
route(harbor16,prodloc17,tr13,14732,88392).
route(harbor16,prodloc18,tr0,4612,119912).
route(harbor16,prodloc18,tr13,4612,27672).
route(harbor16,prodloc19,tr0,21515,559390).
route(harbor16,prodloc19,tr13,21515,129090).
route(harbor16,prodloc20,tr0,10527,273702).
route(harbor16,prodloc20,tr13,10527,63162).
route(harbor16,prodloc21,tr0,25569,664794).
route(harbor16,prodloc21,tr13,25569,153414).
route(harbor16,prodloc22,tr0,8687,225862).
route(harbor16,prodloc22,tr13,8687,52122).
route(harbor16,prodloc23,tr0,9050,235300).
route(harbor16,prodloc23,tr13,9050,54300).
route(harbor16,prodloc24,tr0,2112,54912).
route(harbor16,prodloc24,tr13,2112,12672).
route(harbor16,prodloc25,tr0,23603,613678).
route(harbor16,prodloc25,tr13,23603,141618).
route(harbor16,prodloc26,tr0,27487,714662).
route(harbor16,prodloc26,tr13,27487,164922).
route(harbor16,prodloc27,tr0,15549,404274).
route(harbor16,prodloc27,tr13,15549,93294).
route(harbor16,prodloc28,tr0,8644,224744).
route(harbor16,prodloc28,tr13,8644,51864).
route(harbor16,prodloc29,tr0,14828,385528).
route(harbor16,prodloc29,tr13,14828,88968).
route(harbor16,prodloc30,tr0,12705,330330).
route(harbor16,prodloc30,tr13,12705,76230).
route(harbor16,prodloc31,tr0,26164,680264).
route(harbor16,prodloc31,tr13,26164,156984).
route(harbor16,prodloc32,tr0,22198,577148).
route(harbor16,prodloc32,tr13,22198,133188).
route(harbor16,prodloc33,tr0,299,7774).
route(harbor16,prodloc33,tr13,299,1794).
route(prodloc0,harbor0,tr0,17103,444678).
route(prodloc0,harbor0,tr13,17103,102618).
route(prodloc0,harbor1,tr0,25233,656058).
route(prodloc0,harbor1,tr13,25233,151398).
route(prodloc0,harbor2,tr0,5298,137748).
route(prodloc0,harbor2,tr13,5298,31788).
route(prodloc0,harbor3,tr0,13329,346554).
route(prodloc0,harbor3,tr13,13329,79974).
route(prodloc0,harbor4,tr0,22118,575068).
route(prodloc0,harbor4,tr13,22118,132708).
route(prodloc0,harbor5,tr0,11011,286286).
route(prodloc0,harbor5,tr13,11011,66066).
route(prodloc0,harbor6,tr0,293,7618).
route(prodloc0,harbor6,tr13,293,1758).
route(prodloc0,harbor7,tr0,6934,180284).
route(prodloc0,harbor7,tr13,6934,41604).
route(prodloc0,harbor8,tr0,21279,553254).
route(prodloc0,harbor8,tr13,21279,127674).
route(prodloc0,harbor9,tr0,24394,634244).
route(prodloc0,harbor9,tr13,24394,146364).
route(prodloc0,harbor10,tr0,1876,48776).
route(prodloc0,harbor10,tr13,1876,11256).
route(prodloc0,harbor11,tr0,15856,412256).
route(prodloc0,harbor11,tr13,15856,95136).
route(prodloc0,harbor12,tr0,9313,242138).
route(prodloc0,harbor12,tr13,9313,55878).
route(prodloc0,harbor13,tr0,3998,103948).
route(prodloc0,harbor13,tr13,3998,23988).
route(prodloc0,harbor14,tr0,20113,522938).
route(prodloc0,harbor14,tr13,20113,120678).
route(prodloc0,harbor15,tr0,26515,689390).
route(prodloc0,harbor15,tr13,26515,159090).
route(prodloc0,harbor16,tr0,20774,540124).
route(prodloc0,harbor16,tr13,20774,124644).
route(prodloc0,prodloc1,tr0,20900,543400).
route(prodloc0,prodloc1,tr13,20900,125400).
route(prodloc0,prodloc2,tr0,11854,308204).
route(prodloc0,prodloc2,tr13,11854,71124).
route(prodloc0,prodloc3,tr0,8450,219700).
route(prodloc0,prodloc3,tr13,8450,50700).
route(prodloc0,prodloc4,tr0,16740,435240).
route(prodloc0,prodloc4,tr13,16740,100440).
route(prodloc0,prodloc5,tr0,11958,310908).
route(prodloc0,prodloc5,tr13,11958,71748).
route(prodloc0,prodloc6,tr0,23036,598936).
route(prodloc0,prodloc6,tr13,23036,138216).
route(prodloc0,prodloc7,tr0,9892,257192).
route(prodloc0,prodloc7,tr13,9892,59352).
route(prodloc0,prodloc8,tr0,22760,591760).
route(prodloc0,prodloc8,tr13,22760,136560).
route(prodloc0,prodloc9,tr0,7462,194012).
route(prodloc0,prodloc9,tr13,7462,44772).
route(prodloc0,prodloc10,tr0,1063,27638).
route(prodloc0,prodloc10,tr13,1063,6378).
route(prodloc0,prodloc11,tr0,8108,210808).
route(prodloc0,prodloc11,tr13,8108,48648).
route(prodloc0,prodloc12,tr0,825,21450).
route(prodloc0,prodloc12,tr13,825,4950).
route(prodloc0,prodloc13,tr0,16277,423202).
route(prodloc0,prodloc13,tr13,16277,97662).
route(prodloc0,prodloc14,tr0,2307,59982).
route(prodloc0,prodloc14,tr13,2307,13842).
route(prodloc0,prodloc15,tr0,24647,640822).
route(prodloc0,prodloc15,tr13,24647,147882).
route(prodloc0,prodloc16,tr0,14044,365144).
route(prodloc0,prodloc16,tr13,14044,84264).
route(prodloc0,prodloc17,tr0,26947,700622).
route(prodloc0,prodloc17,tr13,26947,161682).
route(prodloc0,prodloc18,tr0,1065,27690).
route(prodloc0,prodloc18,tr13,1065,6390).
route(prodloc0,prodloc19,tr0,12912,335712).
route(prodloc0,prodloc19,tr13,12912,77472).
route(prodloc0,prodloc20,tr0,21262,552812).
route(prodloc0,prodloc20,tr13,21262,127572).
route(prodloc0,prodloc21,tr0,23841,619866).
route(prodloc0,prodloc21,tr13,23841,143046).
route(prodloc0,prodloc22,tr0,11370,295620).
route(prodloc0,prodloc22,tr13,11370,68220).
route(prodloc0,prodloc23,tr0,28255,734630).
route(prodloc0,prodloc23,tr13,28255,169530).
route(prodloc0,prodloc24,tr0,27355,711230).
route(prodloc0,prodloc24,tr13,27355,164130).
route(prodloc0,prodloc25,tr0,20118,523068).
route(prodloc0,prodloc25,tr13,20118,120708).
route(prodloc0,prodloc26,tr0,26677,693602).
route(prodloc0,prodloc26,tr13,26677,160062).
route(prodloc0,prodloc27,tr0,7224,187824).
route(prodloc0,prodloc27,tr13,7224,43344).
route(prodloc0,prodloc28,tr0,24675,641550).
route(prodloc0,prodloc28,tr13,24675,148050).
route(prodloc0,prodloc29,tr0,19792,514592).
route(prodloc0,prodloc29,tr13,19792,118752).
route(prodloc0,prodloc30,tr0,21109,548834).
route(prodloc0,prodloc30,tr13,21109,126654).
route(prodloc0,prodloc31,tr0,28872,750672).
route(prodloc0,prodloc31,tr13,28872,173232).
route(prodloc0,prodloc32,tr0,8642,224692).
route(prodloc0,prodloc32,tr13,8642,51852).
route(prodloc0,prodloc33,tr0,8951,232726).
route(prodloc0,prodloc33,tr13,8951,53706).
route(prodloc1,harbor0,tr0,16594,431444).
route(prodloc1,harbor0,tr13,16594,99564).
route(prodloc1,harbor1,tr0,9365,243490).
route(prodloc1,harbor1,tr13,9365,56190).
route(prodloc1,harbor2,tr0,18650,484900).
route(prodloc1,harbor2,tr13,18650,111900).
route(prodloc1,harbor3,tr0,17469,454194).
route(prodloc1,harbor3,tr13,17469,104814).
route(prodloc1,harbor4,tr0,26680,693680).
route(prodloc1,harbor4,tr13,26680,160080).
route(prodloc1,harbor5,tr0,1963,51038).
route(prodloc1,harbor5,tr13,1963,11778).
route(prodloc1,harbor6,tr0,167,4342).
route(prodloc1,harbor6,tr13,167,1002).
route(prodloc1,harbor7,tr0,8432,219232).
route(prodloc1,harbor7,tr13,8432,50592).
route(prodloc1,harbor8,tr0,20699,538174).
route(prodloc1,harbor8,tr13,20699,124194).
route(prodloc1,harbor9,tr0,26550,690300).
route(prodloc1,harbor9,tr13,26550,159300).
route(prodloc1,harbor10,tr0,12032,312832).
route(prodloc1,harbor10,tr13,12032,72192).
route(prodloc1,harbor11,tr0,398,10348).
route(prodloc1,harbor11,tr13,398,2388).
route(prodloc1,harbor12,tr0,22999,597974).
route(prodloc1,harbor12,tr13,22999,137994).
route(prodloc1,harbor13,tr0,19080,496080).
route(prodloc1,harbor13,tr13,19080,114480).
route(prodloc1,harbor14,tr0,24033,624858).
route(prodloc1,harbor14,tr13,24033,144198).
route(prodloc1,harbor15,tr0,7312,190112).
route(prodloc1,harbor15,tr13,7312,43872).
route(prodloc1,harbor16,tr0,18121,471146).
route(prodloc1,harbor16,tr13,18121,108726).
route(prodloc1,prodloc0,tr0,26912,699712).
route(prodloc1,prodloc0,tr13,26912,161472).
route(prodloc1,prodloc2,tr0,4346,112996).
route(prodloc1,prodloc2,tr13,4346,26076).
route(prodloc1,prodloc3,tr0,22091,574366).
route(prodloc1,prodloc3,tr13,22091,132546).
route(prodloc1,prodloc4,tr0,14627,380302).
route(prodloc1,prodloc4,tr13,14627,87762).
route(prodloc1,prodloc5,tr0,1206,31356).
route(prodloc1,prodloc5,tr13,1206,7236).
route(prodloc1,prodloc6,tr0,27600,717600).
route(prodloc1,prodloc6,tr13,27600,165600).
route(prodloc1,prodloc7,tr0,10316,268216).
route(prodloc1,prodloc7,tr13,10316,61896).
route(prodloc1,prodloc8,tr0,26487,688662).
route(prodloc1,prodloc8,tr13,26487,158922).
route(prodloc1,prodloc9,tr0,2945,76570).
route(prodloc1,prodloc9,tr13,2945,17670).
route(prodloc1,prodloc10,tr0,20142,523692).
route(prodloc1,prodloc10,tr13,20142,120852).
route(prodloc1,prodloc11,tr0,25191,654966).
route(prodloc1,prodloc11,tr13,25191,151146).
route(prodloc1,prodloc12,tr0,19482,506532).
route(prodloc1,prodloc12,tr13,19482,116892).
route(prodloc1,prodloc13,tr0,12039,313014).
route(prodloc1,prodloc13,tr13,12039,72234).
route(prodloc1,prodloc14,tr0,1116,29016).
route(prodloc1,prodloc14,tr13,1116,6696).
route(prodloc1,prodloc15,tr0,6533,169858).
route(prodloc1,prodloc15,tr13,6533,39198).
route(prodloc1,prodloc16,tr0,9808,255008).
route(prodloc1,prodloc16,tr13,9808,58848).
route(prodloc1,prodloc17,tr0,16811,437086).
route(prodloc1,prodloc17,tr13,16811,100866).
route(prodloc1,prodloc18,tr0,26141,679666).
route(prodloc1,prodloc18,tr13,26141,156846).
route(prodloc1,prodloc19,tr0,8430,219180).
route(prodloc1,prodloc19,tr13,8430,50580).
route(prodloc1,prodloc20,tr0,18413,478738).
route(prodloc1,prodloc20,tr13,18413,110478).
route(prodloc1,prodloc21,tr0,24064,625664).
route(prodloc1,prodloc21,tr13,24064,144384).
route(prodloc1,prodloc22,tr0,6933,180258).
route(prodloc1,prodloc22,tr13,6933,41598).
route(prodloc1,prodloc23,tr13,16792,100752).
route(prodloc1,prodloc23,tr15,16792,537344).
route(prodloc1,prodloc24,tr0,283,7358).
route(prodloc1,prodloc24,tr13,283,1698).
route(prodloc1,prodloc25,tr0,12136,315536).
route(prodloc1,prodloc25,tr13,12136,72816).
route(prodloc1,prodloc26,tr13,13829,82974).
route(prodloc1,prodloc26,tr15,13829,442528).
route(prodloc1,prodloc27,tr0,3131,81406).
route(prodloc1,prodloc27,tr15,3131,100192).
route(prodloc1,prodloc28,tr0,8632,224432).
route(prodloc1,prodloc28,tr13,8632,51792).
route(prodloc1,prodloc29,tr0,25201,655226).
route(prodloc1,prodloc29,tr13,25201,151206).
route(prodloc1,prodloc30,tr0,24328,632528).
route(prodloc1,prodloc30,tr13,24328,145968).
route(prodloc1,prodloc31,tr0,28947,752622).
route(prodloc1,prodloc31,tr13,28947,173682).
route(prodloc1,prodloc32,tr0,21891,569166).
route(prodloc1,prodloc32,tr13,21891,131346).
route(prodloc1,prodloc33,tr0,23696,616096).
route(prodloc1,prodloc33,tr15,23696,758272).
route(prodloc2,harbor0,tr0,18812,489112).
route(prodloc2,harbor0,tr13,18812,112872).
route(prodloc2,harbor1,tr0,9181,238706).
route(prodloc2,harbor1,tr13,9181,55086).
route(prodloc2,harbor2,tr0,20823,541398).
route(prodloc2,harbor2,tr13,20823,124938).
route(prodloc2,harbor3,tr0,18082,470132).
route(prodloc2,harbor3,tr13,18082,108492).
route(prodloc2,harbor4,tr0,16525,429650).
route(prodloc2,harbor4,tr13,16525,99150).
route(prodloc2,harbor5,tr0,17447,453622).
route(prodloc2,harbor5,tr13,17447,104682).
route(prodloc2,harbor6,tr0,12544,326144).
route(prodloc2,harbor6,tr13,12544,75264).
route(prodloc2,harbor7,tr0,17736,461136).
route(prodloc2,harbor7,tr13,17736,106416).
route(prodloc2,harbor8,tr0,19020,494520).
route(prodloc2,harbor8,tr13,19020,114120).
route(prodloc2,harbor9,tr0,7129,185354).
route(prodloc2,harbor9,tr13,7129,42774).
route(prodloc2,harbor10,tr0,20176,524576).
route(prodloc2,harbor10,tr13,20176,121056).
route(prodloc2,harbor11,tr0,5086,132236).
route(prodloc2,harbor11,tr13,5086,30516).
route(prodloc2,harbor12,tr0,9818,255268).
route(prodloc2,harbor12,tr13,9818,58908).
route(prodloc2,harbor13,tr0,1805,46930).
route(prodloc2,harbor13,tr13,1805,10830).
route(prodloc2,harbor14,tr0,18662,485212).
route(prodloc2,harbor14,tr13,18662,111972).
route(prodloc2,harbor15,tr0,22607,587782).
route(prodloc2,harbor15,tr13,22607,135642).
route(prodloc2,harbor16,tr0,5466,142116).
route(prodloc2,harbor16,tr13,5466,32796).
route(prodloc2,prodloc0,tr0,14973,389298).
route(prodloc2,prodloc0,tr13,14973,89838).
route(prodloc2,prodloc1,tr0,28326,736476).
route(prodloc2,prodloc1,tr13,28326,169956).
route(prodloc2,prodloc3,tr0,20133,523458).
route(prodloc2,prodloc3,tr13,20133,120798).
route(prodloc2,prodloc4,tr0,21253,552578).
route(prodloc2,prodloc4,tr13,21253,127518).
route(prodloc2,prodloc5,tr0,28175,732550).
route(prodloc2,prodloc5,tr13,28175,169050).
route(prodloc2,prodloc6,tr0,10043,261118).
route(prodloc2,prodloc6,tr13,10043,60258).
route(prodloc2,prodloc7,tr0,3679,95654).
route(prodloc2,prodloc7,tr13,3679,22074).
route(prodloc2,prodloc8,tr0,5403,140478).
route(prodloc2,prodloc8,tr13,5403,32418).
route(prodloc2,prodloc9,tr0,3022,78572).
route(prodloc2,prodloc9,tr13,3022,18132).
route(prodloc2,prodloc10,tr0,1708,44408).
route(prodloc2,prodloc10,tr13,1708,10248).
route(prodloc2,prodloc11,tr0,6643,172718).
route(prodloc2,prodloc11,tr13,6643,39858).
route(prodloc2,prodloc12,tr0,6633,172458).
route(prodloc2,prodloc12,tr13,6633,39798).
route(prodloc2,prodloc13,tr0,26037,676962).
route(prodloc2,prodloc13,tr13,26037,156222).
route(prodloc2,prodloc14,tr0,7636,198536).
route(prodloc2,prodloc14,tr13,7636,45816).
route(prodloc2,prodloc15,tr0,12139,315614).
route(prodloc2,prodloc15,tr13,12139,72834).
route(prodloc2,prodloc16,tr0,17082,444132).
route(prodloc2,prodloc16,tr13,17082,102492).
route(prodloc2,prodloc17,tr0,9353,243178).
route(prodloc2,prodloc17,tr13,9353,56118).
route(prodloc2,prodloc18,tr0,16136,419536).
route(prodloc2,prodloc18,tr13,16136,96816).
route(prodloc2,prodloc19,tr0,4,104).
route(prodloc2,prodloc19,tr13,4,24).
route(prodloc2,prodloc20,tr0,2208,57408).
route(prodloc2,prodloc20,tr13,2208,13248).
route(prodloc2,prodloc21,tr0,14137,367562).
route(prodloc2,prodloc21,tr13,14137,84822).
route(prodloc2,prodloc22,tr0,17650,458900).
route(prodloc2,prodloc22,tr13,17650,105900).
route(prodloc2,prodloc23,tr0,14816,385216).
route(prodloc2,prodloc23,tr13,14816,88896).
route(prodloc2,prodloc24,tr0,19087,496262).
route(prodloc2,prodloc24,tr13,19087,114522).
route(prodloc2,prodloc25,tr0,23424,609024).
route(prodloc2,prodloc25,tr13,23424,140544).
route(prodloc2,prodloc26,tr0,22989,597714).
route(prodloc2,prodloc26,tr13,22989,137934).
route(prodloc2,prodloc27,tr0,22379,581854).
route(prodloc2,prodloc27,tr13,22379,134274).
route(prodloc2,prodloc28,tr0,5427,141102).
route(prodloc2,prodloc28,tr13,5427,32562).
route(prodloc2,prodloc29,tr0,3329,86554).
route(prodloc2,prodloc29,tr13,3329,19974).
route(prodloc2,prodloc30,tr0,21256,552656).
route(prodloc2,prodloc30,tr13,21256,127536).
route(prodloc2,prodloc31,tr0,24759,643734).
route(prodloc2,prodloc31,tr13,24759,148554).
route(prodloc2,prodloc32,tr0,10855,282230).
route(prodloc2,prodloc32,tr13,10855,65130).
route(prodloc2,prodloc33,tr0,16121,419146).
route(prodloc2,prodloc33,tr13,16121,96726).
route(prodloc3,harbor0,tr0,12873,334698).
route(prodloc3,harbor0,tr13,12873,77238).
route(prodloc3,harbor1,tr0,22749,591474).
route(prodloc3,harbor1,tr13,22749,136494).
route(prodloc3,harbor2,tr0,17404,452504).
route(prodloc3,harbor2,tr13,17404,104424).
route(prodloc3,harbor3,tr0,156,4056).
route(prodloc3,harbor3,tr13,156,936).
route(prodloc3,harbor4,tr0,16965,441090).
route(prodloc3,harbor4,tr13,16965,101790).
route(prodloc3,harbor5,tr0,13395,348270).
route(prodloc3,harbor5,tr13,13395,80370).
route(prodloc3,harbor6,tr0,14949,388674).
route(prodloc3,harbor6,tr13,14949,89694).
route(prodloc3,harbor7,tr0,6463,168038).
route(prodloc3,harbor7,tr13,6463,38778).
route(prodloc3,harbor8,tr0,20083,522158).
route(prodloc3,harbor8,tr13,20083,120498).
route(prodloc3,harbor9,tr0,26307,683982).
route(prodloc3,harbor9,tr13,26307,157842).
route(prodloc3,harbor10,tr0,971,25246).
route(prodloc3,harbor10,tr13,971,5826).
route(prodloc3,harbor11,tr0,3808,99008).
route(prodloc3,harbor11,tr13,3808,22848).
route(prodloc3,harbor12,tr0,830,21580).
route(prodloc3,harbor12,tr13,830,4980).
route(prodloc3,harbor13,tr0,8825,229450).
route(prodloc3,harbor13,tr13,8825,52950).
route(prodloc3,harbor14,tr0,10655,277030).
route(prodloc3,harbor14,tr13,10655,63930).
route(prodloc3,harbor15,tr0,20091,522366).
route(prodloc3,harbor15,tr13,20091,120546).
route(prodloc3,harbor16,tr0,26774,696124).
route(prodloc3,harbor16,tr13,26774,160644).
route(prodloc3,prodloc0,tr0,25608,665808).
route(prodloc3,prodloc0,tr15,25608,819456).
route(prodloc3,prodloc1,tr0,6329,164554).
route(prodloc3,prodloc1,tr13,6329,37974).
route(prodloc3,prodloc2,tr0,5942,154492).
route(prodloc3,prodloc2,tr13,5942,35652).
route(prodloc3,prodloc4,tr0,22362,581412).
route(prodloc3,prodloc4,tr13,22362,134172).
route(prodloc3,prodloc5,tr0,28855,750230).
route(prodloc3,prodloc5,tr13,28855,173130).
route(prodloc3,prodloc6,tr0,25814,671164).
route(prodloc3,prodloc6,tr13,25814,154884).
route(prodloc3,prodloc7,tr0,18826,489476).
route(prodloc3,prodloc7,tr13,18826,112956).
route(prodloc3,prodloc8,tr0,19517,507442).
route(prodloc3,prodloc8,tr13,19517,117102).
route(prodloc3,prodloc9,tr0,6521,169546).
route(prodloc3,prodloc9,tr13,6521,39126).
route(prodloc3,prodloc10,tr0,12671,329446).
route(prodloc3,prodloc10,tr13,12671,76026).
route(prodloc3,prodloc11,tr0,23353,607178).
route(prodloc3,prodloc11,tr13,23353,140118).
route(prodloc3,prodloc12,tr0,24409,634634).
route(prodloc3,prodloc12,tr13,24409,146454).
route(prodloc3,prodloc13,tr0,3907,101582).
route(prodloc3,prodloc13,tr13,3907,23442).
route(prodloc3,prodloc14,tr0,27237,708162).
route(prodloc3,prodloc14,tr13,27237,163422).
route(prodloc3,prodloc15,tr0,8775,228150).
route(prodloc3,prodloc15,tr13,8775,52650).
route(prodloc3,prodloc16,tr0,27514,715364).
route(prodloc3,prodloc16,tr13,27514,165084).
route(prodloc3,prodloc17,tr0,28331,736606).
route(prodloc3,prodloc17,tr13,28331,169986).
route(prodloc3,prodloc18,tr0,21779,566254).
route(prodloc3,prodloc18,tr13,21779,130674).
route(prodloc3,prodloc19,tr13,7049,42294).
route(prodloc3,prodloc19,tr15,7049,225568).
route(prodloc3,prodloc20,tr0,6633,172458).
route(prodloc3,prodloc20,tr15,6633,212256).
route(prodloc3,prodloc21,tr0,8457,219882).
route(prodloc3,prodloc21,tr13,8457,50742).
route(prodloc3,prodloc22,tr0,4467,116142).
route(prodloc3,prodloc22,tr13,4467,26802).
route(prodloc3,prodloc23,tr13,11869,71214).
route(prodloc3,prodloc23,tr15,11869,379808).
route(prodloc3,prodloc24,tr0,17491,454766).
route(prodloc3,prodloc24,tr13,17491,104946).
route(prodloc3,prodloc25,tr0,21811,567086).
route(prodloc3,prodloc25,tr13,21811,130866).
route(prodloc3,prodloc26,tr0,4742,123292).
route(prodloc3,prodloc26,tr13,4742,28452).
route(prodloc3,prodloc27,tr0,16830,437580).
route(prodloc3,prodloc27,tr13,16830,100980).
route(prodloc3,prodloc28,tr0,10032,260832).
route(prodloc3,prodloc28,tr13,10032,60192).
route(prodloc3,prodloc29,tr13,2791,16746).
route(prodloc3,prodloc29,tr15,2791,89312).
route(prodloc3,prodloc30,tr0,2858,74308).
route(prodloc3,prodloc30,tr13,2858,17148).
route(prodloc3,prodloc31,tr0,20557,534482).
route(prodloc3,prodloc31,tr13,20557,123342).
route(prodloc3,prodloc32,tr0,15862,412412).
route(prodloc3,prodloc32,tr13,15862,95172).
route(prodloc3,prodloc33,tr0,9830,255580).
route(prodloc3,prodloc33,tr13,9830,58980).
route(prodloc4,harbor0,tr0,20621,536146).
route(prodloc4,harbor0,tr13,20621,123726).
route(prodloc4,harbor1,tr0,18036,468936).
route(prodloc4,harbor1,tr13,18036,108216).
route(prodloc4,harbor2,tr0,13327,346502).
route(prodloc4,harbor2,tr13,13327,79962).
route(prodloc4,harbor3,tr0,13776,358176).
route(prodloc4,harbor3,tr13,13776,82656).
route(prodloc4,harbor4,tr0,10882,282932).
route(prodloc4,harbor4,tr13,10882,65292).
route(prodloc4,harbor5,tr0,19219,499694).
route(prodloc4,harbor5,tr13,19219,115314).
route(prodloc4,harbor6,tr0,6622,172172).
route(prodloc4,harbor6,tr13,6622,39732).
route(prodloc4,harbor7,tr0,16821,437346).
route(prodloc4,harbor7,tr13,16821,100926).
route(prodloc4,harbor8,tr0,23040,599040).
route(prodloc4,harbor8,tr13,23040,138240).
route(prodloc4,harbor9,tr0,8141,211666).
route(prodloc4,harbor9,tr13,8141,48846).
route(prodloc4,harbor10,tr0,7918,205868).
route(prodloc4,harbor10,tr13,7918,47508).
route(prodloc4,harbor11,tr0,9781,254306).
route(prodloc4,harbor11,tr13,9781,58686).
route(prodloc4,harbor12,tr0,8929,232154).
route(prodloc4,harbor12,tr13,8929,53574).
route(prodloc4,harbor13,tr0,12688,329888).
route(prodloc4,harbor13,tr13,12688,76128).
route(prodloc4,harbor14,tr0,9733,253058).
route(prodloc4,harbor14,tr13,9733,58398).
route(prodloc4,harbor15,tr0,5456,141856).
route(prodloc4,harbor15,tr13,5456,32736).
route(prodloc4,harbor16,tr0,6338,164788).
route(prodloc4,harbor16,tr13,6338,38028).
route(prodloc4,prodloc0,tr0,19778,514228).
route(prodloc4,prodloc0,tr13,19778,118668).
route(prodloc4,prodloc1,tr0,13156,342056).
route(prodloc4,prodloc1,tr13,13156,78936).
route(prodloc4,prodloc2,tr0,20875,542750).
route(prodloc4,prodloc2,tr13,20875,125250).
route(prodloc4,prodloc3,tr0,17782,462332).
route(prodloc4,prodloc3,tr13,17782,106692).
route(prodloc4,prodloc5,tr0,11119,289094).
route(prodloc4,prodloc5,tr13,11119,66714).
route(prodloc4,prodloc6,tr0,7298,189748).
route(prodloc4,prodloc6,tr13,7298,43788).
route(prodloc4,prodloc7,tr0,8748,227448).
route(prodloc4,prodloc7,tr13,8748,52488).
route(prodloc4,prodloc8,tr13,25377,152262).
route(prodloc4,prodloc8,tr15,25377,812064).
route(prodloc4,prodloc9,tr0,573,14898).
route(prodloc4,prodloc9,tr13,573,3438).
route(prodloc4,prodloc10,tr0,6395,166270).
route(prodloc4,prodloc10,tr13,6395,38370).
route(prodloc4,prodloc11,tr0,11171,290446).
route(prodloc4,prodloc11,tr13,11171,67026).
route(prodloc4,prodloc12,tr0,17305,449930).
route(prodloc4,prodloc12,tr15,17305,553760).
route(prodloc4,prodloc13,tr0,25561,664586).
route(prodloc4,prodloc13,tr13,25561,153366).
route(prodloc4,prodloc14,tr0,11721,304746).
route(prodloc4,prodloc14,tr13,11721,70326).
route(prodloc4,prodloc15,tr0,22191,576966).
route(prodloc4,prodloc15,tr13,22191,133146).
route(prodloc4,prodloc16,tr0,28301,735826).
route(prodloc4,prodloc16,tr13,28301,169806).
route(prodloc4,prodloc17,tr0,9653,250978).
route(prodloc4,prodloc17,tr13,9653,57918).
route(prodloc4,prodloc18,tr0,15237,396162).
route(prodloc4,prodloc18,tr13,15237,91422).
route(prodloc4,prodloc19,tr0,12164,316264).
route(prodloc4,prodloc19,tr13,12164,72984).
route(prodloc4,prodloc20,tr0,13093,340418).
route(prodloc4,prodloc20,tr13,13093,78558).
route(prodloc4,prodloc21,tr0,17283,449358).
route(prodloc4,prodloc21,tr13,17283,103698).
route(prodloc4,prodloc22,tr0,13262,344812).
route(prodloc4,prodloc22,tr13,13262,79572).
route(prodloc4,prodloc23,tr0,8990,233740).
route(prodloc4,prodloc23,tr13,8990,53940).
route(prodloc4,prodloc24,tr0,20562,534612).
route(prodloc4,prodloc24,tr13,20562,123372).
route(prodloc4,prodloc25,tr0,5283,137358).
route(prodloc4,prodloc25,tr13,5283,31698).
route(prodloc4,prodloc26,tr13,7158,42948).
route(prodloc4,prodloc26,tr15,7158,229056).
route(prodloc4,prodloc27,tr0,1275,33150).
route(prodloc4,prodloc27,tr13,1275,7650).
route(prodloc4,prodloc28,tr0,20253,526578).
route(prodloc4,prodloc28,tr13,20253,121518).
route(prodloc4,prodloc29,tr0,8691,225966).
route(prodloc4,prodloc29,tr13,8691,52146).
route(prodloc4,prodloc30,tr0,18691,485966).
route(prodloc4,prodloc30,tr13,18691,112146).
route(prodloc4,prodloc31,tr0,18641,484666).
route(prodloc4,prodloc31,tr13,18641,111846).
route(prodloc4,prodloc32,tr0,13336,346736).
route(prodloc4,prodloc32,tr13,13336,80016).
route(prodloc4,prodloc33,tr0,11279,293254).
route(prodloc4,prodloc33,tr13,11279,67674).
route(prodloc5,harbor0,tr0,7752,201552).
route(prodloc5,harbor0,tr13,7752,46512).
route(prodloc5,harbor1,tr0,5344,138944).
route(prodloc5,harbor1,tr13,5344,32064).
route(prodloc5,harbor2,tr0,10690,277940).
route(prodloc5,harbor2,tr13,10690,64140).
route(prodloc5,harbor3,tr0,18052,469352).
route(prodloc5,harbor3,tr13,18052,108312).
route(prodloc5,harbor4,tr0,26044,677144).
route(prodloc5,harbor4,tr13,26044,156264).
route(prodloc5,harbor5,tr0,15796,410696).
route(prodloc5,harbor5,tr13,15796,94776).
route(prodloc5,harbor6,tr0,1645,42770).
route(prodloc5,harbor6,tr13,1645,9870).
route(prodloc5,harbor7,tr0,8081,210106).
route(prodloc5,harbor7,tr13,8081,48486).
route(prodloc5,harbor8,tr0,5675,147550).
route(prodloc5,harbor8,tr13,5675,34050).
route(prodloc5,harbor9,tr0,6327,164502).
route(prodloc5,harbor9,tr13,6327,37962).
route(prodloc5,harbor10,tr0,22376,581776).
route(prodloc5,harbor10,tr13,22376,134256).
route(prodloc5,harbor11,tr0,7052,183352).
route(prodloc5,harbor11,tr13,7052,42312).
route(prodloc5,harbor12,tr0,28169,732394).
route(prodloc5,harbor12,tr13,28169,169014).
route(prodloc5,harbor13,tr0,3147,81822).
route(prodloc5,harbor13,tr13,3147,18882).
route(prodloc5,harbor14,tr0,4031,104806).
route(prodloc5,harbor14,tr13,4031,24186).
route(prodloc5,harbor15,tr0,28521,741546).
route(prodloc5,harbor15,tr13,28521,171126).
route(prodloc5,harbor16,tr0,16908,439608).
route(prodloc5,harbor16,tr13,16908,101448).
route(prodloc5,prodloc0,tr0,13839,359814).
route(prodloc5,prodloc0,tr13,13839,83034).
route(prodloc5,prodloc1,tr0,10294,267644).
route(prodloc5,prodloc1,tr13,10294,61764).
route(prodloc5,prodloc2,tr0,23459,609934).
route(prodloc5,prodloc2,tr13,23459,140754).
route(prodloc5,prodloc3,tr0,22346,580996).
route(prodloc5,prodloc3,tr13,22346,134076).
route(prodloc5,prodloc4,tr0,2010,52260).
route(prodloc5,prodloc4,tr13,2010,12060).
route(prodloc5,prodloc6,tr0,8035,208910).
route(prodloc5,prodloc6,tr13,8035,48210).
route(prodloc5,prodloc7,tr0,4187,108862).
route(prodloc5,prodloc7,tr13,4187,25122).
route(prodloc5,prodloc8,tr0,16747,435422).
route(prodloc5,prodloc8,tr13,16747,100482).
route(prodloc5,prodloc9,tr0,4722,122772).
route(prodloc5,prodloc9,tr13,4722,28332).
route(prodloc5,prodloc10,tr0,11340,294840).
route(prodloc5,prodloc10,tr13,11340,68040).
route(prodloc5,prodloc11,tr0,8212,213512).
route(prodloc5,prodloc11,tr13,8212,49272).
route(prodloc5,prodloc12,tr0,737,19162).
route(prodloc5,prodloc12,tr13,737,4422).
route(prodloc5,prodloc13,tr0,7156,186056).
route(prodloc5,prodloc13,tr13,7156,42936).
route(prodloc5,prodloc14,tr0,11296,293696).
route(prodloc5,prodloc14,tr13,11296,67776).
route(prodloc5,prodloc15,tr0,28556,742456).
route(prodloc5,prodloc15,tr13,28556,171336).
route(prodloc5,prodloc16,tr0,13617,354042).
route(prodloc5,prodloc16,tr13,13617,81702).
route(prodloc5,prodloc17,tr0,18947,492622).
route(prodloc5,prodloc17,tr13,18947,113682).
route(prodloc5,prodloc18,tr0,23151,601926).
route(prodloc5,prodloc18,tr13,23151,138906).
route(prodloc5,prodloc19,tr0,20651,536926).
route(prodloc5,prodloc19,tr13,20651,123906).
route(prodloc5,prodloc20,tr0,3032,78832).
route(prodloc5,prodloc20,tr13,3032,18192).
route(prodloc5,prodloc21,tr0,25324,658424).
route(prodloc5,prodloc21,tr13,25324,151944).
route(prodloc5,prodloc22,tr0,24033,624858).
route(prodloc5,prodloc22,tr13,24033,144198).
route(prodloc5,prodloc23,tr0,8383,217958).
route(prodloc5,prodloc23,tr13,8383,50298).
route(prodloc5,prodloc24,tr0,10617,276042).
route(prodloc5,prodloc24,tr13,10617,63702).
route(prodloc5,prodloc25,tr0,2585,67210).
route(prodloc5,prodloc25,tr13,2585,15510).
route(prodloc5,prodloc26,tr0,13783,358358).
route(prodloc5,prodloc26,tr13,13783,82698).
route(prodloc5,prodloc27,tr0,27431,713206).
route(prodloc5,prodloc27,tr13,27431,164586).
route(prodloc5,prodloc28,tr0,11487,298662).
route(prodloc5,prodloc28,tr13,11487,68922).
route(prodloc5,prodloc29,tr0,12172,316472).
route(prodloc5,prodloc29,tr13,12172,73032).
route(prodloc5,prodloc30,tr0,7818,203268).
route(prodloc5,prodloc30,tr15,7818,250176).
route(prodloc5,prodloc31,tr0,6987,181662).
route(prodloc5,prodloc31,tr13,6987,41922).
route(prodloc5,prodloc32,tr0,10561,274586).
route(prodloc5,prodloc32,tr13,10561,63366).
route(prodloc5,prodloc33,tr0,4796,124696).
route(prodloc5,prodloc33,tr13,4796,28776).
route(prodloc6,harbor0,tr0,23054,599404).
route(prodloc6,harbor0,tr13,23054,138324).
route(prodloc6,harbor1,tr0,15598,405548).
route(prodloc6,harbor1,tr13,15598,93588).
route(prodloc6,harbor2,tr0,14139,367614).
route(prodloc6,harbor2,tr13,14139,84834).
route(prodloc6,harbor3,tr0,1135,29510).
route(prodloc6,harbor3,tr13,1135,6810).
route(prodloc6,harbor4,tr0,1820,47320).
route(prodloc6,harbor4,tr13,1820,10920).
route(prodloc6,harbor5,tr0,5532,143832).
route(prodloc6,harbor5,tr13,5532,33192).
route(prodloc6,harbor6,tr0,26642,692692).
route(prodloc6,harbor6,tr13,26642,159852).
route(prodloc6,harbor7,tr0,13810,359060).
route(prodloc6,harbor7,tr13,13810,82860).
route(prodloc6,harbor8,tr0,21784,566384).
route(prodloc6,harbor8,tr13,21784,130704).
route(prodloc6,harbor9,tr0,1749,45474).
route(prodloc6,harbor9,tr13,1749,10494).
route(prodloc6,harbor10,tr0,1924,50024).
route(prodloc6,harbor10,tr13,1924,11544).
route(prodloc6,harbor11,tr0,18837,489762).
route(prodloc6,harbor11,tr13,18837,113022).
route(prodloc6,harbor12,tr0,2170,56420).
route(prodloc6,harbor12,tr13,2170,13020).
route(prodloc6,harbor13,tr0,11190,290940).
route(prodloc6,harbor13,tr13,11190,67140).
route(prodloc6,harbor14,tr0,17280,449280).
route(prodloc6,harbor14,tr13,17280,103680).
route(prodloc6,harbor15,tr0,26136,679536).
route(prodloc6,harbor15,tr13,26136,156816).
route(prodloc6,harbor16,tr0,13552,352352).
route(prodloc6,harbor16,tr13,13552,81312).
route(prodloc6,prodloc0,tr0,22944,596544).
route(prodloc6,prodloc0,tr13,22944,137664).
route(prodloc6,prodloc1,tr0,5550,144300).
route(prodloc6,prodloc1,tr13,5550,33300).
route(prodloc6,prodloc2,tr0,18973,493298).
route(prodloc6,prodloc2,tr13,18973,113838).
route(prodloc6,prodloc3,tr0,19739,513214).
route(prodloc6,prodloc3,tr13,19739,118434).
route(prodloc6,prodloc4,tr0,12094,314444).
route(prodloc6,prodloc4,tr13,12094,72564).
route(prodloc6,prodloc5,tr0,11629,302354).
route(prodloc6,prodloc5,tr13,11629,69774).
route(prodloc6,prodloc7,tr0,9137,237562).
route(prodloc6,prodloc7,tr13,9137,54822).
route(prodloc6,prodloc8,tr0,1090,28340).
route(prodloc6,prodloc8,tr13,1090,6540).
route(prodloc6,prodloc9,tr0,844,21944).
route(prodloc6,prodloc9,tr13,844,5064).
route(prodloc6,prodloc10,tr0,14247,370422).
route(prodloc6,prodloc10,tr13,14247,85482).
route(prodloc6,prodloc11,tr0,16099,418574).
route(prodloc6,prodloc11,tr13,16099,96594).
route(prodloc6,prodloc12,tr0,16712,434512).
route(prodloc6,prodloc12,tr13,16712,100272).
route(prodloc6,prodloc13,tr0,21246,552396).
route(prodloc6,prodloc13,tr13,21246,127476).
route(prodloc6,prodloc14,tr0,5707,148382).
route(prodloc6,prodloc14,tr13,5707,34242).
route(prodloc6,prodloc15,tr0,786,20436).
route(prodloc6,prodloc15,tr13,786,4716).
route(prodloc6,prodloc16,tr0,22280,579280).
route(prodloc6,prodloc16,tr13,22280,133680).
route(prodloc6,prodloc17,tr0,10637,276562).
route(prodloc6,prodloc17,tr13,10637,63822).
route(prodloc6,prodloc18,tr0,7383,191958).
route(prodloc6,prodloc18,tr13,7383,44298).
route(prodloc6,prodloc19,tr0,4375,113750).
route(prodloc6,prodloc19,tr13,4375,26250).
route(prodloc6,prodloc20,tr0,20069,521794).
route(prodloc6,prodloc20,tr13,20069,120414).
route(prodloc6,prodloc21,tr13,2590,15540).
route(prodloc6,prodloc21,tr15,2590,82880).
route(prodloc6,prodloc22,tr0,5624,146224).
route(prodloc6,prodloc22,tr13,5624,33744).
route(prodloc6,prodloc23,tr0,20683,537758).
route(prodloc6,prodloc23,tr13,20683,124098).
route(prodloc6,prodloc24,tr0,16505,429130).
route(prodloc6,prodloc24,tr13,16505,99030).
route(prodloc6,prodloc25,tr0,24928,648128).
route(prodloc6,prodloc25,tr13,24928,149568).
route(prodloc6,prodloc26,tr0,2030,52780).
route(prodloc6,prodloc26,tr13,2030,12180).
route(prodloc6,prodloc27,tr0,14073,365898).
route(prodloc6,prodloc27,tr13,14073,84438).
route(prodloc6,prodloc28,tr0,15464,402064).
route(prodloc6,prodloc28,tr13,15464,92784).
route(prodloc6,prodloc29,tr0,25709,668434).
route(prodloc6,prodloc29,tr13,25709,154254).
route(prodloc6,prodloc30,tr0,19871,516646).
route(prodloc6,prodloc30,tr13,19871,119226).
route(prodloc6,prodloc31,tr0,8128,211328).
route(prodloc6,prodloc31,tr13,8128,48768).
route(prodloc6,prodloc32,tr0,1718,44668).
route(prodloc6,prodloc32,tr13,1718,10308).
route(prodloc6,prodloc33,tr0,10754,279604).
route(prodloc6,prodloc33,tr13,10754,64524).
route(prodloc7,harbor0,tr0,2412,62712).
route(prodloc7,harbor0,tr13,2412,14472).
route(prodloc7,harbor1,tr0,7429,193154).
route(prodloc7,harbor1,tr13,7429,44574).
route(prodloc7,harbor2,tr0,820,21320).
route(prodloc7,harbor2,tr13,820,4920).
route(prodloc7,harbor3,tr0,712,18512).
route(prodloc7,harbor3,tr13,712,4272).
route(prodloc7,harbor4,tr0,20491,532766).
route(prodloc7,harbor4,tr13,20491,122946).
route(prodloc7,harbor5,tr0,235,6110).
route(prodloc7,harbor5,tr13,235,1410).
route(prodloc7,harbor6,tr0,19215,499590).
route(prodloc7,harbor6,tr13,19215,115290).
route(prodloc7,harbor7,tr0,4679,121654).
route(prodloc7,harbor7,tr13,4679,28074).
route(prodloc7,harbor8,tr0,18900,491400).
route(prodloc7,harbor8,tr13,18900,113400).
route(prodloc7,harbor9,tr0,2959,76934).
route(prodloc7,harbor9,tr13,2959,17754).
route(prodloc7,harbor10,tr0,11259,292734).
route(prodloc7,harbor10,tr13,11259,67554).
route(prodloc7,harbor11,tr0,21242,552292).
route(prodloc7,harbor11,tr13,21242,127452).
route(prodloc7,harbor12,tr0,6723,174798).
route(prodloc7,harbor12,tr13,6723,40338).
route(prodloc7,harbor13,tr0,10749,279474).
route(prodloc7,harbor13,tr13,10749,64494).
route(prodloc7,harbor14,tr0,27200,707200).
route(prodloc7,harbor14,tr13,27200,163200).
route(prodloc7,harbor15,tr0,17697,460122).
route(prodloc7,harbor15,tr13,17697,106182).
route(prodloc7,harbor16,tr0,24184,628784).
route(prodloc7,harbor16,tr13,24184,145104).
route(prodloc7,prodloc0,tr0,1007,26182).
route(prodloc7,prodloc0,tr13,1007,6042).
route(prodloc7,prodloc1,tr0,1929,50154).
route(prodloc7,prodloc1,tr13,1929,11574).
route(prodloc7,prodloc2,tr0,15729,408954).
route(prodloc7,prodloc2,tr13,15729,94374).
route(prodloc7,prodloc3,tr0,19695,512070).
route(prodloc7,prodloc3,tr13,19695,118170).
route(prodloc7,prodloc4,tr0,4216,109616).
route(prodloc7,prodloc4,tr13,4216,25296).
route(prodloc7,prodloc5,tr0,5721,148746).
route(prodloc7,prodloc5,tr13,5721,34326).
route(prodloc7,prodloc6,tr0,27893,725218).
route(prodloc7,prodloc6,tr13,27893,167358).
route(prodloc7,prodloc8,tr0,4709,122434).
route(prodloc7,prodloc8,tr13,4709,28254).
route(prodloc7,prodloc9,tr0,27985,727610).
route(prodloc7,prodloc9,tr13,27985,167910).
route(prodloc7,prodloc10,tr0,25281,657306).
route(prodloc7,prodloc10,tr13,25281,151686).
route(prodloc7,prodloc11,tr0,13863,360438).
route(prodloc7,prodloc11,tr13,13863,83178).
route(prodloc7,prodloc12,tr0,24700,642200).
route(prodloc7,prodloc12,tr13,24700,148200).
route(prodloc7,prodloc13,tr0,2181,56706).
route(prodloc7,prodloc13,tr13,2181,13086).
route(prodloc7,prodloc14,tr0,16818,437268).
route(prodloc7,prodloc14,tr13,16818,100908).
route(prodloc7,prodloc15,tr0,1813,47138).
route(prodloc7,prodloc15,tr13,1813,10878).
route(prodloc7,prodloc16,tr0,23861,620386).
route(prodloc7,prodloc16,tr13,23861,143166).
route(prodloc7,prodloc17,tr0,22468,584168).
route(prodloc7,prodloc17,tr13,22468,134808).
route(prodloc7,prodloc18,tr0,11014,286364).
route(prodloc7,prodloc18,tr13,11014,66084).
route(prodloc7,prodloc19,tr13,26428,158568).
route(prodloc7,prodloc19,tr15,26428,845696).
route(prodloc7,prodloc20,tr0,7481,194506).
route(prodloc7,prodloc20,tr13,7481,44886).
route(prodloc7,prodloc21,tr0,27062,703612).
route(prodloc7,prodloc21,tr13,27062,162372).
route(prodloc7,prodloc22,tr0,10659,277134).
route(prodloc7,prodloc22,tr13,10659,63954).
route(prodloc7,prodloc23,tr0,6558,170508).
route(prodloc7,prodloc23,tr13,6558,39348).
route(prodloc7,prodloc24,tr0,9153,237978).
route(prodloc7,prodloc24,tr13,9153,54918).
route(prodloc7,prodloc25,tr0,28664,745264).
route(prodloc7,prodloc25,tr13,28664,171984).
route(prodloc7,prodloc26,tr0,18750,487500).
route(prodloc7,prodloc26,tr13,18750,112500).
route(prodloc7,prodloc27,tr0,16019,416494).
route(prodloc7,prodloc27,tr13,16019,96114).
route(prodloc7,prodloc28,tr0,24629,640354).
route(prodloc7,prodloc28,tr13,24629,147774).
route(prodloc7,prodloc29,tr0,20772,540072).
route(prodloc7,prodloc29,tr13,20772,124632).
route(prodloc7,prodloc30,tr0,26505,689130).
route(prodloc7,prodloc30,tr13,26505,159030).
route(prodloc7,prodloc31,tr0,18348,477048).
route(prodloc7,prodloc31,tr13,18348,110088).
route(prodloc7,prodloc32,tr0,21704,564304).
route(prodloc7,prodloc32,tr13,21704,130224).
route(prodloc7,prodloc33,tr0,21389,556114).
route(prodloc7,prodloc33,tr13,21389,128334).
route(prodloc8,harbor0,tr0,6248,162448).
route(prodloc8,harbor0,tr13,6248,37488).
route(prodloc8,harbor1,tr0,17996,467896).
route(prodloc8,harbor1,tr13,17996,107976).
route(prodloc8,harbor2,tr0,23279,605254).
route(prodloc8,harbor2,tr13,23279,139674).
route(prodloc8,harbor3,tr0,6974,181324).
route(prodloc8,harbor3,tr13,6974,41844).
route(prodloc8,harbor4,tr0,8092,210392).
route(prodloc8,harbor4,tr13,8092,48552).
route(prodloc8,harbor5,tr0,14771,384046).
route(prodloc8,harbor5,tr13,14771,88626).
route(prodloc8,harbor6,tr0,4445,115570).
route(prodloc8,harbor6,tr13,4445,26670).
route(prodloc8,harbor7,tr0,4398,114348).
route(prodloc8,harbor7,tr13,4398,26388).
route(prodloc8,harbor8,tr0,13944,362544).
route(prodloc8,harbor8,tr13,13944,83664).
route(prodloc8,harbor9,tr0,14959,388934).
route(prodloc8,harbor9,tr13,14959,89754).
route(prodloc8,harbor10,tr0,16240,422240).
route(prodloc8,harbor10,tr13,16240,97440).
route(prodloc8,harbor11,tr0,13290,345540).
route(prodloc8,harbor11,tr13,13290,79740).
route(prodloc8,harbor12,tr0,3288,85488).
route(prodloc8,harbor12,tr13,3288,19728).
route(prodloc8,harbor13,tr0,22249,578474).
route(prodloc8,harbor13,tr13,22249,133494).
route(prodloc8,harbor14,tr0,22744,591344).
route(prodloc8,harbor14,tr13,22744,136464).
route(prodloc8,harbor15,tr0,25526,663676).
route(prodloc8,harbor15,tr13,25526,153156).
route(prodloc8,harbor16,tr0,3279,85254).
route(prodloc8,harbor16,tr13,3279,19674).
route(prodloc8,prodloc0,tr0,20836,541736).
route(prodloc8,prodloc0,tr13,20836,125016).
route(prodloc8,prodloc1,tr0,13046,339196).
route(prodloc8,prodloc1,tr13,13046,78276).
route(prodloc8,prodloc2,tr0,5612,145912).
route(prodloc8,prodloc2,tr13,5612,33672).
route(prodloc8,prodloc3,tr0,23479,610454).
route(prodloc8,prodloc3,tr13,23479,140874).
route(prodloc8,prodloc4,tr0,21414,556764).
route(prodloc8,prodloc4,tr13,21414,128484).
route(prodloc8,prodloc5,tr0,20139,523614).
route(prodloc8,prodloc5,tr13,20139,120834).
route(prodloc8,prodloc6,tr0,22287,579462).
route(prodloc8,prodloc6,tr13,22287,133722).
route(prodloc8,prodloc7,tr0,25225,655850).
route(prodloc8,prodloc7,tr13,25225,151350).
route(prodloc8,prodloc9,tr0,8897,231322).
route(prodloc8,prodloc9,tr15,8897,284704).
route(prodloc8,prodloc10,tr0,9565,248690).
route(prodloc8,prodloc10,tr13,9565,57390).
route(prodloc8,prodloc11,tr0,3961,102986).
route(prodloc8,prodloc11,tr13,3961,23766).
route(prodloc8,prodloc12,tr0,22176,576576).
route(prodloc8,prodloc12,tr15,22176,709632).
route(prodloc8,prodloc13,tr0,1892,49192).
route(prodloc8,prodloc13,tr13,1892,11352).
route(prodloc8,prodloc14,tr0,6519,169494).
route(prodloc8,prodloc14,tr13,6519,39114).
route(prodloc8,prodloc15,tr0,22804,592904).
route(prodloc8,prodloc15,tr13,22804,136824).
route(prodloc8,prodloc16,tr0,5178,134628).
route(prodloc8,prodloc16,tr13,5178,31068).
route(prodloc8,prodloc17,tr0,16914,439764).
route(prodloc8,prodloc17,tr13,16914,101484).
route(prodloc8,prodloc18,tr0,606,15756).
route(prodloc8,prodloc18,tr13,606,3636).
route(prodloc8,prodloc19,tr0,28143,731718).
route(prodloc8,prodloc19,tr13,28143,168858).
route(prodloc8,prodloc20,tr0,13440,349440).
route(prodloc8,prodloc20,tr13,13440,80640).
route(prodloc8,prodloc21,tr0,5208,135408).
route(prodloc8,prodloc21,tr13,5208,31248).
route(prodloc8,prodloc22,tr0,25975,675350).
route(prodloc8,prodloc22,tr13,25975,155850).
route(prodloc8,prodloc23,tr0,5990,155740).
route(prodloc8,prodloc23,tr13,5990,35940).
route(prodloc8,prodloc24,tr0,27997,727922).
route(prodloc8,prodloc24,tr13,27997,167982).
route(prodloc8,prodloc25,tr0,4538,117988).
route(prodloc8,prodloc25,tr13,4538,27228).
route(prodloc8,prodloc26,tr0,25174,654524).
route(prodloc8,prodloc26,tr13,25174,151044).
route(prodloc8,prodloc27,tr0,26231,682006).
route(prodloc8,prodloc27,tr13,26231,157386).
route(prodloc8,prodloc28,tr0,5195,135070).
route(prodloc8,prodloc28,tr13,5195,31170).
route(prodloc8,prodloc29,tr0,12205,317330).
route(prodloc8,prodloc29,tr13,12205,73230).
route(prodloc8,prodloc30,tr0,11526,299676).
route(prodloc8,prodloc30,tr13,11526,69156).
route(prodloc8,prodloc31,tr0,25452,661752).
route(prodloc8,prodloc31,tr13,25452,152712).
route(prodloc8,prodloc32,tr0,1840,47840).
route(prodloc8,prodloc32,tr13,1840,11040).
route(prodloc8,prodloc33,tr0,10055,261430).
route(prodloc8,prodloc33,tr13,10055,60330).
route(prodloc9,harbor0,tr0,12684,329784).
route(prodloc9,harbor0,tr13,12684,76104).
route(prodloc9,harbor1,tr0,20521,533546).
route(prodloc9,harbor1,tr13,20521,123126).
route(prodloc9,harbor2,tr0,24397,634322).
route(prodloc9,harbor2,tr13,24397,146382).
route(prodloc9,harbor3,tr0,8566,222716).
route(prodloc9,harbor3,tr13,8566,51396).
route(prodloc9,harbor4,tr0,1031,26806).
route(prodloc9,harbor4,tr13,1031,6186).
route(prodloc9,harbor5,tr0,20869,542594).
route(prodloc9,harbor5,tr13,20869,125214).
route(prodloc9,harbor6,tr0,8548,222248).
route(prodloc9,harbor6,tr13,8548,51288).
route(prodloc9,harbor7,tr0,18841,489866).
route(prodloc9,harbor7,tr13,18841,113046).
route(prodloc9,harbor8,tr0,16134,419484).
route(prodloc9,harbor8,tr13,16134,96804).
route(prodloc9,harbor9,tr0,9869,256594).
route(prodloc9,harbor9,tr13,9869,59214).
route(prodloc9,harbor10,tr0,17867,464542).
route(prodloc9,harbor10,tr13,17867,107202).
route(prodloc9,harbor11,tr0,5934,154284).
route(prodloc9,harbor11,tr13,5934,35604).
route(prodloc9,harbor12,tr0,17072,443872).
route(prodloc9,harbor12,tr13,17072,102432).
route(prodloc9,harbor13,tr0,23208,603408).
route(prodloc9,harbor13,tr13,23208,139248).
route(prodloc9,harbor14,tr0,23375,607750).
route(prodloc9,harbor14,tr13,23375,140250).
route(prodloc9,harbor15,tr0,8080,210080).
route(prodloc9,harbor15,tr13,8080,48480).
route(prodloc9,harbor16,tr0,16659,433134).
route(prodloc9,harbor16,tr13,16659,99954).
route(prodloc9,prodloc0,tr0,2612,67912).
route(prodloc9,prodloc0,tr13,2612,15672).
route(prodloc9,prodloc1,tr0,26464,688064).
route(prodloc9,prodloc1,tr13,26464,158784).
route(prodloc9,prodloc2,tr0,1212,31512).
route(prodloc9,prodloc2,tr13,1212,7272).
route(prodloc9,prodloc3,tr0,19030,494780).
route(prodloc9,prodloc3,tr13,19030,114180).
route(prodloc9,prodloc4,tr0,18915,491790).
route(prodloc9,prodloc4,tr13,18915,113490).
route(prodloc9,prodloc5,tr0,17049,443274).
route(prodloc9,prodloc5,tr13,17049,102294).
route(prodloc9,prodloc6,tr0,27521,715546).
route(prodloc9,prodloc6,tr13,27521,165126).
route(prodloc9,prodloc7,tr0,9189,238914).
route(prodloc9,prodloc7,tr13,9189,55134).
route(prodloc9,prodloc8,tr0,11754,305604).
route(prodloc9,prodloc8,tr13,11754,70524).
route(prodloc9,prodloc10,tr0,21401,556426).
route(prodloc9,prodloc10,tr13,21401,128406).
route(prodloc9,prodloc11,tr0,16316,424216).
route(prodloc9,prodloc11,tr13,16316,97896).
route(prodloc9,prodloc12,tr0,13851,360126).
route(prodloc9,prodloc12,tr13,13851,83106).
route(prodloc9,prodloc13,tr0,13541,352066).
route(prodloc9,prodloc13,tr13,13541,81246).
route(prodloc9,prodloc14,tr0,5893,153218).
route(prodloc9,prodloc14,tr13,5893,35358).
route(prodloc9,prodloc15,tr0,1904,49504).
route(prodloc9,prodloc15,tr13,1904,11424).
route(prodloc9,prodloc16,tr0,8025,208650).
route(prodloc9,prodloc16,tr13,8025,48150).
route(prodloc9,prodloc17,tr0,26328,684528).
route(prodloc9,prodloc17,tr13,26328,157968).
route(prodloc9,prodloc18,tr0,16267,422942).
route(prodloc9,prodloc18,tr13,16267,97602).
route(prodloc9,prodloc19,tr0,28644,744744).
route(prodloc9,prodloc19,tr13,28644,171864).
route(prodloc9,prodloc20,tr0,24886,647036).
route(prodloc9,prodloc20,tr13,24886,149316).
route(prodloc9,prodloc21,tr0,1418,36868).
route(prodloc9,prodloc21,tr13,1418,8508).
route(prodloc9,prodloc22,tr0,15710,408460).
route(prodloc9,prodloc22,tr13,15710,94260).
route(prodloc9,prodloc23,tr0,8650,224900).
route(prodloc9,prodloc23,tr13,8650,51900).
route(prodloc9,prodloc24,tr0,1716,44616).
route(prodloc9,prodloc24,tr13,1716,10296).
route(prodloc9,prodloc25,tr0,2707,70382).
route(prodloc9,prodloc25,tr13,2707,16242).
route(prodloc9,prodloc26,tr0,9418,244868).
route(prodloc9,prodloc26,tr13,9418,56508).
route(prodloc9,prodloc27,tr0,18193,473018).
route(prodloc9,prodloc27,tr13,18193,109158).
route(prodloc9,prodloc28,tr0,17873,464698).
route(prodloc9,prodloc28,tr13,17873,107238).
route(prodloc9,prodloc29,tr0,12300,319800).
route(prodloc9,prodloc29,tr13,12300,73800).
route(prodloc9,prodloc30,tr0,5801,150826).
route(prodloc9,prodloc30,tr13,5801,34806).
route(prodloc9,prodloc31,tr0,21336,554736).
route(prodloc9,prodloc31,tr13,21336,128016).
route(prodloc9,prodloc32,tr0,10048,261248).
route(prodloc9,prodloc32,tr13,10048,60288).
route(prodloc9,prodloc33,tr0,1961,50986).
route(prodloc9,prodloc33,tr13,1961,11766).
route(prodloc10,harbor0,tr0,3698,96148).
route(prodloc10,harbor0,tr13,3698,22188).
route(prodloc10,harbor1,tr0,17478,454428).
route(prodloc10,harbor1,tr13,17478,104868).
route(prodloc10,harbor2,tr0,15082,392132).
route(prodloc10,harbor2,tr13,15082,90492).
route(prodloc10,harbor3,tr0,28203,733278).
route(prodloc10,harbor3,tr13,28203,169218).
route(prodloc10,harbor4,tr0,6831,177606).
route(prodloc10,harbor4,tr13,6831,40986).
route(prodloc10,harbor5,tr0,23783,618358).
route(prodloc10,harbor5,tr13,23783,142698).
route(prodloc10,harbor6,tr0,3041,79066).
route(prodloc10,harbor6,tr13,3041,18246).
route(prodloc10,harbor7,tr0,17197,447122).
route(prodloc10,harbor7,tr13,17197,103182).
route(prodloc10,harbor8,tr0,17208,447408).
route(prodloc10,harbor8,tr13,17208,103248).
route(prodloc10,harbor9,tr0,14304,371904).
route(prodloc10,harbor9,tr13,14304,85824).
route(prodloc10,harbor10,tr0,8506,221156).
route(prodloc10,harbor10,tr13,8506,51036).
route(prodloc10,harbor11,tr0,10331,268606).
route(prodloc10,harbor11,tr13,10331,61986).
route(prodloc10,harbor12,tr0,504,13104).
route(prodloc10,harbor12,tr13,504,3024).
route(prodloc10,harbor13,tr0,11875,308750).
route(prodloc10,harbor13,tr13,11875,71250).
route(prodloc10,harbor14,tr0,11550,300300).
route(prodloc10,harbor14,tr13,11550,69300).
route(prodloc10,harbor15,tr0,28238,734188).
route(prodloc10,harbor15,tr13,28238,169428).
route(prodloc10,harbor16,tr0,16094,418444).
route(prodloc10,harbor16,tr13,16094,96564).
route(prodloc10,prodloc0,tr0,21185,550810).
route(prodloc10,prodloc0,tr13,21185,127110).
route(prodloc10,prodloc1,tr0,17763,461838).
route(prodloc10,prodloc1,tr13,17763,106578).
route(prodloc10,prodloc2,tr0,25398,660348).
route(prodloc10,prodloc2,tr13,25398,152388).
route(prodloc10,prodloc3,tr0,23028,598728).
route(prodloc10,prodloc3,tr13,23028,138168).
route(prodloc10,prodloc4,tr0,76,1976).
route(prodloc10,prodloc4,tr13,76,456).
route(prodloc10,prodloc5,tr0,26495,688870).
route(prodloc10,prodloc5,tr13,26495,158970).
route(prodloc10,prodloc6,tr0,28189,732914).
route(prodloc10,prodloc6,tr13,28189,169134).
route(prodloc10,prodloc7,tr0,10103,262678).
route(prodloc10,prodloc7,tr13,10103,60618).
route(prodloc10,prodloc8,tr0,14033,364858).
route(prodloc10,prodloc8,tr13,14033,84198).
route(prodloc10,prodloc9,tr0,12597,327522).
route(prodloc10,prodloc9,tr13,12597,75582).
route(prodloc10,prodloc11,tr0,20026,520676).
route(prodloc10,prodloc11,tr13,20026,120156).
route(prodloc10,prodloc12,tr0,26535,689910).
route(prodloc10,prodloc12,tr13,26535,159210).
route(prodloc10,prodloc13,tr0,9783,254358).
route(prodloc10,prodloc13,tr13,9783,58698).
route(prodloc10,prodloc14,tr0,4075,105950).
route(prodloc10,prodloc14,tr13,4075,24450).
route(prodloc10,prodloc15,tr0,5197,135122).
route(prodloc10,prodloc15,tr13,5197,31182).
route(prodloc10,prodloc16,tr0,8256,214656).
route(prodloc10,prodloc16,tr13,8256,49536).
route(prodloc10,prodloc17,tr0,24445,635570).
route(prodloc10,prodloc17,tr13,24445,146670).
route(prodloc10,prodloc18,tr0,16578,431028).
route(prodloc10,prodloc18,tr13,16578,99468).
route(prodloc10,prodloc19,tr0,7276,189176).
route(prodloc10,prodloc19,tr13,7276,43656).
route(prodloc10,prodloc20,tr0,7446,193596).
route(prodloc10,prodloc20,tr13,7446,44676).
route(prodloc10,prodloc21,tr0,12443,323518).
route(prodloc10,prodloc21,tr15,12443,398176).
route(prodloc10,prodloc22,tr0,16575,430950).
route(prodloc10,prodloc22,tr13,16575,99450).
route(prodloc10,prodloc23,tr0,10416,270816).
route(prodloc10,prodloc23,tr13,10416,62496).
route(prodloc10,prodloc24,tr0,4161,108186).
route(prodloc10,prodloc24,tr13,4161,24966).
route(prodloc10,prodloc25,tr0,4834,125684).
route(prodloc10,prodloc25,tr13,4834,29004).
route(prodloc10,prodloc26,tr0,10427,271102).
route(prodloc10,prodloc26,tr13,10427,62562).
route(prodloc10,prodloc27,tr0,28721,746746).
route(prodloc10,prodloc27,tr13,28721,172326).
route(prodloc10,prodloc28,tr0,2747,71422).
route(prodloc10,prodloc28,tr13,2747,16482).
route(prodloc10,prodloc29,tr0,2755,71630).
route(prodloc10,prodloc29,tr13,2755,16530).
route(prodloc10,prodloc30,tr0,11103,288678).
route(prodloc10,prodloc30,tr13,11103,66618).
route(prodloc10,prodloc31,tr0,5419,140894).
route(prodloc10,prodloc31,tr13,5419,32514).
route(prodloc10,prodloc32,tr0,21701,564226).
route(prodloc10,prodloc32,tr13,21701,130206).
route(prodloc10,prodloc33,tr0,4957,128882).
route(prodloc10,prodloc33,tr13,4957,29742).
route(prodloc11,harbor0,tr0,11140,289640).
route(prodloc11,harbor0,tr13,11140,66840).
route(prodloc11,harbor1,tr0,17174,446524).
route(prodloc11,harbor1,tr13,17174,103044).
route(prodloc11,harbor2,tr0,9598,249548).
route(prodloc11,harbor2,tr13,9598,57588).
route(prodloc11,harbor3,tr0,13835,359710).
route(prodloc11,harbor3,tr13,13835,83010).
route(prodloc11,harbor4,tr0,19622,510172).
route(prodloc11,harbor4,tr13,19622,117732).
route(prodloc11,harbor5,tr0,22369,581594).
route(prodloc11,harbor5,tr13,22369,134214).
route(prodloc11,harbor6,tr0,6591,171366).
route(prodloc11,harbor6,tr13,6591,39546).
route(prodloc11,harbor7,tr0,20787,540462).
route(prodloc11,harbor7,tr13,20787,124722).
route(prodloc11,harbor8,tr0,6827,177502).
route(prodloc11,harbor8,tr13,6827,40962).
route(prodloc11,harbor9,tr0,12538,325988).
route(prodloc11,harbor9,tr13,12538,75228).
route(prodloc11,harbor10,tr0,20215,525590).
route(prodloc11,harbor10,tr13,20215,121290).
route(prodloc11,harbor11,tr0,25090,652340).
route(prodloc11,harbor11,tr13,25090,150540).
route(prodloc11,harbor12,tr0,22213,577538).
route(prodloc11,harbor12,tr13,22213,133278).
route(prodloc11,harbor13,tr0,3212,83512).
route(prodloc11,harbor13,tr13,3212,19272).
route(prodloc11,harbor14,tr0,27593,717418).
route(prodloc11,harbor14,tr13,27593,165558).
route(prodloc11,harbor15,tr0,12821,333346).
route(prodloc11,harbor15,tr13,12821,76926).
route(prodloc11,harbor16,tr0,27,702).
route(prodloc11,harbor16,tr13,27,162).
route(prodloc11,prodloc0,tr0,16110,418860).
route(prodloc11,prodloc0,tr13,16110,96660).
route(prodloc11,prodloc1,tr0,15112,392912).
route(prodloc11,prodloc1,tr13,15112,90672).
route(prodloc11,prodloc2,tr0,28101,730626).
route(prodloc11,prodloc2,tr13,28101,168606).
route(prodloc11,prodloc3,tr0,18122,471172).
route(prodloc11,prodloc3,tr13,18122,108732).
route(prodloc11,prodloc4,tr0,9031,234806).
route(prodloc11,prodloc4,tr13,9031,54186).
route(prodloc11,prodloc5,tr0,23466,610116).
route(prodloc11,prodloc5,tr13,23466,140796).
route(prodloc11,prodloc6,tr0,13169,342394).
route(prodloc11,prodloc6,tr13,13169,79014).
route(prodloc11,prodloc7,tr0,16279,423254).
route(prodloc11,prodloc7,tr13,16279,97674).
route(prodloc11,prodloc8,tr0,4797,124722).
route(prodloc11,prodloc8,tr13,4797,28782).
route(prodloc11,prodloc9,tr0,25322,658372).
route(prodloc11,prodloc9,tr13,25322,151932).
route(prodloc11,prodloc10,tr0,12399,322374).
route(prodloc11,prodloc10,tr13,12399,74394).
route(prodloc11,prodloc12,tr0,9793,254618).
route(prodloc11,prodloc12,tr13,9793,58758).
route(prodloc11,prodloc13,tr0,15613,405938).
route(prodloc11,prodloc13,tr13,15613,93678).
route(prodloc11,prodloc14,tr0,10455,271830).
route(prodloc11,prodloc14,tr13,10455,62730).
route(prodloc11,prodloc15,tr0,1724,44824).
route(prodloc11,prodloc15,tr13,1724,10344).
route(prodloc11,prodloc16,tr0,9877,256802).
route(prodloc11,prodloc16,tr13,9877,59262).
route(prodloc11,prodloc17,tr0,8145,211770).
route(prodloc11,prodloc17,tr15,8145,260640).
route(prodloc11,prodloc18,tr0,6957,180882).
route(prodloc11,prodloc18,tr13,6957,41742).
route(prodloc11,prodloc19,tr0,21126,549276).
route(prodloc11,prodloc19,tr13,21126,126756).
route(prodloc11,prodloc20,tr0,25227,655902).
route(prodloc11,prodloc20,tr13,25227,151362).
route(prodloc11,prodloc21,tr0,21318,554268).
route(prodloc11,prodloc21,tr13,21318,127908).
route(prodloc11,prodloc22,tr0,17591,457366).
route(prodloc11,prodloc22,tr13,17591,105546).
route(prodloc11,prodloc23,tr0,18688,485888).
route(prodloc11,prodloc23,tr13,18688,112128).
route(prodloc11,prodloc24,tr0,25865,672490).
route(prodloc11,prodloc24,tr13,25865,155190).
route(prodloc11,prodloc25,tr0,1743,45318).
route(prodloc11,prodloc25,tr13,1743,10458).
route(prodloc11,prodloc26,tr0,2907,75582).
route(prodloc11,prodloc26,tr13,2907,17442).
route(prodloc11,prodloc27,tr0,13754,357604).
route(prodloc11,prodloc27,tr13,13754,82524).
route(prodloc11,prodloc28,tr0,14254,370604).
route(prodloc11,prodloc28,tr13,14254,85524).
route(prodloc11,prodloc29,tr0,13314,346164).
route(prodloc11,prodloc29,tr13,13314,79884).
route(prodloc11,prodloc30,tr0,8907,231582).
route(prodloc11,prodloc30,tr13,8907,53442).
route(prodloc11,prodloc31,tr0,17458,453908).
route(prodloc11,prodloc31,tr13,17458,104748).
route(prodloc11,prodloc32,tr0,6493,168818).
route(prodloc11,prodloc32,tr13,6493,38958).
route(prodloc11,prodloc33,tr0,25140,653640).
route(prodloc11,prodloc33,tr13,25140,150840).
route(prodloc12,harbor0,tr0,8974,233324).
route(prodloc12,harbor0,tr13,8974,53844).
route(prodloc12,harbor1,tr0,13019,338494).
route(prodloc12,harbor1,tr13,13019,78114).
route(prodloc12,harbor2,tr0,27892,725192).
route(prodloc12,harbor2,tr13,27892,167352).
route(prodloc12,harbor3,tr0,7557,196482).
route(prodloc12,harbor3,tr13,7557,45342).
route(prodloc12,harbor4,tr0,14174,368524).
route(prodloc12,harbor4,tr13,14174,85044).
route(prodloc12,harbor5,tr0,6750,175500).
route(prodloc12,harbor5,tr13,6750,40500).
route(prodloc12,harbor6,tr0,17678,459628).
route(prodloc12,harbor6,tr13,17678,106068).
route(prodloc12,harbor7,tr0,28570,742820).
route(prodloc12,harbor7,tr13,28570,171420).
route(prodloc12,harbor8,tr0,7192,186992).
route(prodloc12,harbor8,tr13,7192,43152).
route(prodloc12,harbor9,tr0,20175,524550).
route(prodloc12,harbor9,tr13,20175,121050).
route(prodloc12,harbor10,tr0,16788,436488).
route(prodloc12,harbor10,tr13,16788,100728).
route(prodloc12,harbor11,tr0,27091,704366).
route(prodloc12,harbor11,tr13,27091,162546).
route(prodloc12,harbor12,tr0,18903,491478).
route(prodloc12,harbor12,tr13,18903,113418).
route(prodloc12,harbor13,tr0,13765,357890).
route(prodloc12,harbor13,tr13,13765,82590).
route(prodloc12,harbor14,tr0,4967,129142).
route(prodloc12,harbor14,tr13,4967,29802).
route(prodloc12,harbor15,tr0,20961,544986).
route(prodloc12,harbor15,tr13,20961,125766).
route(prodloc12,harbor16,tr0,10698,278148).
route(prodloc12,harbor16,tr13,10698,64188).
route(prodloc12,prodloc0,tr0,6466,168116).
route(prodloc12,prodloc0,tr13,6466,38796).
route(prodloc12,prodloc1,tr0,5283,137358).
route(prodloc12,prodloc1,tr13,5283,31698).
route(prodloc12,prodloc2,tr0,22384,581984).
route(prodloc12,prodloc2,tr13,22384,134304).
route(prodloc12,prodloc3,tr0,15070,391820).
route(prodloc12,prodloc3,tr13,15070,90420).
route(prodloc12,prodloc4,tr0,28735,747110).
route(prodloc12,prodloc4,tr13,28735,172410).
route(prodloc12,prodloc5,tr0,6653,172978).
route(prodloc12,prodloc5,tr13,6653,39918).
route(prodloc12,prodloc6,tr0,1906,49556).
route(prodloc12,prodloc6,tr13,1906,11436).
route(prodloc12,prodloc7,tr0,15566,404716).
route(prodloc12,prodloc7,tr13,15566,93396).
route(prodloc12,prodloc8,tr0,22508,585208).
route(prodloc12,prodloc8,tr13,22508,135048).
route(prodloc12,prodloc9,tr0,11454,297804).
route(prodloc12,prodloc9,tr13,11454,68724).
route(prodloc12,prodloc10,tr0,21961,570986).
route(prodloc12,prodloc10,tr13,21961,131766).
route(prodloc12,prodloc11,tr0,5672,147472).
route(prodloc12,prodloc11,tr13,5672,34032).
route(prodloc12,prodloc13,tr0,27898,725348).
route(prodloc12,prodloc13,tr13,27898,167388).
route(prodloc12,prodloc14,tr0,10034,260884).
route(prodloc12,prodloc14,tr13,10034,60204).
route(prodloc12,prodloc15,tr0,21118,549068).
route(prodloc12,prodloc15,tr13,21118,126708).
route(prodloc12,prodloc16,tr0,9253,240578).
route(prodloc12,prodloc16,tr13,9253,55518).
route(prodloc12,prodloc17,tr0,28759,747734).
route(prodloc12,prodloc17,tr13,28759,172554).
route(prodloc12,prodloc18,tr0,18584,483184).
route(prodloc12,prodloc18,tr13,18584,111504).
route(prodloc12,prodloc19,tr0,28434,739284).
route(prodloc12,prodloc19,tr13,28434,170604).
route(prodloc12,prodloc20,tr0,10755,279630).
route(prodloc12,prodloc20,tr13,10755,64530).
route(prodloc12,prodloc21,tr0,7166,186316).
route(prodloc12,prodloc21,tr13,7166,42996).
route(prodloc12,prodloc22,tr0,15047,391222).
route(prodloc12,prodloc22,tr13,15047,90282).
route(prodloc12,prodloc23,tr0,21938,570388).
route(prodloc12,prodloc23,tr13,21938,131628).
route(prodloc12,prodloc24,tr0,1189,30914).
route(prodloc12,prodloc24,tr13,1189,7134).
route(prodloc12,prodloc25,tr0,5629,146354).
route(prodloc12,prodloc25,tr13,5629,33774).
route(prodloc12,prodloc26,tr0,18847,490022).
route(prodloc12,prodloc26,tr13,18847,113082).
route(prodloc12,prodloc27,tr0,12776,332176).
route(prodloc12,prodloc27,tr13,12776,76656).
route(prodloc12,prodloc28,tr0,14725,382850).
route(prodloc12,prodloc28,tr13,14725,88350).
route(prodloc12,prodloc29,tr0,25164,654264).
route(prodloc12,prodloc29,tr13,25164,150984).
route(prodloc12,prodloc30,tr0,9314,242164).
route(prodloc12,prodloc30,tr13,9314,55884).
route(prodloc12,prodloc31,tr0,27829,723554).
route(prodloc12,prodloc31,tr13,27829,166974).
route(prodloc12,prodloc32,tr0,4844,125944).
route(prodloc12,prodloc32,tr13,4844,29064).
route(prodloc12,prodloc33,tr0,7265,188890).
route(prodloc12,prodloc33,tr13,7265,43590).
route(prodloc13,harbor0,tr0,16570,430820).
route(prodloc13,harbor0,tr13,16570,99420).
route(prodloc13,harbor1,tr0,10355,269230).
route(prodloc13,harbor1,tr13,10355,62130).
route(prodloc13,harbor2,tr0,16251,422526).
route(prodloc13,harbor2,tr13,16251,97506).
route(prodloc13,harbor3,tr0,28004,728104).
route(prodloc13,harbor3,tr13,28004,168024).
route(prodloc13,harbor4,tr0,14272,371072).
route(prodloc13,harbor4,tr13,14272,85632).
route(prodloc13,harbor5,tr0,28769,747994).
route(prodloc13,harbor5,tr13,28769,172614).
route(prodloc13,harbor6,tr0,6480,168480).
route(prodloc13,harbor6,tr13,6480,38880).
route(prodloc13,harbor7,tr0,500,13000).
route(prodloc13,harbor7,tr13,500,3000).
route(prodloc13,harbor8,tr0,8894,231244).
route(prodloc13,harbor8,tr13,8894,53364).
route(prodloc13,harbor9,tr0,26864,698464).
route(prodloc13,harbor9,tr13,26864,161184).
route(prodloc13,harbor10,tr0,22450,583700).
route(prodloc13,harbor10,tr13,22450,134700).
route(prodloc13,harbor11,tr0,27296,709696).
route(prodloc13,harbor11,tr13,27296,163776).
route(prodloc13,harbor12,tr0,12302,319852).
route(prodloc13,harbor12,tr13,12302,73812).
route(prodloc13,harbor13,tr0,28621,744146).
route(prodloc13,harbor13,tr13,28621,171726).
route(prodloc13,harbor14,tr0,24699,642174).
route(prodloc13,harbor14,tr13,24699,148194).
route(prodloc13,harbor15,tr0,9963,259038).
route(prodloc13,harbor15,tr13,9963,59778).
route(prodloc13,harbor16,tr0,25381,659906).
route(prodloc13,harbor16,tr13,25381,152286).
route(prodloc13,prodloc0,tr0,703,18278).
route(prodloc13,prodloc0,tr13,703,4218).
route(prodloc13,prodloc1,tr0,13590,353340).
route(prodloc13,prodloc1,tr13,13590,81540).
route(prodloc13,prodloc2,tr0,27144,705744).
route(prodloc13,prodloc2,tr13,27144,162864).
route(prodloc13,prodloc3,tr0,4135,107510).
route(prodloc13,prodloc3,tr13,4135,24810).
route(prodloc13,prodloc4,tr0,9369,243594).
route(prodloc13,prodloc4,tr13,9369,56214).
route(prodloc13,prodloc5,tr0,7433,193258).
route(prodloc13,prodloc5,tr13,7433,44598).
route(prodloc13,prodloc6,tr0,21153,549978).
route(prodloc13,prodloc6,tr13,21153,126918).
route(prodloc13,prodloc7,tr0,11677,303602).
route(prodloc13,prodloc7,tr13,11677,70062).
route(prodloc13,prodloc8,tr0,28079,730054).
route(prodloc13,prodloc8,tr13,28079,168474).
route(prodloc13,prodloc9,tr0,25627,666302).
route(prodloc13,prodloc9,tr13,25627,153762).
route(prodloc13,prodloc10,tr0,6363,165438).
route(prodloc13,prodloc10,tr13,6363,38178).
route(prodloc13,prodloc11,tr0,2773,72098).
route(prodloc13,prodloc11,tr13,2773,16638).
route(prodloc13,prodloc12,tr0,26495,688870).
route(prodloc13,prodloc12,tr13,26495,158970).
route(prodloc13,prodloc14,tr0,26226,681876).
route(prodloc13,prodloc14,tr13,26226,157356).
route(prodloc13,prodloc15,tr0,19612,509912).
route(prodloc13,prodloc15,tr13,19612,117672).
route(prodloc13,prodloc16,tr0,8941,232466).
route(prodloc13,prodloc16,tr13,8941,53646).
route(prodloc13,prodloc17,tr0,18825,489450).
route(prodloc13,prodloc17,tr13,18825,112950).
route(prodloc13,prodloc18,tr0,21731,565006).
route(prodloc13,prodloc18,tr13,21731,130386).
route(prodloc13,prodloc19,tr0,15322,398372).
route(prodloc13,prodloc19,tr13,15322,91932).
route(prodloc13,prodloc20,tr0,9492,246792).
route(prodloc13,prodloc20,tr15,9492,303744).
route(prodloc13,prodloc21,tr0,27440,713440).
route(prodloc13,prodloc21,tr13,27440,164640).
route(prodloc13,prodloc22,tr0,23996,623896).
route(prodloc13,prodloc22,tr13,23996,143976).
route(prodloc13,prodloc23,tr0,25475,662350).
route(prodloc13,prodloc23,tr13,25475,152850).
route(prodloc13,prodloc24,tr0,22969,597194).
route(prodloc13,prodloc24,tr13,22969,137814).
route(prodloc13,prodloc25,tr0,21664,563264).
route(prodloc13,prodloc25,tr13,21664,129984).
route(prodloc13,prodloc26,tr0,21590,561340).
route(prodloc13,prodloc26,tr13,21590,129540).
route(prodloc13,prodloc27,tr0,6613,171938).
route(prodloc13,prodloc27,tr13,6613,39678).
route(prodloc13,prodloc28,tr0,16720,434720).
route(prodloc13,prodloc28,tr13,16720,100320).
route(prodloc13,prodloc29,tr0,13684,355784).
route(prodloc13,prodloc29,tr13,13684,82104).
route(prodloc13,prodloc30,tr0,14315,372190).
route(prodloc13,prodloc30,tr13,14315,85890).
route(prodloc13,prodloc31,tr0,777,20202).
route(prodloc13,prodloc31,tr13,777,4662).
route(prodloc13,prodloc32,tr0,20689,537914).
route(prodloc13,prodloc32,tr13,20689,124134).
route(prodloc13,prodloc33,tr0,9535,247910).
route(prodloc13,prodloc33,tr13,9535,57210).
route(prodloc14,harbor0,tr0,3292,85592).
route(prodloc14,harbor0,tr13,3292,19752).
route(prodloc14,harbor1,tr0,10356,269256).
route(prodloc14,harbor1,tr13,10356,62136).
route(prodloc14,harbor2,tr0,3312,86112).
route(prodloc14,harbor2,tr13,3312,19872).
route(prodloc14,harbor3,tr0,520,13520).
route(prodloc14,harbor3,tr13,520,3120).
route(prodloc14,harbor4,tr0,19451,505726).
route(prodloc14,harbor4,tr13,19451,116706).
route(prodloc14,harbor5,tr0,22805,592930).
route(prodloc14,harbor5,tr13,22805,136830).
route(prodloc14,harbor6,tr0,4434,115284).
route(prodloc14,harbor6,tr13,4434,26604).
route(prodloc14,harbor7,tr0,15152,393952).
route(prodloc14,harbor7,tr13,15152,90912).
route(prodloc14,harbor8,tr0,2449,63674).
route(prodloc14,harbor8,tr13,2449,14694).
route(prodloc14,harbor9,tr0,8110,210860).
route(prodloc14,harbor9,tr13,8110,48660).
route(prodloc14,harbor10,tr0,14848,386048).
route(prodloc14,harbor10,tr13,14848,89088).
route(prodloc14,harbor11,tr0,12017,312442).
route(prodloc14,harbor11,tr13,12017,72102).
route(prodloc14,harbor12,tr0,9483,246558).
route(prodloc14,harbor12,tr13,9483,56898).
route(prodloc14,harbor13,tr0,19248,500448).
route(prodloc14,harbor13,tr13,19248,115488).
route(prodloc14,harbor14,tr0,15556,404456).
route(prodloc14,harbor14,tr13,15556,93336).
route(prodloc14,harbor15,tr0,16370,425620).
route(prodloc14,harbor15,tr13,16370,98220).
route(prodloc14,harbor16,tr0,15848,412048).
route(prodloc14,harbor16,tr13,15848,95088).
route(prodloc14,prodloc0,tr0,3788,98488).
route(prodloc14,prodloc0,tr13,3788,22728).
route(prodloc14,prodloc1,tr0,21621,562146).
route(prodloc14,prodloc1,tr13,21621,129726).
route(prodloc14,prodloc2,tr0,2210,57460).
route(prodloc14,prodloc2,tr13,2210,13260).
route(prodloc14,prodloc3,tr0,5253,136578).
route(prodloc14,prodloc3,tr13,5253,31518).
route(prodloc14,prodloc4,tr0,1648,42848).
route(prodloc14,prodloc4,tr13,1648,9888).
route(prodloc14,prodloc5,tr0,2617,68042).
route(prodloc14,prodloc5,tr13,2617,15702).
route(prodloc14,prodloc6,tr0,2988,77688).
route(prodloc14,prodloc6,tr13,2988,17928).
route(prodloc14,prodloc7,tr0,26187,680862).
route(prodloc14,prodloc7,tr13,26187,157122).
route(prodloc14,prodloc8,tr0,12082,314132).
route(prodloc14,prodloc8,tr13,12082,72492).
route(prodloc14,prodloc9,tr0,13484,350584).
route(prodloc14,prodloc9,tr13,13484,80904).
route(prodloc14,prodloc10,tr0,25406,660556).
route(prodloc14,prodloc10,tr13,25406,152436).
route(prodloc14,prodloc11,tr0,15213,395538).
route(prodloc14,prodloc11,tr13,15213,91278).
route(prodloc14,prodloc12,tr0,2957,76882).
route(prodloc14,prodloc12,tr13,2957,17742).
route(prodloc14,prodloc13,tr0,19048,495248).
route(prodloc14,prodloc13,tr13,19048,114288).
route(prodloc14,prodloc15,tr0,12990,337740).
route(prodloc14,prodloc15,tr13,12990,77940).
route(prodloc14,prodloc16,tr0,8688,225888).
route(prodloc14,prodloc16,tr13,8688,52128).
route(prodloc14,prodloc17,tr0,15320,398320).
route(prodloc14,prodloc17,tr13,15320,91920).
route(prodloc14,prodloc18,tr0,9880,256880).
route(prodloc14,prodloc18,tr13,9880,59280).
route(prodloc14,prodloc19,tr0,19983,519558).
route(prodloc14,prodloc19,tr13,19983,119898).
route(prodloc14,prodloc20,tr0,19574,508924).
route(prodloc14,prodloc20,tr13,19574,117444).
route(prodloc14,prodloc21,tr0,18070,469820).
route(prodloc14,prodloc21,tr13,18070,108420).
route(prodloc14,prodloc22,tr0,9111,236886).
route(prodloc14,prodloc22,tr13,9111,54666).
route(prodloc14,prodloc23,tr0,8510,221260).
route(prodloc14,prodloc23,tr13,8510,51060).
route(prodloc14,prodloc24,tr0,15830,411580).
route(prodloc14,prodloc24,tr13,15830,94980).
route(prodloc14,prodloc25,tr0,3212,83512).
route(prodloc14,prodloc25,tr13,3212,19272).
route(prodloc14,prodloc26,tr0,21776,566176).
route(prodloc14,prodloc26,tr13,21776,130656).
route(prodloc14,prodloc27,tr0,11535,299910).
route(prodloc14,prodloc27,tr13,11535,69210).
route(prodloc14,prodloc28,tr0,10036,260936).
route(prodloc14,prodloc28,tr13,10036,60216).
route(prodloc14,prodloc29,tr0,14132,367432).
route(prodloc14,prodloc29,tr13,14132,84792).
route(prodloc14,prodloc30,tr0,13798,358748).
route(prodloc14,prodloc30,tr13,13798,82788).
route(prodloc14,prodloc31,tr0,8693,226018).
route(prodloc14,prodloc31,tr13,8693,52158).
route(prodloc14,prodloc32,tr0,10358,269308).
route(prodloc14,prodloc32,tr13,10358,62148).
route(prodloc14,prodloc33,tr0,3376,87776).
route(prodloc14,prodloc33,tr13,3376,20256).
route(prodloc15,harbor0,tr0,1172,30472).
route(prodloc15,harbor0,tr13,1172,7032).
route(prodloc15,harbor1,tr0,26474,688324).
route(prodloc15,harbor1,tr13,26474,158844).
route(prodloc15,harbor2,tr0,20603,535678).
route(prodloc15,harbor2,tr13,20603,123618).
route(prodloc15,harbor3,tr0,9405,244530).
route(prodloc15,harbor3,tr13,9405,56430).
route(prodloc15,harbor4,tr0,17142,445692).
route(prodloc15,harbor4,tr13,17142,102852).
route(prodloc15,harbor5,tr0,16521,429546).
route(prodloc15,harbor5,tr13,16521,99126).
route(prodloc15,harbor6,tr0,27136,705536).
route(prodloc15,harbor6,tr13,27136,162816).
route(prodloc15,harbor7,tr0,338,8788).
route(prodloc15,harbor7,tr13,338,2028).
route(prodloc15,harbor8,tr0,4459,115934).
route(prodloc15,harbor8,tr13,4459,26754).
route(prodloc15,harbor9,tr0,15276,397176).
route(prodloc15,harbor9,tr13,15276,91656).
route(prodloc15,harbor10,tr0,14609,379834).
route(prodloc15,harbor10,tr13,14609,87654).
route(prodloc15,harbor11,tr0,17600,457600).
route(prodloc15,harbor11,tr13,17600,105600).
route(prodloc15,harbor12,tr0,493,12818).
route(prodloc15,harbor12,tr13,493,2958).
route(prodloc15,harbor13,tr0,13534,351884).
route(prodloc15,harbor13,tr13,13534,81204).
route(prodloc15,harbor14,tr0,14411,374686).
route(prodloc15,harbor14,tr13,14411,86466).
route(prodloc15,harbor15,tr0,255,6630).
route(prodloc15,harbor15,tr13,255,1530).
route(prodloc15,harbor16,tr0,21874,568724).
route(prodloc15,harbor16,tr13,21874,131244).
route(prodloc15,prodloc0,tr0,5217,135642).
route(prodloc15,prodloc0,tr13,5217,31302).
route(prodloc15,prodloc1,tr0,16991,441766).
route(prodloc15,prodloc1,tr13,16991,101946).
route(prodloc15,prodloc2,tr0,7343,190918).
route(prodloc15,prodloc2,tr13,7343,44058).
route(prodloc15,prodloc3,tr0,7513,195338).
route(prodloc15,prodloc3,tr13,7513,45078).
route(prodloc15,prodloc4,tr0,10898,283348).
route(prodloc15,prodloc4,tr13,10898,65388).
route(prodloc15,prodloc5,tr0,18342,476892).
route(prodloc15,prodloc5,tr13,18342,110052).
route(prodloc15,prodloc6,tr0,8514,221364).
route(prodloc15,prodloc6,tr13,8514,51084).
route(prodloc15,prodloc7,tr0,21621,562146).
route(prodloc15,prodloc7,tr15,21621,691872).
route(prodloc15,prodloc8,tr0,19396,504296).
route(prodloc15,prodloc8,tr13,19396,116376).
route(prodloc15,prodloc9,tr0,25972,675272).
route(prodloc15,prodloc9,tr13,25972,155832).
route(prodloc15,prodloc10,tr0,11574,300924).
route(prodloc15,prodloc10,tr13,11574,69444).
route(prodloc15,prodloc11,tr0,19337,502762).
route(prodloc15,prodloc11,tr13,19337,116022).
route(prodloc15,prodloc12,tr0,25367,659542).
route(prodloc15,prodloc12,tr13,25367,152202).
route(prodloc15,prodloc13,tr0,16835,437710).
route(prodloc15,prodloc13,tr15,16835,538720).
route(prodloc15,prodloc14,tr0,28673,745498).
route(prodloc15,prodloc14,tr13,28673,172038).
route(prodloc15,prodloc16,tr0,7469,194194).
route(prodloc15,prodloc16,tr13,7469,44814).
route(prodloc15,prodloc17,tr0,15559,404534).
route(prodloc15,prodloc17,tr13,15559,93354).
route(prodloc15,prodloc18,tr0,14179,368654).
route(prodloc15,prodloc18,tr13,14179,85074).
route(prodloc15,prodloc19,tr0,26841,697866).
route(prodloc15,prodloc19,tr13,26841,161046).
route(prodloc15,prodloc20,tr0,10327,268502).
route(prodloc15,prodloc20,tr13,10327,61962).
route(prodloc15,prodloc21,tr0,10737,279162).
route(prodloc15,prodloc21,tr13,10737,64422).
route(prodloc15,prodloc22,tr0,13128,341328).
route(prodloc15,prodloc22,tr13,13128,78768).
route(prodloc15,prodloc23,tr0,5379,139854).
route(prodloc15,prodloc23,tr13,5379,32274).
route(prodloc15,prodloc24,tr0,9314,242164).
route(prodloc15,prodloc24,tr13,9314,55884).
route(prodloc15,prodloc25,tr0,596,15496).
route(prodloc15,prodloc25,tr13,596,3576).
route(prodloc15,prodloc26,tr13,22555,135330).
route(prodloc15,prodloc26,tr15,22555,721760).
route(prodloc15,prodloc27,tr0,17718,460668).
route(prodloc15,prodloc27,tr13,17718,106308).
route(prodloc15,prodloc28,tr0,1580,41080).
route(prodloc15,prodloc28,tr13,1580,9480).
route(prodloc15,prodloc29,tr0,13507,351182).
route(prodloc15,prodloc29,tr13,13507,81042).
route(prodloc15,prodloc30,tr0,16006,416156).
route(prodloc15,prodloc30,tr13,16006,96036).
route(prodloc15,prodloc31,tr0,19473,506298).
route(prodloc15,prodloc31,tr13,19473,116838).
route(prodloc15,prodloc32,tr0,23075,599950).
route(prodloc15,prodloc32,tr13,23075,138450).
route(prodloc15,prodloc33,tr0,28107,730782).
route(prodloc15,prodloc33,tr13,28107,168642).
route(prodloc16,harbor0,tr0,27817,723242).
route(prodloc16,harbor0,tr13,27817,166902).
route(prodloc16,harbor1,tr0,26528,689728).
route(prodloc16,harbor1,tr13,26528,159168).
route(prodloc16,harbor2,tr0,8939,232414).
route(prodloc16,harbor2,tr13,8939,53634).
route(prodloc16,harbor3,tr0,8900,231400).
route(prodloc16,harbor3,tr13,8900,53400).
route(prodloc16,harbor4,tr0,14689,381914).
route(prodloc16,harbor4,tr13,14689,88134).
route(prodloc16,harbor5,tr0,21904,569504).
route(prodloc16,harbor5,tr13,21904,131424).
route(prodloc16,harbor6,tr0,7170,186420).
route(prodloc16,harbor6,tr13,7170,43020).
route(prodloc16,harbor7,tr0,12983,337558).
route(prodloc16,harbor7,tr13,12983,77898).
route(prodloc16,harbor8,tr0,8347,217022).
route(prodloc16,harbor8,tr13,8347,50082).
route(prodloc16,harbor9,tr0,10385,270010).
route(prodloc16,harbor9,tr13,10385,62310).
route(prodloc16,harbor10,tr0,2249,58474).
route(prodloc16,harbor10,tr13,2249,13494).
route(prodloc16,harbor11,tr0,13949,362674).
route(prodloc16,harbor11,tr13,13949,83694).
route(prodloc16,harbor12,tr0,2661,69186).
route(prodloc16,harbor12,tr13,2661,15966).
route(prodloc16,harbor13,tr0,28387,738062).
route(prodloc16,harbor13,tr13,28387,170322).
route(prodloc16,harbor14,tr0,6882,178932).
route(prodloc16,harbor14,tr13,6882,41292).
route(prodloc16,harbor15,tr0,26400,686400).
route(prodloc16,harbor15,tr13,26400,158400).
route(prodloc16,harbor16,tr0,10939,284414).
route(prodloc16,harbor16,tr13,10939,65634).
route(prodloc16,prodloc0,tr0,17501,455026).
route(prodloc16,prodloc0,tr13,17501,105006).
route(prodloc16,prodloc1,tr0,7682,199732).
route(prodloc16,prodloc1,tr13,7682,46092).
route(prodloc16,prodloc2,tr0,6591,171366).
route(prodloc16,prodloc2,tr13,6591,39546).
route(prodloc16,prodloc3,tr0,8579,223054).
route(prodloc16,prodloc3,tr13,8579,51474).
route(prodloc16,prodloc4,tr0,19673,511498).
route(prodloc16,prodloc4,tr13,19673,118038).
route(prodloc16,prodloc5,tr0,17405,452530).
route(prodloc16,prodloc5,tr13,17405,104430).
route(prodloc16,prodloc6,tr0,14207,369382).
route(prodloc16,prodloc6,tr13,14207,85242).
route(prodloc16,prodloc7,tr0,19347,503022).
route(prodloc16,prodloc7,tr13,19347,116082).
route(prodloc16,prodloc8,tr0,20045,521170).
route(prodloc16,prodloc8,tr13,20045,120270).
route(prodloc16,prodloc9,tr0,10074,261924).
route(prodloc16,prodloc9,tr13,10074,60444).
route(prodloc16,prodloc10,tr0,3166,82316).
route(prodloc16,prodloc10,tr13,3166,18996).
route(prodloc16,prodloc11,tr0,25567,664742).
route(prodloc16,prodloc11,tr13,25567,153402).
route(prodloc16,prodloc12,tr0,23696,616096).
route(prodloc16,prodloc12,tr13,23696,142176).
route(prodloc16,prodloc13,tr0,16964,441064).
route(prodloc16,prodloc13,tr13,16964,101784).
route(prodloc16,prodloc14,tr0,7190,186940).
route(prodloc16,prodloc14,tr13,7190,43140).
route(prodloc16,prodloc15,tr0,24430,635180).
route(prodloc16,prodloc15,tr13,24430,146580).
route(prodloc16,prodloc17,tr13,12952,77712).
route(prodloc16,prodloc17,tr15,12952,414464).
route(prodloc16,prodloc18,tr0,1777,46202).
route(prodloc16,prodloc18,tr13,1777,10662).
route(prodloc16,prodloc19,tr0,16088,418288).
route(prodloc16,prodloc19,tr13,16088,96528).
route(prodloc16,prodloc21,tr0,631,16406).
route(prodloc16,prodloc21,tr13,631,3786).
route(prodloc16,prodloc22,tr0,16938,440388).
route(prodloc16,prodloc22,tr15,16938,542016).
route(prodloc16,prodloc23,tr0,23402,608452).
route(prodloc16,prodloc23,tr13,23402,140412).
route(prodloc16,prodloc24,tr0,22494,584844).
route(prodloc16,prodloc24,tr13,22494,134964).
route(prodloc16,prodloc25,tr0,3917,101842).
route(prodloc16,prodloc25,tr13,3917,23502).
route(prodloc16,prodloc26,tr0,13113,340938).
route(prodloc16,prodloc26,tr13,13113,78678).
route(prodloc16,prodloc27,tr0,26829,697554).
route(prodloc16,prodloc27,tr13,26829,160974).
route(prodloc16,prodloc28,tr0,129,3354).
route(prodloc16,prodloc28,tr13,129,774).
route(prodloc16,prodloc29,tr0,12121,315146).
route(prodloc16,prodloc29,tr13,12121,72726).
route(prodloc16,prodloc30,tr0,20896,543296).
route(prodloc16,prodloc30,tr13,20896,125376).
route(prodloc16,prodloc31,tr0,14444,375544).
route(prodloc16,prodloc31,tr15,14444,462208).
route(prodloc16,prodloc32,tr0,19248,500448).
route(prodloc16,prodloc32,tr13,19248,115488).
route(prodloc16,prodloc33,tr0,26751,695526).
route(prodloc16,prodloc33,tr13,26751,160506).
route(prodloc17,harbor0,tr0,5224,135824).
route(prodloc17,harbor0,tr13,5224,31344).
route(prodloc17,harbor1,tr0,865,22490).
route(prodloc17,harbor1,tr13,865,5190).
route(prodloc17,harbor2,tr0,7194,187044).
route(prodloc17,harbor2,tr13,7194,43164).
route(prodloc17,harbor3,tr0,20996,545896).
route(prodloc17,harbor3,tr13,20996,125976).
route(prodloc17,harbor4,tr0,28405,738530).
route(prodloc17,harbor4,tr13,28405,170430).
route(prodloc17,harbor5,tr0,25082,652132).
route(prodloc17,harbor5,tr13,25082,150492).
route(prodloc17,harbor6,tr0,27257,708682).
route(prodloc17,harbor6,tr13,27257,163542).
route(prodloc17,harbor7,tr0,9907,257582).
route(prodloc17,harbor7,tr13,9907,59442).
route(prodloc17,harbor8,tr0,640,16640).
route(prodloc17,harbor8,tr13,640,3840).
route(prodloc17,harbor9,tr0,13575,352950).
route(prodloc17,harbor9,tr13,13575,81450).
route(prodloc17,harbor10,tr0,16087,418262).
route(prodloc17,harbor10,tr13,16087,96522).
route(prodloc17,harbor11,tr0,13895,361270).
route(prodloc17,harbor11,tr13,13895,83370).
route(prodloc17,harbor12,tr0,19137,497562).
route(prodloc17,harbor12,tr13,19137,114822).
route(prodloc17,harbor13,tr0,23653,614978).
route(prodloc17,harbor13,tr13,23653,141918).
route(prodloc17,harbor14,tr0,20572,534872).
route(prodloc17,harbor14,tr13,20572,123432).
route(prodloc17,harbor15,tr0,1226,31876).
route(prodloc17,harbor15,tr13,1226,7356).
route(prodloc17,harbor16,tr0,15594,405444).
route(prodloc17,harbor16,tr13,15594,93564).
route(prodloc17,prodloc0,tr0,18461,479986).
route(prodloc17,prodloc0,tr15,18461,590752).
route(prodloc17,prodloc1,tr0,13987,363662).
route(prodloc17,prodloc1,tr13,13987,83922).
route(prodloc17,prodloc2,tr0,22378,581828).
route(prodloc17,prodloc2,tr13,22378,134268).
route(prodloc17,prodloc3,tr0,15638,406588).
route(prodloc17,prodloc3,tr15,15638,500416).
route(prodloc17,prodloc4,tr0,23794,618644).
route(prodloc17,prodloc4,tr13,23794,142764).
route(prodloc17,prodloc5,tr0,26160,680160).
route(prodloc17,prodloc5,tr13,26160,156960).
route(prodloc17,prodloc6,tr0,2112,54912).
route(prodloc17,prodloc6,tr13,2112,12672).
route(prodloc17,prodloc7,tr0,9784,254384).
route(prodloc17,prodloc7,tr13,9784,58704).
route(prodloc17,prodloc8,tr13,8007,48042).
route(prodloc17,prodloc8,tr15,8007,256224).
route(prodloc17,prodloc9,tr0,21737,565162).
route(prodloc17,prodloc9,tr13,21737,130422).
route(prodloc17,prodloc10,tr0,7782,202332).
route(prodloc17,prodloc10,tr13,7782,46692).
route(prodloc17,prodloc11,tr0,73,1898).
route(prodloc17,prodloc11,tr13,73,438).
route(prodloc17,prodloc13,tr0,4552,118352).
route(prodloc17,prodloc13,tr13,4552,27312).
route(prodloc17,prodloc14,tr0,22187,576862).
route(prodloc17,prodloc14,tr13,22187,133122).
route(prodloc17,prodloc15,tr0,27131,705406).
route(prodloc17,prodloc15,tr13,27131,162786).
route(prodloc17,prodloc16,tr0,17248,448448).
route(prodloc17,prodloc16,tr13,17248,103488).
route(prodloc17,prodloc18,tr0,11901,309426).
route(prodloc17,prodloc18,tr13,11901,71406).
route(prodloc17,prodloc19,tr0,12030,312780).
route(prodloc17,prodloc19,tr13,12030,72180).
route(prodloc17,prodloc20,tr0,23448,609648).
route(prodloc17,prodloc20,tr13,23448,140688).
route(prodloc17,prodloc21,tr0,13806,358956).
route(prodloc17,prodloc21,tr13,13806,82836).
route(prodloc17,prodloc22,tr0,27386,712036).
route(prodloc17,prodloc22,tr13,27386,164316).
route(prodloc17,prodloc23,tr0,19057,495482).
route(prodloc17,prodloc23,tr13,19057,114342).
route(prodloc17,prodloc24,tr0,20251,526526).
route(prodloc17,prodloc24,tr13,20251,121506).
route(prodloc17,prodloc25,tr0,24654,641004).
route(prodloc17,prodloc25,tr13,24654,147924).
route(prodloc17,prodloc26,tr0,13608,353808).
route(prodloc17,prodloc26,tr13,13608,81648).
route(prodloc17,prodloc27,tr0,9530,247780).
route(prodloc17,prodloc27,tr13,9530,57180).
route(prodloc17,prodloc28,tr0,1841,47866).
route(prodloc17,prodloc28,tr13,1841,11046).
route(prodloc17,prodloc29,tr0,1845,47970).
route(prodloc17,prodloc29,tr13,1845,11070).
route(prodloc17,prodloc30,tr0,22070,573820).
route(prodloc17,prodloc30,tr13,22070,132420).
route(prodloc17,prodloc31,tr0,20386,530036).
route(prodloc17,prodloc31,tr13,20386,122316).
route(prodloc17,prodloc32,tr0,14615,379990).
route(prodloc17,prodloc32,tr13,14615,87690).
route(prodloc17,prodloc33,tr0,518,13468).
route(prodloc17,prodloc33,tr13,518,3108).
route(prodloc18,harbor0,tr0,9393,244218).
route(prodloc18,harbor0,tr13,9393,56358).
route(prodloc18,harbor1,tr0,7563,196638).
route(prodloc18,harbor1,tr13,7563,45378).
route(prodloc18,harbor2,tr0,7209,187434).
route(prodloc18,harbor2,tr13,7209,43254).
route(prodloc18,harbor3,tr0,3687,95862).
route(prodloc18,harbor3,tr13,3687,22122).
route(prodloc18,harbor4,tr0,2488,64688).
route(prodloc18,harbor4,tr13,2488,14928).
route(prodloc18,harbor5,tr0,7642,198692).
route(prodloc18,harbor5,tr13,7642,45852).
route(prodloc18,harbor6,tr0,27035,702910).
route(prodloc18,harbor6,tr13,27035,162210).
route(prodloc18,harbor7,tr0,954,24804).
route(prodloc18,harbor7,tr13,954,5724).
route(prodloc18,harbor8,tr0,3555,92430).
route(prodloc18,harbor8,tr13,3555,21330).
route(prodloc18,harbor9,tr0,2007,52182).
route(prodloc18,harbor9,tr13,2007,12042).
route(prodloc18,harbor10,tr0,18413,478738).
route(prodloc18,harbor10,tr13,18413,110478).
route(prodloc18,harbor11,tr0,15625,406250).
route(prodloc18,harbor11,tr13,15625,93750).
route(prodloc18,harbor12,tr0,13329,346554).
route(prodloc18,harbor12,tr13,13329,79974).
route(prodloc18,harbor13,tr0,511,13286).
route(prodloc18,harbor13,tr13,511,3066).
route(prodloc18,harbor14,tr0,26612,691912).
route(prodloc18,harbor14,tr13,26612,159672).
route(prodloc18,harbor15,tr0,28335,736710).
route(prodloc18,harbor15,tr13,28335,170010).
route(prodloc18,harbor16,tr0,12670,329420).
route(prodloc18,harbor16,tr13,12670,76020).
route(prodloc18,prodloc0,tr0,26340,684840).
route(prodloc18,prodloc0,tr13,26340,158040).
route(prodloc18,prodloc1,tr0,8304,215904).
route(prodloc18,prodloc1,tr13,8304,49824).
route(prodloc18,prodloc2,tr0,13898,361348).
route(prodloc18,prodloc2,tr13,13898,83388).
route(prodloc18,prodloc3,tr0,26063,677638).
route(prodloc18,prodloc3,tr13,26063,156378).
route(prodloc18,prodloc4,tr0,5373,139698).
route(prodloc18,prodloc4,tr13,5373,32238).
route(prodloc18,prodloc5,tr0,9424,245024).
route(prodloc18,prodloc5,tr13,9424,56544).
route(prodloc18,prodloc6,tr0,9555,248430).
route(prodloc18,prodloc6,tr13,9555,57330).
route(prodloc18,prodloc7,tr0,23917,621842).
route(prodloc18,prodloc7,tr13,23917,143502).
route(prodloc18,prodloc8,tr0,1294,33644).
route(prodloc18,prodloc8,tr13,1294,7764).
route(prodloc18,prodloc9,tr0,2856,74256).
route(prodloc18,prodloc9,tr13,2856,17136).
route(prodloc18,prodloc10,tr0,17872,464672).
route(prodloc18,prodloc10,tr13,17872,107232).
route(prodloc18,prodloc11,tr0,18926,492076).
route(prodloc18,prodloc11,tr13,18926,113556).
route(prodloc18,prodloc12,tr0,6770,176020).
route(prodloc18,prodloc12,tr13,6770,40620).
route(prodloc18,prodloc13,tr0,26641,692666).
route(prodloc18,prodloc13,tr13,26641,159846).
route(prodloc18,prodloc14,tr0,2276,59176).
route(prodloc18,prodloc14,tr13,2276,13656).
route(prodloc18,prodloc15,tr0,3492,90792).
route(prodloc18,prodloc15,tr13,3492,20952).
route(prodloc18,prodloc16,tr0,5505,143130).
route(prodloc18,prodloc16,tr13,5505,33030).
route(prodloc18,prodloc17,tr13,2626,15756).
route(prodloc18,prodloc17,tr15,2626,84032).
route(prodloc18,prodloc19,tr0,27901,725426).
route(prodloc18,prodloc19,tr13,27901,167406).
route(prodloc18,prodloc20,tr0,14649,380874).
route(prodloc18,prodloc20,tr13,14649,87894).
route(prodloc18,prodloc21,tr0,5755,149630).
route(prodloc18,prodloc21,tr13,5755,34530).
route(prodloc18,prodloc22,tr0,6301,163826).
route(prodloc18,prodloc22,tr13,6301,37806).
route(prodloc18,prodloc23,tr0,13490,350740).
route(prodloc18,prodloc23,tr13,13490,80940).
route(prodloc18,prodloc24,tr0,12514,325364).
route(prodloc18,prodloc24,tr13,12514,75084).
route(prodloc18,prodloc25,tr0,12337,320762).
route(prodloc18,prodloc25,tr13,12337,74022).
route(prodloc18,prodloc26,tr0,11141,289666).
route(prodloc18,prodloc26,tr13,11141,66846).
route(prodloc18,prodloc27,tr0,25008,650208).
route(prodloc18,prodloc27,tr13,25008,150048).
route(prodloc18,prodloc28,tr0,520,13520).
route(prodloc18,prodloc28,tr13,520,3120).
route(prodloc18,prodloc29,tr0,1078,28028).
route(prodloc18,prodloc29,tr13,1078,6468).
route(prodloc18,prodloc30,tr0,27087,704262).
route(prodloc18,prodloc30,tr13,27087,162522).
route(prodloc18,prodloc31,tr0,1440,37440).
route(prodloc18,prodloc31,tr13,1440,8640).
route(prodloc18,prodloc32,tr0,13574,352924).
route(prodloc18,prodloc32,tr13,13574,81444).
route(prodloc18,prodloc33,tr0,20002,520052).
route(prodloc18,prodloc33,tr13,20002,120012).
route(prodloc19,harbor0,tr0,22509,585234).
route(prodloc19,harbor0,tr13,22509,135054).
route(prodloc19,harbor1,tr0,21783,566358).
route(prodloc19,harbor1,tr13,21783,130698).
route(prodloc19,harbor2,tr0,20063,521638).
route(prodloc19,harbor2,tr13,20063,120378).
route(prodloc19,harbor3,tr0,21496,558896).
route(prodloc19,harbor3,tr13,21496,128976).
route(prodloc19,harbor4,tr0,27275,709150).
route(prodloc19,harbor4,tr13,27275,163650).
route(prodloc19,harbor5,tr0,2850,74100).
route(prodloc19,harbor5,tr13,2850,17100).
route(prodloc19,harbor6,tr0,18081,470106).
route(prodloc19,harbor6,tr13,18081,108486).
route(prodloc19,harbor7,tr0,19249,500474).
route(prodloc19,harbor7,tr13,19249,115494).
route(prodloc19,harbor8,tr0,12117,315042).
route(prodloc19,harbor8,tr13,12117,72702).
route(prodloc19,harbor9,tr0,25793,670618).
route(prodloc19,harbor9,tr13,25793,154758).
route(prodloc19,harbor10,tr0,20140,523640).
route(prodloc19,harbor10,tr13,20140,120840).
route(prodloc19,harbor11,tr0,9993,259818).
route(prodloc19,harbor11,tr13,9993,59958).
route(prodloc19,harbor12,tr0,7232,188032).
route(prodloc19,harbor12,tr13,7232,43392).
route(prodloc19,harbor13,tr0,20739,539214).
route(prodloc19,harbor13,tr13,20739,124434).
route(prodloc19,harbor14,tr0,5306,137956).
route(prodloc19,harbor14,tr13,5306,31836).
route(prodloc19,harbor15,tr0,7103,184678).
route(prodloc19,harbor15,tr13,7103,42618).
route(prodloc19,harbor16,tr0,23280,605280).
route(prodloc19,harbor16,tr13,23280,139680).
route(prodloc19,prodloc0,tr0,15603,405678).
route(prodloc19,prodloc0,tr13,15603,93618).
route(prodloc19,prodloc1,tr0,13273,345098).
route(prodloc19,prodloc1,tr13,13273,79638).
route(prodloc19,prodloc2,tr0,26828,697528).
route(prodloc19,prodloc2,tr13,26828,160968).
route(prodloc19,prodloc3,tr0,3060,79560).
route(prodloc19,prodloc3,tr13,3060,18360).
route(prodloc19,prodloc4,tr0,15969,415194).
route(prodloc19,prodloc4,tr13,15969,95814).
route(prodloc19,prodloc5,tr0,23722,616772).
route(prodloc19,prodloc5,tr13,23722,142332).
route(prodloc19,prodloc6,tr0,17259,448734).
route(prodloc19,prodloc6,tr13,17259,103554).
route(prodloc19,prodloc7,tr0,23221,603746).
route(prodloc19,prodloc7,tr13,23221,139326).
route(prodloc19,prodloc8,tr0,17547,456222).
route(prodloc19,prodloc8,tr13,17547,105282).
route(prodloc19,prodloc9,tr0,24328,632528).
route(prodloc19,prodloc9,tr13,24328,145968).
route(prodloc19,prodloc10,tr0,6897,179322).
route(prodloc19,prodloc10,tr13,6897,41382).
route(prodloc19,prodloc11,tr0,13003,338078).
route(prodloc19,prodloc11,tr13,13003,78018).
route(prodloc19,prodloc12,tr0,2596,67496).
route(prodloc19,prodloc12,tr13,2596,15576).
route(prodloc19,prodloc13,tr0,15743,409318).
route(prodloc19,prodloc13,tr13,15743,94458).
route(prodloc19,prodloc14,tr0,27152,705952).
route(prodloc19,prodloc14,tr13,27152,162912).
route(prodloc19,prodloc15,tr0,25773,670098).
route(prodloc19,prodloc15,tr13,25773,154638).
route(prodloc19,prodloc16,tr0,4468,116168).
route(prodloc19,prodloc16,tr15,4468,142976).
route(prodloc19,prodloc17,tr0,4554,118404).
route(prodloc19,prodloc17,tr13,4554,27324).
route(prodloc19,prodloc18,tr0,11832,307632).
route(prodloc19,prodloc18,tr13,11832,70992).
route(prodloc19,prodloc20,tr0,7251,188526).
route(prodloc19,prodloc20,tr15,7251,232032).
route(prodloc19,prodloc21,tr0,3308,86008).
route(prodloc19,prodloc21,tr13,3308,19848).
route(prodloc19,prodloc22,tr13,21015,126090).
route(prodloc19,prodloc22,tr15,21015,672480).
route(prodloc19,prodloc23,tr0,20419,530894).
route(prodloc19,prodloc23,tr13,20419,122514).
route(prodloc19,prodloc24,tr0,8689,225914).
route(prodloc19,prodloc24,tr13,8689,52134).
route(prodloc19,prodloc25,tr0,9506,247156).
route(prodloc19,prodloc25,tr13,9506,57036).
route(prodloc19,prodloc26,tr0,21614,561964).
route(prodloc19,prodloc26,tr13,21614,129684).
route(prodloc19,prodloc27,tr0,24764,643864).
route(prodloc19,prodloc27,tr13,24764,148584).
route(prodloc19,prodloc28,tr0,17643,458718).
route(prodloc19,prodloc28,tr13,17643,105858).
route(prodloc19,prodloc29,tr0,1139,29614).
route(prodloc19,prodloc29,tr13,1139,6834).
route(prodloc19,prodloc30,tr0,21965,571090).
route(prodloc19,prodloc30,tr13,21965,131790).
route(prodloc19,prodloc31,tr0,1229,31954).
route(prodloc19,prodloc31,tr13,1229,7374).
route(prodloc19,prodloc32,tr0,16335,424710).
route(prodloc19,prodloc32,tr13,16335,98010).
route(prodloc19,prodloc33,tr0,17315,450190).
route(prodloc19,prodloc33,tr13,17315,103890).
route(prodloc20,harbor0,tr0,13769,357994).
route(prodloc20,harbor0,tr13,13769,82614).
route(prodloc20,harbor1,tr0,27035,702910).
route(prodloc20,harbor1,tr13,27035,162210).
route(prodloc20,harbor2,tr0,2489,64714).
route(prodloc20,harbor2,tr13,2489,14934).
route(prodloc20,harbor3,tr0,5185,134810).
route(prodloc20,harbor3,tr13,5185,31110).
route(prodloc20,harbor4,tr0,9670,251420).
route(prodloc20,harbor4,tr13,9670,58020).
route(prodloc20,harbor5,tr0,10354,269204).
route(prodloc20,harbor5,tr13,10354,62124).
route(prodloc20,harbor6,tr0,22429,583154).
route(prodloc20,harbor6,tr13,22429,134574).
route(prodloc20,harbor7,tr0,15293,397618).
route(prodloc20,harbor7,tr13,15293,91758).
route(prodloc20,harbor8,tr0,13252,344552).
route(prodloc20,harbor8,tr13,13252,79512).
route(prodloc20,harbor9,tr0,28666,745316).
route(prodloc20,harbor9,tr13,28666,171996).
route(prodloc20,harbor10,tr0,5667,147342).
route(prodloc20,harbor10,tr13,5667,34002).
route(prodloc20,harbor11,tr0,24429,635154).
route(prodloc20,harbor11,tr13,24429,146574).
route(prodloc20,harbor12,tr0,3617,94042).
route(prodloc20,harbor12,tr13,3617,21702).
route(prodloc20,harbor13,tr0,25518,663468).
route(prodloc20,harbor13,tr13,25518,153108).
route(prodloc20,harbor14,tr0,18480,480480).
route(prodloc20,harbor14,tr13,18480,110880).
route(prodloc20,harbor15,tr0,26279,683254).
route(prodloc20,harbor15,tr13,26279,157674).
route(prodloc20,harbor16,tr0,506,13156).
route(prodloc20,harbor16,tr13,506,3036).
route(prodloc20,prodloc0,tr0,25682,667732).
route(prodloc20,prodloc0,tr13,25682,154092).
route(prodloc20,prodloc1,tr0,18468,480168).
route(prodloc20,prodloc1,tr13,18468,110808).
route(prodloc20,prodloc2,tr0,20983,545558).
route(prodloc20,prodloc2,tr13,20983,125898).
route(prodloc20,prodloc3,tr0,15205,395330).
route(prodloc20,prodloc3,tr13,15205,91230).
route(prodloc20,prodloc4,tr0,7942,206492).
route(prodloc20,prodloc4,tr13,7942,47652).
route(prodloc20,prodloc5,tr0,18873,490698).
route(prodloc20,prodloc5,tr13,18873,113238).
route(prodloc20,prodloc6,tr0,3534,91884).
route(prodloc20,prodloc6,tr13,3534,21204).
route(prodloc20,prodloc7,tr0,5190,134940).
route(prodloc20,prodloc7,tr13,5190,31140).
route(prodloc20,prodloc8,tr0,27301,709826).
route(prodloc20,prodloc8,tr13,27301,163806).
route(prodloc20,prodloc9,tr0,4904,127504).
route(prodloc20,prodloc9,tr13,4904,29424).
route(prodloc20,prodloc10,tr0,15136,393536).
route(prodloc20,prodloc10,tr13,15136,90816).
route(prodloc20,prodloc11,tr0,23429,609154).
route(prodloc20,prodloc11,tr13,23429,140574).
route(prodloc20,prodloc12,tr0,28523,741598).
route(prodloc20,prodloc12,tr13,28523,171138).
route(prodloc20,prodloc13,tr0,23004,598104).
route(prodloc20,prodloc13,tr13,23004,138024).
route(prodloc20,prodloc14,tr0,7965,207090).
route(prodloc20,prodloc14,tr13,7965,47790).
route(prodloc20,prodloc15,tr0,28144,731744).
route(prodloc20,prodloc15,tr13,28144,168864).
route(prodloc20,prodloc16,tr0,9025,234650).
route(prodloc20,prodloc16,tr13,9025,54150).
route(prodloc20,prodloc17,tr0,19675,511550).
route(prodloc20,prodloc17,tr13,19675,118050).
route(prodloc20,prodloc18,tr0,15651,406926).
route(prodloc20,prodloc18,tr13,15651,93906).
route(prodloc20,prodloc19,tr0,20555,534430).
route(prodloc20,prodloc19,tr13,20555,123330).
route(prodloc20,prodloc21,tr0,5071,131846).
route(prodloc20,prodloc21,tr13,5071,30426).
route(prodloc20,prodloc22,tr0,20335,528710).
route(prodloc20,prodloc22,tr13,20335,122010).
route(prodloc20,prodloc23,tr0,2686,69836).
route(prodloc20,prodloc23,tr13,2686,16116).
route(prodloc20,prodloc24,tr0,11172,290472).
route(prodloc20,prodloc24,tr13,11172,67032).
route(prodloc20,prodloc25,tr0,28651,744926).
route(prodloc20,prodloc25,tr13,28651,171906).
route(prodloc20,prodloc26,tr0,8024,208624).
route(prodloc20,prodloc26,tr13,8024,48144).
route(prodloc20,prodloc27,tr0,15170,394420).
route(prodloc20,prodloc27,tr13,15170,91020).
route(prodloc20,prodloc28,tr0,7687,199862).
route(prodloc20,prodloc28,tr13,7687,46122).
route(prodloc20,prodloc29,tr0,10194,265044).
route(prodloc20,prodloc29,tr13,10194,61164).
route(prodloc20,prodloc30,tr0,28031,728806).
route(prodloc20,prodloc30,tr13,28031,168186).
route(prodloc20,prodloc31,tr0,19885,517010).
route(prodloc20,prodloc31,tr13,19885,119310).
route(prodloc20,prodloc32,tr0,17421,452946).
route(prodloc20,prodloc32,tr13,17421,104526).
route(prodloc20,prodloc33,tr0,10090,262340).
route(prodloc20,prodloc33,tr13,10090,60540).
route(prodloc21,harbor0,tr0,15387,400062).
route(prodloc21,harbor0,tr13,15387,92322).
route(prodloc21,harbor1,tr0,26893,699218).
route(prodloc21,harbor1,tr13,26893,161358).
route(prodloc21,harbor2,tr0,13476,350376).
route(prodloc21,harbor2,tr13,13476,80856).
route(prodloc21,harbor3,tr0,25180,654680).
route(prodloc21,harbor3,tr13,25180,151080).
route(prodloc21,harbor4,tr0,21865,568490).
route(prodloc21,harbor4,tr13,21865,131190).
route(prodloc21,harbor5,tr0,21975,571350).
route(prodloc21,harbor5,tr13,21975,131850).
route(prodloc21,harbor6,tr0,14093,366418).
route(prodloc21,harbor6,tr13,14093,84558).
route(prodloc21,harbor7,tr0,21956,570856).
route(prodloc21,harbor7,tr13,21956,131736).
route(prodloc21,harbor8,tr0,17843,463918).
route(prodloc21,harbor8,tr13,17843,107058).
route(prodloc21,harbor9,tr0,6238,162188).
route(prodloc21,harbor9,tr13,6238,37428).
route(prodloc21,harbor10,tr0,24121,627146).
route(prodloc21,harbor10,tr13,24121,144726).
route(prodloc21,harbor11,tr0,18301,475826).
route(prodloc21,harbor11,tr13,18301,109806).
route(prodloc21,harbor12,tr0,6681,173706).
route(prodloc21,harbor12,tr13,6681,40086).
route(prodloc21,harbor13,tr0,24845,645970).
route(prodloc21,harbor13,tr13,24845,149070).
route(prodloc21,harbor14,tr0,25671,667446).
route(prodloc21,harbor14,tr13,25671,154026).
route(prodloc21,harbor15,tr0,11622,302172).
route(prodloc21,harbor15,tr13,11622,69732).
route(prodloc21,harbor16,tr0,18595,483470).
route(prodloc21,harbor16,tr13,18595,111570).
route(prodloc21,prodloc0,tr0,903,23478).
route(prodloc21,prodloc0,tr13,903,5418).
route(prodloc21,prodloc1,tr0,7806,202956).
route(prodloc21,prodloc1,tr13,7806,46836).
route(prodloc21,prodloc2,tr0,27319,710294).
route(prodloc21,prodloc2,tr13,27319,163914).
route(prodloc21,prodloc3,tr0,12715,330590).
route(prodloc21,prodloc3,tr13,12715,76290).
route(prodloc21,prodloc4,tr0,23336,606736).
route(prodloc21,prodloc4,tr13,23336,140016).
route(prodloc21,prodloc5,tr0,20978,545428).
route(prodloc21,prodloc5,tr13,20978,125868).
route(prodloc21,prodloc6,tr0,28666,745316).
route(prodloc21,prodloc6,tr13,28666,171996).
route(prodloc21,prodloc7,tr0,28833,749658).
route(prodloc21,prodloc7,tr13,28833,172998).
route(prodloc21,prodloc8,tr0,16295,423670).
route(prodloc21,prodloc8,tr13,16295,97770).
route(prodloc21,prodloc9,tr0,23784,618384).
route(prodloc21,prodloc9,tr13,23784,142704).
route(prodloc21,prodloc10,tr0,8928,232128).
route(prodloc21,prodloc10,tr13,8928,53568).
route(prodloc21,prodloc11,tr0,624,16224).
route(prodloc21,prodloc11,tr13,624,3744).
route(prodloc21,prodloc12,tr0,7348,191048).
route(prodloc21,prodloc12,tr13,7348,44088).
route(prodloc21,prodloc13,tr0,19450,505700).
route(prodloc21,prodloc13,tr13,19450,116700).
route(prodloc21,prodloc14,tr0,17282,449332).
route(prodloc21,prodloc14,tr13,17282,103692).
route(prodloc21,prodloc15,tr0,6194,161044).
route(prodloc21,prodloc15,tr13,6194,37164).
route(prodloc21,prodloc16,tr0,3479,90454).
route(prodloc21,prodloc16,tr13,3479,20874).
route(prodloc21,prodloc17,tr0,11930,310180).
route(prodloc21,prodloc17,tr13,11930,71580).
route(prodloc21,prodloc18,tr0,18205,473330).
route(prodloc21,prodloc18,tr13,18205,109230).
route(prodloc21,prodloc19,tr0,18047,469222).
route(prodloc21,prodloc19,tr13,18047,108282).
route(prodloc21,prodloc20,tr0,16709,434434).
route(prodloc21,prodloc20,tr13,16709,100254).
route(prodloc21,prodloc22,tr0,25861,672386).
route(prodloc21,prodloc22,tr13,25861,155166).
route(prodloc21,prodloc23,tr0,15176,394576).
route(prodloc21,prodloc23,tr13,15176,91056).
route(prodloc21,prodloc24,tr0,19128,497328).
route(prodloc21,prodloc24,tr13,19128,114768).
route(prodloc21,prodloc25,tr0,25960,674960).
route(prodloc21,prodloc25,tr13,25960,155760).
route(prodloc21,prodloc26,tr0,25762,669812).
route(prodloc21,prodloc26,tr13,25762,154572).
route(prodloc21,prodloc27,tr0,12350,321100).
route(prodloc21,prodloc27,tr13,12350,74100).
route(prodloc21,prodloc28,tr0,6442,167492).
route(prodloc21,prodloc28,tr13,6442,38652).
route(prodloc21,prodloc29,tr0,26551,690326).
route(prodloc21,prodloc29,tr13,26551,159306).
route(prodloc21,prodloc30,tr0,26581,691106).
route(prodloc21,prodloc30,tr13,26581,159486).
route(prodloc21,prodloc31,tr0,7990,207740).
route(prodloc21,prodloc31,tr13,7990,47940).
route(prodloc21,prodloc32,tr0,25641,666666).
route(prodloc21,prodloc32,tr13,25641,153846).
route(prodloc21,prodloc33,tr0,25353,659178).
route(prodloc21,prodloc33,tr13,25353,152118).
route(prodloc22,harbor0,tr0,5536,143936).
route(prodloc22,harbor0,tr13,5536,33216).
route(prodloc22,harbor1,tr0,15203,395278).
route(prodloc22,harbor1,tr13,15203,91218).
route(prodloc22,harbor2,tr0,11176,290576).
route(prodloc22,harbor2,tr13,11176,67056).
route(prodloc22,harbor3,tr0,14154,368004).
route(prodloc22,harbor3,tr13,14154,84924).
route(prodloc22,harbor4,tr0,28688,745888).
route(prodloc22,harbor4,tr13,28688,172128).
route(prodloc22,harbor5,tr0,12435,323310).
route(prodloc22,harbor5,tr13,12435,74610).
route(prodloc22,harbor6,tr0,24868,646568).
route(prodloc22,harbor6,tr13,24868,149208).
route(prodloc22,harbor7,tr0,6131,159406).
route(prodloc22,harbor7,tr13,6131,36786).
route(prodloc22,harbor8,tr0,14315,372190).
route(prodloc22,harbor8,tr13,14315,85890).
route(prodloc22,harbor9,tr0,11268,292968).
route(prodloc22,harbor9,tr13,11268,67608).
route(prodloc22,harbor10,tr0,10215,265590).
route(prodloc22,harbor10,tr13,10215,61290).
route(prodloc22,harbor11,tr0,631,16406).
route(prodloc22,harbor11,tr13,631,3786).
route(prodloc22,harbor12,tr0,16965,441090).
route(prodloc22,harbor12,tr13,16965,101790).
route(prodloc22,harbor13,tr0,13044,339144).
route(prodloc22,harbor13,tr13,13044,78264).
route(prodloc22,harbor14,tr0,2529,65754).
route(prodloc22,harbor14,tr13,2529,15174).
route(prodloc22,harbor15,tr0,19125,497250).
route(prodloc22,harbor15,tr13,19125,114750).
route(prodloc22,harbor16,tr0,5583,145158).
route(prodloc22,harbor16,tr13,5583,33498).
route(prodloc22,prodloc0,tr0,8375,217750).
route(prodloc22,prodloc0,tr13,8375,50250).
route(prodloc22,prodloc1,tr13,11602,69612).
route(prodloc22,prodloc1,tr15,11602,371264).
route(prodloc22,prodloc2,tr0,17259,448734).
route(prodloc22,prodloc2,tr13,17259,103554).
route(prodloc22,prodloc3,tr0,8172,212472).
route(prodloc22,prodloc3,tr13,8172,49032).
route(prodloc22,prodloc4,tr0,17975,467350).
route(prodloc22,prodloc4,tr13,17975,107850).
route(prodloc22,prodloc5,tr0,4554,118404).
route(prodloc22,prodloc5,tr13,4554,27324).
route(prodloc22,prodloc6,tr0,16187,420862).
route(prodloc22,prodloc6,tr13,16187,97122).
route(prodloc22,prodloc7,tr0,8854,230204).
route(prodloc22,prodloc7,tr13,8854,53124).
route(prodloc22,prodloc8,tr0,26153,679978).
route(prodloc22,prodloc8,tr13,26153,156918).
route(prodloc22,prodloc9,tr0,24407,634582).
route(prodloc22,prodloc9,tr13,24407,146442).
route(prodloc22,prodloc10,tr0,13763,357838).
route(prodloc22,prodloc10,tr13,13763,82578).
route(prodloc22,prodloc11,tr0,10109,262834).
route(prodloc22,prodloc11,tr13,10109,60654).
route(prodloc22,prodloc12,tr0,28024,728624).
route(prodloc22,prodloc12,tr13,28024,168144).
route(prodloc22,prodloc13,tr0,21626,562276).
route(prodloc22,prodloc13,tr13,21626,129756).
route(prodloc22,prodloc14,tr0,6846,177996).
route(prodloc22,prodloc14,tr13,6846,41076).
route(prodloc22,prodloc15,tr0,12388,322088).
route(prodloc22,prodloc15,tr13,12388,74328).
route(prodloc22,prodloc16,tr0,953,24778).
route(prodloc22,prodloc16,tr13,953,5718).
route(prodloc22,prodloc17,tr0,25326,658476).
route(prodloc22,prodloc17,tr13,25326,151956).
route(prodloc22,prodloc18,tr0,16574,430924).
route(prodloc22,prodloc18,tr13,16574,99444).
route(prodloc22,prodloc19,tr0,5037,130962).
route(prodloc22,prodloc19,tr13,5037,30222).
route(prodloc22,prodloc20,tr0,4847,126022).
route(prodloc22,prodloc20,tr13,4847,29082).
route(prodloc22,prodloc21,tr0,14310,372060).
route(prodloc22,prodloc21,tr13,14310,85860).
route(prodloc22,prodloc23,tr0,26366,685516).
route(prodloc22,prodloc23,tr13,26366,158196).
route(prodloc22,prodloc24,tr0,5995,155870).
route(prodloc22,prodloc24,tr13,5995,35970).
route(prodloc22,prodloc25,tr0,24907,647582).
route(prodloc22,prodloc25,tr13,24907,149442).
route(prodloc22,prodloc26,tr0,4234,110084).
route(prodloc22,prodloc26,tr13,4234,25404).
route(prodloc22,prodloc27,tr0,20333,528658).
route(prodloc22,prodloc27,tr13,20333,121998).
route(prodloc22,prodloc28,tr0,4439,115414).
route(prodloc22,prodloc28,tr13,4439,26634).
route(prodloc22,prodloc29,tr0,16566,430716).
route(prodloc22,prodloc29,tr13,16566,99396).
route(prodloc22,prodloc30,tr0,21332,554632).
route(prodloc22,prodloc30,tr13,21332,127992).
route(prodloc22,prodloc31,tr0,22804,592904).
route(prodloc22,prodloc31,tr13,22804,136824).
route(prodloc22,prodloc32,tr0,2003,52078).
route(prodloc22,prodloc32,tr13,2003,12018).
route(prodloc22,prodloc33,tr0,16040,417040).
route(prodloc22,prodloc33,tr13,16040,96240).
route(prodloc23,harbor0,tr0,581,15106).
route(prodloc23,harbor0,tr13,581,3486).
route(prodloc23,harbor1,tr0,11569,300794).
route(prodloc23,harbor1,tr13,11569,69414).
route(prodloc23,harbor2,tr0,12256,318656).
route(prodloc23,harbor2,tr13,12256,73536).
route(prodloc23,harbor3,tr0,24747,643422).
route(prodloc23,harbor3,tr13,24747,148482).
route(prodloc23,harbor4,tr0,28278,735228).
route(prodloc23,harbor4,tr13,28278,169668).
route(prodloc23,harbor5,tr0,21955,570830).
route(prodloc23,harbor5,tr13,21955,131730).
route(prodloc23,harbor6,tr0,27769,721994).
route(prodloc23,harbor6,tr13,27769,166614).
route(prodloc23,harbor7,tr0,21958,570908).
route(prodloc23,harbor7,tr13,21958,131748).
route(prodloc23,harbor8,tr0,9926,258076).
route(prodloc23,harbor8,tr13,9926,59556).
route(prodloc23,harbor9,tr0,24038,624988).
route(prodloc23,harbor9,tr13,24038,144228).
route(prodloc23,harbor10,tr0,13695,356070).
route(prodloc23,harbor10,tr13,13695,82170).
route(prodloc23,harbor11,tr0,9991,259766).
route(prodloc23,harbor11,tr13,9991,59946).
route(prodloc23,harbor12,tr0,16884,438984).
route(prodloc23,harbor12,tr13,16884,101304).
route(prodloc23,harbor13,tr0,19475,506350).
route(prodloc23,harbor13,tr13,19475,116850).
route(prodloc23,harbor14,tr0,13005,338130).
route(prodloc23,harbor14,tr13,13005,78030).
route(prodloc23,harbor15,tr0,23055,599430).
route(prodloc23,harbor15,tr13,23055,138330).
route(prodloc23,harbor16,tr0,5799,150774).
route(prodloc23,harbor16,tr13,5799,34794).
route(prodloc23,prodloc0,tr0,20668,537368).
route(prodloc23,prodloc0,tr13,20668,124008).
route(prodloc23,prodloc1,tr0,18789,488514).
route(prodloc23,prodloc1,tr13,18789,112734).
route(prodloc23,prodloc2,tr0,5004,130104).
route(prodloc23,prodloc2,tr13,5004,30024).
route(prodloc23,prodloc3,tr0,348,9048).
route(prodloc23,prodloc3,tr13,348,2088).
route(prodloc23,prodloc4,tr0,25320,658320).
route(prodloc23,prodloc4,tr13,25320,151920).
route(prodloc23,prodloc5,tr0,9240,240240).
route(prodloc23,prodloc5,tr13,9240,55440).
route(prodloc23,prodloc6,tr0,14891,387166).
route(prodloc23,prodloc6,tr13,14891,89346).
route(prodloc23,prodloc7,tr0,21842,567892).
route(prodloc23,prodloc7,tr13,21842,131052).
route(prodloc23,prodloc8,tr0,5682,147732).
route(prodloc23,prodloc8,tr13,5682,34092).
route(prodloc23,prodloc9,tr0,15928,414128).
route(prodloc23,prodloc9,tr13,15928,95568).
route(prodloc23,prodloc10,tr0,13632,354432).
route(prodloc23,prodloc10,tr13,13632,81792).
route(prodloc23,prodloc11,tr0,23821,619346).
route(prodloc23,prodloc11,tr13,23821,142926).
route(prodloc23,prodloc12,tr0,11615,301990).
route(prodloc23,prodloc12,tr13,11615,69690).
route(prodloc23,prodloc13,tr0,27614,717964).
route(prodloc23,prodloc13,tr13,27614,165684).
route(prodloc23,prodloc14,tr0,12435,323310).
route(prodloc23,prodloc14,tr13,12435,74610).
route(prodloc23,prodloc15,tr0,2707,70382).
route(prodloc23,prodloc15,tr13,2707,16242).
route(prodloc23,prodloc16,tr0,1479,38454).
route(prodloc23,prodloc16,tr13,1479,8874).
route(prodloc23,prodloc17,tr0,4638,120588).
route(prodloc23,prodloc17,tr13,4638,27828).
route(prodloc23,prodloc18,tr0,19221,499746).
route(prodloc23,prodloc18,tr13,19221,115326).
route(prodloc23,prodloc19,tr0,3813,99138).
route(prodloc23,prodloc19,tr13,3813,22878).
route(prodloc23,prodloc20,tr0,27910,725660).
route(prodloc23,prodloc20,tr13,27910,167460).
route(prodloc23,prodloc21,tr0,8875,230750).
route(prodloc23,prodloc21,tr13,8875,53250).
route(prodloc23,prodloc22,tr0,17379,451854).
route(prodloc23,prodloc22,tr13,17379,104274).
route(prodloc23,prodloc24,tr0,20876,542776).
route(prodloc23,prodloc24,tr13,20876,125256).
route(prodloc23,prodloc25,tr0,2936,76336).
route(prodloc23,prodloc25,tr13,2936,17616).
route(prodloc23,prodloc26,tr0,6024,156624).
route(prodloc23,prodloc26,tr13,6024,36144).
route(prodloc23,prodloc27,tr0,25144,653744).
route(prodloc23,prodloc27,tr13,25144,150864).
route(prodloc23,prodloc28,tr0,14435,375310).
route(prodloc23,prodloc28,tr13,14435,86610).
route(prodloc23,prodloc29,tr0,25438,661388).
route(prodloc23,prodloc29,tr13,25438,152628).
route(prodloc23,prodloc30,tr0,16480,428480).
route(prodloc23,prodloc30,tr13,16480,98880).
route(prodloc23,prodloc31,tr0,27012,702312).
route(prodloc23,prodloc31,tr13,27012,162072).
route(prodloc23,prodloc32,tr0,23892,621192).
route(prodloc23,prodloc32,tr13,23892,143352).
route(prodloc23,prodloc33,tr0,2977,77402).
route(prodloc23,prodloc33,tr13,2977,17862).
route(prodloc24,harbor0,tr0,12723,330798).
route(prodloc24,harbor0,tr13,12723,76338).
route(prodloc24,harbor1,tr0,12131,315406).
route(prodloc24,harbor1,tr13,12131,72786).
route(prodloc24,harbor2,tr0,17018,442468).
route(prodloc24,harbor2,tr13,17018,102108).
route(prodloc24,harbor3,tr0,5684,147784).
route(prodloc24,harbor3,tr13,5684,34104).
route(prodloc24,harbor4,tr0,11750,305500).
route(prodloc24,harbor4,tr13,11750,70500).
route(prodloc24,harbor5,tr0,15079,392054).
route(prodloc24,harbor5,tr13,15079,90474).
route(prodloc24,harbor6,tr0,9713,252538).
route(prodloc24,harbor6,tr13,9713,58278).
route(prodloc24,harbor7,tr0,22897,595322).
route(prodloc24,harbor7,tr13,22897,137382).
route(prodloc24,harbor8,tr0,1994,51844).
route(prodloc24,harbor8,tr13,1994,11964).
route(prodloc24,harbor9,tr0,26422,686972).
route(prodloc24,harbor9,tr13,26422,158532).
route(prodloc24,harbor10,tr0,11793,306618).
route(prodloc24,harbor10,tr13,11793,70758).
route(prodloc24,harbor11,tr0,23636,614536).
route(prodloc24,harbor11,tr13,23636,141816).
route(prodloc24,harbor12,tr0,24897,647322).
route(prodloc24,harbor12,tr13,24897,149382).
route(prodloc24,harbor13,tr0,8611,223886).
route(prodloc24,harbor13,tr13,8611,51666).
route(prodloc24,harbor14,tr0,2550,66300).
route(prodloc24,harbor14,tr13,2550,15300).
route(prodloc24,harbor15,tr0,11906,309556).
route(prodloc24,harbor15,tr13,11906,71436).
route(prodloc24,harbor16,tr0,1456,37856).
route(prodloc24,harbor16,tr13,1456,8736).
route(prodloc24,prodloc0,tr0,27378,711828).
route(prodloc24,prodloc0,tr13,27378,164268).
route(prodloc24,prodloc1,tr0,21783,566358).
route(prodloc24,prodloc1,tr13,21783,130698).
route(prodloc24,prodloc2,tr0,4286,111436).
route(prodloc24,prodloc2,tr13,4286,25716).
route(prodloc24,prodloc3,tr0,12154,316004).
route(prodloc24,prodloc3,tr13,12154,72924).
route(prodloc24,prodloc4,tr0,21379,555854).
route(prodloc24,prodloc4,tr13,21379,128274).
route(prodloc24,prodloc5,tr0,27328,710528).
route(prodloc24,prodloc5,tr13,27328,163968).
route(prodloc24,prodloc6,tr0,16202,421252).
route(prodloc24,prodloc6,tr13,16202,97212).
route(prodloc24,prodloc7,tr0,26732,695032).
route(prodloc24,prodloc7,tr13,26732,160392).
route(prodloc24,prodloc8,tr0,11627,302302).
route(prodloc24,prodloc8,tr13,11627,69762).
route(prodloc24,prodloc9,tr0,7159,186134).
route(prodloc24,prodloc9,tr13,7159,42954).
route(prodloc24,prodloc10,tr0,27448,713648).
route(prodloc24,prodloc10,tr13,27448,164688).
route(prodloc24,prodloc11,tr0,7058,183508).
route(prodloc24,prodloc11,tr13,7058,42348).
route(prodloc24,prodloc12,tr0,5755,149630).
route(prodloc24,prodloc12,tr13,5755,34530).
route(prodloc24,prodloc13,tr0,10472,272272).
route(prodloc24,prodloc13,tr13,10472,62832).
route(prodloc24,prodloc14,tr0,22486,584636).
route(prodloc24,prodloc14,tr13,22486,134916).
route(prodloc24,prodloc15,tr0,114,2964).
route(prodloc24,prodloc15,tr13,114,684).
route(prodloc24,prodloc16,tr0,25494,662844).
route(prodloc24,prodloc16,tr13,25494,152964).
route(prodloc24,prodloc17,tr0,26926,700076).
route(prodloc24,prodloc17,tr13,26926,161556).
route(prodloc24,prodloc18,tr0,24250,630500).
route(prodloc24,prodloc18,tr13,24250,145500).
route(prodloc24,prodloc19,tr0,5172,134472).
route(prodloc24,prodloc19,tr13,5172,31032).
route(prodloc24,prodloc20,tr0,22358,581308).
route(prodloc24,prodloc20,tr13,22358,134148).
route(prodloc24,prodloc21,tr0,10543,274118).
route(prodloc24,prodloc21,tr13,10543,63258).
route(prodloc24,prodloc22,tr0,25647,666822).
route(prodloc24,prodloc22,tr13,25647,153882).
route(prodloc24,prodloc23,tr0,6305,163930).
route(prodloc24,prodloc23,tr13,6305,37830).
route(prodloc24,prodloc25,tr0,7693,200018).
route(prodloc24,prodloc25,tr13,7693,46158).
route(prodloc24,prodloc26,tr0,16863,438438).
route(prodloc24,prodloc26,tr13,16863,101178).
route(prodloc24,prodloc27,tr0,21604,561704).
route(prodloc24,prodloc27,tr13,21604,129624).
route(prodloc24,prodloc28,tr0,11486,298636).
route(prodloc24,prodloc28,tr13,11486,68916).
route(prodloc24,prodloc29,tr0,2155,56030).
route(prodloc24,prodloc29,tr13,2155,12930).
route(prodloc24,prodloc30,tr0,11154,290004).
route(prodloc24,prodloc30,tr13,11154,66924).
route(prodloc24,prodloc31,tr0,7164,186264).
route(prodloc24,prodloc31,tr13,7164,42984).
route(prodloc24,prodloc32,tr0,20597,535522).
route(prodloc24,prodloc32,tr13,20597,123582).
route(prodloc24,prodloc33,tr0,27825,723450).
route(prodloc24,prodloc33,tr13,27825,166950).
route(prodloc25,harbor0,tr0,17008,442208).
route(prodloc25,harbor0,tr13,17008,102048).
route(prodloc25,harbor1,tr0,11796,306696).
route(prodloc25,harbor1,tr13,11796,70776).
route(prodloc25,harbor2,tr0,1174,30524).
route(prodloc25,harbor2,tr13,1174,7044).
route(prodloc25,harbor3,tr0,27474,714324).
route(prodloc25,harbor3,tr13,27474,164844).
route(prodloc25,harbor4,tr0,11920,309920).
route(prodloc25,harbor4,tr13,11920,71520).
route(prodloc25,harbor5,tr0,7181,186706).
route(prodloc25,harbor5,tr13,7181,43086).
route(prodloc25,harbor6,tr0,20345,528970).
route(prodloc25,harbor6,tr13,20345,122070).
route(prodloc25,harbor7,tr0,10703,278278).
route(prodloc25,harbor7,tr13,10703,64218).
route(prodloc25,harbor8,tr0,24204,629304).
route(prodloc25,harbor8,tr13,24204,145224).
route(prodloc25,harbor9,tr0,21595,561470).
route(prodloc25,harbor9,tr13,21595,129570).
route(prodloc25,harbor10,tr0,16253,422578).
route(prodloc25,harbor10,tr13,16253,97518).
route(prodloc25,harbor11,tr0,12460,323960).
route(prodloc25,harbor11,tr13,12460,74760).
route(prodloc25,harbor12,tr0,24018,624468).
route(prodloc25,harbor12,tr13,24018,144108).
route(prodloc25,harbor13,tr0,20278,527228).
route(prodloc25,harbor13,tr13,20278,121668).
route(prodloc25,harbor14,tr0,11410,296660).
route(prodloc25,harbor14,tr13,11410,68460).
route(prodloc25,harbor15,tr0,27060,703560).
route(prodloc25,harbor15,tr13,27060,162360).
route(prodloc25,harbor16,tr0,22895,595270).
route(prodloc25,harbor16,tr13,22895,137370).
route(prodloc25,prodloc0,tr0,16979,441454).
route(prodloc25,prodloc0,tr13,16979,101874).
route(prodloc25,prodloc1,tr0,9807,254982).
route(prodloc25,prodloc1,tr13,9807,58842).
route(prodloc25,prodloc2,tr13,16127,96762).
route(prodloc25,prodloc2,tr15,16127,516064).
route(prodloc25,prodloc3,tr0,8070,209820).
route(prodloc25,prodloc3,tr13,8070,48420).
route(prodloc25,prodloc4,tr0,3489,90714).
route(prodloc25,prodloc4,tr13,3489,20934).
route(prodloc25,prodloc5,tr0,20078,522028).
route(prodloc25,prodloc5,tr13,20078,120468).
route(prodloc25,prodloc6,tr0,170,4420).
route(prodloc25,prodloc6,tr13,170,1020).
route(prodloc25,prodloc7,tr0,21010,546260).
route(prodloc25,prodloc7,tr13,21010,126060).
route(prodloc25,prodloc8,tr0,8151,211926).
route(prodloc25,prodloc8,tr13,8151,48906).
route(prodloc25,prodloc9,tr0,13425,349050).
route(prodloc25,prodloc9,tr13,13425,80550).
route(prodloc25,prodloc10,tr0,8740,227240).
route(prodloc25,prodloc10,tr13,8740,52440).
route(prodloc25,prodloc11,tr0,24796,644696).
route(prodloc25,prodloc11,tr13,24796,148776).
route(prodloc25,prodloc12,tr0,3564,92664).
route(prodloc25,prodloc12,tr13,3564,21384).
route(prodloc25,prodloc13,tr0,2512,65312).
route(prodloc25,prodloc13,tr13,2512,15072).
route(prodloc25,prodloc14,tr0,10965,285090).
route(prodloc25,prodloc14,tr13,10965,65790).
route(prodloc25,prodloc15,tr0,18777,488202).
route(prodloc25,prodloc15,tr13,18777,112662).
route(prodloc25,prodloc16,tr0,3157,82082).
route(prodloc25,prodloc16,tr13,3157,18942).
route(prodloc25,prodloc17,tr0,4679,121654).
route(prodloc25,prodloc17,tr13,4679,28074).
route(prodloc25,prodloc18,tr0,14223,369798).
route(prodloc25,prodloc18,tr13,14223,85338).
route(prodloc25,prodloc19,tr0,6721,174746).
route(prodloc25,prodloc19,tr13,6721,40326).
route(prodloc25,prodloc20,tr0,9077,236002).
route(prodloc25,prodloc20,tr13,9077,54462).
route(prodloc25,prodloc21,tr0,1826,47476).
route(prodloc25,prodloc21,tr13,1826,10956).
route(prodloc25,prodloc22,tr0,24187,628862).
route(prodloc25,prodloc22,tr13,24187,145122).
route(prodloc25,prodloc23,tr0,26350,685100).
route(prodloc25,prodloc23,tr13,26350,158100).
route(prodloc25,prodloc24,tr0,17470,454220).
route(prodloc25,prodloc24,tr13,17470,104820).
route(prodloc25,prodloc26,tr0,23344,606944).
route(prodloc25,prodloc26,tr13,23344,140064).
route(prodloc25,prodloc27,tr0,6954,180804).
route(prodloc25,prodloc27,tr13,6954,41724).
route(prodloc25,prodloc28,tr0,11347,295022).
route(prodloc25,prodloc28,tr13,11347,68082).
route(prodloc25,prodloc29,tr0,8745,227370).
route(prodloc25,prodloc29,tr13,8745,52470).
route(prodloc25,prodloc30,tr0,728,18928).
route(prodloc25,prodloc30,tr13,728,4368).
route(prodloc25,prodloc31,tr0,9123,237198).
route(prodloc25,prodloc31,tr13,9123,54738).
route(prodloc25,prodloc32,tr0,24807,644982).
route(prodloc25,prodloc32,tr13,24807,148842).
route(prodloc25,prodloc33,tr0,5107,132782).
route(prodloc25,prodloc33,tr15,5107,163424).
route(prodloc26,harbor0,tr0,28134,731484).
route(prodloc26,harbor0,tr13,28134,168804).
route(prodloc26,harbor1,tr0,4821,125346).
route(prodloc26,harbor1,tr13,4821,28926).
route(prodloc26,harbor2,tr0,274,7124).
route(prodloc26,harbor2,tr13,274,1644).
route(prodloc26,harbor3,tr0,10364,269464).
route(prodloc26,harbor3,tr13,10364,62184).
route(prodloc26,harbor4,tr0,8012,208312).
route(prodloc26,harbor4,tr13,8012,48072).
route(prodloc26,harbor5,tr0,7772,202072).
route(prodloc26,harbor5,tr13,7772,46632).
route(prodloc26,harbor6,tr0,15981,415506).
route(prodloc26,harbor6,tr13,15981,95886).
route(prodloc26,harbor7,tr0,16795,436670).
route(prodloc26,harbor7,tr13,16795,100770).
route(prodloc26,harbor8,tr0,878,22828).
route(prodloc26,harbor8,tr13,878,5268).
route(prodloc26,harbor9,tr0,12,312).
route(prodloc26,harbor9,tr13,12,72).
route(prodloc26,harbor10,tr0,19806,514956).
route(prodloc26,harbor10,tr13,19806,118836).
route(prodloc26,harbor11,tr0,11323,294398).
route(prodloc26,harbor11,tr13,11323,67938).
route(prodloc26,harbor12,tr0,23176,602576).
route(prodloc26,harbor12,tr13,23176,139056).
route(prodloc26,harbor13,tr0,15353,399178).
route(prodloc26,harbor13,tr13,15353,92118).
route(prodloc26,harbor14,tr0,17794,462644).
route(prodloc26,harbor14,tr13,17794,106764).
route(prodloc26,harbor15,tr0,28158,732108).
route(prodloc26,harbor15,tr13,28158,168948).
route(prodloc26,harbor16,tr0,13698,356148).
route(prodloc26,harbor16,tr13,13698,82188).
route(prodloc26,prodloc0,tr0,12955,336830).
route(prodloc26,prodloc0,tr13,12955,77730).
route(prodloc26,prodloc1,tr0,707,18382).
route(prodloc26,prodloc1,tr13,707,4242).
route(prodloc26,prodloc2,tr0,2249,58474).
route(prodloc26,prodloc2,tr13,2249,13494).
route(prodloc26,prodloc3,tr0,24348,633048).
route(prodloc26,prodloc3,tr13,24348,146088).
route(prodloc26,prodloc4,tr0,18008,468208).
route(prodloc26,prodloc4,tr13,18008,108048).
route(prodloc26,prodloc5,tr0,9502,247052).
route(prodloc26,prodloc5,tr13,9502,57012).
route(prodloc26,prodloc6,tr0,7489,194714).
route(prodloc26,prodloc6,tr13,7489,44934).
route(prodloc26,prodloc7,tr0,22698,590148).
route(prodloc26,prodloc7,tr13,22698,136188).
route(prodloc26,prodloc8,tr0,6465,168090).
route(prodloc26,prodloc8,tr13,6465,38790).
route(prodloc26,prodloc9,tr0,23316,606216).
route(prodloc26,prodloc9,tr13,23316,139896).
route(prodloc26,prodloc10,tr0,19707,512382).
route(prodloc26,prodloc10,tr13,19707,118242).
route(prodloc26,prodloc11,tr0,21238,552188).
route(prodloc26,prodloc11,tr13,21238,127428).
route(prodloc26,prodloc12,tr0,26264,682864).
route(prodloc26,prodloc12,tr13,26264,157584).
route(prodloc26,prodloc13,tr0,19100,496600).
route(prodloc26,prodloc13,tr13,19100,114600).
route(prodloc26,prodloc14,tr0,19837,515762).
route(prodloc26,prodloc14,tr13,19837,119022).
route(prodloc26,prodloc15,tr0,22862,594412).
route(prodloc26,prodloc15,tr13,22862,137172).
route(prodloc26,prodloc16,tr0,25459,661934).
route(prodloc26,prodloc16,tr13,25459,152754).
route(prodloc26,prodloc17,tr0,2492,64792).
route(prodloc26,prodloc17,tr13,2492,14952).
route(prodloc26,prodloc18,tr0,21072,547872).
route(prodloc26,prodloc18,tr13,21072,126432).
route(prodloc26,prodloc19,tr0,14943,388518).
route(prodloc26,prodloc19,tr13,14943,89658).
route(prodloc26,prodloc20,tr0,15518,403468).
route(prodloc26,prodloc20,tr13,15518,93108).
route(prodloc26,prodloc21,tr0,24089,626314).
route(prodloc26,prodloc21,tr13,24089,144534).
route(prodloc26,prodloc22,tr0,6296,163696).
route(prodloc26,prodloc22,tr13,6296,37776).
route(prodloc26,prodloc23,tr13,24876,149256).
route(prodloc26,prodloc23,tr15,24876,796032).
route(prodloc26,prodloc24,tr0,24372,633672).
route(prodloc26,prodloc24,tr13,24372,146232).
route(prodloc26,prodloc25,tr0,19973,519298).
route(prodloc26,prodloc25,tr13,19973,119838).
route(prodloc26,prodloc27,tr0,1210,31460).
route(prodloc26,prodloc27,tr13,1210,7260).
route(prodloc26,prodloc28,tr0,28313,736138).
route(prodloc26,prodloc28,tr13,28313,169878).
route(prodloc26,prodloc29,tr0,3439,89414).
route(prodloc26,prodloc29,tr13,3439,20634).
route(prodloc26,prodloc30,tr0,17654,459004).
route(prodloc26,prodloc30,tr13,17654,105924).
route(prodloc26,prodloc31,tr0,476,12376).
route(prodloc26,prodloc31,tr13,476,2856).
route(prodloc26,prodloc32,tr0,22714,590564).
route(prodloc26,prodloc32,tr13,22714,136284).
route(prodloc26,prodloc33,tr0,3534,91884).
route(prodloc26,prodloc33,tr13,3534,21204).
route(prodloc27,harbor0,tr0,21472,558272).
route(prodloc27,harbor0,tr13,21472,128832).
route(prodloc27,harbor1,tr0,28375,737750).
route(prodloc27,harbor1,tr13,28375,170250).
route(prodloc27,harbor2,tr0,10189,264914).
route(prodloc27,harbor2,tr13,10189,61134).
route(prodloc27,harbor3,tr0,14196,369096).
route(prodloc27,harbor3,tr13,14196,85176).
route(prodloc27,harbor4,tr0,8301,215826).
route(prodloc27,harbor4,tr13,8301,49806).
route(prodloc27,harbor5,tr0,15878,412828).
route(prodloc27,harbor5,tr13,15878,95268).
route(prodloc27,harbor6,tr0,27911,725686).
route(prodloc27,harbor6,tr13,27911,167466).
route(prodloc27,harbor7,tr0,19883,516958).
route(prodloc27,harbor7,tr13,19883,119298).
route(prodloc27,harbor8,tr0,16950,440700).
route(prodloc27,harbor8,tr13,16950,101700).
route(prodloc27,harbor9,tr0,13894,361244).
route(prodloc27,harbor9,tr13,13894,83364).
route(prodloc27,harbor10,tr0,4898,127348).
route(prodloc27,harbor10,tr13,4898,29388).
route(prodloc27,harbor11,tr0,11577,301002).
route(prodloc27,harbor11,tr13,11577,69462).
route(prodloc27,harbor12,tr0,27772,722072).
route(prodloc27,harbor12,tr13,27772,166632).
route(prodloc27,harbor13,tr0,2451,63726).
route(prodloc27,harbor13,tr13,2451,14706).
route(prodloc27,harbor14,tr0,21764,565864).
route(prodloc27,harbor14,tr13,21764,130584).
route(prodloc27,harbor15,tr0,17715,460590).
route(prodloc27,harbor15,tr13,17715,106290).
route(prodloc27,harbor16,tr0,20420,530920).
route(prodloc27,harbor16,tr13,20420,122520).
route(prodloc27,prodloc0,tr0,2637,68562).
route(prodloc27,prodloc0,tr13,2637,15822).
route(prodloc27,prodloc1,tr0,18078,470028).
route(prodloc27,prodloc1,tr13,18078,108468).
route(prodloc27,prodloc2,tr0,16787,436462).
route(prodloc27,prodloc2,tr13,16787,100722).
route(prodloc27,prodloc3,tr0,12985,337610).
route(prodloc27,prodloc3,tr13,12985,77910).
route(prodloc27,prodloc4,tr0,16116,419016).
route(prodloc27,prodloc4,tr13,16116,96696).
route(prodloc27,prodloc5,tr0,6454,167804).
route(prodloc27,prodloc5,tr13,6454,38724).
route(prodloc27,prodloc6,tr0,18132,471432).
route(prodloc27,prodloc6,tr13,18132,108792).
route(prodloc27,prodloc7,tr0,24444,635544).
route(prodloc27,prodloc7,tr13,24444,146664).
route(prodloc27,prodloc8,tr0,22926,596076).
route(prodloc27,prodloc8,tr13,22926,137556).
route(prodloc27,prodloc9,tr0,511,13286).
route(prodloc27,prodloc9,tr13,511,3066).
route(prodloc27,prodloc10,tr0,6036,156936).
route(prodloc27,prodloc10,tr13,6036,36216).
route(prodloc27,prodloc11,tr0,15893,413218).
route(prodloc27,prodloc11,tr13,15893,95358).
route(prodloc27,prodloc12,tr0,3021,78546).
route(prodloc27,prodloc12,tr13,3021,18126).
route(prodloc27,prodloc13,tr0,22130,575380).
route(prodloc27,prodloc13,tr13,22130,132780).
route(prodloc27,prodloc14,tr0,11112,288912).
route(prodloc27,prodloc14,tr13,11112,66672).
route(prodloc27,prodloc15,tr0,11716,304616).
route(prodloc27,prodloc15,tr13,11716,70296).
route(prodloc27,prodloc16,tr0,27897,725322).
route(prodloc27,prodloc16,tr13,27897,167382).
route(prodloc27,prodloc17,tr0,20493,532818).
route(prodloc27,prodloc17,tr13,20493,122958).
route(prodloc27,prodloc18,tr0,14001,364026).
route(prodloc27,prodloc18,tr13,14001,84006).
route(prodloc27,prodloc19,tr0,19488,506688).
route(prodloc27,prodloc19,tr13,19488,116928).
route(prodloc27,prodloc20,tr0,23487,610662).
route(prodloc27,prodloc20,tr13,23487,140922).
route(prodloc27,prodloc21,tr0,355,9230).
route(prodloc27,prodloc21,tr13,355,2130).
route(prodloc27,prodloc22,tr0,7998,207948).
route(prodloc27,prodloc22,tr13,7998,47988).
route(prodloc27,prodloc23,tr0,18444,479544).
route(prodloc27,prodloc23,tr13,18444,110664).
route(prodloc27,prodloc24,tr0,27725,720850).
route(prodloc27,prodloc24,tr13,27725,166350).
route(prodloc27,prodloc25,tr0,17256,448656).
route(prodloc27,prodloc25,tr13,17256,103536).
route(prodloc27,prodloc26,tr0,23911,621686).
route(prodloc27,prodloc26,tr13,23911,143466).
route(prodloc27,prodloc28,tr0,22133,575458).
route(prodloc27,prodloc28,tr13,22133,132798).
route(prodloc27,prodloc29,tr0,2245,58370).
route(prodloc27,prodloc29,tr13,2245,13470).
route(prodloc27,prodloc30,tr0,18929,492154).
route(prodloc27,prodloc30,tr13,18929,113574).
route(prodloc27,prodloc31,tr0,25107,652782).
route(prodloc27,prodloc31,tr13,25107,150642).
route(prodloc27,prodloc32,tr0,5613,145938).
route(prodloc27,prodloc32,tr13,5613,33678).
route(prodloc27,prodloc33,tr0,8195,213070).
route(prodloc27,prodloc33,tr13,8195,49170).
route(prodloc28,harbor0,tr0,1317,34242).
route(prodloc28,harbor0,tr13,1317,7902).
route(prodloc28,harbor1,tr0,5773,150098).
route(prodloc28,harbor1,tr13,5773,34638).
route(prodloc28,harbor2,tr0,2697,70122).
route(prodloc28,harbor2,tr13,2697,16182).
route(prodloc28,harbor3,tr0,20610,535860).
route(prodloc28,harbor3,tr13,20610,123660).
route(prodloc28,harbor4,tr0,20758,539708).
route(prodloc28,harbor4,tr13,20758,124548).
route(prodloc28,harbor5,tr0,2731,71006).
route(prodloc28,harbor5,tr13,2731,16386).
route(prodloc28,harbor6,tr0,5362,139412).
route(prodloc28,harbor6,tr13,5362,32172).
route(prodloc28,harbor7,tr0,14619,380094).
route(prodloc28,harbor7,tr13,14619,87714).
route(prodloc28,harbor8,tr0,19172,498472).
route(prodloc28,harbor8,tr13,19172,115032).
route(prodloc28,harbor9,tr0,25168,654368).
route(prodloc28,harbor9,tr13,25168,151008).
route(prodloc28,harbor10,tr0,22738,591188).
route(prodloc28,harbor10,tr13,22738,136428).
route(prodloc28,harbor11,tr0,3763,97838).
route(prodloc28,harbor11,tr13,3763,22578).
route(prodloc28,harbor12,tr0,4188,108888).
route(prodloc28,harbor12,tr13,4188,25128).
route(prodloc28,harbor13,tr0,14791,384566).
route(prodloc28,harbor13,tr13,14791,88746).
route(prodloc28,harbor14,tr0,20519,533494).
route(prodloc28,harbor14,tr13,20519,123114).
route(prodloc28,harbor15,tr0,28309,736034).
route(prodloc28,harbor15,tr13,28309,169854).
route(prodloc28,harbor16,tr0,25849,672074).
route(prodloc28,harbor16,tr13,25849,155094).
route(prodloc28,prodloc0,tr0,7439,193414).
route(prodloc28,prodloc0,tr13,7439,44634).
route(prodloc28,prodloc1,tr0,26424,687024).
route(prodloc28,prodloc1,tr13,26424,158544).
route(prodloc28,prodloc2,tr0,9397,244322).
route(prodloc28,prodloc2,tr13,9397,56382).
route(prodloc28,prodloc3,tr0,26944,700544).
route(prodloc28,prodloc3,tr13,26944,161664).
route(prodloc28,prodloc4,tr0,19090,496340).
route(prodloc28,prodloc4,tr13,19090,114540).
route(prodloc28,prodloc5,tr0,27765,721890).
route(prodloc28,prodloc5,tr13,27765,166590).
route(prodloc28,prodloc6,tr0,20665,537290).
route(prodloc28,prodloc6,tr13,20665,123990).
route(prodloc28,prodloc7,tr0,3122,81172).
route(prodloc28,prodloc7,tr13,3122,18732).
route(prodloc28,prodloc8,tr0,11938,310388).
route(prodloc28,prodloc8,tr13,11938,71628).
route(prodloc28,prodloc9,tr0,11526,299676).
route(prodloc28,prodloc9,tr13,11526,69156).
route(prodloc28,prodloc10,tr0,21305,553930).
route(prodloc28,prodloc10,tr13,21305,127830).
route(prodloc28,prodloc11,tr0,9343,242918).
route(prodloc28,prodloc11,tr13,9343,56058).
route(prodloc28,prodloc12,tr0,20938,544388).
route(prodloc28,prodloc12,tr13,20938,125628).
route(prodloc28,prodloc13,tr0,13153,341978).
route(prodloc28,prodloc13,tr13,13153,78918).
route(prodloc28,prodloc14,tr0,16038,416988).
route(prodloc28,prodloc14,tr13,16038,96228).
route(prodloc28,prodloc15,tr0,4182,108732).
route(prodloc28,prodloc15,tr13,4182,25092).
route(prodloc28,prodloc16,tr0,17259,448734).
route(prodloc28,prodloc16,tr13,17259,103554).
route(prodloc28,prodloc17,tr0,15159,394134).
route(prodloc28,prodloc17,tr13,15159,90954).
route(prodloc28,prodloc18,tr0,469,12194).
route(prodloc28,prodloc18,tr13,469,2814).
route(prodloc28,prodloc19,tr0,9807,254982).
route(prodloc28,prodloc19,tr13,9807,58842).
route(prodloc28,prodloc20,tr0,1842,47892).
route(prodloc28,prodloc20,tr13,1842,11052).
route(prodloc28,prodloc21,tr0,15390,400140).
route(prodloc28,prodloc21,tr13,15390,92340).
route(prodloc28,prodloc22,tr0,6816,177216).
route(prodloc28,prodloc22,tr13,6816,40896).
route(prodloc28,prodloc23,tr0,22003,572078).
route(prodloc28,prodloc23,tr13,22003,132018).
route(prodloc28,prodloc24,tr0,1480,38480).
route(prodloc28,prodloc24,tr13,1480,8880).
route(prodloc28,prodloc25,tr0,2783,72358).
route(prodloc28,prodloc25,tr13,2783,16698).
route(prodloc28,prodloc26,tr0,14077,366002).
route(prodloc28,prodloc26,tr13,14077,84462).
route(prodloc28,prodloc27,tr0,12590,327340).
route(prodloc28,prodloc27,tr13,12590,75540).
route(prodloc28,prodloc29,tr0,13959,362934).
route(prodloc28,prodloc29,tr13,13959,83754).
route(prodloc28,prodloc30,tr0,6528,169728).
route(prodloc28,prodloc30,tr13,6528,39168).
route(prodloc28,prodloc31,tr0,17520,455520).
route(prodloc28,prodloc31,tr13,17520,105120).
route(prodloc28,prodloc32,tr0,9150,237900).
route(prodloc28,prodloc32,tr13,9150,54900).
route(prodloc28,prodloc33,tr0,1326,34476).
route(prodloc28,prodloc33,tr13,1326,7956).
route(prodloc29,harbor0,tr0,18514,481364).
route(prodloc29,harbor0,tr13,18514,111084).
route(prodloc29,harbor1,tr0,24027,624702).
route(prodloc29,harbor1,tr13,24027,144162).
route(prodloc29,harbor2,tr0,21828,567528).
route(prodloc29,harbor2,tr13,21828,130968).
route(prodloc29,harbor3,tr0,14237,370162).
route(prodloc29,harbor3,tr13,14237,85422).
route(prodloc29,harbor4,tr0,19262,500812).
route(prodloc29,harbor4,tr13,19262,115572).
route(prodloc29,harbor5,tr0,5363,139438).
route(prodloc29,harbor5,tr13,5363,32178).
route(prodloc29,harbor6,tr0,3700,96200).
route(prodloc29,harbor6,tr13,3700,22200).
route(prodloc29,harbor7,tr0,18392,478192).
route(prodloc29,harbor7,tr13,18392,110352).
route(prodloc29,harbor8,tr0,28099,730574).
route(prodloc29,harbor8,tr13,28099,168594).
route(prodloc29,harbor9,tr0,25782,670332).
route(prodloc29,harbor9,tr13,25782,154692).
route(prodloc29,harbor10,tr0,23150,601900).
route(prodloc29,harbor10,tr13,23150,138900).
route(prodloc29,harbor11,tr0,7839,203814).
route(prodloc29,harbor11,tr13,7839,47034).
route(prodloc29,harbor12,tr0,23328,606528).
route(prodloc29,harbor12,tr13,23328,139968).
route(prodloc29,harbor13,tr0,26354,685204).
route(prodloc29,harbor13,tr13,26354,158124).
route(prodloc29,harbor14,tr0,5253,136578).
route(prodloc29,harbor14,tr13,5253,31518).
route(prodloc29,harbor15,tr0,14229,369954).
route(prodloc29,harbor15,tr13,14229,85374).
route(prodloc29,harbor16,tr0,4992,129792).
route(prodloc29,harbor16,tr13,4992,29952).
route(prodloc29,prodloc0,tr0,5356,139256).
route(prodloc29,prodloc0,tr13,5356,32136).
route(prodloc29,prodloc1,tr0,24256,630656).
route(prodloc29,prodloc1,tr13,24256,145536).
route(prodloc29,prodloc2,tr0,12727,330902).
route(prodloc29,prodloc2,tr13,12727,76362).
route(prodloc29,prodloc3,tr0,24469,636194).
route(prodloc29,prodloc3,tr13,24469,146814).
route(prodloc29,prodloc4,tr0,7164,186264).
route(prodloc29,prodloc4,tr13,7164,42984).
route(prodloc29,prodloc5,tr0,28567,742742).
route(prodloc29,prodloc5,tr13,28567,171402).
route(prodloc29,prodloc6,tr0,2736,71136).
route(prodloc29,prodloc6,tr13,2736,16416).
route(prodloc29,prodloc7,tr0,20566,534716).
route(prodloc29,prodloc7,tr13,20566,123396).
route(prodloc29,prodloc8,tr0,28047,729222).
route(prodloc29,prodloc8,tr13,28047,168282).
route(prodloc29,prodloc9,tr0,13744,357344).
route(prodloc29,prodloc9,tr13,13744,82464).
route(prodloc29,prodloc10,tr0,6842,177892).
route(prodloc29,prodloc10,tr13,6842,41052).
route(prodloc29,prodloc11,tr0,27246,708396).
route(prodloc29,prodloc11,tr13,27246,163476).
route(prodloc29,prodloc12,tr0,26782,696332).
route(prodloc29,prodloc12,tr13,26782,160692).
route(prodloc29,prodloc13,tr0,14050,365300).
route(prodloc29,prodloc13,tr13,14050,84300).
route(prodloc29,prodloc14,tr0,393,10218).
route(prodloc29,prodloc14,tr13,393,2358).
route(prodloc29,prodloc15,tr0,22154,576004).
route(prodloc29,prodloc15,tr13,22154,132924).
route(prodloc29,prodloc16,tr0,15341,398866).
route(prodloc29,prodloc16,tr13,15341,92046).
route(prodloc29,prodloc17,tr0,17896,465296).
route(prodloc29,prodloc17,tr13,17896,107376).
route(prodloc29,prodloc18,tr0,24117,627042).
route(prodloc29,prodloc18,tr13,24117,144702).
route(prodloc29,prodloc19,tr0,9793,254618).
route(prodloc29,prodloc19,tr13,9793,58758).
route(prodloc29,prodloc20,tr0,4193,109018).
route(prodloc29,prodloc20,tr13,4193,25158).
route(prodloc29,prodloc21,tr0,523,13598).
route(prodloc29,prodloc21,tr13,523,3138).
route(prodloc29,prodloc22,tr0,22585,587210).
route(prodloc29,prodloc22,tr13,22585,135510).
route(prodloc29,prodloc23,tr0,20128,523328).
route(prodloc29,prodloc23,tr13,20128,120768).
route(prodloc29,prodloc24,tr0,8584,223184).
route(prodloc29,prodloc24,tr13,8584,51504).
route(prodloc29,prodloc25,tr0,14791,384566).
route(prodloc29,prodloc25,tr13,14791,88746).
route(prodloc29,prodloc26,tr0,23161,602186).
route(prodloc29,prodloc26,tr13,23161,138966).
route(prodloc29,prodloc27,tr0,18875,490750).
route(prodloc29,prodloc27,tr13,18875,113250).
route(prodloc29,prodloc28,tr0,5207,135382).
route(prodloc29,prodloc28,tr13,5207,31242).
route(prodloc29,prodloc30,tr0,50,1300).
route(prodloc29,prodloc30,tr13,50,300).
route(prodloc29,prodloc31,tr0,27665,719290).
route(prodloc29,prodloc31,tr13,27665,165990).
route(prodloc29,prodloc32,tr0,23707,616382).
route(prodloc29,prodloc32,tr13,23707,142242).
route(prodloc29,prodloc33,tr0,25036,650936).
route(prodloc29,prodloc33,tr13,25036,150216).
route(prodloc30,harbor0,tr0,4130,107380).
route(prodloc30,harbor0,tr13,4130,24780).
route(prodloc30,harbor1,tr0,4045,105170).
route(prodloc30,harbor1,tr13,4045,24270).
route(prodloc30,harbor2,tr0,17893,465218).
route(prodloc30,harbor2,tr13,17893,107358).
route(prodloc30,harbor3,tr0,22008,572208).
route(prodloc30,harbor3,tr13,22008,132048).
route(prodloc30,harbor4,tr0,27535,715910).
route(prodloc30,harbor4,tr13,27535,165210).
route(prodloc30,harbor5,tr0,1444,37544).
route(prodloc30,harbor5,tr13,1444,8664).
route(prodloc30,harbor6,tr0,7775,202150).
route(prodloc30,harbor6,tr13,7775,46650).
route(prodloc30,harbor7,tr0,1021,26546).
route(prodloc30,harbor7,tr13,1021,6126).
route(prodloc30,harbor8,tr0,25603,665678).
route(prodloc30,harbor8,tr13,25603,153618).
route(prodloc30,harbor9,tr0,8080,210080).
route(prodloc30,harbor9,tr13,8080,48480).
route(prodloc30,harbor10,tr0,26788,696488).
route(prodloc30,harbor10,tr13,26788,160728).
route(prodloc30,harbor11,tr0,20363,529438).
route(prodloc30,harbor11,tr13,20363,122178).
route(prodloc30,harbor12,tr0,23562,612612).
route(prodloc30,harbor12,tr13,23562,141372).
route(prodloc30,harbor13,tr0,7899,205374).
route(prodloc30,harbor13,tr13,7899,47394).
route(prodloc30,harbor14,tr0,24295,631670).
route(prodloc30,harbor14,tr13,24295,145770).
route(prodloc30,harbor15,tr0,2104,54704).
route(prodloc30,harbor15,tr13,2104,12624).
route(prodloc30,harbor16,tr0,1461,37986).
route(prodloc30,harbor16,tr13,1461,8766).
route(prodloc30,prodloc0,tr0,1587,41262).
route(prodloc30,prodloc0,tr13,1587,9522).
route(prodloc30,prodloc1,tr0,10314,268164).
route(prodloc30,prodloc1,tr13,10314,61884).
route(prodloc30,prodloc2,tr0,1792,46592).
route(prodloc30,prodloc2,tr13,1792,10752).
route(prodloc30,prodloc3,tr13,4162,24972).
route(prodloc30,prodloc3,tr15,4162,133184).
route(prodloc30,prodloc4,tr0,4052,105352).
route(prodloc30,prodloc4,tr13,4052,24312).
route(prodloc30,prodloc5,tr0,23090,600340).
route(prodloc30,prodloc5,tr13,23090,138540).
route(prodloc30,prodloc6,tr0,795,20670).
route(prodloc30,prodloc6,tr13,795,4770).
route(prodloc30,prodloc7,tr0,25489,662714).
route(prodloc30,prodloc7,tr13,25489,152934).
route(prodloc30,prodloc8,tr0,11844,307944).
route(prodloc30,prodloc8,tr13,11844,71064).
route(prodloc30,prodloc9,tr0,8019,208494).
route(prodloc30,prodloc9,tr13,8019,48114).
route(prodloc30,prodloc10,tr0,7192,186992).
route(prodloc30,prodloc10,tr13,7192,43152).
route(prodloc30,prodloc11,tr0,15038,390988).
route(prodloc30,prodloc11,tr13,15038,90228).
route(prodloc30,prodloc12,tr0,4179,108654).
route(prodloc30,prodloc12,tr13,4179,25074).
route(prodloc30,prodloc13,tr0,23330,606580).
route(prodloc30,prodloc13,tr13,23330,139980).
route(prodloc30,prodloc14,tr0,25040,651040).
route(prodloc30,prodloc14,tr13,25040,150240).
route(prodloc30,prodloc15,tr0,26627,692302).
route(prodloc30,prodloc15,tr13,26627,159762).
route(prodloc30,prodloc16,tr0,28181,732706).
route(prodloc30,prodloc16,tr13,28181,169086).
route(prodloc30,prodloc17,tr0,5611,145886).
route(prodloc30,prodloc17,tr13,5611,33666).
route(prodloc30,prodloc18,tr0,24150,627900).
route(prodloc30,prodloc18,tr13,24150,144900).
route(prodloc30,prodloc19,tr0,6399,166374).
route(prodloc30,prodloc19,tr13,6399,38394).
route(prodloc30,prodloc20,tr0,17603,457678).
route(prodloc30,prodloc20,tr13,17603,105618).
route(prodloc30,prodloc21,tr0,15885,413010).
route(prodloc30,prodloc21,tr13,15885,95310).
route(prodloc30,prodloc22,tr0,18632,484432).
route(prodloc30,prodloc22,tr13,18632,111792).
route(prodloc30,prodloc23,tr0,1053,27378).
route(prodloc30,prodloc23,tr13,1053,6318).
route(prodloc30,prodloc24,tr0,9570,248820).
route(prodloc30,prodloc24,tr13,9570,57420).
route(prodloc30,prodloc25,tr0,26090,678340).
route(prodloc30,prodloc25,tr13,26090,156540).
route(prodloc30,prodloc26,tr0,7542,196092).
route(prodloc30,prodloc26,tr13,7542,45252).
route(prodloc30,prodloc27,tr0,5624,146224).
route(prodloc30,prodloc27,tr13,5624,33744).
route(prodloc30,prodloc28,tr0,22315,580190).
route(prodloc30,prodloc28,tr13,22315,133890).
route(prodloc30,prodloc29,tr0,15275,397150).
route(prodloc30,prodloc29,tr13,15275,91650).
route(prodloc30,prodloc31,tr0,15465,402090).
route(prodloc30,prodloc31,tr13,15465,92790).
route(prodloc30,prodloc32,tr0,15827,411502).
route(prodloc30,prodloc32,tr13,15827,94962).
route(prodloc30,prodloc33,tr0,23793,618618).
route(prodloc30,prodloc33,tr13,23793,142758).
route(prodloc31,harbor0,tr0,3882,100932).
route(prodloc31,harbor0,tr13,3882,23292).
route(prodloc31,harbor1,tr0,10131,263406).
route(prodloc31,harbor1,tr13,10131,60786).
route(prodloc31,harbor2,tr0,22552,586352).
route(prodloc31,harbor2,tr13,22552,135312).
route(prodloc31,harbor3,tr0,16363,425438).
route(prodloc31,harbor3,tr13,16363,98178).
route(prodloc31,harbor4,tr0,7442,193492).
route(prodloc31,harbor4,tr13,7442,44652).
route(prodloc31,harbor5,tr0,681,17706).
route(prodloc31,harbor5,tr13,681,4086).
route(prodloc31,harbor6,tr0,26510,689260).
route(prodloc31,harbor6,tr13,26510,159060).
route(prodloc31,harbor7,tr0,7448,193648).
route(prodloc31,harbor7,tr13,7448,44688).
route(prodloc31,harbor8,tr0,22927,596102).
route(prodloc31,harbor8,tr13,22927,137562).
route(prodloc31,harbor9,tr0,14638,380588).
route(prodloc31,harbor9,tr13,14638,87828).
route(prodloc31,harbor10,tr0,2357,61282).
route(prodloc31,harbor10,tr13,2357,14142).
route(prodloc31,harbor11,tr0,22992,597792).
route(prodloc31,harbor11,tr13,22992,137952).
route(prodloc31,harbor12,tr0,15397,400322).
route(prodloc31,harbor12,tr13,15397,92382).
route(prodloc31,harbor13,tr0,488,12688).
route(prodloc31,harbor13,tr13,488,2928).
route(prodloc31,harbor14,tr0,14543,378118).
route(prodloc31,harbor14,tr13,14543,87258).
route(prodloc31,harbor15,tr0,23196,603096).
route(prodloc31,harbor15,tr13,23196,139176).
route(prodloc31,harbor16,tr0,17907,465582).
route(prodloc31,harbor16,tr13,17907,107442).
route(prodloc31,prodloc0,tr0,24276,631176).
route(prodloc31,prodloc0,tr13,24276,145656).
route(prodloc31,prodloc1,tr0,12427,323102).
route(prodloc31,prodloc1,tr13,12427,74562).
route(prodloc31,prodloc2,tr0,26563,690638).
route(prodloc31,prodloc2,tr13,26563,159378).
route(prodloc31,prodloc3,tr0,9604,249704).
route(prodloc31,prodloc3,tr13,9604,57624).
route(prodloc31,prodloc4,tr0,124,3224).
route(prodloc31,prodloc4,tr13,124,744).
route(prodloc31,prodloc5,tr0,9294,241644).
route(prodloc31,prodloc5,tr13,9294,55764).
route(prodloc31,prodloc6,tr0,26665,693290).
route(prodloc31,prodloc6,tr13,26665,159990).
route(prodloc31,prodloc7,tr0,24448,635648).
route(prodloc31,prodloc7,tr13,24448,146688).
route(prodloc31,prodloc8,tr0,22610,587860).
route(prodloc31,prodloc8,tr13,22610,135660).
route(prodloc31,prodloc9,tr0,23746,617396).
route(prodloc31,prodloc9,tr13,23746,142476).
route(prodloc31,prodloc10,tr0,25609,665834).
route(prodloc31,prodloc10,tr13,25609,153654).
route(prodloc31,prodloc11,tr0,4614,119964).
route(prodloc31,prodloc11,tr13,4614,27684).
route(prodloc31,prodloc12,tr0,16015,416390).
route(prodloc31,prodloc12,tr13,16015,96090).
route(prodloc31,prodloc13,tr0,10648,276848).
route(prodloc31,prodloc13,tr13,10648,63888).
route(prodloc31,prodloc14,tr0,21107,548782).
route(prodloc31,prodloc14,tr13,21107,126642).
route(prodloc31,prodloc15,tr0,17205,447330).
route(prodloc31,prodloc15,tr13,17205,103230).
route(prodloc31,prodloc16,tr0,14181,368706).
route(prodloc31,prodloc16,tr13,14181,85086).
route(prodloc31,prodloc17,tr0,28061,729586).
route(prodloc31,prodloc17,tr13,28061,168366).
route(prodloc31,prodloc18,tr0,15844,411944).
route(prodloc31,prodloc18,tr13,15844,95064).
route(prodloc31,prodloc19,tr0,19243,500318).
route(prodloc31,prodloc19,tr13,19243,115458).
route(prodloc31,prodloc20,tr0,16272,423072).
route(prodloc31,prodloc20,tr13,16272,97632).
route(prodloc31,prodloc21,tr0,18910,491660).
route(prodloc31,prodloc21,tr13,18910,113460).
route(prodloc31,prodloc22,tr0,3951,102726).
route(prodloc31,prodloc22,tr13,3951,23706).
route(prodloc31,prodloc23,tr0,21068,547768).
route(prodloc31,prodloc23,tr13,21068,126408).
route(prodloc31,prodloc24,tr0,10725,278850).
route(prodloc31,prodloc24,tr13,10725,64350).
route(prodloc31,prodloc25,tr0,27479,714454).
route(prodloc31,prodloc25,tr13,27479,164874).
route(prodloc31,prodloc26,tr0,3816,99216).
route(prodloc31,prodloc26,tr13,3816,22896).
route(prodloc31,prodloc27,tr0,15180,394680).
route(prodloc31,prodloc27,tr13,15180,91080).
route(prodloc31,prodloc28,tr0,14213,369538).
route(prodloc31,prodloc28,tr13,14213,85278).
route(prodloc31,prodloc29,tr0,1152,29952).
route(prodloc31,prodloc29,tr13,1152,6912).
route(prodloc31,prodloc30,tr0,13282,345332).
route(prodloc31,prodloc30,tr13,13282,79692).
route(prodloc31,prodloc32,tr0,27723,720798).
route(prodloc31,prodloc32,tr13,27723,166338).
route(prodloc31,prodloc33,tr0,6139,159614).
route(prodloc31,prodloc33,tr13,6139,36834).
route(prodloc32,harbor0,tr0,2145,55770).
route(prodloc32,harbor0,tr13,2145,12870).
route(prodloc32,harbor1,tr0,10893,283218).
route(prodloc32,harbor1,tr13,10893,65358).
route(prodloc32,harbor2,tr0,1395,36270).
route(prodloc32,harbor2,tr13,1395,8370).
route(prodloc32,harbor3,tr0,12755,331630).
route(prodloc32,harbor3,tr13,12755,76530).
route(prodloc32,harbor4,tr0,4899,127374).
route(prodloc32,harbor4,tr13,4899,29394).
route(prodloc32,harbor5,tr0,20137,523562).
route(prodloc32,harbor5,tr13,20137,120822).
route(prodloc32,harbor6,tr0,20069,521794).
route(prodloc32,harbor6,tr13,20069,120414).
route(prodloc32,harbor7,tr0,4473,116298).
route(prodloc32,harbor7,tr13,4473,26838).
route(prodloc32,harbor8,tr0,1621,42146).
route(prodloc32,harbor8,tr13,1621,9726).
route(prodloc32,harbor9,tr0,20023,520598).
route(prodloc32,harbor9,tr13,20023,120138).
route(prodloc32,harbor10,tr0,23867,620542).
route(prodloc32,harbor10,tr13,23867,143202).
route(prodloc32,harbor11,tr0,17569,456794).
route(prodloc32,harbor11,tr13,17569,105414).
route(prodloc32,harbor12,tr0,5972,155272).
route(prodloc32,harbor12,tr13,5972,35832).
route(prodloc32,harbor13,tr0,11525,299650).
route(prodloc32,harbor13,tr13,11525,69150).
route(prodloc32,harbor14,tr0,12408,322608).
route(prodloc32,harbor14,tr13,12408,74448).
route(prodloc32,harbor15,tr0,15409,400634).
route(prodloc32,harbor15,tr13,15409,92454).
route(prodloc32,harbor16,tr0,27943,726518).
route(prodloc32,harbor16,tr13,27943,167658).
route(prodloc32,prodloc0,tr0,26510,689260).
route(prodloc32,prodloc0,tr13,26510,159060).
route(prodloc32,prodloc1,tr0,21321,554346).
route(prodloc32,prodloc1,tr13,21321,127926).
route(prodloc32,prodloc2,tr0,13460,349960).
route(prodloc32,prodloc2,tr13,13460,80760).
route(prodloc32,prodloc3,tr0,17702,460252).
route(prodloc32,prodloc3,tr13,17702,106212).
route(prodloc32,prodloc4,tr0,13152,341952).
route(prodloc32,prodloc4,tr13,13152,78912).
route(prodloc32,prodloc5,tr0,19178,498628).
route(prodloc32,prodloc5,tr13,19178,115068).
route(prodloc32,prodloc6,tr0,3344,86944).
route(prodloc32,prodloc6,tr13,3344,20064).
route(prodloc32,prodloc7,tr0,16821,437346).
route(prodloc32,prodloc7,tr13,16821,100926).
route(prodloc32,prodloc8,tr0,25698,668148).
route(prodloc32,prodloc8,tr13,25698,154188).
route(prodloc32,prodloc9,tr0,3237,84162).
route(prodloc32,prodloc9,tr13,3237,19422).
route(prodloc32,prodloc10,tr0,5803,150878).
route(prodloc32,prodloc10,tr13,5803,34818).
route(prodloc32,prodloc11,tr0,15304,397904).
route(prodloc32,prodloc11,tr13,15304,91824).
route(prodloc32,prodloc12,tr0,1546,40196).
route(prodloc32,prodloc12,tr13,1546,9276).
route(prodloc32,prodloc13,tr0,3978,103428).
route(prodloc32,prodloc13,tr13,3978,23868).
route(prodloc32,prodloc14,tr0,17216,447616).
route(prodloc32,prodloc14,tr13,17216,103296).
route(prodloc32,prodloc15,tr0,21750,565500).
route(prodloc32,prodloc15,tr13,21750,130500).
route(prodloc32,prodloc16,tr0,24007,624182).
route(prodloc32,prodloc16,tr13,24007,144042).
route(prodloc32,prodloc17,tr0,8236,214136).
route(prodloc32,prodloc17,tr13,8236,49416).
route(prodloc32,prodloc18,tr0,12878,334828).
route(prodloc32,prodloc18,tr13,12878,77268).
route(prodloc32,prodloc19,tr0,21996,571896).
route(prodloc32,prodloc19,tr13,21996,131976).
route(prodloc32,prodloc20,tr13,13330,79980).
route(prodloc32,prodloc20,tr15,13330,426560).
route(prodloc32,prodloc21,tr0,2949,76674).
route(prodloc32,prodloc21,tr13,2949,17694).
route(prodloc32,prodloc22,tr0,27598,717548).
route(prodloc32,prodloc22,tr13,27598,165588).
route(prodloc32,prodloc23,tr0,21902,569452).
route(prodloc32,prodloc23,tr13,21902,131412).
route(prodloc32,prodloc24,tr0,9867,256542).
route(prodloc32,prodloc24,tr13,9867,59202).
route(prodloc32,prodloc25,tr0,5848,152048).
route(prodloc32,prodloc25,tr13,5848,35088).
route(prodloc32,prodloc26,tr0,22692,589992).
route(prodloc32,prodloc26,tr13,22692,136152).
route(prodloc32,prodloc27,tr0,1013,26338).
route(prodloc32,prodloc27,tr13,1013,6078).
route(prodloc32,prodloc28,tr0,24289,631514).
route(prodloc32,prodloc28,tr13,24289,145734).
route(prodloc32,prodloc29,tr0,13159,342134).
route(prodloc32,prodloc29,tr13,13159,78954).
route(prodloc32,prodloc30,tr0,5441,141466).
route(prodloc32,prodloc30,tr15,5441,174112).
route(prodloc32,prodloc31,tr0,8349,217074).
route(prodloc32,prodloc31,tr13,8349,50094).
route(prodloc32,prodloc33,tr0,5068,131768).
route(prodloc32,prodloc33,tr13,5068,30408).
route(prodloc33,harbor0,tr0,17453,453778).
route(prodloc33,harbor0,tr13,17453,104718).
route(prodloc33,harbor1,tr0,21549,560274).
route(prodloc33,harbor1,tr13,21549,129294).
route(prodloc33,harbor2,tr0,18196,473096).
route(prodloc33,harbor2,tr13,18196,109176).
route(prodloc33,harbor3,tr0,25328,658528).
route(prodloc33,harbor3,tr13,25328,151968).
route(prodloc33,harbor4,tr0,14706,382356).
route(prodloc33,harbor4,tr13,14706,88236).
route(prodloc33,harbor5,tr0,18192,472992).
route(prodloc33,harbor5,tr13,18192,109152).
route(prodloc33,harbor6,tr0,13992,363792).
route(prodloc33,harbor6,tr13,13992,83952).
route(prodloc33,harbor7,tr0,5710,148460).
route(prodloc33,harbor7,tr13,5710,34260).
route(prodloc33,harbor8,tr0,6131,159406).
route(prodloc33,harbor8,tr13,6131,36786).
route(prodloc33,harbor9,tr0,10787,280462).
route(prodloc33,harbor9,tr13,10787,64722).
route(prodloc33,harbor10,tr0,5806,150956).
route(prodloc33,harbor10,tr13,5806,34836).
route(prodloc33,harbor11,tr0,18088,470288).
route(prodloc33,harbor11,tr13,18088,108528).
route(prodloc33,harbor12,tr0,26387,686062).
route(prodloc33,harbor12,tr13,26387,158322).
route(prodloc33,harbor13,tr0,27297,709722).
route(prodloc33,harbor13,tr13,27297,163782).
route(prodloc33,harbor14,tr0,6450,167700).
route(prodloc33,harbor14,tr13,6450,38700).
route(prodloc33,harbor15,tr0,1106,28756).
route(prodloc33,harbor15,tr13,1106,6636).
route(prodloc33,harbor16,tr0,7095,184470).
route(prodloc33,harbor16,tr13,7095,42570).
route(prodloc33,prodloc0,tr0,8776,228176).
route(prodloc33,prodloc0,tr13,8776,52656).
route(prodloc33,prodloc1,tr0,15555,404430).
route(prodloc33,prodloc1,tr13,15555,93330).
route(prodloc33,prodloc2,tr0,24211,629486).
route(prodloc33,prodloc2,tr13,24211,145266).
route(prodloc33,prodloc3,tr0,28053,729378).
route(prodloc33,prodloc3,tr13,28053,168318).
route(prodloc33,prodloc4,tr0,10011,260286).
route(prodloc33,prodloc4,tr13,10011,60066).
route(prodloc33,prodloc5,tr0,24278,631228).
route(prodloc33,prodloc5,tr13,24278,145668).
route(prodloc33,prodloc6,tr0,11265,292890).
route(prodloc33,prodloc6,tr13,11265,67590).
route(prodloc33,prodloc7,tr0,5208,135408).
route(prodloc33,prodloc7,tr13,5208,31248).
route(prodloc33,prodloc8,tr0,21917,569842).
route(prodloc33,prodloc8,tr13,21917,131502).
route(prodloc33,prodloc9,tr0,1764,45864).
route(prodloc33,prodloc9,tr13,1764,10584).
route(prodloc33,prodloc10,tr0,8053,209378).
route(prodloc33,prodloc10,tr13,8053,48318).
route(prodloc33,prodloc11,tr0,9017,234442).
route(prodloc33,prodloc11,tr13,9017,54102).
route(prodloc33,prodloc12,tr0,8284,215384).
route(prodloc33,prodloc12,tr13,8284,49704).
route(prodloc33,prodloc13,tr0,24499,636974).
route(prodloc33,prodloc13,tr13,24499,146994).
route(prodloc33,prodloc14,tr0,7186,186836).
route(prodloc33,prodloc14,tr13,7186,43116).
route(prodloc33,prodloc15,tr0,3462,90012).
route(prodloc33,prodloc15,tr13,3462,20772).
route(prodloc33,prodloc16,tr0,7134,185484).
route(prodloc33,prodloc16,tr13,7134,42804).
route(prodloc33,prodloc17,tr0,24175,628550).
route(prodloc33,prodloc17,tr13,24175,145050).
route(prodloc33,prodloc18,tr0,27252,708552).
route(prodloc33,prodloc18,tr13,27252,163512).
route(prodloc33,prodloc19,tr0,12436,323336).
route(prodloc33,prodloc19,tr13,12436,74616).
route(prodloc33,prodloc20,tr0,9328,242528).
route(prodloc33,prodloc20,tr13,9328,55968).
route(prodloc33,prodloc21,tr0,16053,417378).
route(prodloc33,prodloc21,tr13,16053,96318).
route(prodloc33,prodloc22,tr0,11972,311272).
route(prodloc33,prodloc22,tr13,11972,71832).
route(prodloc33,prodloc23,tr0,9539,248014).
route(prodloc33,prodloc23,tr13,9539,57234).
route(prodloc33,prodloc24,tr0,3027,78702).
route(prodloc33,prodloc24,tr13,3027,18162).
route(prodloc33,prodloc25,tr0,19806,514956).
route(prodloc33,prodloc25,tr13,19806,118836).
route(prodloc33,prodloc26,tr0,27574,716924).
route(prodloc33,prodloc26,tr13,27574,165444).
route(prodloc33,prodloc27,tr0,23055,599430).
route(prodloc33,prodloc27,tr13,23055,138330).
route(prodloc33,prodloc28,tr0,28635,744510).
route(prodloc33,prodloc28,tr13,28635,171810).
route(prodloc33,prodloc29,tr0,10105,262730).
route(prodloc33,prodloc29,tr13,10105,60630).
route(prodloc33,prodloc30,tr0,21705,564330).
route(prodloc33,prodloc30,tr13,21705,130230).
route(prodloc33,prodloc31,tr0,10715,278590).
route(prodloc33,prodloc31,tr13,10715,64290).
route(prodloc33,prodloc32,tr0,9798,254748).
route(prodloc33,prodloc32,tr13,9798,58788).
hub(harbor5).
hub(harbor7).
hub(harbor8).
hub(harbor9).
hub(harbor14).
hub(prodloc0).
hub(prodloc12).
hub(prodloc19).
hub(prodloc22).
hub(prodloc27).
