% Multibatching benchmark instance
% Source: instances.lp
% seed=14  harbors=17  prodlocs=34  hubs=10  disruptions=2

% ---- locations ----
location(harbor0).
location(harbor1).
location(harbor2).
location(harbor3).
location(harbor4).
location(harbor5).
location(harbor6).
location(harbor7).
location(harbor8).
location(harbor9).
location(harbor10).
location(harbor11).
location(harbor12).
location(harbor13).
location(harbor14).
location(harbor15).
location(harbor16).
location(prodloc0).
location(prodloc1).
location(prodloc2).
location(prodloc3).
location(prodloc4).
location(prodloc5).
location(prodloc6).
location(prodloc7).
location(prodloc8).
location(prodloc9).
location(prodloc10).
location(prodloc11).
location(prodloc12).
location(prodloc13).
location(prodloc14).
location(prodloc15).
location(prodloc16).
location(prodloc17).
location(prodloc18).
location(prodloc19).
location(prodloc20).
location(prodloc21).
location(prodloc22).
location(prodloc23).
location(prodloc24).
location(prodloc25).
location(prodloc26).
location(prodloc27).
location(prodloc28).
location(prodloc29).
location(prodloc30).
location(prodloc31).
location(prodloc32).
location(prodloc33).

% ---- transport resources ----
transportCapacity(tr0,1800).
transportCO2(tr0,1680).
transportCost(tr0,26).
transportSpeed(tr0,12).
transportCapacity(tr1,65).
transportCO2(tr1,90).
transportCost(tr1,1).
transportSpeed(tr1,35).
transportCapacity(tr10,1).
transportCO2(tr10,700).
transportCost(tr10,4).
transportSpeed(tr10,40).
transportCapacity(tr11,65).
transportCO2(tr11,62).
transportCost(tr11,1).
transportSpeed(tr11,25).
transportCapacity(tr12,65).
transportCO2(tr12,709).
transportCost(tr12,3).
transportSpeed(tr12,55).
transportCapacity(tr13,68).
transportCO2(tr13,160).
transportCost(tr13,6).
transportSpeed(tr13,25).
transportCapacity(tr14,146).
transportCO2(tr14,780).
transportCost(tr14,4).
transportSpeed(tr14,50).
transportCapacity(tr15,2217).
transportCO2(tr15,49470).
transportCost(tr15,32).
transportSpeed(tr15,625).
transportCapacity(tr2,96).
transportCO2(tr2,709).
transportCost(tr2,3).
transportSpeed(tr2,55).
transportCapacity(tr3,1).
transportCO2(tr3,6250).
transportCost(tr3,108).
transportSpeed(tr3,25).
transportCapacity(tr4,148).
transportCO2(tr4,780).
transportCost(tr4,4).
transportSpeed(tr4,50).
transportCapacity(tr5,65).
transportCO2(tr5,780).
transportCost(tr5,3).
transportSpeed(tr5,50).
transportCapacity(tr6,1).
transportCO2(tr6,100).
transportCost(tr6,40).
transportSpeed(tr6,25).
transportCapacity(tr7,1).
transportCO2(tr7,18000).
transportCost(tr7,278).
transportSpeed(tr7,10).
transportCapacity(tr8,1).
transportCO2(tr8,14400).
transportCost(tr8,107).
transportSpeed(tr8,25).
transportCapacity(tr9,65).
transportCO2(tr9,708).
transportCost(tr9,2).
transportSpeed(tr9,60).

% ---- parts ----
part(part0).
partSize(part0,21).
valid_transport(part0,tr0).
valid_transport(part0,tr15).
valid_transport(part0,tr14).
valid_transport(part0,tr13).
valid_transport(part0,tr4).
part(part1).
partSize(part1,1).
valid_transport(part1,tr0).
valid_transport(part1,tr2).
valid_transport(part1,tr15).
valid_transport(part1,tr9).
valid_transport(part1,tr12).
valid_transport(part1,tr13).
valid_transport(part1,tr11).
part(part10).
partSize(part10,1).
valid_transport(part10,tr0).
valid_transport(part10,tr2).
valid_transport(part10,tr15).
valid_transport(part10,tr9).
valid_transport(part10,tr12).
valid_transport(part10,tr13).
valid_transport(part10,tr11).
part(part11).
partSize(part11,83).
valid_transport(part11,tr0).
valid_transport(part11,tr7).
valid_transport(part11,tr8).
valid_transport(part11,tr15).
valid_transport(part11,tr3).
valid_transport(part11,tr13).
part(part12).
partSize(part12,273).
valid_transport(part12,tr0).
valid_transport(part12,tr7).
valid_transport(part12,tr8).
valid_transport(part12,tr15).
valid_transport(part12,tr3).
valid_transport(part12,tr13).
part(part13).
partSize(part13,1).
valid_transport(part13,tr0).
valid_transport(part13,tr2).
valid_transport(part13,tr15).
valid_transport(part13,tr9).
valid_transport(part13,tr12).
valid_transport(part13,tr13).
valid_transport(part13,tr11).
part(part14).
partSize(part14,68).
valid_transport(part14,tr0).
valid_transport(part14,tr15).
valid_transport(part14,tr13).
part(part15).
partSize(part15,4).
valid_transport(part15,tr0).
valid_transport(part15,tr2).
valid_transport(part15,tr15).
valid_transport(part15,tr9).
valid_transport(part15,tr12).
valid_transport(part15,tr13).
valid_transport(part15,tr11).
part(part16).
partSize(part16,4).
valid_transport(part16,tr0).
valid_transport(part16,tr2).
valid_transport(part16,tr15).
valid_transport(part16,tr9).
valid_transport(part16,tr12).
valid_transport(part16,tr13).
valid_transport(part16,tr11).
part(part17).
partSize(part17,8).
valid_transport(part17,tr0).
valid_transport(part17,tr15).
valid_transport(part17,tr14).
valid_transport(part17,tr13).
valid_transport(part17,tr4).
part(part18).
partSize(part18,24).
valid_transport(part18,tr0).
valid_transport(part18,tr15).
valid_transport(part18,tr14).
valid_transport(part18,tr13).
valid_transport(part18,tr4).
part(part19).
partSize(part19,6).
valid_transport(part19,tr0).
valid_transport(part19,tr2).
valid_transport(part19,tr15).
valid_transport(part19,tr9).
valid_transport(part19,tr12).
valid_transport(part19,tr13).
valid_transport(part19,tr11).
part(part2).
partSize(part2,19).
valid_transport(part2,tr0).
valid_transport(part2,tr15).
valid_transport(part2,tr14).
valid_transport(part2,tr13).
valid_transport(part2,tr4).
part(part20).
partSize(part20,128).
valid_transport(part20,tr0).
valid_transport(part20,tr7).
valid_transport(part20,tr8).
valid_transport(part20,tr15).
valid_transport(part20,tr3).
valid_transport(part20,tr13).
part(part21).
partSize(part21,25).
valid_transport(part21,tr0).
valid_transport(part21,tr15).
valid_transport(part21,tr14).
valid_transport(part21,tr13).
valid_transport(part21,tr4).
part(part22).
partSize(part22,7).
valid_transport(part22,tr0).
valid_transport(part22,tr2).
valid_transport(part22,tr15).
valid_transport(part22,tr9).
valid_transport(part22,tr12).
valid_transport(part22,tr13).
valid_transport(part22,tr11).
part(part23).
partSize(part23,5).
valid_transport(part23,tr0).
valid_transport(part23,tr15).
valid_transport(part23,tr14).
valid_transport(part23,tr13).
valid_transport(part23,tr4).
part(part24).
partSize(part24,55).
valid_transport(part24,tr0).
valid_transport(part24,tr7).
valid_transport(part24,tr8).
valid_transport(part24,tr15).
valid_transport(part24,tr3).
valid_transport(part24,tr13).
part(part25).
partSize(part25,5).
valid_transport(part25,tr0).
valid_transport(part25,tr4).
valid_transport(part25,tr2).
valid_transport(part25,tr15).
valid_transport(part25,tr13).
part(part26).
partSize(part26,32).
valid_transport(part26,tr0).
valid_transport(part26,tr7).
valid_transport(part26,tr8).
valid_transport(part26,tr15).
valid_transport(part26,tr3).
valid_transport(part26,tr13).
part(part27).
partSize(part27,5).
valid_transport(part27,tr0).
valid_transport(part27,tr2).
valid_transport(part27,tr15).
valid_transport(part27,tr9).
valid_transport(part27,tr12).
valid_transport(part27,tr13).
valid_transport(part27,tr11).
part(part28).
partSize(part28,3).
valid_transport(part28,tr0).
valid_transport(part28,tr4).
valid_transport(part28,tr2).
valid_transport(part28,tr15).
valid_transport(part28,tr14).
valid_transport(part28,tr13).
part(part29).
partSize(part29,627).
part(part3).
partSize(part3,48).
valid_transport(part3,tr0).
valid_transport(part3,tr7).
valid_transport(part3,tr8).
valid_transport(part3,tr15).
valid_transport(part3,tr3).
valid_transport(part3,tr13).
part(part30).
partSize(part30,2).
valid_transport(part30,tr0).
valid_transport(part30,tr2).
valid_transport(part30,tr15).
valid_transport(part30,tr9).
valid_transport(part30,tr12).
valid_transport(part30,tr13).
valid_transport(part30,tr11).
part(part31).
partSize(part31,144).
valid_transport(part31,tr0).
valid_transport(part31,tr7).
valid_transport(part31,tr8).
valid_transport(part31,tr15).
valid_transport(part31,tr3).
valid_transport(part31,tr13).
part(part32).
partSize(part32,16).
valid_transport(part32,tr0).
valid_transport(part32,tr4).
valid_transport(part32,tr2).
valid_transport(part32,tr15).
valid_transport(part32,tr14).
valid_transport(part32,tr13).
part(part33).
partSize(part33,7).
valid_transport(part33,tr0).
valid_transport(part33,tr2).
valid_transport(part33,tr15).
valid_transport(part33,tr9).
valid_transport(part33,tr12).
valid_transport(part33,tr13).
valid_transport(part33,tr11).
part(part3345).
partSize(part3345,353).
valid_transport(part3345,tr0).
valid_transport(part3345,tr7).
valid_transport(part3345,tr8).
valid_transport(part3345,tr15).
valid_transport(part3345,tr3).
valid_transport(part3345,tr13).
part(part34).
partSize(part34,2).
valid_transport(part34,tr0).
valid_transport(part34,tr2).
valid_transport(part34,tr15).
valid_transport(part34,tr9).
valid_transport(part34,tr12).
valid_transport(part34,tr13).
valid_transport(part34,tr11).
part(part4).
partSize(part4,2).
valid_transport(part4,tr0).
valid_transport(part4,tr2).
valid_transport(part4,tr15).
valid_transport(part4,tr9).
valid_transport(part4,tr12).
valid_transport(part4,tr13).
valid_transport(part4,tr11).
part(part5).
partSize(part5,2).
valid_transport(part5,tr0).
valid_transport(part5,tr2).
valid_transport(part5,tr15).
valid_transport(part5,tr9).
valid_transport(part5,tr12).
valid_transport(part5,tr14).
valid_transport(part5,tr13).
valid_transport(part5,tr11).
part(part6).
partSize(part6,111).
valid_transport(part6,tr0).
valid_transport(part6,tr7).
valid_transport(part6,tr8).
valid_transport(part6,tr15).
valid_transport(part6,tr3).
valid_transport(part6,tr13).
part(part8).
partSize(part8,163).
valid_transport(part8,tr0).
valid_transport(part8,tr7).
valid_transport(part8,tr8).
valid_transport(part8,tr15).
valid_transport(part8,tr3).
valid_transport(part8,tr13).
part(part9).
partSize(part9,2).
valid_transport(part9,tr0).
valid_transport(part9,tr2).
valid_transport(part9,tr15).
valid_transport(part9,tr9).
valid_transport(part9,tr12).
valid_transport(part9,tr13).
valid_transport(part9,tr11).

% ---- demand ----
demandOffer(part0,prodloc6,40).
demandOffer(part0,prodloc33,40).
demandOffer(part0,prodloc15,-27).
demandOffer(part0,prodloc17,-53).
demandOffer(part1,prodloc16,20).
demandOffer(part1,prodloc18,20).
demandOffer(part1,prodloc4,-20).
demandOffer(part1,prodloc28,-20).
demandOffer(part10,prodloc19,20).
demandOffer(part10,prodloc29,20).
demandOffer(part10,prodloc25,-20).
demandOffer(part10,prodloc7,-20).
demandOffer(part12,prodloc16,10).
demandOffer(part12,prodloc14,20).
demandOffer(part12,prodloc20,-10).
demandOffer(part12,prodloc22,-10).
demandOffer(part12,prodloc23,-10).
demandOffer(part13,prodloc33,20).
demandOffer(part13,prodloc9,20).
demandOffer(part13,prodloc10,-20).
demandOffer(part13,prodloc17,-20).
demandOffer(part14,prodloc10,26).
demandOffer(part14,prodloc0,-26).
demandOffer(part15,prodloc4,53).
demandOffer(part15,prodloc7,27).
demandOffer(part15,prodloc21,-53).
demandOffer(part15,prodloc1,-27).
demandOffer(part16,prodloc5,53).
demandOffer(part16,prodloc17,27).
demandOffer(part16,prodloc13,-53).
demandOffer(part16,prodloc24,-27).
demandOffer(part17,prodloc25,20).
demandOffer(part17,prodloc28,-20).
demandOffer(part18,prodloc6,40).
demandOffer(part18,prodloc7,40).
demandOffer(part18,prodloc23,-27).
demandOffer(part18,prodloc11,-53).
demandOffer(part19,prodloc6,26).
demandOffer(part19,prodloc31,-26).
demandOffer(part2,prodloc32,40).
demandOffer(part2,prodloc12,40).
demandOffer(part2,prodloc17,-27).
demandOffer(part2,prodloc28,-53).
demandOffer(part20,prodloc13,53).
demandOffer(part20,prodloc31,27).
demandOffer(part20,prodloc18,-14).
demandOffer(part20,prodloc32,-46).
demandOffer(part20,prodloc16,-20).
demandOffer(part21,prodloc6,26).
demandOffer(part21,prodloc7,-26).
demandOffer(part22,prodloc5,53).
demandOffer(part22,prodloc17,27).
demandOffer(part22,prodloc7,-53).
demandOffer(part22,prodloc1,-27).
demandOffer(part23,prodloc10,20).
demandOffer(part23,prodloc26,20).
demandOffer(part23,prodloc7,-20).
demandOffer(part23,prodloc33,-20).
demandOffer(part25,prodloc5,20).
demandOffer(part25,prodloc27,-20).
demandOffer(part26,prodloc30,20).
demandOffer(part26,prodloc10,20).
demandOffer(part26,prodloc24,-14).
demandOffer(part26,prodloc29,-26).
demandOffer(part27,prodloc19,53).
demandOffer(part27,prodloc31,27).
demandOffer(part27,prodloc29,-53).
demandOffer(part27,prodloc27,-27).
demandOffer(part28,prodloc26,20).
demandOffer(part28,prodloc6,20).
demandOffer(part28,prodloc16,-20).
demandOffer(part28,prodloc30,-20).
demandOffer(part3,prodloc25,40).
demandOffer(part3,prodloc15,-14).
demandOffer(part3,prodloc28,-26).
demandOffer(part30,prodloc31,40).
demandOffer(part30,prodloc4,40).
demandOffer(part30,prodloc9,-27).
demandOffer(part30,prodloc17,-53).
demandOffer(part31,prodloc28,7).
demandOffer(part31,prodloc1,7).
demandOffer(part31,prodloc25,-14).
demandOffer(part32,prodloc27,53).
demandOffer(part32,prodloc1,27).
demandOffer(part32,prodloc22,-53).
demandOffer(part32,prodloc23,-27).
demandOffer(part33,prodloc30,53).
demandOffer(part33,prodloc16,27).
demandOffer(part33,prodloc22,-53).
demandOffer(part33,prodloc19,-27).
demandOffer(part34,prodloc33,20).
demandOffer(part34,prodloc12,-20).
demandOffer(part4,prodloc2,26).
demandOffer(part4,prodloc30,-26).
demandOffer(part5,prodloc16,20).
demandOffer(part5,prodloc6,-20).
demandOffer(part6,prodloc24,27).
demandOffer(part6,prodloc6,53).
demandOffer(part6,prodloc2,-24).
demandOffer(part6,prodloc32,-36).
demandOffer(part6,prodloc9,-10).
demandOffer(part6,prodloc0,-10).
demandOffer(part8,prodloc0,3).
demandOffer(part8,prodloc32,17).
demandOffer(part8,prodloc18,-10).
demandOffer(part8,prodloc33,-10).
demandOffer(part9,prodloc22,20).
demandOffer(part9,prodloc16,-20).

% ---- network (ASP-generated) ----
route(harbor0,harbor1,tr13,3758,22548).
route(harbor0,harbor1,tr2,3758,11274).
route(harbor0,harbor2,tr13,1181,7086).
route(harbor0,harbor2,tr2,1181,3543).
route(harbor0,harbor3,tr13,4820,28920).
route(harbor0,harbor3,tr2,4820,14460).
route(harbor0,harbor4,tr13,25423,152538).
route(harbor0,harbor4,tr2,25423,76269).
route(harbor0,harbor5,tr13,6552,39312).
route(harbor0,harbor5,tr2,6552,19656).
route(harbor0,harbor6,tr13,88,528).
route(harbor0,harbor6,tr2,88,264).
route(harbor0,harbor7,tr13,7567,45402).
route(harbor0,harbor7,tr2,7567,22701).
route(harbor0,harbor8,tr13,8231,49386).
route(harbor0,harbor8,tr2,8231,24693).
route(harbor0,harbor9,tr13,28635,171810).
route(harbor0,harbor9,tr2,28635,85905).
route(harbor0,harbor10,tr13,16435,98610).
route(harbor0,harbor10,tr2,16435,49305).
route(harbor0,harbor11,tr13,8698,52188).
route(harbor0,harbor11,tr2,8698,26094).
route(harbor0,harbor12,tr13,6006,36036).
route(harbor0,harbor12,tr2,6006,18018).
route(harbor0,harbor13,tr13,8176,49056).
route(harbor0,harbor13,tr2,8176,24528).
route(harbor0,harbor14,tr13,6840,41040).
route(harbor0,harbor14,tr2,6840,20520).
route(harbor0,harbor15,tr13,19819,118914).
route(harbor0,harbor15,tr2,19819,59457).
route(harbor0,harbor16,tr13,22316,133896).
route(harbor0,harbor16,tr2,22316,66948).
route(harbor0,prodloc0,tr0,10881,282906).
route(harbor0,prodloc0,tr13,10881,65286).
route(harbor0,prodloc1,tr0,9549,248274).
route(harbor0,prodloc1,tr13,9549,57294).
route(harbor0,prodloc2,tr0,23641,614666).
route(harbor0,prodloc2,tr13,23641,141846).
route(harbor0,prodloc3,tr0,24957,648882).
route(harbor0,prodloc3,tr13,24957,149742).
route(harbor0,prodloc4,tr0,12084,314184).
route(harbor0,prodloc4,tr13,12084,72504).
route(harbor0,prodloc5,tr0,1035,26910).
route(harbor0,prodloc5,tr13,1035,6210).
route(harbor0,prodloc6,tr0,18388,478088).
route(harbor0,prodloc6,tr13,18388,110328).
route(harbor0,prodloc7,tr0,19526,507676).
route(harbor0,prodloc7,tr13,19526,117156).
route(harbor0,prodloc8,tr0,24291,631566).
route(harbor0,prodloc8,tr13,24291,145746).
route(harbor0,prodloc9,tr0,25794,670644).
route(harbor0,prodloc9,tr13,25794,154764).
route(harbor0,prodloc10,tr0,24815,645190).
route(harbor0,prodloc10,tr13,24815,148890).
route(harbor0,prodloc11,tr0,5187,134862).
route(harbor0,prodloc11,tr13,5187,31122).
route(harbor0,prodloc12,tr0,16653,432978).
route(harbor0,prodloc12,tr13,16653,99918).
route(harbor0,prodloc13,tr0,21123,549198).
route(harbor0,prodloc13,tr13,21123,126738).
route(harbor0,prodloc14,tr0,27572,716872).
route(harbor0,prodloc14,tr13,27572,165432).
route(harbor0,prodloc15,tr0,6468,168168).
route(harbor0,prodloc15,tr13,6468,38808).
route(harbor0,prodloc16,tr0,12010,312260).
route(harbor0,prodloc16,tr13,12010,72060).
route(harbor0,prodloc17,tr0,16066,417716).
route(harbor0,prodloc17,tr13,16066,96396).
route(harbor0,prodloc18,tr0,12588,327288).
route(harbor0,prodloc18,tr13,12588,75528).
route(harbor0,prodloc19,tr0,8025,208650).
route(harbor0,prodloc19,tr13,8025,48150).
route(harbor0,prodloc20,tr0,12717,330642).
route(harbor0,prodloc20,tr13,12717,76302).
route(harbor0,prodloc21,tr0,17891,465166).
route(harbor0,prodloc21,tr13,17891,107346).
route(harbor0,prodloc22,tr0,18143,471718).
route(harbor0,prodloc22,tr13,18143,108858).
route(harbor0,prodloc23,tr0,25346,658996).
route(harbor0,prodloc23,tr13,25346,152076).
route(harbor0,prodloc24,tr0,10305,267930).
route(harbor0,prodloc24,tr13,10305,61830).
route(harbor0,prodloc25,tr0,15991,415766).
route(harbor0,prodloc25,tr13,15991,95946).
route(harbor0,prodloc26,tr0,20080,522080).
route(harbor0,prodloc26,tr13,20080,120480).
route(harbor0,prodloc27,tr0,1035,26910).
route(harbor0,prodloc27,tr13,1035,6210).
route(harbor0,prodloc28,tr0,8105,210730).
route(harbor0,prodloc28,tr13,8105,48630).
route(harbor0,prodloc29,tr0,21077,548002).
route(harbor0,prodloc29,tr13,21077,126462).
route(harbor0,prodloc30,tr0,14072,365872).
route(harbor0,prodloc30,tr13,14072,84432).
route(harbor0,prodloc31,tr0,15367,399542).
route(harbor0,prodloc31,tr13,15367,92202).
route(harbor0,prodloc32,tr0,25349,659074).
route(harbor0,prodloc32,tr13,25349,152094).
route(harbor0,prodloc33,tr0,11124,289224).
route(harbor0,prodloc33,tr13,11124,66744).
route(harbor1,harbor0,tr13,2966,17796).
route(harbor1,harbor0,tr2,2966,8898).
route(harbor1,harbor2,tr13,8639,51834).
route(harbor1,harbor2,tr2,8639,25917).
route(harbor1,harbor3,tr13,26478,158868).
route(harbor1,harbor3,tr2,26478,79434).
route(harbor1,harbor4,tr13,3413,20478).
route(harbor1,harbor4,tr2,3413,10239).
route(harbor1,harbor5,tr13,4286,25716).
route(harbor1,harbor5,tr2,4286,12858).
route(harbor1,harbor6,tr13,6604,39624).
route(harbor1,harbor6,tr2,6604,19812).
route(harbor1,harbor7,tr13,1817,10902).
route(harbor1,harbor7,tr2,1817,5451).
route(harbor1,harbor8,tr13,22713,136278).
route(harbor1,harbor8,tr2,22713,68139).
route(harbor1,harbor9,tr13,4638,27828).
route(harbor1,harbor9,tr2,4638,13914).
route(harbor1,harbor10,tr13,6962,41772).
route(harbor1,harbor10,tr2,6962,20886).
route(harbor1,harbor11,tr13,8507,51042).
route(harbor1,harbor11,tr2,8507,25521).
route(harbor1,harbor12,tr13,15988,95928).
route(harbor1,harbor12,tr2,15988,47964).
route(harbor1,harbor13,tr13,14689,88134).
route(harbor1,harbor13,tr2,14689,44067).
route(harbor1,harbor14,tr13,4148,24888).
route(harbor1,harbor14,tr2,4148,12444).
route(harbor1,harbor15,tr13,17878,107268).
route(harbor1,harbor15,tr2,17878,53634).
route(harbor1,harbor16,tr13,12498,74988).
route(harbor1,harbor16,tr2,12498,37494).
route(harbor1,prodloc0,tr0,1666,43316).
route(harbor1,prodloc0,tr13,1666,9996).
route(harbor1,prodloc1,tr0,25727,668902).
route(harbor1,prodloc1,tr13,25727,154362).
route(harbor1,prodloc2,tr0,3487,90662).
route(harbor1,prodloc2,tr13,3487,20922).
route(harbor1,prodloc3,tr0,8416,218816).
route(harbor1,prodloc3,tr13,8416,50496).
route(harbor1,prodloc4,tr0,23067,599742).
route(harbor1,prodloc4,tr13,23067,138402).
route(harbor1,prodloc5,tr0,12080,314080).
route(harbor1,prodloc5,tr13,12080,72480).
route(harbor1,prodloc6,tr0,17738,461188).
route(harbor1,prodloc6,tr13,17738,106428).
route(harbor1,prodloc7,tr0,13928,362128).
route(harbor1,prodloc7,tr13,13928,83568).
route(harbor1,prodloc8,tr0,13722,356772).
route(harbor1,prodloc8,tr13,13722,82332).
route(harbor1,prodloc9,tr0,4224,109824).
route(harbor1,prodloc9,tr13,4224,25344).
route(harbor1,prodloc10,tr0,14579,379054).
route(harbor1,prodloc10,tr13,14579,87474).
route(harbor1,prodloc11,tr0,7286,189436).
route(harbor1,prodloc11,tr13,7286,43716).
route(harbor1,prodloc12,tr0,2955,76830).
route(harbor1,prodloc12,tr13,2955,17730).
route(harbor1,prodloc13,tr0,4802,124852).
route(harbor1,prodloc13,tr13,4802,28812).
route(harbor1,prodloc14,tr0,26496,688896).
route(harbor1,prodloc14,tr13,26496,158976).
route(harbor1,prodloc15,tr0,23771,618046).
route(harbor1,prodloc15,tr13,23771,142626).
route(harbor1,prodloc16,tr0,5634,146484).
route(harbor1,prodloc16,tr13,5634,33804).
route(harbor1,prodloc17,tr0,4804,124904).
route(harbor1,prodloc17,tr13,4804,28824).
route(harbor1,prodloc18,tr0,564,14664).
route(harbor1,prodloc18,tr13,564,3384).
route(harbor1,prodloc19,tr0,21893,569218).
route(harbor1,prodloc19,tr13,21893,131358).
route(harbor1,prodloc20,tr0,7277,189202).
route(harbor1,prodloc20,tr13,7277,43662).
route(harbor1,prodloc21,tr0,21201,551226).
route(harbor1,prodloc21,tr13,21201,127206).
route(harbor1,prodloc22,tr0,28186,732836).
route(harbor1,prodloc22,tr13,28186,169116).
route(harbor1,prodloc23,tr0,21515,559390).
route(harbor1,prodloc23,tr13,21515,129090).
route(harbor1,prodloc24,tr0,26871,698646).
route(harbor1,prodloc24,tr13,26871,161226).
route(harbor1,prodloc25,tr0,11584,301184).
route(harbor1,prodloc25,tr13,11584,69504).
route(harbor1,prodloc26,tr0,19513,507338).
route(harbor1,prodloc26,tr13,19513,117078).
route(harbor1,prodloc27,tr0,21523,559598).
route(harbor1,prodloc27,tr13,21523,129138).
route(harbor1,prodloc28,tr0,26979,701454).
route(harbor1,prodloc28,tr13,26979,161874).
route(harbor1,prodloc29,tr0,18263,474838).
route(harbor1,prodloc29,tr13,18263,109578).
route(harbor1,prodloc30,tr0,23044,599144).
route(harbor1,prodloc30,tr13,23044,138264).
route(harbor1,prodloc31,tr0,1518,39468).
route(harbor1,prodloc31,tr13,1518,9108).
route(harbor1,prodloc32,tr0,18938,492388).
route(harbor1,prodloc32,tr13,18938,113628).
route(harbor1,prodloc33,tr0,13323,346398).
route(harbor1,prodloc33,tr13,13323,79938).
route(harbor2,harbor0,tr13,15378,92268).
route(harbor2,harbor0,tr2,15378,46134).
route(harbor2,harbor1,tr13,8748,52488).
route(harbor2,harbor1,tr2,8748,26244).
route(harbor2,harbor3,tr13,15426,92556).
route(harbor2,harbor3,tr2,15426,46278).
route(harbor2,harbor4,tr13,10605,63630).
route(harbor2,harbor4,tr2,10605,31815).
route(harbor2,harbor5,tr13,2543,15258).
route(harbor2,harbor5,tr2,2543,7629).
route(harbor2,harbor6,tr13,28340,170040).
route(harbor2,harbor6,tr2,28340,85020).
route(harbor2,harbor7,tr13,12006,72036).
route(harbor2,harbor7,tr2,12006,36018).
route(harbor2,harbor8,tr13,2058,12348).
route(harbor2,harbor8,tr2,2058,6174).
route(harbor2,harbor9,tr13,22316,133896).
route(harbor2,harbor9,tr2,22316,66948).
route(harbor2,harbor10,tr13,21055,126330).
route(harbor2,harbor10,tr2,21055,63165).
route(harbor2,harbor11,tr13,21261,127566).
route(harbor2,harbor11,tr2,21261,63783).
route(harbor2,harbor12,tr13,17804,106824).
route(harbor2,harbor12,tr2,17804,53412).
route(harbor2,harbor13,tr13,27003,162018).
route(harbor2,harbor13,tr2,27003,81009).
route(harbor2,harbor14,tr13,3200,19200).
route(harbor2,harbor14,tr2,3200,9600).
route(harbor2,harbor15,tr13,28432,170592).
route(harbor2,harbor15,tr2,28432,85296).
route(harbor2,harbor16,tr13,2277,13662).
route(harbor2,harbor16,tr2,2277,6831).
route(harbor2,prodloc0,tr0,13972,363272).
route(harbor2,prodloc0,tr13,13972,83832).
route(harbor2,prodloc1,tr0,27515,715390).
route(harbor2,prodloc1,tr13,27515,165090).
route(harbor2,prodloc2,tr0,3776,98176).
route(harbor2,prodloc2,tr13,3776,22656).
route(harbor2,prodloc3,tr0,28656,745056).
route(harbor2,prodloc3,tr13,28656,171936).
route(harbor2,prodloc4,tr0,1688,43888).
route(harbor2,prodloc4,tr13,1688,10128).
route(harbor2,prodloc5,tr0,27162,706212).
route(harbor2,prodloc5,tr13,27162,162972).
route(harbor2,prodloc6,tr0,21150,549900).
route(harbor2,prodloc6,tr13,21150,126900).
route(harbor2,prodloc7,tr0,5600,145600).
route(harbor2,prodloc7,tr13,5600,33600).
route(harbor2,prodloc8,tr0,2234,58084).
route(harbor2,prodloc8,tr13,2234,13404).
route(harbor2,prodloc9,tr0,2,52).
route(harbor2,prodloc9,tr13,2,12).
route(harbor2,prodloc10,tr0,26012,676312).
route(harbor2,prodloc10,tr13,26012,156072).
route(harbor2,prodloc11,tr0,22177,576602).
route(harbor2,prodloc11,tr13,22177,133062).
route(harbor2,prodloc12,tr0,10002,260052).
route(harbor2,prodloc12,tr13,10002,60012).
route(harbor2,prodloc13,tr0,1472,38272).
route(harbor2,prodloc13,tr13,1472,8832).
route(harbor2,prodloc14,tr0,4431,115206).
route(harbor2,prodloc14,tr13,4431,26586).
route(harbor2,prodloc15,tr0,12425,323050).
route(harbor2,prodloc15,tr13,12425,74550).
route(harbor2,prodloc16,tr0,19299,501774).
route(harbor2,prodloc16,tr13,19299,115794).
route(harbor2,prodloc17,tr0,4912,127712).
route(harbor2,prodloc17,tr13,4912,29472).
route(harbor2,prodloc18,tr0,161,4186).
route(harbor2,prodloc18,tr13,161,966).
route(harbor2,prodloc19,tr0,14736,383136).
route(harbor2,prodloc19,tr13,14736,88416).
route(harbor2,prodloc20,tr0,15360,399360).
route(harbor2,prodloc20,tr13,15360,92160).
route(harbor2,prodloc21,tr0,25700,668200).
route(harbor2,prodloc21,tr13,25700,154200).
route(harbor2,prodloc22,tr0,28328,736528).
route(harbor2,prodloc22,tr13,28328,169968).
route(harbor2,prodloc23,tr0,16231,422006).
route(harbor2,prodloc23,tr13,16231,97386).
route(harbor2,prodloc24,tr0,23538,611988).
route(harbor2,prodloc24,tr13,23538,141228).
route(harbor2,prodloc25,tr0,17308,450008).
route(harbor2,prodloc25,tr13,17308,103848).
route(harbor2,prodloc26,tr0,654,17004).
route(harbor2,prodloc26,tr13,654,3924).
route(harbor2,prodloc27,tr0,9711,252486).
route(harbor2,prodloc27,tr13,9711,58266).
route(harbor2,prodloc28,tr0,2664,69264).
route(harbor2,prodloc28,tr13,2664,15984).
route(harbor2,prodloc29,tr0,8896,231296).
route(harbor2,prodloc29,tr13,8896,53376).
route(harbor2,prodloc30,tr0,8134,211484).
route(harbor2,prodloc30,tr13,8134,48804).
route(harbor2,prodloc31,tr0,9238,240188).
route(harbor2,prodloc31,tr13,9238,55428).
route(harbor2,prodloc32,tr0,22321,580346).
route(harbor2,prodloc32,tr13,22321,133926).
route(harbor2,prodloc33,tr0,19445,505570).
route(harbor2,prodloc33,tr13,19445,116670).
route(harbor3,harbor0,tr13,21192,127152).
route(harbor3,harbor0,tr2,21192,63576).
route(harbor3,harbor1,tr13,16679,100074).
route(harbor3,harbor1,tr2,16679,50037).
route(harbor3,harbor2,tr13,48,288).
route(harbor3,harbor2,tr2,48,144).
route(harbor3,harbor4,tr13,17999,107994).
route(harbor3,harbor4,tr2,17999,53997).
route(harbor3,harbor5,tr13,26126,156756).
route(harbor3,harbor5,tr2,26126,78378).
route(harbor3,harbor6,tr13,7745,46470).
route(harbor3,harbor6,tr2,7745,23235).
route(harbor3,harbor7,tr13,23783,142698).
route(harbor3,harbor7,tr2,23783,71349).
route(harbor3,harbor8,tr13,283,1698).
route(harbor3,harbor8,tr2,283,849).
route(harbor3,harbor9,tr13,11770,70620).
route(harbor3,harbor9,tr2,11770,35310).
route(harbor3,harbor10,tr13,3686,22116).
route(harbor3,harbor10,tr2,3686,11058).
route(harbor3,harbor11,tr13,28055,168330).
route(harbor3,harbor11,tr2,28055,84165).
route(harbor3,harbor12,tr13,4074,24444).
route(harbor3,harbor12,tr2,4074,12222).
route(harbor3,harbor13,tr13,13063,78378).
route(harbor3,harbor13,tr2,13063,39189).
route(harbor3,harbor14,tr13,12564,75384).
route(harbor3,harbor14,tr2,12564,37692).
route(harbor3,harbor15,tr13,14625,87750).
route(harbor3,harbor15,tr2,14625,43875).
route(harbor3,harbor16,tr13,9643,57858).
route(harbor3,harbor16,tr2,9643,28929).
route(harbor3,prodloc0,tr0,11331,294606).
route(harbor3,prodloc0,tr13,11331,67986).
route(harbor3,prodloc1,tr0,23743,617318).
route(harbor3,prodloc1,tr13,23743,142458).
route(harbor3,prodloc2,tr0,10928,284128).
route(harbor3,prodloc2,tr13,10928,65568).
route(harbor3,prodloc3,tr0,960,24960).
route(harbor3,prodloc3,tr13,960,5760).
route(harbor3,prodloc4,tr0,8270,215020).
route(harbor3,prodloc4,tr13,8270,49620).
route(harbor3,prodloc5,tr0,4486,116636).
route(harbor3,prodloc5,tr13,4486,26916).
route(harbor3,prodloc6,tr0,9242,240292).
route(harbor3,prodloc6,tr13,9242,55452).
route(harbor3,prodloc7,tr0,18567,482742).
route(harbor3,prodloc7,tr13,18567,111402).
route(harbor3,prodloc8,tr0,26428,687128).
route(harbor3,prodloc8,tr13,26428,158568).
route(harbor3,prodloc9,tr0,25186,654836).
route(harbor3,prodloc9,tr13,25186,151116).
route(harbor3,prodloc10,tr0,23137,601562).
route(harbor3,prodloc10,tr13,23137,138822).
route(harbor3,prodloc11,tr0,10188,264888).
route(harbor3,prodloc11,tr13,10188,61128).
route(harbor3,prodloc12,tr0,7088,184288).
route(harbor3,prodloc12,tr13,7088,42528).
route(harbor3,prodloc13,tr0,17160,446160).
route(harbor3,prodloc13,tr13,17160,102960).
route(harbor3,prodloc14,tr0,19145,497770).
route(harbor3,prodloc14,tr13,19145,114870).
route(harbor3,prodloc15,tr0,27371,711646).
route(harbor3,prodloc15,tr13,27371,164226).
route(harbor3,prodloc16,tr0,14513,377338).
route(harbor3,prodloc16,tr13,14513,87078).
route(harbor3,prodloc17,tr0,838,21788).
route(harbor3,prodloc17,tr13,838,5028).
route(harbor3,prodloc18,tr0,21172,550472).
route(harbor3,prodloc18,tr13,21172,127032).
route(harbor3,prodloc19,tr0,2284,59384).
route(harbor3,prodloc19,tr13,2284,13704).
route(harbor3,prodloc20,tr0,14364,373464).
route(harbor3,prodloc20,tr13,14364,86184).
route(harbor3,prodloc21,tr0,11139,289614).
route(harbor3,prodloc21,tr13,11139,66834).
route(harbor3,prodloc22,tr0,18909,491634).
route(harbor3,prodloc22,tr13,18909,113454).
route(harbor3,prodloc23,tr0,12604,327704).
route(harbor3,prodloc23,tr13,12604,75624).
route(harbor3,prodloc24,tr0,26030,676780).
route(harbor3,prodloc24,tr13,26030,156180).
route(harbor3,prodloc25,tr0,19712,512512).
route(harbor3,prodloc25,tr13,19712,118272).
route(harbor3,prodloc26,tr0,13846,359996).
route(harbor3,prodloc26,tr13,13846,83076).
route(harbor3,prodloc27,tr0,8197,213122).
route(harbor3,prodloc27,tr13,8197,49182).
route(harbor3,prodloc28,tr0,22303,579878).
route(harbor3,prodloc28,tr13,22303,133818).
route(harbor3,prodloc29,tr0,25016,650416).
route(harbor3,prodloc29,tr13,25016,150096).
route(harbor3,prodloc30,tr0,13726,356876).
route(harbor3,prodloc30,tr13,13726,82356).
route(harbor3,prodloc31,tr0,6540,170040).
route(harbor3,prodloc31,tr13,6540,39240).
route(harbor3,prodloc32,tr0,25629,666354).
route(harbor3,prodloc32,tr13,25629,153774).
route(harbor3,prodloc33,tr0,994,25844).
route(harbor3,prodloc33,tr13,994,5964).
route(harbor4,harbor0,tr13,12370,74220).
route(harbor4,harbor0,tr2,12370,37110).
route(harbor4,harbor1,tr13,28269,169614).
route(harbor4,harbor1,tr2,28269,84807).
route(harbor4,harbor2,tr13,23475,140850).
route(harbor4,harbor2,tr2,23475,70425).
route(harbor4,harbor3,tr13,15628,93768).
route(harbor4,harbor3,tr2,15628,46884).
route(harbor4,harbor5,tr13,8040,48240).
route(harbor4,harbor5,tr2,8040,24120).
route(harbor4,harbor6,tr13,12743,76458).
route(harbor4,harbor6,tr2,12743,38229).
route(harbor4,harbor7,tr13,26704,160224).
route(harbor4,harbor7,tr2,26704,80112).
route(harbor4,harbor8,tr13,17058,102348).
route(harbor4,harbor8,tr2,17058,51174).
route(harbor4,harbor9,tr13,3978,23868).
route(harbor4,harbor9,tr2,3978,11934).
route(harbor4,harbor10,tr13,24940,149640).
route(harbor4,harbor10,tr2,24940,74820).
route(harbor4,harbor11,tr13,7306,43836).
route(harbor4,harbor11,tr2,7306,21918).
route(harbor4,harbor12,tr13,27152,162912).
route(harbor4,harbor12,tr2,27152,81456).
route(harbor4,harbor13,tr13,7756,46536).
route(harbor4,harbor13,tr2,7756,23268).
route(harbor4,harbor14,tr13,6424,38544).
route(harbor4,harbor14,tr2,6424,19272).
route(harbor4,harbor15,tr13,8389,50334).
route(harbor4,harbor15,tr2,8389,25167).
route(harbor4,harbor16,tr13,27878,167268).
route(harbor4,harbor16,tr2,27878,83634).
route(harbor4,prodloc0,tr0,28168,732368).
route(harbor4,prodloc0,tr13,28168,169008).
route(harbor4,prodloc1,tr0,2458,63908).
route(harbor4,prodloc1,tr13,2458,14748).
route(harbor4,prodloc2,tr0,8083,210158).
route(harbor4,prodloc2,tr13,8083,48498).
route(harbor4,prodloc3,tr0,25933,674258).
route(harbor4,prodloc3,tr13,25933,155598).
route(harbor4,prodloc4,tr0,2966,77116).
route(harbor4,prodloc4,tr13,2966,17796).
route(harbor4,prodloc5,tr0,14859,386334).
route(harbor4,prodloc5,tr13,14859,89154).
route(harbor4,prodloc6,tr0,28402,738452).
route(harbor4,prodloc6,tr13,28402,170412).
route(harbor4,prodloc7,tr0,21691,563966).
route(harbor4,prodloc7,tr13,21691,130146).
route(harbor4,prodloc8,tr0,18295,475670).
route(harbor4,prodloc8,tr13,18295,109770).
route(harbor4,prodloc9,tr0,1648,42848).
route(harbor4,prodloc9,tr13,1648,9888).
route(harbor4,prodloc10,tr0,919,23894).
route(harbor4,prodloc10,tr13,919,5514).
route(harbor4,prodloc11,tr0,6217,161642).
route(harbor4,prodloc11,tr13,6217,37302).
route(harbor4,prodloc12,tr0,22126,575276).
route(harbor4,prodloc12,tr13,22126,132756).
route(harbor4,prodloc13,tr0,26612,691912).
route(harbor4,prodloc13,tr13,26612,159672).
route(harbor4,prodloc14,tr0,22488,584688).
route(harbor4,prodloc14,tr13,22488,134928).
route(harbor4,prodloc15,tr0,19787,514462).
route(harbor4,prodloc15,tr13,19787,118722).
route(harbor4,prodloc16,tr0,21288,553488).
route(harbor4,prodloc16,tr13,21288,127728).
route(harbor4,prodloc17,tr0,9277,241202).
route(harbor4,prodloc17,tr13,9277,55662).
route(harbor4,prodloc18,tr0,25383,659958).
route(harbor4,prodloc18,tr13,25383,152298).
route(harbor4,prodloc19,tr0,13893,361218).
route(harbor4,prodloc19,tr13,13893,83358).
route(harbor4,prodloc20,tr0,15061,391586).
route(harbor4,prodloc20,tr13,15061,90366).
route(harbor4,prodloc21,tr0,7371,191646).
route(harbor4,prodloc21,tr13,7371,44226).
route(harbor4,prodloc22,tr0,24390,634140).
route(harbor4,prodloc22,tr13,24390,146340).
route(harbor4,prodloc23,tr0,2239,58214).
route(harbor4,prodloc23,tr13,2239,13434).
route(harbor4,prodloc24,tr0,20484,532584).
route(harbor4,prodloc24,tr13,20484,122904).
route(harbor4,prodloc25,tr0,2439,63414).
route(harbor4,prodloc25,tr13,2439,14634).
route(harbor4,prodloc26,tr0,23062,599612).
route(harbor4,prodloc26,tr13,23062,138372).
route(harbor4,prodloc27,tr0,23532,611832).
route(harbor4,prodloc27,tr13,23532,141192).
route(harbor4,prodloc28,tr0,6019,156494).
route(harbor4,prodloc28,tr13,6019,36114).
route(harbor4,prodloc29,tr0,23531,611806).
route(harbor4,prodloc29,tr13,23531,141186).
route(harbor4,prodloc30,tr0,12214,317564).
route(harbor4,prodloc30,tr13,12214,73284).
route(harbor4,prodloc31,tr0,15104,392704).
route(harbor4,prodloc31,tr13,15104,90624).
route(harbor4,prodloc32,tr0,22649,588874).
route(harbor4,prodloc32,tr13,22649,135894).
route(harbor4,prodloc33,tr0,6638,172588).
route(harbor4,prodloc33,tr13,6638,39828).
route(harbor5,harbor0,tr13,12631,75786).
route(harbor5,harbor0,tr2,12631,37893).
route(harbor5,harbor1,tr13,3545,21270).
route(harbor5,harbor1,tr2,3545,10635).
route(harbor5,harbor2,tr13,19771,118626).
route(harbor5,harbor2,tr2,19771,59313).
route(harbor5,harbor3,tr13,11951,71706).
route(harbor5,harbor3,tr2,11951,35853).
route(harbor5,harbor4,tr13,15528,93168).
route(harbor5,harbor4,tr2,15528,46584).
route(harbor5,harbor6,tr13,7175,43050).
route(harbor5,harbor6,tr2,7175,21525).
route(harbor5,harbor7,tr13,24755,148530).
route(harbor5,harbor7,tr2,24755,74265).
route(harbor5,harbor8,tr13,22360,134160).
route(harbor5,harbor8,tr2,22360,67080).
route(harbor5,harbor9,tr13,11445,68670).
route(harbor5,harbor9,tr2,11445,34335).
route(harbor5,harbor10,tr13,10973,65838).
route(harbor5,harbor10,tr2,10973,32919).
route(harbor5,harbor11,tr13,16344,98064).
route(harbor5,harbor11,tr2,16344,49032).
route(harbor5,harbor12,tr13,17534,105204).
route(harbor5,harbor12,tr2,17534,52602).
route(harbor5,harbor13,tr13,27178,163068).
route(harbor5,harbor13,tr2,27178,81534).
route(harbor5,harbor14,tr13,10208,61248).
route(harbor5,harbor14,tr2,10208,30624).
route(harbor5,harbor15,tr13,1662,9972).
route(harbor5,harbor15,tr2,1662,4986).
route(harbor5,harbor16,tr13,5788,34728).
route(harbor5,harbor16,tr2,5788,17364).
route(harbor5,prodloc0,tr0,19981,519506).
route(harbor5,prodloc0,tr13,19981,119886).
route(harbor5,prodloc1,tr0,20862,542412).
route(harbor5,prodloc1,tr13,20862,125172).
route(harbor5,prodloc2,tr0,15105,392730).
route(harbor5,prodloc2,tr13,15105,90630).
route(harbor5,prodloc3,tr0,4364,113464).
route(harbor5,prodloc3,tr13,4364,26184).
route(harbor5,prodloc4,tr0,28084,730184).
route(harbor5,prodloc4,tr13,28084,168504).
route(harbor5,prodloc5,tr0,26866,698516).
route(harbor5,prodloc5,tr13,26866,161196).
route(harbor5,prodloc6,tr0,9012,234312).
route(harbor5,prodloc6,tr13,9012,54072).
route(harbor5,prodloc7,tr0,15581,405106).
route(harbor5,prodloc7,tr13,15581,93486).
route(harbor5,prodloc8,tr0,9992,259792).
route(harbor5,prodloc8,tr13,9992,59952).
route(harbor5,prodloc9,tr0,17492,454792).
route(harbor5,prodloc9,tr13,17492,104952).
route(harbor5,prodloc10,tr0,1563,40638).
route(harbor5,prodloc10,tr13,1563,9378).
route(harbor5,prodloc11,tr0,5053,131378).
route(harbor5,prodloc11,tr13,5053,30318).
route(harbor5,prodloc12,tr0,1824,47424).
route(harbor5,prodloc12,tr13,1824,10944).
route(harbor5,prodloc13,tr0,17074,443924).
route(harbor5,prodloc13,tr13,17074,102444).
route(harbor5,prodloc14,tr0,1000,26000).
route(harbor5,prodloc14,tr13,1000,6000).
route(harbor5,prodloc15,tr0,22366,581516).
route(harbor5,prodloc15,tr13,22366,134196).
route(harbor5,prodloc16,tr0,10053,261378).
route(harbor5,prodloc16,tr13,10053,60318).
route(harbor5,prodloc17,tr0,15931,414206).
route(harbor5,prodloc17,tr13,15931,95586).
route(harbor5,prodloc18,tr0,11962,311012).
route(harbor5,prodloc18,tr13,11962,71772).
route(harbor5,prodloc19,tr0,20814,541164).
route(harbor5,prodloc19,tr13,20814,124884).
route(harbor5,prodloc20,tr0,9695,252070).
route(harbor5,prodloc20,tr13,9695,58170).
route(harbor5,prodloc21,tr0,12093,314418).
route(harbor5,prodloc21,tr13,12093,72558).
route(harbor5,prodloc22,tr0,21983,571558).
route(harbor5,prodloc22,tr13,21983,131898).
route(harbor5,prodloc23,tr0,24226,629876).
route(harbor5,prodloc23,tr13,24226,145356).
route(harbor5,prodloc24,tr0,5718,148668).
route(harbor5,prodloc24,tr13,5718,34308).
route(harbor5,prodloc25,tr0,4307,111982).
route(harbor5,prodloc25,tr13,4307,25842).
route(harbor5,prodloc26,tr0,26142,679692).
route(harbor5,prodloc26,tr13,26142,156852).
route(harbor5,prodloc27,tr0,779,20254).
route(harbor5,prodloc27,tr13,779,4674).
route(harbor5,prodloc28,tr0,6862,178412).
route(harbor5,prodloc28,tr13,6862,41172).
route(harbor5,prodloc29,tr0,16620,432120).
route(harbor5,prodloc29,tr13,16620,99720).
route(harbor5,prodloc30,tr0,25227,655902).
route(harbor5,prodloc30,tr13,25227,151362).
route(harbor5,prodloc31,tr0,2180,56680).
route(harbor5,prodloc31,tr13,2180,13080).
route(harbor5,prodloc32,tr0,4319,112294).
route(harbor5,prodloc32,tr13,4319,25914).
route(harbor5,prodloc33,tr0,28706,746356).
route(harbor5,prodloc33,tr13,28706,172236).
route(harbor6,harbor0,tr13,19313,115878).
route(harbor6,harbor0,tr2,19313,57939).
route(harbor6,harbor1,tr13,7504,45024).
route(harbor6,harbor1,tr2,7504,22512).
route(harbor6,harbor2,tr13,28339,170034).
route(harbor6,harbor2,tr2,28339,85017).
route(harbor6,harbor3,tr13,10164,60984).
route(harbor6,harbor3,tr2,10164,30492).
route(harbor6,harbor4,tr13,27846,167076).
route(harbor6,harbor4,tr2,27846,83538).
route(harbor6,harbor5,tr13,13228,79368).
route(harbor6,harbor5,tr2,13228,39684).
route(harbor6,harbor7,tr13,19394,116364).
route(harbor6,harbor7,tr2,19394,58182).
route(harbor6,harbor8,tr13,15628,93768).
route(harbor6,harbor8,tr2,15628,46884).
route(harbor6,harbor9,tr13,27010,162060).
route(harbor6,harbor9,tr2,27010,81030).
route(harbor6,harbor10,tr13,19856,119136).
route(harbor6,harbor10,tr2,19856,59568).
route(harbor6,harbor11,tr13,26646,159876).
route(harbor6,harbor11,tr2,26646,79938).
route(harbor6,harbor12,tr13,11508,69048).
route(harbor6,harbor12,tr2,11508,34524).
route(harbor6,harbor13,tr13,5845,35070).
route(harbor6,harbor13,tr2,5845,17535).
route(harbor6,harbor14,tr13,11545,69270).
route(harbor6,harbor14,tr2,11545,34635).
route(harbor6,harbor15,tr13,8109,48654).
route(harbor6,harbor15,tr2,8109,24327).
route(harbor6,harbor16,tr13,27996,167976).
route(harbor6,harbor16,tr2,27996,83988).
route(harbor6,prodloc0,tr0,28286,735436).
route(harbor6,prodloc0,tr13,28286,169716).
route(harbor6,prodloc1,tr0,18208,473408).
route(harbor6,prodloc1,tr13,18208,109248).
route(harbor6,prodloc2,tr0,20807,540982).
route(harbor6,prodloc2,tr13,20807,124842).
route(harbor6,prodloc3,tr0,11551,300326).
route(harbor6,prodloc3,tr13,11551,69306).
route(harbor6,prodloc4,tr0,10989,285714).
route(harbor6,prodloc4,tr13,10989,65934).
route(harbor6,prodloc5,tr0,26808,697008).
route(harbor6,prodloc5,tr13,26808,160848).
route(harbor6,prodloc6,tr0,17103,444678).
route(harbor6,prodloc6,tr13,17103,102618).
route(harbor6,prodloc7,tr0,14164,368264).
route(harbor6,prodloc7,tr13,14164,84984).
route(harbor6,prodloc8,tr0,3619,94094).
route(harbor6,prodloc8,tr13,3619,21714).
route(harbor6,prodloc9,tr0,500,13000).
route(harbor6,prodloc9,tr13,500,3000).
route(harbor6,prodloc10,tr0,1317,34242).
route(harbor6,prodloc10,tr13,1317,7902).
route(harbor6,prodloc11,tr0,10006,260156).
route(harbor6,prodloc11,tr13,10006,60036).
route(harbor6,prodloc12,tr0,28536,741936).
route(harbor6,prodloc12,tr13,28536,171216).
route(harbor6,prodloc13,tr0,8926,232076).
route(harbor6,prodloc13,tr13,8926,53556).
route(harbor6,prodloc14,tr0,5633,146458).
route(harbor6,prodloc14,tr13,5633,33798).
route(harbor6,prodloc15,tr0,9849,256074).
route(harbor6,prodloc15,tr13,9849,59094).
route(harbor6,prodloc16,tr0,6513,169338).
route(harbor6,prodloc16,tr13,6513,39078).
route(harbor6,prodloc17,tr0,26466,688116).
route(harbor6,prodloc17,tr13,26466,158796).
route(harbor6,prodloc18,tr0,25965,675090).
route(harbor6,prodloc18,tr13,25965,155790).
route(harbor6,prodloc19,tr0,6539,170014).
route(harbor6,prodloc19,tr13,6539,39234).
route(harbor6,prodloc20,tr0,3748,97448).
route(harbor6,prodloc20,tr13,3748,22488).
route(harbor6,prodloc21,tr0,16784,436384).
route(harbor6,prodloc21,tr13,16784,100704).
route(harbor6,prodloc22,tr0,27836,723736).
route(harbor6,prodloc22,tr13,27836,167016).
route(harbor6,prodloc23,tr0,24212,629512).
route(harbor6,prodloc23,tr13,24212,145272).
route(harbor6,prodloc24,tr0,7415,192790).
route(harbor6,prodloc24,tr13,7415,44490).
route(harbor6,prodloc25,tr0,12712,330512).
route(harbor6,prodloc25,tr13,12712,76272).
route(harbor6,prodloc26,tr0,9219,239694).
route(harbor6,prodloc26,tr13,9219,55314).
route(harbor6,prodloc27,tr0,19478,506428).
route(harbor6,prodloc27,tr13,19478,116868).
route(harbor6,prodloc28,tr0,14474,376324).
route(harbor6,prodloc28,tr13,14474,86844).
route(harbor6,prodloc29,tr0,3675,95550).
route(harbor6,prodloc29,tr13,3675,22050).
route(harbor6,prodloc30,tr0,12649,328874).
route(harbor6,prodloc30,tr13,12649,75894).
route(harbor6,prodloc31,tr0,25396,660296).
route(harbor6,prodloc31,tr13,25396,152376).
route(harbor6,prodloc32,tr0,3698,96148).
route(harbor6,prodloc32,tr13,3698,22188).
route(harbor6,prodloc33,tr0,14369,373594).
route(harbor6,prodloc33,tr13,14369,86214).
route(harbor7,harbor0,tr13,25270,151620).
route(harbor7,harbor0,tr2,25270,75810).
route(harbor7,harbor1,tr13,19812,118872).
route(harbor7,harbor1,tr2,19812,59436).
route(harbor7,harbor2,tr13,25066,150396).
route(harbor7,harbor2,tr2,25066,75198).
route(harbor7,harbor3,tr13,26583,159498).
route(harbor7,harbor3,tr2,26583,79749).
route(harbor7,harbor4,tr13,2546,15276).
route(harbor7,harbor4,tr2,2546,7638).
route(harbor7,harbor5,tr13,23123,138738).
route(harbor7,harbor5,tr2,23123,69369).
route(harbor7,harbor6,tr13,26982,161892).
route(harbor7,harbor6,tr2,26982,80946).
route(harbor7,harbor8,tr13,17898,107388).
route(harbor7,harbor8,tr2,17898,53694).
route(harbor7,harbor9,tr13,26927,161562).
route(harbor7,harbor9,tr2,26927,80781).
route(harbor7,harbor10,tr13,7951,47706).
route(harbor7,harbor10,tr2,7951,23853).
route(harbor7,harbor11,tr13,1971,11826).
route(harbor7,harbor11,tr2,1971,5913).
route(harbor7,harbor12,tr13,19405,116430).
route(harbor7,harbor12,tr2,19405,58215).
route(harbor7,harbor13,tr13,17834,107004).
route(harbor7,harbor13,tr2,17834,53502).
route(harbor7,harbor14,tr13,6764,40584).
route(harbor7,harbor14,tr2,6764,20292).
route(harbor7,harbor15,tr13,17803,106818).
route(harbor7,harbor15,tr2,17803,53409).
route(harbor7,harbor16,tr13,17676,106056).
route(harbor7,harbor16,tr2,17676,53028).
route(harbor7,prodloc0,tr0,24638,640588).
route(harbor7,prodloc0,tr13,24638,147828).
route(harbor7,prodloc1,tr0,19269,500994).
route(harbor7,prodloc1,tr13,19269,115614).
route(harbor7,prodloc2,tr0,12350,321100).
route(harbor7,prodloc2,tr13,12350,74100).
route(harbor7,prodloc3,tr0,6386,166036).
route(harbor7,prodloc3,tr13,6386,38316).
route(harbor7,prodloc4,tr0,17466,454116).
route(harbor7,prodloc4,tr13,17466,104796).
route(harbor7,prodloc5,tr0,2643,68718).
route(harbor7,prodloc5,tr13,2643,15858).
route(harbor7,prodloc6,tr0,4308,112008).
route(harbor7,prodloc6,tr13,4308,25848).
route(harbor7,prodloc7,tr0,11917,309842).
route(harbor7,prodloc7,tr13,11917,71502).
route(harbor7,prodloc8,tr0,28285,735410).
route(harbor7,prodloc8,tr13,28285,169710).
route(harbor7,prodloc9,tr0,20527,533702).
route(harbor7,prodloc9,tr13,20527,123162).
route(harbor7,prodloc10,tr0,15631,406406).
route(harbor7,prodloc10,tr13,15631,93786).
route(harbor7,prodloc11,tr0,27212,707512).
route(harbor7,prodloc11,tr13,27212,163272).
route(harbor7,prodloc12,tr0,3898,101348).
route(harbor7,prodloc12,tr13,3898,23388).
route(harbor7,prodloc13,tr0,2646,68796).
route(harbor7,prodloc13,tr13,2646,15876).
route(harbor7,prodloc14,tr0,25237,656162).
route(harbor7,prodloc14,tr13,25237,151422).
route(harbor7,prodloc15,tr0,24425,635050).
route(harbor7,prodloc15,tr13,24425,146550).
route(harbor7,prodloc16,tr0,2965,77090).
route(harbor7,prodloc16,tr13,2965,17790).
route(harbor7,prodloc17,tr0,28575,742950).
route(harbor7,prodloc17,tr13,28575,171450).
route(harbor7,prodloc18,tr0,18237,474162).
route(harbor7,prodloc18,tr13,18237,109422).
route(harbor7,prodloc19,tr0,19066,495716).
route(harbor7,prodloc19,tr13,19066,114396).
route(harbor7,prodloc20,tr0,7563,196638).
route(harbor7,prodloc20,tr13,7563,45378).
route(harbor7,prodloc21,tr0,7403,192478).
route(harbor7,prodloc21,tr13,7403,44418).
route(harbor7,prodloc22,tr0,3482,90532).
route(harbor7,prodloc22,tr13,3482,20892).
route(harbor7,prodloc23,tr0,4378,113828).
route(harbor7,prodloc23,tr13,4378,26268).
route(harbor7,prodloc24,tr0,15500,403000).
route(harbor7,prodloc24,tr13,15500,93000).
route(harbor7,prodloc25,tr0,18198,473148).
route(harbor7,prodloc25,tr13,18198,109188).
route(harbor7,prodloc26,tr0,15431,401206).
route(harbor7,prodloc26,tr13,15431,92586).
route(harbor7,prodloc27,tr0,10388,270088).
route(harbor7,prodloc27,tr13,10388,62328).
route(harbor7,prodloc28,tr0,12647,328822).
route(harbor7,prodloc28,tr13,12647,75882).
route(harbor7,prodloc29,tr0,16760,435760).
route(harbor7,prodloc29,tr13,16760,100560).
route(harbor7,prodloc30,tr0,2117,55042).
route(harbor7,prodloc30,tr13,2117,12702).
route(harbor7,prodloc31,tr0,21076,547976).
route(harbor7,prodloc31,tr13,21076,126456).
route(harbor7,prodloc32,tr0,21828,567528).
route(harbor7,prodloc32,tr13,21828,130968).
route(harbor7,prodloc33,tr0,28787,748462).
route(harbor7,prodloc33,tr13,28787,172722).
route(harbor8,harbor0,tr13,11858,71148).
route(harbor8,harbor0,tr2,11858,35574).
route(harbor8,harbor1,tr13,4028,24168).
route(harbor8,harbor1,tr2,4028,12084).
route(harbor8,harbor2,tr13,16588,99528).
route(harbor8,harbor2,tr2,16588,49764).
route(harbor8,harbor3,tr13,11130,66780).
route(harbor8,harbor3,tr2,11130,33390).
route(harbor8,harbor4,tr13,27817,166902).
route(harbor8,harbor4,tr2,27817,83451).
route(harbor8,harbor5,tr13,8981,53886).
route(harbor8,harbor5,tr2,8981,26943).
route(harbor8,harbor6,tr13,5445,32670).
route(harbor8,harbor6,tr2,5445,16335).
route(harbor8,harbor7,tr13,14931,89586).
route(harbor8,harbor7,tr2,14931,44793).
route(harbor8,harbor9,tr13,15886,95316).
route(harbor8,harbor9,tr2,15886,47658).
route(harbor8,harbor10,tr13,23550,141300).
route(harbor8,harbor10,tr2,23550,70650).
route(harbor8,harbor11,tr13,25570,153420).
route(harbor8,harbor11,tr2,25570,76710).
route(harbor8,harbor12,tr13,3267,19602).
route(harbor8,harbor12,tr2,3267,9801).
route(harbor8,harbor13,tr13,20757,124542).
route(harbor8,harbor13,tr2,20757,62271).
route(harbor8,harbor14,tr13,11645,69870).
route(harbor8,harbor14,tr2,11645,34935).
route(harbor8,harbor15,tr13,1328,7968).
route(harbor8,harbor15,tr2,1328,3984).
route(harbor8,harbor16,tr13,17583,105498).
route(harbor8,harbor16,tr2,17583,52749).
route(harbor8,prodloc0,tr0,14792,384592).
route(harbor8,prodloc0,tr13,14792,88752).
route(harbor8,prodloc1,tr0,10423,270998).
route(harbor8,prodloc1,tr13,10423,62538).
route(harbor8,prodloc2,tr0,489,12714).
route(harbor8,prodloc2,tr13,489,2934).
route(harbor8,prodloc3,tr0,24615,639990).
route(harbor8,prodloc3,tr13,24615,147690).
route(harbor8,prodloc4,tr0,2034,52884).
route(harbor8,prodloc4,tr13,2034,12204).
route(harbor8,prodloc5,tr0,17533,455858).
route(harbor8,prodloc5,tr13,17533,105198).
route(harbor8,prodloc6,tr0,12334,320684).
route(harbor8,prodloc6,tr13,12334,74004).
route(harbor8,prodloc7,tr0,6648,172848).
route(harbor8,prodloc7,tr13,6648,39888).
route(harbor8,prodloc8,tr0,7997,207922).
route(harbor8,prodloc8,tr13,7997,47982).
route(harbor8,prodloc9,tr0,17702,460252).
route(harbor8,prodloc9,tr13,17702,106212).
route(harbor8,prodloc10,tr0,3410,88660).
route(harbor8,prodloc10,tr13,3410,20460).
route(harbor8,prodloc11,tr0,11582,301132).
route(harbor8,prodloc11,tr13,11582,69492).
route(harbor8,prodloc12,tr0,16768,435968).
route(harbor8,prodloc12,tr13,16768,100608).
route(harbor8,prodloc13,tr0,23027,598702).
route(harbor8,prodloc13,tr13,23027,138162).
route(harbor8,prodloc14,tr0,25639,666614).
route(harbor8,prodloc14,tr13,25639,153834).
route(harbor8,prodloc15,tr0,5424,141024).
route(harbor8,prodloc15,tr13,5424,32544).
route(harbor8,prodloc16,tr0,9217,239642).
route(harbor8,prodloc16,tr13,9217,55302).
route(harbor8,prodloc17,tr0,13963,363038).
route(harbor8,prodloc17,tr13,13963,83778).
route(harbor8,prodloc18,tr0,1635,42510).
route(harbor8,prodloc18,tr13,1635,9810).
route(harbor8,prodloc19,tr0,5847,152022).
route(harbor8,prodloc19,tr13,5847,35082).
route(harbor8,prodloc20,tr0,24654,641004).
route(harbor8,prodloc20,tr13,24654,147924).
route(harbor8,prodloc21,tr0,2185,56810).
route(harbor8,prodloc21,tr13,2185,13110).
route(harbor8,prodloc22,tr0,13872,360672).
route(harbor8,prodloc22,tr13,13872,83232).
route(harbor8,prodloc23,tr0,20547,534222).
route(harbor8,prodloc23,tr13,20547,123282).
route(harbor8,prodloc24,tr0,11241,292266).
route(harbor8,prodloc24,tr13,11241,67446).
route(harbor8,prodloc25,tr0,15780,410280).
route(harbor8,prodloc25,tr13,15780,94680).
route(harbor8,prodloc26,tr0,27008,702208).
route(harbor8,prodloc26,tr13,27008,162048).
route(harbor8,prodloc27,tr0,6207,161382).
route(harbor8,prodloc27,tr13,6207,37242).
route(harbor8,prodloc28,tr0,18289,475514).
route(harbor8,prodloc28,tr13,18289,109734).
route(harbor8,prodloc29,tr0,28824,749424).
route(harbor8,prodloc29,tr13,28824,172944).
route(harbor8,prodloc30,tr0,28900,751400).
route(harbor8,prodloc30,tr13,28900,173400).
route(harbor8,prodloc31,tr0,22978,597428).
route(harbor8,prodloc31,tr13,22978,137868).
route(harbor8,prodloc32,tr0,14275,371150).
route(harbor8,prodloc32,tr13,14275,85650).
route(harbor8,prodloc33,tr0,5020,130520).
route(harbor8,prodloc33,tr13,5020,30120).
route(harbor9,harbor0,tr13,25101,150606).
route(harbor9,harbor0,tr2,25101,75303).
route(harbor9,harbor1,tr13,18323,109938).
route(harbor9,harbor1,tr2,18323,54969).
route(harbor9,harbor2,tr13,17777,106662).
route(harbor9,harbor2,tr2,17777,53331).
route(harbor9,harbor3,tr13,24777,148662).
route(harbor9,harbor3,tr2,24777,74331).
route(harbor9,harbor4,tr13,22856,137136).
route(harbor9,harbor4,tr2,22856,68568).
route(harbor9,harbor5,tr13,13850,83100).
route(harbor9,harbor5,tr2,13850,41550).
route(harbor9,harbor6,tr13,9891,59346).
route(harbor9,harbor6,tr2,9891,29673).
route(harbor9,harbor7,tr13,23452,140712).
route(harbor9,harbor7,tr2,23452,70356).
route(harbor9,harbor8,tr13,8029,48174).
route(harbor9,harbor8,tr2,8029,24087).
route(harbor9,harbor10,tr13,26433,158598).
route(harbor9,harbor10,tr2,26433,79299).
route(harbor9,harbor11,tr13,9751,58506).
route(harbor9,harbor11,tr2,9751,29253).
route(harbor9,harbor12,tr13,7125,42750).
route(harbor9,harbor12,tr2,7125,21375).
route(harbor9,harbor13,tr13,5600,33600).
route(harbor9,harbor13,tr2,5600,16800).
route(harbor9,harbor14,tr13,22847,137082).
route(harbor9,harbor14,tr2,22847,68541).
route(harbor9,harbor15,tr13,21451,128706).
route(harbor9,harbor15,tr2,21451,64353).
route(harbor9,harbor16,tr13,3941,23646).
route(harbor9,harbor16,tr2,3941,11823).
route(harbor9,prodloc0,tr0,8340,216840).
route(harbor9,prodloc0,tr13,8340,50040).
route(harbor9,prodloc1,tr0,7954,206804).
route(harbor9,prodloc1,tr13,7954,47724).
route(harbor9,prodloc2,tr0,16771,436046).
route(harbor9,prodloc2,tr13,16771,100626).
route(harbor9,prodloc3,tr0,20760,539760).
route(harbor9,prodloc3,tr13,20760,124560).
route(harbor9,prodloc4,tr0,1960,50960).
route(harbor9,prodloc4,tr13,1960,11760).
route(harbor9,prodloc5,tr0,6706,174356).
route(harbor9,prodloc5,tr13,6706,40236).
route(harbor9,prodloc6,tr0,4703,122278).
route(harbor9,prodloc6,tr13,4703,28218).
route(harbor9,prodloc7,tr0,7003,182078).
route(harbor9,prodloc7,tr13,7003,42018).
route(harbor9,prodloc8,tr0,12868,334568).
route(harbor9,prodloc8,tr13,12868,77208).
route(harbor9,prodloc9,tr0,8291,215566).
route(harbor9,prodloc9,tr13,8291,49746).
route(harbor9,prodloc10,tr0,3696,96096).
route(harbor9,prodloc10,tr13,3696,22176).
route(harbor9,prodloc11,tr0,7673,199498).
route(harbor9,prodloc11,tr13,7673,46038).
route(harbor9,prodloc12,tr0,7498,194948).
route(harbor9,prodloc12,tr13,7498,44988).
route(harbor9,prodloc13,tr0,337,8762).
route(harbor9,prodloc13,tr13,337,2022).
route(harbor9,prodloc14,tr0,6449,167674).
route(harbor9,prodloc14,tr13,6449,38694).
route(harbor9,prodloc15,tr0,24250,630500).
route(harbor9,prodloc15,tr13,24250,145500).
route(harbor9,prodloc16,tr0,22060,573560).
route(harbor9,prodloc16,tr13,22060,132360).
route(harbor9,prodloc17,tr0,21602,561652).
route(harbor9,prodloc17,tr13,21602,129612).
route(harbor9,prodloc18,tr0,25331,658606).
route(harbor9,prodloc18,tr13,25331,151986).
route(harbor9,prodloc19,tr0,10165,264290).
route(harbor9,prodloc19,tr13,10165,60990).
route(harbor9,prodloc20,tr0,1132,29432).
route(harbor9,prodloc20,tr13,1132,6792).
route(harbor9,prodloc21,tr0,9039,235014).
route(harbor9,prodloc21,tr13,9039,54234).
route(harbor9,prodloc22,tr0,18330,476580).
route(harbor9,prodloc22,tr13,18330,109980).
route(harbor9,prodloc23,tr0,7899,205374).
route(harbor9,prodloc23,tr13,7899,47394).
route(harbor9,prodloc24,tr0,7211,187486).
route(harbor9,prodloc24,tr13,7211,43266).
route(harbor9,prodloc25,tr0,10926,284076).
route(harbor9,prodloc25,tr13,10926,65556).
route(harbor9,prodloc26,tr0,4423,114998).
route(harbor9,prodloc26,tr13,4423,26538).
route(harbor9,prodloc27,tr0,7528,195728).
route(harbor9,prodloc27,tr13,7528,45168).
route(harbor9,prodloc28,tr0,1703,44278).
route(harbor9,prodloc28,tr13,1703,10218).
route(harbor9,prodloc29,tr0,26529,689754).
route(harbor9,prodloc29,tr13,26529,159174).
route(harbor9,prodloc30,tr0,9032,234832).
route(harbor9,prodloc30,tr13,9032,54192).
route(harbor9,prodloc31,tr0,26758,695708).
route(harbor9,prodloc31,tr13,26758,160548).
route(harbor9,prodloc32,tr0,5924,154024).
route(harbor9,prodloc32,tr13,5924,35544).
route(harbor9,prodloc33,tr0,97,2522).
route(harbor9,prodloc33,tr13,97,582).
route(harbor10,harbor0,tr13,18033,108198).
route(harbor10,harbor0,tr2,18033,54099).
route(harbor10,harbor1,tr13,27786,166716).
route(harbor10,harbor1,tr2,27786,83358).
route(harbor10,harbor2,tr13,26875,161250).
route(harbor10,harbor2,tr2,26875,80625).
route(harbor10,harbor3,tr13,13814,82884).
route(harbor10,harbor3,tr2,13814,41442).
route(harbor10,harbor4,tr13,20830,124980).
route(harbor10,harbor4,tr2,20830,62490).
route(harbor10,harbor5,tr13,16486,98916).
route(harbor10,harbor5,tr2,16486,49458).
route(harbor10,harbor6,tr13,8993,53958).
route(harbor10,harbor6,tr2,8993,26979).
route(harbor10,harbor7,tr13,16014,96084).
route(harbor10,harbor7,tr2,16014,48042).
route(harbor10,harbor8,tr13,14828,88968).
route(harbor10,harbor8,tr2,14828,44484).
route(harbor10,harbor9,tr13,25164,150984).
route(harbor10,harbor9,tr2,25164,75492).
route(harbor10,harbor11,tr13,7948,47688).
route(harbor10,harbor11,tr2,7948,23844).
route(harbor10,harbor12,tr13,24480,146880).
route(harbor10,harbor12,tr2,24480,73440).
route(harbor10,harbor13,tr13,1651,9906).
route(harbor10,harbor13,tr2,1651,4953).
route(harbor10,harbor14,tr13,16242,97452).
route(harbor10,harbor14,tr2,16242,48726).
route(harbor10,harbor15,tr13,29045,174270).
route(harbor10,harbor15,tr2,29045,87135).
route(harbor10,harbor16,tr13,4979,29874).
route(harbor10,harbor16,tr2,4979,14937).
route(harbor10,prodloc0,tr0,14908,387608).
route(harbor10,prodloc0,tr13,14908,89448).
route(harbor10,prodloc1,tr0,6882,178932).
route(harbor10,prodloc1,tr13,6882,41292).
route(harbor10,prodloc2,tr0,23305,605930).
route(harbor10,prodloc2,tr13,23305,139830).
route(harbor10,prodloc3,tr0,23944,622544).
route(harbor10,prodloc3,tr13,23944,143664).
route(harbor10,prodloc4,tr0,21003,546078).
route(harbor10,prodloc4,tr13,21003,126018).
route(harbor10,prodloc5,tr0,8528,221728).
route(harbor10,prodloc5,tr13,8528,51168).
route(harbor10,prodloc6,tr0,6557,170482).
route(harbor10,prodloc6,tr13,6557,39342).
route(harbor10,prodloc7,tr0,16533,429858).
route(harbor10,prodloc7,tr13,16533,99198).
route(harbor10,prodloc8,tr0,19114,496964).
route(harbor10,prodloc8,tr13,19114,114684).
route(harbor10,prodloc9,tr0,21499,558974).
route(harbor10,prodloc9,tr13,21499,128994).
route(harbor10,prodloc10,tr0,10048,261248).
route(harbor10,prodloc10,tr13,10048,60288).
route(harbor10,prodloc11,tr0,4072,105872).
route(harbor10,prodloc11,tr13,4072,24432).
route(harbor10,prodloc12,tr0,16178,420628).
route(harbor10,prodloc12,tr13,16178,97068).
route(harbor10,prodloc13,tr0,20954,544804).
route(harbor10,prodloc13,tr13,20954,125724).
route(harbor10,prodloc14,tr0,13301,345826).
route(harbor10,prodloc14,tr13,13301,79806).
route(harbor10,prodloc15,tr0,936,24336).
route(harbor10,prodloc15,tr13,936,5616).
route(harbor10,prodloc16,tr0,15665,407290).
route(harbor10,prodloc16,tr13,15665,93990).
route(harbor10,prodloc17,tr0,17431,453206).
route(harbor10,prodloc17,tr13,17431,104586).
route(harbor10,prodloc18,tr0,10648,276848).
route(harbor10,prodloc18,tr13,10648,63888).
route(harbor10,prodloc19,tr0,13900,361400).
route(harbor10,prodloc19,tr13,13900,83400).
route(harbor10,prodloc20,tr0,10450,271700).
route(harbor10,prodloc20,tr13,10450,62700).
route(harbor10,prodloc21,tr0,9531,247806).
route(harbor10,prodloc21,tr13,9531,57186).
route(harbor10,prodloc22,tr0,17734,461084).
route(harbor10,prodloc22,tr13,17734,106404).
route(harbor10,prodloc23,tr0,10583,275158).
route(harbor10,prodloc23,tr13,10583,63498).
route(harbor10,prodloc24,tr0,27412,712712).
route(harbor10,prodloc24,tr13,27412,164472).
route(harbor10,prodloc25,tr0,17614,457964).
route(harbor10,prodloc25,tr13,17614,105684).
route(harbor10,prodloc26,tr0,2276,59176).
route(harbor10,prodloc26,tr13,2276,13656).
route(harbor10,prodloc27,tr0,26251,682526).
route(harbor10,prodloc27,tr13,26251,157506).
route(harbor10,prodloc28,tr0,21483,558558).
route(harbor10,prodloc28,tr13,21483,128898).
route(harbor10,prodloc29,tr0,473,12298).
route(harbor10,prodloc29,tr13,473,2838).
route(harbor10,prodloc30,tr0,11245,292370).
route(harbor10,prodloc30,tr13,11245,67470).
route(harbor10,prodloc31,tr0,2083,54158).
route(harbor10,prodloc31,tr13,2083,12498).
route(harbor10,prodloc32,tr0,8082,210132).
route(harbor10,prodloc32,tr13,8082,48492).
route(harbor10,prodloc33,tr0,5283,137358).
route(harbor10,prodloc33,tr13,5283,31698).
route(harbor11,harbor0,tr13,6217,37302).
route(harbor11,harbor0,tr2,6217,18651).
route(harbor11,harbor1,tr13,14412,86472).
route(harbor11,harbor1,tr2,14412,43236).
route(harbor11,harbor2,tr13,8267,49602).
route(harbor11,harbor2,tr2,8267,24801).
route(harbor11,harbor3,tr13,14587,87522).
route(harbor11,harbor3,tr2,14587,43761).
route(harbor11,harbor4,tr13,16250,97500).
route(harbor11,harbor4,tr2,16250,48750).
route(harbor11,harbor5,tr13,23310,139860).
route(harbor11,harbor5,tr2,23310,69930).
route(harbor11,harbor6,tr13,12711,76266).
route(harbor11,harbor6,tr2,12711,38133).
route(harbor11,harbor7,tr13,24970,149820).
route(harbor11,harbor7,tr2,24970,74910).
route(harbor11,harbor8,tr13,12629,75774).
route(harbor11,harbor8,tr2,12629,37887).
route(harbor11,harbor9,tr13,144,864).
route(harbor11,harbor9,tr2,144,432).
route(harbor11,harbor10,tr13,13113,78678).
route(harbor11,harbor10,tr2,13113,39339).
route(harbor11,harbor12,tr13,18729,112374).
route(harbor11,harbor12,tr2,18729,56187).
route(harbor11,harbor13,tr13,7786,46716).
route(harbor11,harbor13,tr2,7786,23358).
route(harbor11,harbor14,tr13,27941,167646).
route(harbor11,harbor14,tr2,27941,83823).
route(harbor11,harbor15,tr13,23096,138576).
route(harbor11,harbor15,tr2,23096,69288).
route(harbor11,harbor16,tr13,2566,15396).
route(harbor11,harbor16,tr2,2566,7698).
route(harbor11,prodloc0,tr0,9403,244478).
route(harbor11,prodloc0,tr13,9403,56418).
route(harbor11,prodloc1,tr0,3069,79794).
route(harbor11,prodloc1,tr13,3069,18414).
route(harbor11,prodloc2,tr0,16694,434044).
route(harbor11,prodloc2,tr13,16694,100164).
route(harbor11,prodloc3,tr0,19739,513214).
route(harbor11,prodloc3,tr13,19739,118434).
route(harbor11,prodloc4,tr0,18732,487032).
route(harbor11,prodloc4,tr13,18732,112392).
route(harbor11,prodloc5,tr0,6791,176566).
route(harbor11,prodloc5,tr13,6791,40746).
route(harbor11,prodloc6,tr0,25124,653224).
route(harbor11,prodloc6,tr13,25124,150744).
route(harbor11,prodloc7,tr0,21556,560456).
route(harbor11,prodloc7,tr13,21556,129336).
route(harbor11,prodloc8,tr0,24250,630500).
route(harbor11,prodloc8,tr13,24250,145500).
route(harbor11,prodloc9,tr0,17042,443092).
route(harbor11,prodloc9,tr13,17042,102252).
route(harbor11,prodloc10,tr0,15770,410020).
route(harbor11,prodloc10,tr13,15770,94620).
route(harbor11,prodloc11,tr0,26328,684528).
route(harbor11,prodloc11,tr13,26328,157968).
route(harbor11,prodloc12,tr0,13805,358930).
route(harbor11,prodloc12,tr13,13805,82830).
route(harbor11,prodloc13,tr0,23404,608504).
route(harbor11,prodloc13,tr13,23404,140424).
route(harbor11,prodloc14,tr0,26431,687206).
route(harbor11,prodloc14,tr13,26431,158586).
route(harbor11,prodloc15,tr0,14889,387114).
route(harbor11,prodloc15,tr13,14889,89334).
route(harbor11,prodloc16,tr0,10829,281554).
route(harbor11,prodloc16,tr13,10829,64974).
route(harbor11,prodloc17,tr0,11795,306670).
route(harbor11,prodloc17,tr13,11795,70770).
route(harbor11,prodloc18,tr0,12535,325910).
route(harbor11,prodloc18,tr13,12535,75210).
route(harbor11,prodloc19,tr0,28191,732966).
route(harbor11,prodloc19,tr13,28191,169146).
route(harbor11,prodloc20,tr0,18594,483444).
route(harbor11,prodloc20,tr13,18594,111564).
route(harbor11,prodloc21,tr0,15521,403546).
route(harbor11,prodloc21,tr13,15521,93126).
route(harbor11,prodloc22,tr0,23131,601406).
route(harbor11,prodloc22,tr13,23131,138786).
route(harbor11,prodloc23,tr0,24516,637416).
route(harbor11,prodloc23,tr13,24516,147096).
route(harbor11,prodloc24,tr0,8695,226070).
route(harbor11,prodloc24,tr13,8695,52170).
route(harbor11,prodloc25,tr0,12702,330252).
route(harbor11,prodloc25,tr13,12702,76212).
route(harbor11,prodloc26,tr0,9198,239148).
route(harbor11,prodloc26,tr13,9198,55188).
route(harbor11,prodloc27,tr0,11974,311324).
route(harbor11,prodloc27,tr13,11974,71844).
route(harbor11,prodloc28,tr0,6070,157820).
route(harbor11,prodloc28,tr13,6070,36420).
route(harbor11,prodloc29,tr0,591,15366).
route(harbor11,prodloc29,tr13,591,3546).
route(harbor11,prodloc30,tr0,4158,108108).
route(harbor11,prodloc30,tr13,4158,24948).
route(harbor11,prodloc31,tr0,23928,622128).
route(harbor11,prodloc31,tr13,23928,143568).
route(harbor11,prodloc32,tr0,9498,246948).
route(harbor11,prodloc32,tr13,9498,56988).
route(harbor11,prodloc33,tr0,3995,103870).
route(harbor11,prodloc33,tr13,3995,23970).
route(harbor12,harbor0,tr13,16218,97308).
route(harbor12,harbor0,tr2,16218,48654).
route(harbor12,harbor1,tr13,26749,160494).
route(harbor12,harbor1,tr2,26749,80247).
route(harbor12,harbor2,tr13,23811,142866).
route(harbor12,harbor2,tr2,23811,71433).
route(harbor12,harbor3,tr13,27290,163740).
route(harbor12,harbor3,tr2,27290,81870).
route(harbor12,harbor4,tr13,21300,127800).
route(harbor12,harbor4,tr2,21300,63900).
route(harbor12,harbor5,tr13,15979,95874).
route(harbor12,harbor5,tr2,15979,47937).
route(harbor12,harbor6,tr13,21771,130626).
route(harbor12,harbor6,tr2,21771,65313).
route(harbor12,harbor7,tr13,1835,11010).
route(harbor12,harbor7,tr2,1835,5505).
route(harbor12,harbor8,tr13,7660,45960).
route(harbor12,harbor8,tr2,7660,22980).
route(harbor12,harbor9,tr13,15462,92772).
route(harbor12,harbor9,tr2,15462,46386).
route(harbor12,harbor10,tr13,770,4620).
route(harbor12,harbor10,tr2,770,2310).
route(harbor12,harbor11,tr13,1812,10872).
route(harbor12,harbor11,tr2,1812,5436).
route(harbor12,harbor13,tr13,4563,27378).
route(harbor12,harbor13,tr2,4563,13689).
route(harbor12,harbor14,tr13,13547,81282).
route(harbor12,harbor14,tr2,13547,40641).
route(harbor12,harbor15,tr13,21027,126162).
route(harbor12,harbor15,tr2,21027,63081).
route(harbor12,harbor16,tr13,24896,149376).
route(harbor12,harbor16,tr2,24896,74688).
route(harbor12,prodloc0,tr0,27703,720278).
route(harbor12,prodloc0,tr13,27703,166218).
route(harbor12,prodloc1,tr0,5725,148850).
route(harbor12,prodloc1,tr13,5725,34350).
route(harbor12,prodloc2,tr0,19487,506662).
route(harbor12,prodloc2,tr13,19487,116922).
route(harbor12,prodloc3,tr0,6564,170664).
route(harbor12,prodloc3,tr13,6564,39384).
route(harbor12,prodloc4,tr0,28457,739882).
route(harbor12,prodloc4,tr13,28457,170742).
route(harbor12,prodloc5,tr0,22671,589446).
route(harbor12,prodloc5,tr13,22671,136026).
route(harbor12,prodloc6,tr0,5804,150904).
route(harbor12,prodloc6,tr13,5804,34824).
route(harbor12,prodloc7,tr0,12614,327964).
route(harbor12,prodloc7,tr13,12614,75684).
route(harbor12,prodloc8,tr0,1290,33540).
route(harbor12,prodloc8,tr13,1290,7740).
route(harbor12,prodloc9,tr0,6892,179192).
route(harbor12,prodloc9,tr13,6892,41352).
route(harbor12,prodloc10,tr0,9726,252876).
route(harbor12,prodloc10,tr13,9726,58356).
route(harbor12,prodloc11,tr0,4193,109018).
route(harbor12,prodloc11,tr13,4193,25158).
route(harbor12,prodloc12,tr0,27356,711256).
route(harbor12,prodloc12,tr13,27356,164136).
route(harbor12,prodloc13,tr0,1305,33930).
route(harbor12,prodloc13,tr13,1305,7830).
route(harbor12,prodloc14,tr0,10752,279552).
route(harbor12,prodloc14,tr13,10752,64512).
route(harbor12,prodloc15,tr0,10664,277264).
route(harbor12,prodloc15,tr13,10664,63984).
route(harbor12,prodloc16,tr0,2101,54626).
route(harbor12,prodloc16,tr13,2101,12606).
route(harbor12,prodloc17,tr0,16651,432926).
route(harbor12,prodloc17,tr13,16651,99906).
route(harbor12,prodloc18,tr0,6749,175474).
route(harbor12,prodloc18,tr13,6749,40494).
route(harbor12,prodloc19,tr0,28552,742352).
route(harbor12,prodloc19,tr13,28552,171312).
route(harbor12,prodloc20,tr0,604,15704).
route(harbor12,prodloc20,tr13,604,3624).
route(harbor12,prodloc21,tr0,3499,90974).
route(harbor12,prodloc21,tr13,3499,20994).
route(harbor12,prodloc22,tr0,23809,619034).
route(harbor12,prodloc22,tr13,23809,142854).
route(harbor12,prodloc23,tr0,2801,72826).
route(harbor12,prodloc23,tr13,2801,16806).
route(harbor12,prodloc24,tr0,18267,474942).
route(harbor12,prodloc24,tr13,18267,109602).
route(harbor12,prodloc25,tr0,25274,657124).
route(harbor12,prodloc25,tr13,25274,151644).
route(harbor12,prodloc26,tr0,400,10400).
route(harbor12,prodloc26,tr13,400,2400).
route(harbor12,prodloc27,tr0,24828,645528).
route(harbor12,prodloc27,tr13,24828,148968).
route(harbor12,prodloc28,tr0,7296,189696).
route(harbor12,prodloc28,tr13,7296,43776).
route(harbor12,prodloc29,tr0,18386,478036).
route(harbor12,prodloc29,tr13,18386,110316).
route(harbor12,prodloc30,tr0,13383,347958).
route(harbor12,prodloc30,tr13,13383,80298).
route(harbor12,prodloc31,tr0,4870,126620).
route(harbor12,prodloc31,tr13,4870,29220).
route(harbor12,prodloc32,tr0,28847,750022).
route(harbor12,prodloc32,tr13,28847,173082).
route(harbor12,prodloc33,tr0,1687,43862).
route(harbor12,prodloc33,tr13,1687,10122).
route(harbor13,harbor0,tr13,11028,66168).
route(harbor13,harbor0,tr2,11028,33084).
route(harbor13,harbor1,tr13,10986,65916).
route(harbor13,harbor1,tr2,10986,32958).
route(harbor13,harbor2,tr13,18716,112296).
route(harbor13,harbor2,tr2,18716,56148).
route(harbor13,harbor3,tr13,19924,119544).
route(harbor13,harbor3,tr2,19924,59772).
route(harbor13,harbor4,tr13,26393,158358).
route(harbor13,harbor4,tr2,26393,79179).
route(harbor13,harbor5,tr13,13761,82566).
route(harbor13,harbor5,tr2,13761,41283).
route(harbor13,harbor6,tr13,20290,121740).
route(harbor13,harbor6,tr2,20290,60870).
route(harbor13,harbor7,tr13,13620,81720).
route(harbor13,harbor7,tr2,13620,40860).
route(harbor13,harbor8,tr13,27258,163548).
route(harbor13,harbor8,tr2,27258,81774).
route(harbor13,harbor9,tr13,20074,120444).
route(harbor13,harbor9,tr2,20074,60222).
route(harbor13,harbor10,tr13,565,3390).
route(harbor13,harbor10,tr2,565,1695).
route(harbor13,harbor11,tr13,20523,123138).
route(harbor13,harbor11,tr2,20523,61569).
route(harbor13,harbor12,tr13,17772,106632).
route(harbor13,harbor12,tr2,17772,53316).
route(harbor13,harbor14,tr13,15763,94578).
route(harbor13,harbor14,tr2,15763,47289).
route(harbor13,harbor15,tr13,715,4290).
route(harbor13,harbor15,tr2,715,2145).
route(harbor13,harbor16,tr13,27966,167796).
route(harbor13,harbor16,tr2,27966,83898).
route(harbor13,prodloc0,tr0,1719,44694).
route(harbor13,prodloc0,tr13,1719,10314).
route(harbor13,prodloc1,tr0,833,21658).
route(harbor13,prodloc1,tr13,833,4998).
route(harbor13,prodloc2,tr0,3102,80652).
route(harbor13,prodloc2,tr13,3102,18612).
route(harbor13,prodloc3,tr0,23360,607360).
route(harbor13,prodloc3,tr13,23360,140160).
route(harbor13,prodloc4,tr0,14062,365612).
route(harbor13,prodloc4,tr13,14062,84372).
route(harbor13,prodloc5,tr0,6303,163878).
route(harbor13,prodloc5,tr13,6303,37818).
route(harbor13,prodloc6,tr0,20347,529022).
route(harbor13,prodloc6,tr13,20347,122082).
route(harbor13,prodloc7,tr0,19545,508170).
route(harbor13,prodloc7,tr13,19545,117270).
route(harbor13,prodloc8,tr0,458,11908).
route(harbor13,prodloc8,tr13,458,2748).
route(harbor13,prodloc9,tr0,26398,686348).
route(harbor13,prodloc9,tr13,26398,158388).
route(harbor13,prodloc10,tr0,20970,545220).
route(harbor13,prodloc10,tr13,20970,125820).
route(harbor13,prodloc11,tr0,4116,107016).
route(harbor13,prodloc11,tr13,4116,24696).
route(harbor13,prodloc12,tr0,3370,87620).
route(harbor13,prodloc12,tr13,3370,20220).
route(harbor13,prodloc13,tr0,9858,256308).
route(harbor13,prodloc13,tr13,9858,59148).
route(harbor13,prodloc14,tr0,10601,275626).
route(harbor13,prodloc14,tr13,10601,63606).
route(harbor13,prodloc15,tr0,651,16926).
route(harbor13,prodloc15,tr13,651,3906).
route(harbor13,prodloc16,tr0,1376,35776).
route(harbor13,prodloc16,tr13,1376,8256).
route(harbor13,prodloc17,tr0,17829,463554).
route(harbor13,prodloc17,tr13,17829,106974).
route(harbor13,prodloc18,tr0,23824,619424).
route(harbor13,prodloc18,tr13,23824,142944).
route(harbor13,prodloc19,tr0,6298,163748).
route(harbor13,prodloc19,tr13,6298,37788).
route(harbor13,prodloc20,tr0,27240,708240).
route(harbor13,prodloc20,tr13,27240,163440).
route(harbor13,prodloc21,tr0,15314,398164).
route(harbor13,prodloc21,tr13,15314,91884).
route(harbor13,prodloc22,tr0,25228,655928).
route(harbor13,prodloc22,tr13,25228,151368).
route(harbor13,prodloc23,tr0,21618,562068).
route(harbor13,prodloc23,tr13,21618,129708).
route(harbor13,prodloc24,tr0,10561,274586).
route(harbor13,prodloc24,tr13,10561,63366).
route(harbor13,prodloc25,tr0,6052,157352).
route(harbor13,prodloc25,tr13,6052,36312).
route(harbor13,prodloc26,tr0,8188,212888).
route(harbor13,prodloc26,tr13,8188,49128).
route(harbor13,prodloc27,tr0,9290,241540).
route(harbor13,prodloc27,tr13,9290,55740).
route(harbor13,prodloc28,tr0,8952,232752).
route(harbor13,prodloc28,tr13,8952,53712).
route(harbor13,prodloc29,tr0,26762,695812).
route(harbor13,prodloc29,tr13,26762,160572).
route(harbor13,prodloc30,tr0,15556,404456).
route(harbor13,prodloc30,tr13,15556,93336).
route(harbor13,prodloc31,tr0,13598,353548).
route(harbor13,prodloc31,tr13,13598,81588).
route(harbor13,prodloc32,tr0,6347,165022).
route(harbor13,prodloc32,tr13,6347,38082).
route(harbor13,prodloc33,tr0,28829,749554).
route(harbor13,prodloc33,tr13,28829,172974).
route(harbor14,harbor0,tr13,15960,95760).
route(harbor14,harbor0,tr2,15960,47880).
route(harbor14,harbor1,tr13,22230,133380).
route(harbor14,harbor1,tr2,22230,66690).
route(harbor14,harbor2,tr13,24532,147192).
route(harbor14,harbor2,tr2,24532,73596).
route(harbor14,harbor3,tr13,25776,154656).
route(harbor14,harbor3,tr2,25776,77328).
route(harbor14,harbor4,tr13,7103,42618).
route(harbor14,harbor4,tr2,7103,21309).
route(harbor14,harbor5,tr13,16812,100872).
route(harbor14,harbor5,tr2,16812,50436).
route(harbor14,harbor6,tr13,6116,36696).
route(harbor14,harbor6,tr2,6116,18348).
route(harbor14,harbor7,tr13,25724,154344).
route(harbor14,harbor7,tr2,25724,77172).
route(harbor14,harbor8,tr13,20347,122082).
route(harbor14,harbor8,tr2,20347,61041).
route(harbor14,harbor9,tr13,16370,98220).
route(harbor14,harbor9,tr2,16370,49110).
route(harbor14,harbor10,tr13,7699,46194).
route(harbor14,harbor10,tr2,7699,23097).
route(harbor14,harbor11,tr13,8971,53826).
route(harbor14,harbor11,tr2,8971,26913).
route(harbor14,harbor12,tr13,15681,94086).
route(harbor14,harbor12,tr2,15681,47043).
route(harbor14,harbor13,tr13,5288,31728).
route(harbor14,harbor13,tr2,5288,15864).
route(harbor14,harbor15,tr13,1374,8244).
route(harbor14,harbor15,tr2,1374,4122).
route(harbor14,harbor16,tr13,2695,16170).
route(harbor14,harbor16,tr2,2695,8085).
route(harbor14,prodloc0,tr0,22075,573950).
route(harbor14,prodloc0,tr13,22075,132450).
route(harbor14,prodloc1,tr0,12763,331838).
route(harbor14,prodloc1,tr13,12763,76578).
route(harbor14,prodloc2,tr0,10973,285298).
route(harbor14,prodloc2,tr13,10973,65838).
route(harbor14,prodloc3,tr0,16218,421668).
route(harbor14,prodloc3,tr13,16218,97308).
route(harbor14,prodloc4,tr0,5919,153894).
route(harbor14,prodloc4,tr13,5919,35514).
route(harbor14,prodloc5,tr0,5948,154648).
route(harbor14,prodloc5,tr13,5948,35688).
route(harbor14,prodloc6,tr0,25979,675454).
route(harbor14,prodloc6,tr13,25979,155874).
route(harbor14,prodloc7,tr0,19217,499642).
route(harbor14,prodloc7,tr13,19217,115302).
route(harbor14,prodloc8,tr0,17234,448084).
route(harbor14,prodloc8,tr13,17234,103404).
route(harbor14,prodloc9,tr0,14135,367510).
route(harbor14,prodloc9,tr13,14135,84810).
route(harbor14,prodloc10,tr0,10362,269412).
route(harbor14,prodloc10,tr13,10362,62172).
route(harbor14,prodloc11,tr0,21253,552578).
route(harbor14,prodloc11,tr13,21253,127518).
route(harbor14,prodloc12,tr0,9299,241774).
route(harbor14,prodloc12,tr13,9299,55794).
route(harbor14,prodloc13,tr0,13929,362154).
route(harbor14,prodloc13,tr13,13929,83574).
route(harbor14,prodloc14,tr0,25434,661284).
route(harbor14,prodloc14,tr13,25434,152604).
route(harbor14,prodloc15,tr0,17919,465894).
route(harbor14,prodloc15,tr13,17919,107514).
route(harbor14,prodloc16,tr0,11265,292890).
route(harbor14,prodloc16,tr13,11265,67590).
route(harbor14,prodloc17,tr0,9,234).
route(harbor14,prodloc17,tr13,9,54).
route(harbor14,prodloc18,tr0,1647,42822).
route(harbor14,prodloc18,tr13,1647,9882).
route(harbor14,prodloc19,tr0,11688,303888).
route(harbor14,prodloc19,tr13,11688,70128).
route(harbor14,prodloc20,tr0,1281,33306).
route(harbor14,prodloc20,tr13,1281,7686).
route(harbor14,prodloc21,tr0,17430,453180).
route(harbor14,prodloc21,tr13,17430,104580).
route(harbor14,prodloc22,tr0,16723,434798).
route(harbor14,prodloc22,tr13,16723,100338).
route(harbor14,prodloc23,tr0,25833,671658).
route(harbor14,prodloc23,tr13,25833,154998).
route(harbor14,prodloc24,tr0,8092,210392).
route(harbor14,prodloc24,tr13,8092,48552).
route(harbor14,prodloc25,tr0,944,24544).
route(harbor14,prodloc25,tr13,944,5664).
route(harbor14,prodloc26,tr0,17944,466544).
route(harbor14,prodloc26,tr13,17944,107664).
route(harbor14,prodloc27,tr0,567,14742).
route(harbor14,prodloc27,tr13,567,3402).
route(harbor14,prodloc28,tr0,2019,52494).
route(harbor14,prodloc28,tr13,2019,12114).
route(harbor14,prodloc29,tr0,10790,280540).
route(harbor14,prodloc29,tr13,10790,64740).
route(harbor14,prodloc30,tr0,2469,64194).
route(harbor14,prodloc30,tr13,2469,14814).
route(harbor14,prodloc31,tr0,17370,451620).
route(harbor14,prodloc31,tr13,17370,104220).
route(harbor14,prodloc32,tr0,24744,643344).
route(harbor14,prodloc32,tr13,24744,148464).
route(harbor14,prodloc33,tr0,26112,678912).
route(harbor14,prodloc33,tr13,26112,156672).
route(harbor15,harbor0,tr13,5362,32172).
route(harbor15,harbor0,tr2,5362,16086).
route(harbor15,harbor1,tr13,24976,149856).
route(harbor15,harbor1,tr2,24976,74928).
route(harbor15,harbor2,tr13,11025,66150).
route(harbor15,harbor2,tr2,11025,33075).
route(harbor15,harbor3,tr13,19854,119124).
route(harbor15,harbor3,tr2,19854,59562).
route(harbor15,harbor4,tr13,15939,95634).
route(harbor15,harbor4,tr2,15939,47817).
route(harbor15,harbor5,tr13,12523,75138).
route(harbor15,harbor5,tr2,12523,37569).
route(harbor15,harbor6,tr13,24120,144720).
route(harbor15,harbor6,tr2,24120,72360).
route(harbor15,harbor7,tr13,12540,75240).
route(harbor15,harbor7,tr2,12540,37620).
route(harbor15,harbor8,tr13,18806,112836).
route(harbor15,harbor8,tr2,18806,56418).
route(harbor15,harbor9,tr13,4305,25830).
route(harbor15,harbor9,tr2,4305,12915).
route(harbor15,harbor10,tr13,10847,65082).
route(harbor15,harbor10,tr2,10847,32541).
route(harbor15,harbor11,tr13,13040,78240).
route(harbor15,harbor11,tr2,13040,39120).
route(harbor15,harbor12,tr13,6304,37824).
route(harbor15,harbor12,tr2,6304,18912).
route(harbor15,harbor13,tr13,4016,24096).
route(harbor15,harbor13,tr2,4016,12048).
route(harbor15,harbor14,tr13,4345,26070).
route(harbor15,harbor14,tr2,4345,13035).
route(harbor15,harbor16,tr13,26564,159384).
route(harbor15,harbor16,tr2,26564,79692).
route(harbor15,prodloc0,tr0,17641,458666).
route(harbor15,prodloc0,tr13,17641,105846).
route(harbor15,prodloc1,tr0,12374,321724).
route(harbor15,prodloc1,tr13,12374,74244).
route(harbor15,prodloc2,tr0,13101,340626).
route(harbor15,prodloc2,tr13,13101,78606).
route(harbor15,prodloc3,tr0,27914,725764).
route(harbor15,prodloc3,tr13,27914,167484).
route(harbor15,prodloc4,tr0,6442,167492).
route(harbor15,prodloc4,tr13,6442,38652).
route(harbor15,prodloc5,tr0,9836,255736).
route(harbor15,prodloc5,tr13,9836,59016).
route(harbor15,prodloc6,tr0,4039,105014).
route(harbor15,prodloc6,tr13,4039,24234).
route(harbor15,prodloc7,tr0,28581,743106).
route(harbor15,prodloc7,tr13,28581,171486).
route(harbor15,prodloc8,tr0,23514,611364).
route(harbor15,prodloc8,tr13,23514,141084).
route(harbor15,prodloc9,tr0,11652,302952).
route(harbor15,prodloc9,tr13,11652,69912).
route(harbor15,prodloc10,tr0,20577,535002).
route(harbor15,prodloc10,tr13,20577,123462).
route(harbor15,prodloc11,tr0,2190,56940).
route(harbor15,prodloc11,tr13,2190,13140).
route(harbor15,prodloc12,tr0,19489,506714).
route(harbor15,prodloc12,tr13,19489,116934).
route(harbor15,prodloc13,tr0,10134,263484).
route(harbor15,prodloc13,tr13,10134,60804).
route(harbor15,prodloc14,tr0,20739,539214).
route(harbor15,prodloc14,tr13,20739,124434).
route(harbor15,prodloc15,tr0,16490,428740).
route(harbor15,prodloc15,tr13,16490,98940).
route(harbor15,prodloc16,tr0,8797,228722).
route(harbor15,prodloc16,tr13,8797,52782).
route(harbor15,prodloc17,tr0,21967,571142).
route(harbor15,prodloc17,tr13,21967,131802).
route(harbor15,prodloc18,tr0,18309,476034).
route(harbor15,prodloc18,tr13,18309,109854).
route(harbor15,prodloc19,tr0,9382,243932).
route(harbor15,prodloc19,tr13,9382,56292).
route(harbor15,prodloc20,tr0,14621,380146).
route(harbor15,prodloc20,tr13,14621,87726).
route(harbor15,prodloc21,tr0,8028,208728).
route(harbor15,prodloc21,tr13,8028,48168).
route(harbor15,prodloc22,tr0,1407,36582).
route(harbor15,prodloc22,tr13,1407,8442).
route(harbor15,prodloc23,tr0,24303,631878).
route(harbor15,prodloc23,tr13,24303,145818).
route(harbor15,prodloc24,tr0,28947,752622).
route(harbor15,prodloc24,tr13,28947,173682).
route(harbor15,prodloc25,tr0,19780,514280).
route(harbor15,prodloc25,tr13,19780,118680).
route(harbor15,prodloc26,tr0,20863,542438).
route(harbor15,prodloc26,tr13,20863,125178).
route(harbor15,prodloc27,tr0,14603,379678).
route(harbor15,prodloc27,tr13,14603,87618).
route(harbor15,prodloc28,tr0,3609,93834).
route(harbor15,prodloc28,tr13,3609,21654).
route(harbor15,prodloc29,tr0,12787,332462).
route(harbor15,prodloc29,tr13,12787,76722).
route(harbor15,prodloc30,tr0,3819,99294).
route(harbor15,prodloc30,tr13,3819,22914).
route(harbor15,prodloc31,tr0,12413,322738).
route(harbor15,prodloc31,tr13,12413,74478).
route(harbor15,prodloc32,tr0,12768,331968).
route(harbor15,prodloc32,tr13,12768,76608).
route(harbor15,prodloc33,tr0,10919,283894).
route(harbor15,prodloc33,tr13,10919,65514).
route(harbor16,harbor0,tr13,3910,23460).
route(harbor16,harbor0,tr2,3910,11730).
route(harbor16,harbor1,tr13,10947,65682).
route(harbor16,harbor1,tr2,10947,32841).
route(harbor16,harbor2,tr13,2902,17412).
route(harbor16,harbor2,tr2,2902,8706).
route(harbor16,harbor3,tr13,9664,57984).
route(harbor16,harbor3,tr2,9664,28992).
route(harbor16,harbor4,tr13,21162,126972).
route(harbor16,harbor4,tr2,21162,63486).
route(harbor16,harbor5,tr13,24530,147180).
route(harbor16,harbor5,tr2,24530,73590).
route(harbor16,harbor6,tr13,7449,44694).
route(harbor16,harbor6,tr2,7449,22347).
route(harbor16,harbor7,tr13,10209,61254).
route(harbor16,harbor7,tr2,10209,30627).
route(harbor16,harbor8,tr13,28518,171108).
route(harbor16,harbor8,tr2,28518,85554).
route(harbor16,harbor9,tr13,27014,162084).
route(harbor16,harbor9,tr2,27014,81042).
route(harbor16,harbor10,tr13,7116,42696).
route(harbor16,harbor10,tr2,7116,21348).
route(harbor16,harbor11,tr13,27300,163800).
route(harbor16,harbor11,tr2,27300,81900).
route(harbor16,harbor12,tr13,3514,21084).
route(harbor16,harbor12,tr2,3514,10542).
route(harbor16,harbor13,tr13,10562,63372).
route(harbor16,harbor13,tr2,10562,31686).
route(harbor16,harbor14,tr13,15984,95904).
route(harbor16,harbor14,tr2,15984,47952).
route(harbor16,harbor15,tr13,23110,138660).
route(harbor16,harbor15,tr2,23110,69330).
route(harbor16,prodloc0,tr0,14987,389662).
route(harbor16,prodloc0,tr13,14987,89922).
route(harbor16,prodloc1,tr0,24647,640822).
route(harbor16,prodloc1,tr13,24647,147882).
route(harbor16,prodloc2,tr0,1846,47996).
route(harbor16,prodloc2,tr13,1846,11076).
route(harbor16,prodloc3,tr0,9204,239304).
route(harbor16,prodloc3,tr13,9204,55224).
route(harbor16,prodloc4,tr0,18168,472368).
route(harbor16,prodloc4,tr13,18168,109008).
route(harbor16,prodloc5,tr0,9566,248716).
route(harbor16,prodloc5,tr13,9566,57396).
route(harbor16,prodloc6,tr0,18103,470678).
route(harbor16,prodloc6,tr13,18103,108618).
route(harbor16,prodloc7,tr0,9629,250354).
route(harbor16,prodloc7,tr13,9629,57774).
route(harbor16,prodloc8,tr0,18036,468936).
route(harbor16,prodloc8,tr13,18036,108216).
route(harbor16,prodloc9,tr0,4321,112346).
route(harbor16,prodloc9,tr13,4321,25926).
route(harbor16,prodloc10,tr0,11204,291304).
route(harbor16,prodloc10,tr13,11204,67224).
route(harbor16,prodloc11,tr0,18386,478036).
route(harbor16,prodloc11,tr13,18386,110316).
route(harbor16,prodloc12,tr0,26884,698984).
route(harbor16,prodloc12,tr13,26884,161304).
route(harbor16,prodloc13,tr0,22535,585910).
route(harbor16,prodloc13,tr13,22535,135210).
route(harbor16,prodloc14,tr0,10060,261560).
route(harbor16,prodloc14,tr13,10060,60360).
route(harbor16,prodloc15,tr0,8392,218192).
route(harbor16,prodloc15,tr13,8392,50352).
route(harbor16,prodloc16,tr0,22058,573508).
route(harbor16,prodloc16,tr13,22058,132348).
route(harbor16,prodloc17,tr0,15740,409240).
route(harbor16,prodloc17,tr13,15740,94440).
route(harbor16,prodloc18,tr0,2899,75374).
route(harbor16,prodloc18,tr13,2899,17394).
route(harbor16,prodloc19,tr0,3086,80236).
route(harbor16,prodloc19,tr13,3086,18516).
route(harbor16,prodloc20,tr0,14713,382538).
route(harbor16,prodloc20,tr13,14713,88278).
route(harbor16,prodloc21,tr0,15452,401752).
route(harbor16,prodloc21,tr13,15452,92712).
route(harbor16,prodloc22,tr0,24919,647894).
route(harbor16,prodloc22,tr13,24919,149514).
route(harbor16,prodloc23,tr0,8908,231608).
route(harbor16,prodloc23,tr13,8908,53448).
route(harbor16,prodloc24,tr0,25,650).
route(harbor16,prodloc24,tr13,25,150).
route(harbor16,prodloc25,tr0,9818,255268).
route(harbor16,prodloc25,tr13,9818,58908).
route(harbor16,prodloc26,tr0,21202,551252).
route(harbor16,prodloc26,tr13,21202,127212).
route(harbor16,prodloc27,tr0,12487,324662).
route(harbor16,prodloc27,tr13,12487,74922).
route(harbor16,prodloc28,tr0,9162,238212).
route(harbor16,prodloc28,tr13,9162,54972).
route(harbor16,prodloc29,tr0,28193,733018).
route(harbor16,prodloc29,tr13,28193,169158).
route(harbor16,prodloc30,tr0,10441,271466).
route(harbor16,prodloc30,tr13,10441,62646).
route(harbor16,prodloc31,tr0,23436,609336).
route(harbor16,prodloc31,tr13,23436,140616).
route(harbor16,prodloc32,tr0,22322,580372).
route(harbor16,prodloc32,tr13,22322,133932).
route(harbor16,prodloc33,tr0,4640,120640).
route(harbor16,prodloc33,tr13,4640,27840).
route(prodloc0,harbor0,tr0,5100,132600).
route(prodloc0,harbor0,tr13,5100,30600).
route(prodloc0,harbor1,tr0,2806,72956).
route(prodloc0,harbor1,tr13,2806,16836).
route(prodloc0,harbor2,tr0,8825,229450).
route(prodloc0,harbor2,tr13,8825,52950).
route(prodloc0,harbor3,tr0,19550,508300).
route(prodloc0,harbor3,tr13,19550,117300).
route(prodloc0,harbor4,tr0,20233,526058).
route(prodloc0,harbor4,tr13,20233,121398).
route(prodloc0,harbor5,tr0,16982,441532).
route(prodloc0,harbor5,tr13,16982,101892).
route(prodloc0,harbor6,tr0,28601,743626).
route(prodloc0,harbor6,tr13,28601,171606).
route(prodloc0,harbor7,tr0,5490,142740).
route(prodloc0,harbor7,tr13,5490,32940).
route(prodloc0,harbor8,tr0,6500,169000).
route(prodloc0,harbor8,tr13,6500,39000).
route(prodloc0,harbor9,tr0,24665,641290).
route(prodloc0,harbor9,tr13,24665,147990).
route(prodloc0,harbor10,tr0,16092,418392).
route(prodloc0,harbor10,tr13,16092,96552).
route(prodloc0,harbor11,tr0,19755,513630).
route(prodloc0,harbor11,tr13,19755,118530).
route(prodloc0,harbor12,tr0,28424,739024).
route(prodloc0,harbor12,tr13,28424,170544).
route(prodloc0,harbor13,tr0,6576,170976).
route(prodloc0,harbor13,tr13,6576,39456).
route(prodloc0,harbor14,tr0,23292,605592).
route(prodloc0,harbor14,tr13,23292,139752).
route(prodloc0,harbor15,tr0,22439,583414).
route(prodloc0,harbor15,tr13,22439,134634).
route(prodloc0,harbor16,tr0,26563,690638).
route(prodloc0,harbor16,tr13,26563,159378).
route(prodloc0,prodloc1,tr0,17413,452738).
route(prodloc0,prodloc1,tr13,17413,104478).
route(prodloc0,prodloc2,tr0,13142,341692).
route(prodloc0,prodloc2,tr13,13142,78852).
route(prodloc0,prodloc3,tr0,9111,236886).
route(prodloc0,prodloc3,tr13,9111,54666).
route(prodloc0,prodloc4,tr0,12716,330616).
route(prodloc0,prodloc4,tr13,12716,76296).
route(prodloc0,prodloc5,tr0,13544,352144).
route(prodloc0,prodloc5,tr13,13544,81264).
route(prodloc0,prodloc6,tr0,10248,266448).
route(prodloc0,prodloc6,tr13,10248,61488).
route(prodloc0,prodloc7,tr0,26921,699946).
route(prodloc0,prodloc7,tr13,26921,161526).
route(prodloc0,prodloc8,tr0,3260,84760).
route(prodloc0,prodloc8,tr13,3260,19560).
route(prodloc0,prodloc9,tr0,3359,87334).
route(prodloc0,prodloc9,tr13,3359,20154).
route(prodloc0,prodloc10,tr0,17924,466024).
route(prodloc0,prodloc10,tr13,17924,107544).
route(prodloc0,prodloc11,tr0,16397,426322).
route(prodloc0,prodloc11,tr13,16397,98382).
route(prodloc0,prodloc12,tr0,15690,407940).
route(prodloc0,prodloc12,tr13,15690,94140).
route(prodloc0,prodloc13,tr0,10501,273026).
route(prodloc0,prodloc13,tr13,10501,63006).
route(prodloc0,prodloc14,tr0,3614,93964).
route(prodloc0,prodloc14,tr13,3614,21684).
route(prodloc0,prodloc15,tr0,7646,198796).
route(prodloc0,prodloc15,tr13,7646,45876).
route(prodloc0,prodloc16,tr0,13579,353054).
route(prodloc0,prodloc16,tr13,13579,81474).
route(prodloc0,prodloc17,tr0,5582,145132).
route(prodloc0,prodloc17,tr13,5582,33492).
route(prodloc0,prodloc18,tr13,13231,79386).
route(prodloc0,prodloc18,tr15,13231,423392).
route(prodloc0,prodloc19,tr0,14667,381342).
route(prodloc0,prodloc19,tr13,14667,88002).
route(prodloc0,prodloc20,tr0,988,25688).
route(prodloc0,prodloc20,tr13,988,5928).
route(prodloc0,prodloc21,tr0,18585,483210).
route(prodloc0,prodloc21,tr13,18585,111510).
route(prodloc0,prodloc22,tr0,24056,625456).
route(prodloc0,prodloc22,tr13,24056,144336).
route(prodloc0,prodloc23,tr0,26362,685412).
route(prodloc0,prodloc23,tr13,26362,158172).
route(prodloc0,prodloc24,tr0,23672,615472).
route(prodloc0,prodloc24,tr13,23672,142032).
route(prodloc0,prodloc25,tr0,28635,744510).
route(prodloc0,prodloc25,tr13,28635,171810).
route(prodloc0,prodloc26,tr0,21627,562302).
route(prodloc0,prodloc26,tr13,21627,129762).
route(prodloc0,prodloc27,tr0,24758,643708).
route(prodloc0,prodloc27,tr13,24758,148548).
route(prodloc0,prodloc28,tr0,8252,214552).
route(prodloc0,prodloc28,tr13,8252,49512).
route(prodloc0,prodloc29,tr0,28064,729664).
route(prodloc0,prodloc29,tr13,28064,168384).
route(prodloc0,prodloc30,tr0,26222,681772).
route(prodloc0,prodloc30,tr13,26222,157332).
route(prodloc0,prodloc31,tr0,25005,650130).
route(prodloc0,prodloc31,tr13,25005,150030).
route(prodloc0,prodloc32,tr0,11742,305292).
route(prodloc0,prodloc32,tr13,11742,70452).
route(prodloc0,prodloc33,tr0,19965,519090).
route(prodloc0,prodloc33,tr13,19965,119790).
route(prodloc1,harbor0,tr0,23429,609154).
route(prodloc1,harbor0,tr13,23429,140574).
route(prodloc1,harbor1,tr0,10229,265954).
route(prodloc1,harbor1,tr13,10229,61374).
route(prodloc1,harbor2,tr0,15441,401466).
route(prodloc1,harbor2,tr13,15441,92646).
route(prodloc1,harbor3,tr0,14082,366132).
route(prodloc1,harbor3,tr13,14082,84492).
route(prodloc1,harbor4,tr0,24352,633152).
route(prodloc1,harbor4,tr13,24352,146112).
route(prodloc1,harbor5,tr0,13111,340886).
route(prodloc1,harbor5,tr13,13111,78666).
route(prodloc1,harbor6,tr0,9042,235092).
route(prodloc1,harbor6,tr13,9042,54252).
route(prodloc1,harbor7,tr0,8616,224016).
route(prodloc1,harbor7,tr13,8616,51696).
route(prodloc1,harbor8,tr0,15271,397046).
route(prodloc1,harbor8,tr13,15271,91626).
route(prodloc1,harbor9,tr0,27108,704808).
route(prodloc1,harbor9,tr13,27108,162648).
route(prodloc1,harbor10,tr0,26181,680706).
route(prodloc1,harbor10,tr13,26181,157086).
route(prodloc1,harbor11,tr0,12937,336362).
route(prodloc1,harbor11,tr13,12937,77622).
route(prodloc1,harbor12,tr0,5901,153426).
route(prodloc1,harbor12,tr13,5901,35406).
route(prodloc1,harbor13,tr0,9689,251914).
route(prodloc1,harbor13,tr13,9689,58134).
route(prodloc1,harbor14,tr0,23852,620152).
route(prodloc1,harbor14,tr13,23852,143112).
route(prodloc1,harbor15,tr0,25202,655252).
route(prodloc1,harbor15,tr13,25202,151212).
route(prodloc1,harbor16,tr0,6900,179400).
route(prodloc1,harbor16,tr13,6900,41400).
route(prodloc1,prodloc0,tr0,14879,386854).
route(prodloc1,prodloc0,tr13,14879,89274).
route(prodloc1,prodloc2,tr0,13390,348140).
route(prodloc1,prodloc2,tr13,13390,80340).
route(prodloc1,prodloc3,tr0,23986,623636).
route(prodloc1,prodloc3,tr13,23986,143916).
route(prodloc1,prodloc4,tr0,12442,323492).
route(prodloc1,prodloc4,tr13,12442,74652).
route(prodloc1,prodloc5,tr0,21808,567008).
route(prodloc1,prodloc5,tr13,21808,130848).
route(prodloc1,prodloc6,tr0,18241,474266).
route(prodloc1,prodloc6,tr13,18241,109446).
route(prodloc1,prodloc7,tr0,18927,492102).
route(prodloc1,prodloc7,tr13,18927,113562).
route(prodloc1,prodloc8,tr0,14682,381732).
route(prodloc1,prodloc8,tr13,14682,88092).
route(prodloc1,prodloc9,tr0,9014,234364).
route(prodloc1,prodloc9,tr13,9014,54084).
route(prodloc1,prodloc10,tr0,6127,159302).
route(prodloc1,prodloc10,tr13,6127,36762).
route(prodloc1,prodloc11,tr0,1321,34346).
route(prodloc1,prodloc11,tr13,1321,7926).
route(prodloc1,prodloc12,tr0,28823,749398).
route(prodloc1,prodloc12,tr13,28823,172938).
route(prodloc1,prodloc13,tr0,15628,406328).
route(prodloc1,prodloc13,tr13,15628,93768).
route(prodloc1,prodloc14,tr0,9415,244790).
route(prodloc1,prodloc14,tr13,9415,56490).
route(prodloc1,prodloc15,tr0,4271,111046).
route(prodloc1,prodloc15,tr13,4271,25626).
route(prodloc1,prodloc16,tr0,3555,92430).
route(prodloc1,prodloc16,tr13,3555,21330).
route(prodloc1,prodloc17,tr0,16571,430846).
route(prodloc1,prodloc17,tr13,16571,99426).
route(prodloc1,prodloc18,tr0,7178,186628).
route(prodloc1,prodloc18,tr13,7178,43068).
route(prodloc1,prodloc19,tr0,1125,29250).
route(prodloc1,prodloc19,tr13,1125,6750).
route(prodloc1,prodloc20,tr0,25135,653510).
route(prodloc1,prodloc20,tr13,25135,150810).
route(prodloc1,prodloc21,tr0,718,18668).
route(prodloc1,prodloc21,tr13,718,4308).
route(prodloc1,prodloc22,tr0,23585,613210).
route(prodloc1,prodloc22,tr13,23585,141510).
route(prodloc1,prodloc23,tr0,5631,146406).
route(prodloc1,prodloc23,tr15,5631,180192).
route(prodloc1,prodloc24,tr0,18940,492440).
route(prodloc1,prodloc24,tr13,18940,113640).
route(prodloc1,prodloc25,tr0,27398,712348).
route(prodloc1,prodloc25,tr13,27398,164388).
route(prodloc1,prodloc26,tr0,27865,724490).
route(prodloc1,prodloc26,tr13,27865,167190).
route(prodloc1,prodloc27,tr0,28221,733746).
route(prodloc1,prodloc27,tr13,28221,169326).
route(prodloc1,prodloc28,tr0,4017,104442).
route(prodloc1,prodloc28,tr13,4017,24102).
route(prodloc1,prodloc29,tr0,19365,503490).
route(prodloc1,prodloc29,tr13,19365,116190).
route(prodloc1,prodloc30,tr0,4651,120926).
route(prodloc1,prodloc30,tr13,4651,27906).
route(prodloc1,prodloc31,tr0,26758,695708).
route(prodloc1,prodloc31,tr13,26758,160548).
route(prodloc1,prodloc32,tr0,3938,102388).
route(prodloc1,prodloc32,tr13,3938,23628).
route(prodloc1,prodloc33,tr0,17998,467948).
route(prodloc1,prodloc33,tr13,17998,107988).
route(prodloc2,harbor0,tr0,7786,202436).
route(prodloc2,harbor0,tr13,7786,46716).
route(prodloc2,harbor1,tr0,15876,412776).
route(prodloc2,harbor1,tr13,15876,95256).
route(prodloc2,harbor2,tr0,22893,595218).
route(prodloc2,harbor2,tr13,22893,137358).
route(prodloc2,harbor3,tr0,6829,177554).
route(prodloc2,harbor3,tr13,6829,40974).
route(prodloc2,harbor4,tr0,18846,489996).
route(prodloc2,harbor4,tr13,18846,113076).
route(prodloc2,harbor5,tr0,5509,143234).
route(prodloc2,harbor5,tr13,5509,33054).
route(prodloc2,harbor6,tr0,22597,587522).
route(prodloc2,harbor6,tr13,22597,135582).
route(prodloc2,harbor7,tr0,28536,741936).
route(prodloc2,harbor7,tr13,28536,171216).
route(prodloc2,harbor8,tr0,7065,183690).
route(prodloc2,harbor8,tr13,7065,42390).
route(prodloc2,harbor9,tr0,1262,32812).
route(prodloc2,harbor9,tr13,1262,7572).
route(prodloc2,harbor10,tr0,15564,404664).
route(prodloc2,harbor10,tr13,15564,93384).
route(prodloc2,harbor11,tr0,28574,742924).
route(prodloc2,harbor11,tr13,28574,171444).
route(prodloc2,harbor12,tr0,10689,277914).
route(prodloc2,harbor12,tr13,10689,64134).
route(prodloc2,harbor13,tr0,4115,106990).
route(prodloc2,harbor13,tr13,4115,24690).
route(prodloc2,harbor14,tr0,903,23478).
route(prodloc2,harbor14,tr13,903,5418).
route(prodloc2,harbor15,tr0,18624,484224).
route(prodloc2,harbor15,tr13,18624,111744).
route(prodloc2,harbor16,tr0,26496,688896).
route(prodloc2,harbor16,tr13,26496,158976).
route(prodloc2,prodloc0,tr0,22910,595660).
route(prodloc2,prodloc0,tr13,22910,137460).
route(prodloc2,prodloc1,tr0,13516,351416).
route(prodloc2,prodloc1,tr13,13516,81096).
route(prodloc2,prodloc3,tr0,14688,381888).
route(prodloc2,prodloc3,tr13,14688,88128).
route(prodloc2,prodloc4,tr0,18832,489632).
route(prodloc2,prodloc4,tr13,18832,112992).
route(prodloc2,prodloc5,tr0,3795,98670).
route(prodloc2,prodloc5,tr13,3795,22770).
route(prodloc2,prodloc6,tr0,5561,144586).
route(prodloc2,prodloc6,tr13,5561,33366).
route(prodloc2,prodloc7,tr0,3166,82316).
route(prodloc2,prodloc7,tr13,3166,18996).
route(prodloc2,prodloc8,tr0,16199,421174).
route(prodloc2,prodloc8,tr13,16199,97194).
route(prodloc2,prodloc9,tr0,7387,192062).
route(prodloc2,prodloc9,tr13,7387,44322).
route(prodloc2,prodloc10,tr0,5476,142376).
route(prodloc2,prodloc10,tr13,5476,32856).
route(prodloc2,prodloc11,tr0,24135,627510).
route(prodloc2,prodloc11,tr13,24135,144810).
route(prodloc2,prodloc12,tr0,19654,511004).
route(prodloc2,prodloc12,tr13,19654,117924).
route(prodloc2,prodloc13,tr0,6650,172900).
route(prodloc2,prodloc13,tr13,6650,39900).
route(prodloc2,prodloc14,tr0,10279,267254).
route(prodloc2,prodloc14,tr13,10279,61674).
route(prodloc2,prodloc15,tr0,15736,409136).
route(prodloc2,prodloc15,tr13,15736,94416).
route(prodloc2,prodloc16,tr0,24731,643006).
route(prodloc2,prodloc16,tr13,24731,148386).
route(prodloc2,prodloc17,tr0,11185,290810).
route(prodloc2,prodloc17,tr13,11185,67110).
route(prodloc2,prodloc18,tr0,5315,138190).
route(prodloc2,prodloc18,tr13,5315,31890).
route(prodloc2,prodloc19,tr0,4333,112658).
route(prodloc2,prodloc19,tr13,4333,25998).
route(prodloc2,prodloc20,tr0,12132,315432).
route(prodloc2,prodloc20,tr13,12132,72792).
route(prodloc2,prodloc21,tr0,8663,225238).
route(prodloc2,prodloc21,tr13,8663,51978).
route(prodloc2,prodloc22,tr0,16076,417976).
route(prodloc2,prodloc22,tr13,16076,96456).
route(prodloc2,prodloc23,tr0,8651,224926).
route(prodloc2,prodloc23,tr13,8651,51906).
route(prodloc2,prodloc24,tr0,16735,435110).
route(prodloc2,prodloc24,tr13,16735,100410).
route(prodloc2,prodloc25,tr0,25549,664274).
route(prodloc2,prodloc25,tr13,25549,153294).
route(prodloc2,prodloc26,tr0,7305,189930).
route(prodloc2,prodloc26,tr13,7305,43830).
route(prodloc2,prodloc27,tr0,14237,370162).
route(prodloc2,prodloc27,tr13,14237,85422).
route(prodloc2,prodloc28,tr0,27688,719888).
route(prodloc2,prodloc28,tr13,27688,166128).
route(prodloc2,prodloc29,tr0,9608,249808).
route(prodloc2,prodloc29,tr13,9608,57648).
route(prodloc2,prodloc30,tr13,24980,149880).
route(prodloc2,prodloc30,tr15,24980,799360).
route(prodloc2,prodloc31,tr0,7826,203476).
route(prodloc2,prodloc31,tr13,7826,46956).
route(prodloc2,prodloc32,tr0,8306,215956).
route(prodloc2,prodloc32,tr13,8306,49836).
route(prodloc2,prodloc33,tr0,11541,300066).
route(prodloc2,prodloc33,tr13,11541,69246).
route(prodloc3,harbor0,tr0,16971,441246).
route(prodloc3,harbor0,tr13,16971,101826).
route(prodloc3,harbor1,tr0,17401,452426).
route(prodloc3,harbor1,tr13,17401,104406).
route(prodloc3,harbor2,tr0,21615,561990).
route(prodloc3,harbor2,tr13,21615,129690).
route(prodloc3,harbor3,tr0,16514,429364).
route(prodloc3,harbor3,tr13,16514,99084).
route(prodloc3,harbor4,tr0,2444,63544).
route(prodloc3,harbor4,tr13,2444,14664).
route(prodloc3,harbor5,tr0,1240,32240).
route(prodloc3,harbor5,tr13,1240,7440).
route(prodloc3,harbor6,tr0,6247,162422).
route(prodloc3,harbor6,tr13,6247,37482).
route(prodloc3,harbor7,tr0,14410,374660).
route(prodloc3,harbor7,tr13,14410,86460).
route(prodloc3,harbor8,tr0,12997,337922).
route(prodloc3,harbor8,tr13,12997,77982).
route(prodloc3,harbor9,tr0,27812,723112).
route(prodloc3,harbor9,tr13,27812,166872).
route(prodloc3,harbor10,tr0,18523,481598).
route(prodloc3,harbor10,tr13,18523,111138).
route(prodloc3,harbor11,tr0,9290,241540).
route(prodloc3,harbor11,tr13,9290,55740).
route(prodloc3,harbor12,tr0,2203,57278).
route(prodloc3,harbor12,tr13,2203,13218).
route(prodloc3,harbor13,tr0,19604,509704).
route(prodloc3,harbor13,tr13,19604,117624).
route(prodloc3,harbor14,tr0,703,18278).
route(prodloc3,harbor14,tr13,703,4218).
route(prodloc3,harbor15,tr0,23052,599352).
route(prodloc3,harbor15,tr13,23052,138312).
route(prodloc3,harbor16,tr0,18140,471640).
route(prodloc3,harbor16,tr13,18140,108840).
route(prodloc3,prodloc0,tr0,562,14612).
route(prodloc3,prodloc0,tr13,562,3372).
route(prodloc3,prodloc1,tr0,21732,565032).
route(prodloc3,prodloc1,tr13,21732,130392).
route(prodloc3,prodloc2,tr0,26975,701350).
route(prodloc3,prodloc2,tr13,26975,161850).
route(prodloc3,prodloc4,tr0,21986,571636).
route(prodloc3,prodloc4,tr13,21986,131916).
route(prodloc3,prodloc5,tr0,26363,685438).
route(prodloc3,prodloc5,tr13,26363,158178).
route(prodloc3,prodloc6,tr0,15337,398762).
route(prodloc3,prodloc6,tr13,15337,92022).
route(prodloc3,prodloc7,tr0,16047,417222).
route(prodloc3,prodloc7,tr13,16047,96282).
route(prodloc3,prodloc8,tr0,21195,551070).
route(prodloc3,prodloc8,tr13,21195,127170).
route(prodloc3,prodloc9,tr0,15840,411840).
route(prodloc3,prodloc9,tr13,15840,95040).
route(prodloc3,prodloc10,tr0,27696,720096).
route(prodloc3,prodloc10,tr13,27696,166176).
route(prodloc3,prodloc11,tr0,23612,613912).
route(prodloc3,prodloc11,tr13,23612,141672).
route(prodloc3,prodloc12,tr0,7182,186732).
route(prodloc3,prodloc12,tr13,7182,43092).
route(prodloc3,prodloc13,tr0,6441,167466).
route(prodloc3,prodloc13,tr13,6441,38646).
route(prodloc3,prodloc14,tr0,2558,66508).
route(prodloc3,prodloc14,tr13,2558,15348).
route(prodloc3,prodloc15,tr0,12198,317148).
route(prodloc3,prodloc15,tr13,12198,73188).
route(prodloc3,prodloc16,tr0,13669,355394).
route(prodloc3,prodloc16,tr13,13669,82014).
route(prodloc3,prodloc17,tr0,17391,452166).
route(prodloc3,prodloc17,tr13,17391,104346).
route(prodloc3,prodloc18,tr0,21801,566826).
route(prodloc3,prodloc18,tr13,21801,130806).
route(prodloc3,prodloc19,tr0,408,10608).
route(prodloc3,prodloc19,tr13,408,2448).
route(prodloc3,prodloc20,tr0,4132,107432).
route(prodloc3,prodloc20,tr13,4132,24792).
route(prodloc3,prodloc21,tr0,10561,274586).
route(prodloc3,prodloc21,tr13,10561,63366).
route(prodloc3,prodloc22,tr0,23235,604110).
route(prodloc3,prodloc22,tr13,23235,139410).
route(prodloc3,prodloc23,tr0,13170,342420).
route(prodloc3,prodloc23,tr13,13170,79020).
route(prodloc3,prodloc24,tr0,9571,248846).
route(prodloc3,prodloc24,tr13,9571,57426).
route(prodloc3,prodloc25,tr0,19412,504712).
route(prodloc3,prodloc25,tr13,19412,116472).
route(prodloc3,prodloc26,tr0,9658,251108).
route(prodloc3,prodloc26,tr13,9658,57948).
route(prodloc3,prodloc27,tr0,26114,678964).
route(prodloc3,prodloc27,tr13,26114,156684).
route(prodloc3,prodloc28,tr0,14160,368160).
route(prodloc3,prodloc28,tr13,14160,84960).
route(prodloc3,prodloc29,tr0,25349,659074).
route(prodloc3,prodloc29,tr13,25349,152094).
route(prodloc3,prodloc30,tr0,28290,735540).
route(prodloc3,prodloc30,tr13,28290,169740).
route(prodloc3,prodloc31,tr0,1473,38298).
route(prodloc3,prodloc31,tr13,1473,8838).
route(prodloc3,prodloc32,tr0,194,5044).
route(prodloc3,prodloc32,tr13,194,1164).
route(prodloc3,prodloc33,tr0,1929,50154).
route(prodloc3,prodloc33,tr13,1929,11574).
route(prodloc4,harbor0,tr0,12783,332358).
route(prodloc4,harbor0,tr13,12783,76698).
route(prodloc4,harbor1,tr0,1068,27768).
route(prodloc4,harbor1,tr13,1068,6408).
route(prodloc4,harbor2,tr0,1977,51402).
route(prodloc4,harbor2,tr13,1977,11862).
route(prodloc4,harbor3,tr0,14499,376974).
route(prodloc4,harbor3,tr13,14499,86994).
route(prodloc4,harbor4,tr0,7957,206882).
route(prodloc4,harbor4,tr13,7957,47742).
route(prodloc4,harbor5,tr0,1131,29406).
route(prodloc4,harbor5,tr13,1131,6786).
route(prodloc4,harbor6,tr0,17956,466856).
route(prodloc4,harbor6,tr13,17956,107736).
route(prodloc4,harbor7,tr0,4690,121940).
route(prodloc4,harbor7,tr13,4690,28140).
route(prodloc4,harbor8,tr0,1898,49348).
route(prodloc4,harbor8,tr13,1898,11388).
route(prodloc4,harbor9,tr0,18879,490854).
route(prodloc4,harbor9,tr13,18879,113274).
route(prodloc4,harbor10,tr0,8895,231270).
route(prodloc4,harbor10,tr13,8895,53370).
route(prodloc4,harbor11,tr0,15271,397046).
route(prodloc4,harbor11,tr13,15271,91626).
route(prodloc4,harbor12,tr0,4815,125190).
route(prodloc4,harbor12,tr13,4815,28890).
route(prodloc4,harbor13,tr0,8558,222508).
route(prodloc4,harbor13,tr13,8558,51348).
route(prodloc4,harbor14,tr0,4050,105300).
route(prodloc4,harbor14,tr13,4050,24300).
route(prodloc4,harbor15,tr0,4917,127842).
route(prodloc4,harbor15,tr13,4917,29502).
route(prodloc4,harbor16,tr0,22013,572338).
route(prodloc4,harbor16,tr13,22013,132078).
route(prodloc4,prodloc0,tr0,9166,238316).
route(prodloc4,prodloc0,tr13,9166,54996).
route(prodloc4,prodloc1,tr0,18106,470756).
route(prodloc4,prodloc1,tr13,18106,108636).
route(prodloc4,prodloc2,tr0,3518,91468).
route(prodloc4,prodloc2,tr13,3518,21108).
route(prodloc4,prodloc3,tr0,10584,275184).
route(prodloc4,prodloc3,tr13,10584,63504).
route(prodloc4,prodloc5,tr0,26111,678886).
route(prodloc4,prodloc5,tr13,26111,156666).
route(prodloc4,prodloc6,tr0,7683,199758).
route(prodloc4,prodloc6,tr13,7683,46098).
route(prodloc4,prodloc7,tr0,9686,251836).
route(prodloc4,prodloc7,tr13,9686,58116).
route(prodloc4,prodloc8,tr0,26715,694590).
route(prodloc4,prodloc8,tr13,26715,160290).
route(prodloc4,prodloc9,tr0,2484,64584).
route(prodloc4,prodloc9,tr15,2484,79488).
route(prodloc4,prodloc10,tr0,5215,135590).
route(prodloc4,prodloc10,tr13,5215,31290).
route(prodloc4,prodloc11,tr0,19884,516984).
route(prodloc4,prodloc11,tr13,19884,119304).
route(prodloc4,prodloc12,tr0,13613,353938).
route(prodloc4,prodloc12,tr13,13613,81678).
route(prodloc4,prodloc13,tr0,27988,727688).
route(prodloc4,prodloc13,tr13,27988,167928).
route(prodloc4,prodloc14,tr0,25426,661076).
route(prodloc4,prodloc14,tr13,25426,152556).
route(prodloc4,prodloc15,tr0,12936,336336).
route(prodloc4,prodloc15,tr13,12936,77616).
route(prodloc4,prodloc16,tr0,17848,464048).
route(prodloc4,prodloc16,tr13,17848,107088).
route(prodloc4,prodloc17,tr0,25546,664196).
route(prodloc4,prodloc17,tr13,25546,153276).
route(prodloc4,prodloc18,tr0,14851,386126).
route(prodloc4,prodloc18,tr13,14851,89106).
route(prodloc4,prodloc19,tr0,413,10738).
route(prodloc4,prodloc19,tr13,413,2478).
route(prodloc4,prodloc20,tr0,9599,249574).
route(prodloc4,prodloc20,tr13,9599,57594).
route(prodloc4,prodloc21,tr13,16993,101958).
route(prodloc4,prodloc21,tr15,16993,543776).
route(prodloc4,prodloc22,tr0,24356,633256).
route(prodloc4,prodloc22,tr13,24356,146136).
route(prodloc4,prodloc23,tr0,18776,488176).
route(prodloc4,prodloc23,tr13,18776,112656).
route(prodloc4,prodloc24,tr0,14068,365768).
route(prodloc4,prodloc24,tr13,14068,84408).
route(prodloc4,prodloc25,tr0,21601,561626).
route(prodloc4,prodloc25,tr13,21601,129606).
route(prodloc4,prodloc26,tr0,3288,85488).
route(prodloc4,prodloc26,tr13,3288,19728).
route(prodloc4,prodloc27,tr0,18861,490386).
route(prodloc4,prodloc27,tr13,18861,113166).
route(prodloc4,prodloc28,tr0,17954,466804).
route(prodloc4,prodloc28,tr13,17954,107724).
route(prodloc4,prodloc29,tr0,26596,691496).
route(prodloc4,prodloc29,tr13,26596,159576).
route(prodloc4,prodloc30,tr0,28779,748254).
route(prodloc4,prodloc30,tr13,28779,172674).
route(prodloc4,prodloc31,tr0,9315,242190).
route(prodloc4,prodloc31,tr13,9315,55890).
route(prodloc4,prodloc32,tr0,2118,55068).
route(prodloc4,prodloc32,tr13,2118,12708).
route(prodloc4,prodloc33,tr0,23914,621764).
route(prodloc4,prodloc33,tr13,23914,143484).
route(prodloc5,harbor0,tr0,967,25142).
route(prodloc5,harbor0,tr13,967,5802).
route(prodloc5,harbor1,tr0,5492,142792).
route(prodloc5,harbor1,tr13,5492,32952).
route(prodloc5,harbor2,tr0,25856,672256).
route(prodloc5,harbor2,tr13,25856,155136).
route(prodloc5,harbor3,tr0,20181,524706).
route(prodloc5,harbor3,tr13,20181,121086).
route(prodloc5,harbor4,tr0,11100,288600).
route(prodloc5,harbor4,tr13,11100,66600).
route(prodloc5,harbor5,tr0,23319,606294).
route(prodloc5,harbor5,tr13,23319,139914).
route(prodloc5,harbor6,tr0,23581,613106).
route(prodloc5,harbor6,tr13,23581,141486).
route(prodloc5,harbor7,tr0,19635,510510).
route(prodloc5,harbor7,tr13,19635,117810).
route(prodloc5,harbor8,tr0,1664,43264).
route(prodloc5,harbor8,tr13,1664,9984).
route(prodloc5,harbor9,tr0,14371,373646).
route(prodloc5,harbor9,tr13,14371,86226).
route(prodloc5,harbor10,tr0,3567,92742).
route(prodloc5,harbor10,tr13,3567,21402).
route(prodloc5,harbor11,tr0,27038,702988).
route(prodloc5,harbor11,tr13,27038,162228).
route(prodloc5,harbor12,tr0,24435,635310).
route(prodloc5,harbor12,tr13,24435,146610).
route(prodloc5,harbor13,tr0,13503,351078).
route(prodloc5,harbor13,tr13,13503,81018).
route(prodloc5,harbor14,tr0,26704,694304).
route(prodloc5,harbor14,tr13,26704,160224).
route(prodloc5,harbor15,tr0,2318,60268).
route(prodloc5,harbor15,tr13,2318,13908).
route(prodloc5,harbor16,tr0,17694,460044).
route(prodloc5,harbor16,tr13,17694,106164).
route(prodloc5,prodloc0,tr0,5023,130598).
route(prodloc5,prodloc0,tr13,5023,30138).
route(prodloc5,prodloc1,tr0,19174,498524).
route(prodloc5,prodloc1,tr13,19174,115044).
route(prodloc5,prodloc2,tr0,4906,127556).
route(prodloc5,prodloc2,tr13,4906,29436).
route(prodloc5,prodloc3,tr0,25536,663936).
route(prodloc5,prodloc3,tr13,25536,153216).
route(prodloc5,prodloc4,tr0,13568,352768).
route(prodloc5,prodloc4,tr13,13568,81408).
route(prodloc5,prodloc6,tr0,2104,54704).
route(prodloc5,prodloc6,tr13,2104,12624).
route(prodloc5,prodloc7,tr13,19125,114750).
route(prodloc5,prodloc7,tr15,19125,612000).
route(prodloc5,prodloc8,tr0,27174,706524).
route(prodloc5,prodloc8,tr13,27174,163044).
route(prodloc5,prodloc9,tr0,18900,491400).
route(prodloc5,prodloc9,tr13,18900,113400).
route(prodloc5,prodloc10,tr0,21509,559234).
route(prodloc5,prodloc10,tr13,21509,129054).
route(prodloc5,prodloc11,tr0,2298,59748).
route(prodloc5,prodloc11,tr13,2298,13788).
route(prodloc5,prodloc12,tr0,1510,39260).
route(prodloc5,prodloc12,tr13,1510,9060).
route(prodloc5,prodloc13,tr13,21928,131568).
route(prodloc5,prodloc13,tr15,21928,701696).
route(prodloc5,prodloc14,tr0,7661,199186).
route(prodloc5,prodloc14,tr13,7661,45966).
route(prodloc5,prodloc15,tr0,11861,308386).
route(prodloc5,prodloc15,tr13,11861,71166).
route(prodloc5,prodloc16,tr0,18423,478998).
route(prodloc5,prodloc16,tr13,18423,110538).
route(prodloc5,prodloc17,tr0,7886,205036).
route(prodloc5,prodloc17,tr13,7886,47316).
route(prodloc5,prodloc18,tr0,7609,197834).
route(prodloc5,prodloc18,tr13,7609,45654).
route(prodloc5,prodloc19,tr0,4430,115180).
route(prodloc5,prodloc19,tr13,4430,26580).
route(prodloc5,prodloc20,tr0,20668,537368).
route(prodloc5,prodloc20,tr13,20668,124008).
route(prodloc5,prodloc21,tr0,2486,64636).
route(prodloc5,prodloc21,tr13,2486,14916).
route(prodloc5,prodloc22,tr0,7994,207844).
route(prodloc5,prodloc22,tr13,7994,47964).
route(prodloc5,prodloc23,tr0,7275,189150).
route(prodloc5,prodloc23,tr13,7275,43650).
route(prodloc5,prodloc24,tr0,23132,601432).
route(prodloc5,prodloc24,tr13,23132,138792).
route(prodloc5,prodloc25,tr0,6667,173342).
route(prodloc5,prodloc25,tr13,6667,40002).
route(prodloc5,prodloc26,tr0,18615,483990).
route(prodloc5,prodloc26,tr13,18615,111690).
route(prodloc5,prodloc27,tr0,5757,149682).
route(prodloc5,prodloc27,tr13,5757,34542).
route(prodloc5,prodloc28,tr0,11163,290238).
route(prodloc5,prodloc28,tr13,11163,66978).
route(prodloc5,prodloc29,tr0,9324,242424).
route(prodloc5,prodloc29,tr13,9324,55944).
route(prodloc5,prodloc30,tr0,19339,502814).
route(prodloc5,prodloc30,tr13,19339,116034).
route(prodloc5,prodloc31,tr0,15821,411346).
route(prodloc5,prodloc31,tr13,15821,94926).
route(prodloc5,prodloc32,tr0,6864,178464).
route(prodloc5,prodloc32,tr13,6864,41184).
route(prodloc5,prodloc33,tr0,18633,484458).
route(prodloc5,prodloc33,tr13,18633,111798).
route(prodloc6,harbor0,tr0,6016,156416).
route(prodloc6,harbor0,tr13,6016,36096).
route(prodloc6,harbor1,tr0,1569,40794).
route(prodloc6,harbor1,tr13,1569,9414).
route(prodloc6,harbor2,tr0,1878,48828).
route(prodloc6,harbor2,tr13,1878,11268).
route(prodloc6,harbor3,tr0,23176,602576).
route(prodloc6,harbor3,tr13,23176,139056).
route(prodloc6,harbor4,tr0,12738,331188).
route(prodloc6,harbor4,tr13,12738,76428).
route(prodloc6,harbor5,tr0,3422,88972).
route(prodloc6,harbor5,tr13,3422,20532).
route(prodloc6,harbor6,tr0,13110,340860).
route(prodloc6,harbor6,tr13,13110,78660).
route(prodloc6,harbor7,tr0,26855,698230).
route(prodloc6,harbor7,tr13,26855,161130).
route(prodloc6,harbor8,tr0,9069,235794).
route(prodloc6,harbor8,tr13,9069,54414).
route(prodloc6,harbor9,tr0,23929,622154).
route(prodloc6,harbor9,tr13,23929,143574).
route(prodloc6,harbor10,tr0,15325,398450).
route(prodloc6,harbor10,tr13,15325,91950).
route(prodloc6,harbor11,tr0,3915,101790).
route(prodloc6,harbor11,tr13,3915,23490).
route(prodloc6,harbor12,tr0,26305,683930).
route(prodloc6,harbor12,tr13,26305,157830).
route(prodloc6,harbor13,tr0,13069,339794).
route(prodloc6,harbor13,tr13,13069,78414).
route(prodloc6,harbor14,tr0,15983,415558).
route(prodloc6,harbor14,tr13,15983,95898).
route(prodloc6,harbor15,tr0,14801,384826).
route(prodloc6,harbor15,tr13,14801,88806).
route(prodloc6,harbor16,tr0,10388,270088).
route(prodloc6,harbor16,tr13,10388,62328).
route(prodloc6,prodloc0,tr0,670,17420).
route(prodloc6,prodloc0,tr13,670,4020).
route(prodloc6,prodloc1,tr0,11745,305370).
route(prodloc6,prodloc1,tr13,11745,70470).
route(prodloc6,prodloc2,tr0,24668,641368).
route(prodloc6,prodloc2,tr13,24668,148008).
route(prodloc6,prodloc3,tr0,7787,202462).
route(prodloc6,prodloc3,tr13,7787,46722).
route(prodloc6,prodloc4,tr0,17357,451282).
route(prodloc6,prodloc4,tr13,17357,104142).
route(prodloc6,prodloc5,tr0,27641,718666).
route(prodloc6,prodloc5,tr13,27641,165846).
route(prodloc6,prodloc7,tr0,27100,704600).
route(prodloc6,prodloc7,tr13,27100,162600).
route(prodloc6,prodloc8,tr0,1235,32110).
route(prodloc6,prodloc8,tr13,1235,7410).
route(prodloc6,prodloc9,tr0,23970,623220).
route(prodloc6,prodloc9,tr15,23970,767040).
route(prodloc6,prodloc10,tr0,27051,703326).
route(prodloc6,prodloc10,tr13,27051,162306).
route(prodloc6,prodloc11,tr0,4451,115726).
route(prodloc6,prodloc11,tr13,4451,26706).
route(prodloc6,prodloc12,tr0,11296,293696).
route(prodloc6,prodloc12,tr13,11296,67776).
route(prodloc6,prodloc13,tr0,10471,272246).
route(prodloc6,prodloc13,tr13,10471,62826).
route(prodloc6,prodloc14,tr0,848,22048).
route(prodloc6,prodloc14,tr13,848,5088).
route(prodloc6,prodloc15,tr13,13720,82320).
route(prodloc6,prodloc15,tr15,13720,439040).
route(prodloc6,prodloc16,tr0,6847,178022).
route(prodloc6,prodloc16,tr13,6847,41082).
route(prodloc6,prodloc17,tr0,17002,442052).
route(prodloc6,prodloc17,tr13,17002,102012).
route(prodloc6,prodloc18,tr0,13259,344734).
route(prodloc6,prodloc18,tr13,13259,79554).
route(prodloc6,prodloc19,tr0,797,20722).
route(prodloc6,prodloc19,tr13,797,4782).
route(prodloc6,prodloc20,tr0,16526,429676).
route(prodloc6,prodloc20,tr13,16526,99156).
route(prodloc6,prodloc21,tr0,25369,659594).
route(prodloc6,prodloc21,tr13,25369,152214).
route(prodloc6,prodloc22,tr0,9202,239252).
route(prodloc6,prodloc22,tr13,9202,55212).
route(prodloc6,prodloc23,tr0,4338,112788).
route(prodloc6,prodloc23,tr13,4338,26028).
route(prodloc6,prodloc24,tr0,1037,26962).
route(prodloc6,prodloc24,tr13,1037,6222).
route(prodloc6,prodloc25,tr0,1915,49790).
route(prodloc6,prodloc25,tr13,1915,11490).
route(prodloc6,prodloc26,tr0,6731,175006).
route(prodloc6,prodloc26,tr13,6731,40386).
route(prodloc6,prodloc27,tr0,7909,205634).
route(prodloc6,prodloc27,tr13,7909,47454).
route(prodloc6,prodloc28,tr0,3274,85124).
route(prodloc6,prodloc28,tr13,3274,19644).
route(prodloc6,prodloc29,tr0,3236,84136).
route(prodloc6,prodloc29,tr13,3236,19416).
route(prodloc6,prodloc30,tr0,24618,640068).
route(prodloc6,prodloc30,tr13,24618,147708).
route(prodloc6,prodloc31,tr0,16887,439062).
route(prodloc6,prodloc31,tr13,16887,101322).
route(prodloc6,prodloc32,tr0,7415,192790).
route(prodloc6,prodloc32,tr13,7415,44490).
route(prodloc6,prodloc33,tr0,6620,172120).
route(prodloc6,prodloc33,tr13,6620,39720).
route(prodloc7,harbor0,tr0,25098,652548).
route(prodloc7,harbor0,tr13,25098,150588).
route(prodloc7,harbor1,tr0,10560,274560).
route(prodloc7,harbor1,tr13,10560,63360).
route(prodloc7,harbor2,tr0,3817,99242).
route(prodloc7,harbor2,tr13,3817,22902).
route(prodloc7,harbor3,tr0,8653,224978).
route(prodloc7,harbor3,tr13,8653,51918).
route(prodloc7,harbor4,tr0,20510,533260).
route(prodloc7,harbor4,tr13,20510,123060).
route(prodloc7,harbor5,tr0,14817,385242).
route(prodloc7,harbor5,tr13,14817,88902).
route(prodloc7,harbor6,tr0,7614,197964).
route(prodloc7,harbor6,tr13,7614,45684).
route(prodloc7,harbor7,tr0,10552,274352).
route(prodloc7,harbor7,tr13,10552,63312).
route(prodloc7,harbor8,tr0,20342,528892).
route(prodloc7,harbor8,tr13,20342,122052).
route(prodloc7,harbor9,tr0,20526,533676).
route(prodloc7,harbor9,tr13,20526,123156).
route(prodloc7,harbor10,tr0,24316,632216).
route(prodloc7,harbor10,tr13,24316,145896).
route(prodloc7,harbor11,tr0,7057,183482).
route(prodloc7,harbor11,tr13,7057,42342).
route(prodloc7,harbor12,tr0,22771,592046).
route(prodloc7,harbor12,tr13,22771,136626).
route(prodloc7,harbor13,tr0,22480,584480).
route(prodloc7,harbor13,tr13,22480,134880).
route(prodloc7,harbor14,tr0,19084,496184).
route(prodloc7,harbor14,tr13,19084,114504).
route(prodloc7,harbor15,tr0,24694,642044).
route(prodloc7,harbor15,tr13,24694,148164).
route(prodloc7,harbor16,tr0,14398,374348).
route(prodloc7,harbor16,tr13,14398,86388).
route(prodloc7,prodloc0,tr0,2671,69446).
route(prodloc7,prodloc0,tr13,2671,16026).
route(prodloc7,prodloc1,tr13,15279,91674).
route(prodloc7,prodloc1,tr15,15279,488928).
route(prodloc7,prodloc2,tr0,15750,409500).
route(prodloc7,prodloc2,tr13,15750,94500).
route(prodloc7,prodloc3,tr0,21319,554294).
route(prodloc7,prodloc3,tr13,21319,127914).
route(prodloc7,prodloc4,tr0,26868,698568).
route(prodloc7,prodloc4,tr13,26868,161208).
route(prodloc7,prodloc5,tr0,3823,99398).
route(prodloc7,prodloc5,tr13,3823,22938).
route(prodloc7,prodloc6,tr0,2306,59956).
route(prodloc7,prodloc6,tr13,2306,13836).
route(prodloc7,prodloc8,tr0,24048,625248).
route(prodloc7,prodloc8,tr13,24048,144288).
route(prodloc7,prodloc9,tr0,11177,290602).
route(prodloc7,prodloc9,tr13,11177,67062).
route(prodloc7,prodloc10,tr0,3606,93756).
route(prodloc7,prodloc10,tr13,3606,21636).
route(prodloc7,prodloc11,tr0,4,104).
route(prodloc7,prodloc11,tr13,4,24).
route(prodloc7,prodloc12,tr0,3497,90922).
route(prodloc7,prodloc12,tr13,3497,20982).
route(prodloc7,prodloc13,tr0,18247,474422).
route(prodloc7,prodloc13,tr13,18247,109482).
route(prodloc7,prodloc14,tr0,269,6994).
route(prodloc7,prodloc14,tr13,269,1614).
route(prodloc7,prodloc15,tr0,317,8242).
route(prodloc7,prodloc15,tr13,317,1902).
route(prodloc7,prodloc16,tr0,28158,732108).
route(prodloc7,prodloc16,tr13,28158,168948).
route(prodloc7,prodloc17,tr0,23032,598832).
route(prodloc7,prodloc17,tr13,23032,138192).
route(prodloc7,prodloc18,tr0,894,23244).
route(prodloc7,prodloc18,tr13,894,5364).
route(prodloc7,prodloc19,tr0,1591,41366).
route(prodloc7,prodloc19,tr13,1591,9546).
route(prodloc7,prodloc20,tr0,15416,400816).
route(prodloc7,prodloc20,tr13,15416,92496).
route(prodloc7,prodloc21,tr0,12380,321880).
route(prodloc7,prodloc21,tr13,12380,74280).
route(prodloc7,prodloc22,tr0,19330,502580).
route(prodloc7,prodloc22,tr13,19330,115980).
route(prodloc7,prodloc23,tr13,5898,35388).
route(prodloc7,prodloc23,tr15,5898,188736).
route(prodloc7,prodloc24,tr0,15858,412308).
route(prodloc7,prodloc24,tr13,15858,95148).
route(prodloc7,prodloc25,tr0,23514,611364).
route(prodloc7,prodloc25,tr13,23514,141084).
route(prodloc7,prodloc26,tr0,19590,509340).
route(prodloc7,prodloc26,tr13,19590,117540).
route(prodloc7,prodloc27,tr0,28155,732030).
route(prodloc7,prodloc27,tr13,28155,168930).
route(prodloc7,prodloc28,tr0,144,3744).
route(prodloc7,prodloc28,tr13,144,864).
route(prodloc7,prodloc29,tr0,26595,691470).
route(prodloc7,prodloc29,tr13,26595,159570).
route(prodloc7,prodloc30,tr0,12978,337428).
route(prodloc7,prodloc30,tr13,12978,77868).
route(prodloc7,prodloc31,tr0,23954,622804).
route(prodloc7,prodloc31,tr13,23954,143724).
route(prodloc7,prodloc32,tr0,5183,134758).
route(prodloc7,prodloc32,tr13,5183,31098).
route(prodloc7,prodloc33,tr0,12726,330876).
route(prodloc7,prodloc33,tr13,12726,76356).
route(prodloc8,harbor0,tr0,25330,658580).
route(prodloc8,harbor0,tr13,25330,151980).
route(prodloc8,harbor1,tr0,7470,194220).
route(prodloc8,harbor1,tr13,7470,44820).
route(prodloc8,harbor2,tr0,8311,216086).
route(prodloc8,harbor2,tr13,8311,49866).
route(prodloc8,harbor3,tr0,21734,565084).
route(prodloc8,harbor3,tr13,21734,130404).
route(prodloc8,harbor4,tr0,5515,143390).
route(prodloc8,harbor4,tr13,5515,33090).
route(prodloc8,harbor5,tr0,14515,377390).
route(prodloc8,harbor5,tr13,14515,87090).
route(prodloc8,harbor6,tr0,27428,713128).
route(prodloc8,harbor6,tr13,27428,164568).
route(prodloc8,harbor7,tr0,14327,372502).
route(prodloc8,harbor7,tr13,14327,85962).
route(prodloc8,harbor8,tr0,11734,305084).
route(prodloc8,harbor8,tr13,11734,70404).
route(prodloc8,harbor9,tr0,17615,457990).
route(prodloc8,harbor9,tr13,17615,105690).
route(prodloc8,harbor10,tr0,8341,216866).
route(prodloc8,harbor10,tr13,8341,50046).
route(prodloc8,harbor11,tr0,26375,685750).
route(prodloc8,harbor11,tr13,26375,158250).
route(prodloc8,harbor12,tr0,21157,550082).
route(prodloc8,harbor12,tr13,21157,126942).
route(prodloc8,harbor13,tr0,19654,511004).
route(prodloc8,harbor13,tr13,19654,117924).
route(prodloc8,harbor14,tr0,3906,101556).
route(prodloc8,harbor14,tr13,3906,23436).
route(prodloc8,harbor15,tr0,26581,691106).
route(prodloc8,harbor15,tr13,26581,159486).
route(prodloc8,harbor16,tr0,15580,405080).
route(prodloc8,harbor16,tr13,15580,93480).
route(prodloc8,prodloc0,tr0,26736,695136).
route(prodloc8,prodloc0,tr13,26736,160416).
route(prodloc8,prodloc1,tr0,3202,83252).
route(prodloc8,prodloc1,tr13,3202,19212).
route(prodloc8,prodloc2,tr0,24175,628550).
route(prodloc8,prodloc2,tr13,24175,145050).
route(prodloc8,prodloc3,tr0,26861,698386).
route(prodloc8,prodloc3,tr13,26861,161166).
route(prodloc8,prodloc4,tr0,17399,452374).
route(prodloc8,prodloc4,tr13,17399,104394).
route(prodloc8,prodloc5,tr0,10536,273936).
route(prodloc8,prodloc5,tr13,10536,63216).
route(prodloc8,prodloc6,tr0,17827,463502).
route(prodloc8,prodloc6,tr13,17827,106962).
route(prodloc8,prodloc7,tr0,2023,52598).
route(prodloc8,prodloc7,tr13,2023,12138).
route(prodloc8,prodloc9,tr0,18767,487942).
route(prodloc8,prodloc9,tr13,18767,112602).
route(prodloc8,prodloc10,tr0,27709,720434).
route(prodloc8,prodloc10,tr13,27709,166254).
route(prodloc8,prodloc11,tr0,6441,167466).
route(prodloc8,prodloc11,tr13,6441,38646).
route(prodloc8,prodloc12,tr0,14310,372060).
route(prodloc8,prodloc12,tr13,14310,85860).
route(prodloc8,prodloc13,tr0,17028,442728).
route(prodloc8,prodloc13,tr13,17028,102168).
route(prodloc8,prodloc14,tr0,17858,464308).
route(prodloc8,prodloc14,tr13,17858,107148).
route(prodloc8,prodloc15,tr0,11294,293644).
route(prodloc8,prodloc15,tr13,11294,67764).
route(prodloc8,prodloc16,tr0,16719,434694).
route(prodloc8,prodloc16,tr13,16719,100314).
route(prodloc8,prodloc17,tr0,10746,279396).
route(prodloc8,prodloc17,tr13,10746,64476).
route(prodloc8,prodloc18,tr0,12630,328380).
route(prodloc8,prodloc18,tr13,12630,75780).
route(prodloc8,prodloc19,tr0,19171,498446).
route(prodloc8,prodloc19,tr13,19171,115026).
route(prodloc8,prodloc20,tr0,7114,184964).
route(prodloc8,prodloc20,tr13,7114,42684).
route(prodloc8,prodloc21,tr0,17713,460538).
route(prodloc8,prodloc21,tr13,17713,106278).
route(prodloc8,prodloc22,tr0,28343,736918).
route(prodloc8,prodloc22,tr13,28343,170058).
route(prodloc8,prodloc23,tr0,26098,678548).
route(prodloc8,prodloc23,tr13,26098,156588).
route(prodloc8,prodloc24,tr0,18150,471900).
route(prodloc8,prodloc24,tr13,18150,108900).
route(prodloc8,prodloc25,tr0,11240,292240).
route(prodloc8,prodloc25,tr13,11240,67440).
route(prodloc8,prodloc26,tr0,14932,388232).
route(prodloc8,prodloc26,tr13,14932,89592).
route(prodloc8,prodloc27,tr0,28611,743886).
route(prodloc8,prodloc27,tr13,28611,171666).
route(prodloc8,prodloc28,tr0,336,8736).
route(prodloc8,prodloc28,tr13,336,2016).
route(prodloc8,prodloc29,tr0,9492,246792).
route(prodloc8,prodloc29,tr13,9492,56952).
route(prodloc8,prodloc30,tr0,24456,635856).
route(prodloc8,prodloc30,tr13,24456,146736).
route(prodloc8,prodloc31,tr0,18882,490932).
route(prodloc8,prodloc31,tr13,18882,113292).
route(prodloc8,prodloc32,tr0,1903,49478).
route(prodloc8,prodloc32,tr13,1903,11418).
route(prodloc8,prodloc33,tr0,28644,744744).
route(prodloc8,prodloc33,tr13,28644,171864).
route(prodloc9,harbor0,tr0,25431,661206).
route(prodloc9,harbor0,tr13,25431,152586).
route(prodloc9,harbor1,tr0,16956,440856).
route(prodloc9,harbor1,tr13,16956,101736).
route(prodloc9,harbor2,tr0,3533,91858).
route(prodloc9,harbor2,tr13,3533,21198).
route(prodloc9,harbor3,tr0,18698,486148).
route(prodloc9,harbor3,tr13,18698,112188).
route(prodloc9,harbor4,tr0,12131,315406).
route(prodloc9,harbor4,tr13,12131,72786).
route(prodloc9,harbor5,tr0,12711,330486).
route(prodloc9,harbor5,tr13,12711,76266).
route(prodloc9,harbor6,tr0,22526,585676).
route(prodloc9,harbor6,tr13,22526,135156).
route(prodloc9,harbor7,tr0,18096,470496).
route(prodloc9,harbor7,tr13,18096,108576).
route(prodloc9,harbor8,tr0,3258,84708).
route(prodloc9,harbor8,tr13,3258,19548).
route(prodloc9,harbor9,tr0,2869,74594).
route(prodloc9,harbor9,tr13,2869,17214).
route(prodloc9,harbor10,tr0,5139,133614).
route(prodloc9,harbor10,tr13,5139,30834).
route(prodloc9,harbor11,tr0,26361,685386).
route(prodloc9,harbor11,tr13,26361,158166).
route(prodloc9,harbor12,tr0,17518,455468).
route(prodloc9,harbor12,tr13,17518,105108).
route(prodloc9,harbor13,tr0,22745,591370).
route(prodloc9,harbor13,tr13,22745,136470).
route(prodloc9,harbor14,tr0,9813,255138).
route(prodloc9,harbor14,tr13,9813,58878).
route(prodloc9,harbor15,tr0,2707,70382).
route(prodloc9,harbor15,tr13,2707,16242).
route(prodloc9,harbor16,tr0,16508,429208).
route(prodloc9,harbor16,tr13,16508,99048).
route(prodloc9,prodloc0,tr0,22549,586274).
route(prodloc9,prodloc0,tr13,22549,135294).
route(prodloc9,prodloc1,tr0,16201,421226).
route(prodloc9,prodloc1,tr13,16201,97206).
route(prodloc9,prodloc2,tr0,26976,701376).
route(prodloc9,prodloc2,tr13,26976,161856).
route(prodloc9,prodloc3,tr0,26378,685828).
route(prodloc9,prodloc3,tr13,26378,158268).
route(prodloc9,prodloc4,tr0,21284,553384).
route(prodloc9,prodloc4,tr13,21284,127704).
route(prodloc9,prodloc5,tr0,2998,77948).
route(prodloc9,prodloc5,tr13,2998,17988).
route(prodloc9,prodloc6,tr0,623,16198).
route(prodloc9,prodloc6,tr13,623,3738).
route(prodloc9,prodloc7,tr0,8038,208988).
route(prodloc9,prodloc7,tr13,8038,48228).
route(prodloc9,prodloc8,tr0,21727,564902).
route(prodloc9,prodloc8,tr13,21727,130362).
route(prodloc9,prodloc10,tr13,21566,129396).
route(prodloc9,prodloc10,tr15,21566,690112).
route(prodloc9,prodloc11,tr0,10440,271440).
route(prodloc9,prodloc11,tr13,10440,62640).
route(prodloc9,prodloc12,tr0,25300,657800).
route(prodloc9,prodloc12,tr13,25300,151800).
route(prodloc9,prodloc13,tr0,5980,155480).
route(prodloc9,prodloc13,tr13,5980,35880).
route(prodloc9,prodloc14,tr0,15224,395824).
route(prodloc9,prodloc14,tr13,15224,91344).
route(prodloc9,prodloc15,tr0,11942,310492).
route(prodloc9,prodloc15,tr13,11942,71652).
route(prodloc9,prodloc16,tr0,28587,743262).
route(prodloc9,prodloc16,tr13,28587,171522).
route(prodloc9,prodloc17,tr0,16038,416988).
route(prodloc9,prodloc17,tr13,16038,96228).
route(prodloc9,prodloc18,tr0,25948,674648).
route(prodloc9,prodloc18,tr13,25948,155688).
route(prodloc9,prodloc19,tr0,7065,183690).
route(prodloc9,prodloc19,tr13,7065,42390).
route(prodloc9,prodloc20,tr0,15016,390416).
route(prodloc9,prodloc20,tr13,15016,90096).
route(prodloc9,prodloc21,tr0,1741,45266).
route(prodloc9,prodloc21,tr13,1741,10446).
route(prodloc9,prodloc22,tr0,28209,733434).
route(prodloc9,prodloc22,tr13,28209,169254).
route(prodloc9,prodloc23,tr0,12601,327626).
route(prodloc9,prodloc23,tr13,12601,75606).
route(prodloc9,prodloc24,tr0,16913,439738).
route(prodloc9,prodloc24,tr13,16913,101478).
route(prodloc9,prodloc25,tr0,25011,650286).
route(prodloc9,prodloc25,tr13,25011,150066).
route(prodloc9,prodloc26,tr0,4874,126724).
route(prodloc9,prodloc26,tr13,4874,29244).
route(prodloc9,prodloc27,tr0,19282,501332).
route(prodloc9,prodloc27,tr13,19282,115692).
route(prodloc9,prodloc28,tr0,23185,602810).
route(prodloc9,prodloc28,tr13,23185,139110).
route(prodloc9,prodloc29,tr0,4519,117494).
route(prodloc9,prodloc29,tr13,4519,27114).
route(prodloc9,prodloc30,tr0,28290,735540).
route(prodloc9,prodloc30,tr13,28290,169740).
route(prodloc9,prodloc31,tr0,21649,562874).
route(prodloc9,prodloc31,tr13,21649,129894).
route(prodloc9,prodloc32,tr0,22283,579358).
route(prodloc9,prodloc32,tr13,22283,133698).
route(prodloc9,prodloc33,tr0,5551,144326).
route(prodloc9,prodloc33,tr13,5551,33306).
route(prodloc10,harbor0,tr0,9635,250510).
route(prodloc10,harbor0,tr13,9635,57810).
route(prodloc10,harbor1,tr0,19697,512122).
route(prodloc10,harbor1,tr13,19697,118182).
route(prodloc10,harbor2,tr0,15630,406380).
route(prodloc10,harbor2,tr13,15630,93780).
route(prodloc10,harbor3,tr0,24676,641576).
route(prodloc10,harbor3,tr13,24676,148056).
route(prodloc10,harbor4,tr0,4267,110942).
route(prodloc10,harbor4,tr13,4267,25602).
route(prodloc10,harbor5,tr0,13655,355030).
route(prodloc10,harbor5,tr13,13655,81930).
route(prodloc10,harbor6,tr0,8065,209690).
route(prodloc10,harbor6,tr13,8065,48390).
route(prodloc10,harbor7,tr0,22206,577356).
route(prodloc10,harbor7,tr13,22206,133236).
route(prodloc10,harbor8,tr0,2157,56082).
route(prodloc10,harbor8,tr13,2157,12942).
route(prodloc10,harbor9,tr0,5503,143078).
route(prodloc10,harbor9,tr13,5503,33018).
route(prodloc10,harbor10,tr0,23867,620542).
route(prodloc10,harbor10,tr13,23867,143202).
route(prodloc10,harbor11,tr0,23613,613938).
route(prodloc10,harbor11,tr13,23613,141678).
route(prodloc10,harbor12,tr0,21850,568100).
route(prodloc10,harbor12,tr13,21850,131100).
route(prodloc10,harbor13,tr0,15877,412802).
route(prodloc10,harbor13,tr13,15877,95262).
route(prodloc10,harbor14,tr0,22410,582660).
route(prodloc10,harbor14,tr13,22410,134460).
route(prodloc10,harbor15,tr0,26062,677612).
route(prodloc10,harbor15,tr13,26062,156372).
route(prodloc10,harbor16,tr0,22791,592566).
route(prodloc10,harbor16,tr13,22791,136746).
route(prodloc10,prodloc0,tr0,24079,626054).
route(prodloc10,prodloc0,tr15,24079,770528).
route(prodloc10,prodloc1,tr0,15418,400868).
route(prodloc10,prodloc1,tr13,15418,92508).
route(prodloc10,prodloc2,tr0,13024,338624).
route(prodloc10,prodloc2,tr13,13024,78144).
route(prodloc10,prodloc3,tr0,8255,214630).
route(prodloc10,prodloc3,tr13,8255,49530).
route(prodloc10,prodloc4,tr0,6152,159952).
route(prodloc10,prodloc4,tr13,6152,36912).
route(prodloc10,prodloc5,tr0,16147,419822).
route(prodloc10,prodloc5,tr13,16147,96882).
route(prodloc10,prodloc6,tr0,24694,642044).
route(prodloc10,prodloc6,tr13,24694,148164).
route(prodloc10,prodloc7,tr0,17698,460148).
route(prodloc10,prodloc7,tr13,17698,106188).
route(prodloc10,prodloc8,tr0,5093,132418).
route(prodloc10,prodloc8,tr13,5093,30558).
route(prodloc10,prodloc9,tr0,12448,323648).
route(prodloc10,prodloc9,tr13,12448,74688).
route(prodloc10,prodloc11,tr0,16000,416000).
route(prodloc10,prodloc11,tr13,16000,96000).
route(prodloc10,prodloc12,tr0,7367,191542).
route(prodloc10,prodloc12,tr13,7367,44202).
route(prodloc10,prodloc13,tr0,11656,303056).
route(prodloc10,prodloc13,tr13,11656,69936).
route(prodloc10,prodloc14,tr0,19120,497120).
route(prodloc10,prodloc14,tr13,19120,114720).
route(prodloc10,prodloc15,tr0,12365,321490).
route(prodloc10,prodloc15,tr13,12365,74190).
route(prodloc10,prodloc16,tr0,21294,553644).
route(prodloc10,prodloc16,tr13,21294,127764).
route(prodloc10,prodloc17,tr0,20710,538460).
route(prodloc10,prodloc17,tr13,20710,124260).
route(prodloc10,prodloc18,tr0,7568,196768).
route(prodloc10,prodloc18,tr13,7568,45408).
route(prodloc10,prodloc19,tr0,19278,501228).
route(prodloc10,prodloc19,tr13,19278,115668).
route(prodloc10,prodloc20,tr0,4207,109382).
route(prodloc10,prodloc20,tr13,4207,25242).
route(prodloc10,prodloc21,tr0,3858,100308).
route(prodloc10,prodloc21,tr13,3858,23148).
route(prodloc10,prodloc22,tr0,24747,643422).
route(prodloc10,prodloc22,tr13,24747,148482).
route(prodloc10,prodloc23,tr0,28912,751712).
route(prodloc10,prodloc23,tr13,28912,173472).
route(prodloc10,prodloc24,tr0,6925,180050).
route(prodloc10,prodloc24,tr15,6925,221600).
route(prodloc10,prodloc25,tr0,23917,621842).
route(prodloc10,prodloc25,tr13,23917,143502).
route(prodloc10,prodloc26,tr0,26164,680264).
route(prodloc10,prodloc26,tr13,26164,156984).
route(prodloc10,prodloc27,tr0,26924,700024).
route(prodloc10,prodloc27,tr13,26924,161544).
route(prodloc10,prodloc28,tr0,25327,658502).
route(prodloc10,prodloc28,tr13,25327,151962).
route(prodloc10,prodloc29,tr0,23766,617916).
route(prodloc10,prodloc29,tr13,23766,142596).
route(prodloc10,prodloc30,tr0,17994,467844).
route(prodloc10,prodloc30,tr13,17994,107964).
route(prodloc10,prodloc31,tr0,12750,331500).
route(prodloc10,prodloc31,tr13,12750,76500).
route(prodloc10,prodloc32,tr0,24667,641342).
route(prodloc10,prodloc32,tr13,24667,148002).
route(prodloc10,prodloc33,tr0,19035,494910).
route(prodloc10,prodloc33,tr13,19035,114210).
route(prodloc11,harbor0,tr0,25646,666796).
route(prodloc11,harbor0,tr13,25646,153876).
route(prodloc11,harbor1,tr0,15093,392418).
route(prodloc11,harbor1,tr13,15093,90558).
route(prodloc11,harbor2,tr0,5754,149604).
route(prodloc11,harbor2,tr13,5754,34524).
route(prodloc11,harbor3,tr0,27261,708786).
route(prodloc11,harbor3,tr13,27261,163566).
route(prodloc11,harbor4,tr0,3639,94614).
route(prodloc11,harbor4,tr13,3639,21834).
route(prodloc11,harbor5,tr0,5320,138320).
route(prodloc11,harbor5,tr13,5320,31920).
route(prodloc11,harbor6,tr0,4256,110656).
route(prodloc11,harbor6,tr13,4256,25536).
route(prodloc11,harbor7,tr0,2185,56810).
route(prodloc11,harbor7,tr13,2185,13110).
route(prodloc11,harbor8,tr0,10013,260338).
route(prodloc11,harbor8,tr13,10013,60078).
route(prodloc11,harbor9,tr0,24176,628576).
route(prodloc11,harbor9,tr13,24176,145056).
route(prodloc11,harbor10,tr0,18720,486720).
route(prodloc11,harbor10,tr13,18720,112320).
route(prodloc11,harbor11,tr0,20067,521742).
route(prodloc11,harbor11,tr13,20067,120402).
route(prodloc11,harbor12,tr0,7639,198614).
route(prodloc11,harbor12,tr13,7639,45834).
route(prodloc11,harbor13,tr0,28815,749190).
route(prodloc11,harbor13,tr13,28815,172890).
route(prodloc11,harbor14,tr0,22493,584818).
route(prodloc11,harbor14,tr13,22493,134958).
route(prodloc11,harbor15,tr0,24927,648102).
route(prodloc11,harbor15,tr13,24927,149562).
route(prodloc11,harbor16,tr0,12068,313768).
route(prodloc11,harbor16,tr13,12068,72408).
route(prodloc11,prodloc0,tr0,21048,547248).
route(prodloc11,prodloc0,tr13,21048,126288).
route(prodloc11,prodloc1,tr0,23747,617422).
route(prodloc11,prodloc1,tr13,23747,142482).
route(prodloc11,prodloc2,tr0,24684,641784).
route(prodloc11,prodloc2,tr13,24684,148104).
route(prodloc11,prodloc3,tr0,13465,350090).
route(prodloc11,prodloc3,tr13,13465,80790).
route(prodloc11,prodloc4,tr0,10049,261274).
route(prodloc11,prodloc4,tr13,10049,60294).
route(prodloc11,prodloc5,tr0,1480,38480).
route(prodloc11,prodloc5,tr13,1480,8880).
route(prodloc11,prodloc6,tr0,24048,625248).
route(prodloc11,prodloc6,tr13,24048,144288).
route(prodloc11,prodloc7,tr0,19307,501982).
route(prodloc11,prodloc7,tr13,19307,115842).
route(prodloc11,prodloc8,tr0,22970,597220).
route(prodloc11,prodloc8,tr13,22970,137820).
route(prodloc11,prodloc9,tr0,7118,185068).
route(prodloc11,prodloc9,tr13,7118,42708).
route(prodloc11,prodloc10,tr0,5247,136422).
route(prodloc11,prodloc10,tr13,5247,31482).
route(prodloc11,prodloc12,tr0,14914,387764).
route(prodloc11,prodloc12,tr13,14914,89484).
route(prodloc11,prodloc13,tr0,25377,659802).
route(prodloc11,prodloc13,tr13,25377,152262).
route(prodloc11,prodloc14,tr0,25169,654394).
route(prodloc11,prodloc14,tr13,25169,151014).
route(prodloc11,prodloc15,tr0,28374,737724).
route(prodloc11,prodloc15,tr13,28374,170244).
route(prodloc11,prodloc16,tr0,4210,109460).
route(prodloc11,prodloc16,tr13,4210,25260).
route(prodloc11,prodloc17,tr0,14161,368186).
route(prodloc11,prodloc17,tr13,14161,84966).
route(prodloc11,prodloc18,tr0,7627,198302).
route(prodloc11,prodloc18,tr13,7627,45762).
route(prodloc11,prodloc19,tr0,21560,560560).
route(prodloc11,prodloc19,tr13,21560,129360).
route(prodloc11,prodloc20,tr0,16952,440752).
route(prodloc11,prodloc20,tr13,16952,101712).
route(prodloc11,prodloc21,tr0,20009,520234).
route(prodloc11,prodloc21,tr13,20009,120054).
route(prodloc11,prodloc22,tr0,26247,682422).
route(prodloc11,prodloc22,tr13,26247,157482).
route(prodloc11,prodloc23,tr0,4613,119938).
route(prodloc11,prodloc23,tr13,4613,27678).
route(prodloc11,prodloc24,tr0,22256,578656).
route(prodloc11,prodloc24,tr13,22256,133536).
route(prodloc11,prodloc25,tr0,22571,586846).
route(prodloc11,prodloc25,tr13,22571,135426).
route(prodloc11,prodloc26,tr0,12467,324142).
route(prodloc11,prodloc26,tr13,12467,74802).
route(prodloc11,prodloc27,tr0,12122,315172).
route(prodloc11,prodloc27,tr13,12122,72732).
route(prodloc11,prodloc28,tr0,15944,414544).
route(prodloc11,prodloc28,tr13,15944,95664).
route(prodloc11,prodloc29,tr0,5590,145340).
route(prodloc11,prodloc29,tr13,5590,33540).
route(prodloc11,prodloc30,tr0,25492,662792).
route(prodloc11,prodloc30,tr13,25492,152952).
route(prodloc11,prodloc31,tr0,27005,702130).
route(prodloc11,prodloc31,tr13,27005,162030).
route(prodloc11,prodloc32,tr0,8880,230880).
route(prodloc11,prodloc32,tr13,8880,53280).
route(prodloc11,prodloc33,tr0,27613,717938).
route(prodloc11,prodloc33,tr13,27613,165678).
route(prodloc12,harbor0,tr0,21154,550004).
route(prodloc12,harbor0,tr13,21154,126924).
route(prodloc12,harbor1,tr0,3775,98150).
route(prodloc12,harbor1,tr13,3775,22650).
route(prodloc12,harbor2,tr0,6587,171262).
route(prodloc12,harbor2,tr13,6587,39522).
route(prodloc12,harbor3,tr0,12734,331084).
route(prodloc12,harbor3,tr13,12734,76404).
route(prodloc12,harbor4,tr0,4319,112294).
route(prodloc12,harbor4,tr13,4319,25914).
route(prodloc12,harbor5,tr0,3230,83980).
route(prodloc12,harbor5,tr13,3230,19380).
route(prodloc12,harbor6,tr0,8501,221026).
route(prodloc12,harbor6,tr13,8501,51006).
route(prodloc12,harbor7,tr0,11335,294710).
route(prodloc12,harbor7,tr13,11335,68010).
route(prodloc12,harbor8,tr0,18806,488956).
route(prodloc12,harbor8,tr13,18806,112836).
route(prodloc12,harbor9,tr0,13090,340340).
route(prodloc12,harbor9,tr13,13090,78540).
route(prodloc12,harbor10,tr0,2635,68510).
route(prodloc12,harbor10,tr13,2635,15810).
route(prodloc12,harbor11,tr0,5209,135434).
route(prodloc12,harbor11,tr13,5209,31254).
route(prodloc12,harbor12,tr0,20228,525928).
route(prodloc12,harbor12,tr13,20228,121368).
route(prodloc12,harbor13,tr0,15118,393068).
route(prodloc12,harbor13,tr13,15118,90708).
route(prodloc12,harbor14,tr0,17447,453622).
route(prodloc12,harbor14,tr13,17447,104682).
route(prodloc12,harbor15,tr0,27327,710502).
route(prodloc12,harbor15,tr13,27327,163962).
route(prodloc12,harbor16,tr0,14903,387478).
route(prodloc12,harbor16,tr13,14903,89418).
route(prodloc12,prodloc0,tr0,21707,564382).
route(prodloc12,prodloc0,tr13,21707,130242).
route(prodloc12,prodloc1,tr0,26593,691418).
route(prodloc12,prodloc1,tr13,26593,159558).
route(prodloc12,prodloc2,tr0,9849,256074).
route(prodloc12,prodloc2,tr13,9849,59094).
route(prodloc12,prodloc3,tr0,22868,594568).
route(prodloc12,prodloc3,tr13,22868,137208).
route(prodloc12,prodloc4,tr0,3927,102102).
route(prodloc12,prodloc4,tr13,3927,23562).
route(prodloc12,prodloc5,tr0,27336,710736).
route(prodloc12,prodloc5,tr13,27336,164016).
route(prodloc12,prodloc6,tr0,3699,96174).
route(prodloc12,prodloc6,tr13,3699,22194).
route(prodloc12,prodloc7,tr0,1036,26936).
route(prodloc12,prodloc7,tr13,1036,6216).
route(prodloc12,prodloc8,tr0,26670,693420).
route(prodloc12,prodloc8,tr13,26670,160020).
route(prodloc12,prodloc9,tr0,8479,220454).
route(prodloc12,prodloc9,tr13,8479,50874).
route(prodloc12,prodloc10,tr0,4708,122408).
route(prodloc12,prodloc10,tr13,4708,28248).
route(prodloc12,prodloc11,tr0,18257,474682).
route(prodloc12,prodloc11,tr13,18257,109542).
route(prodloc12,prodloc13,tr0,11095,288470).
route(prodloc12,prodloc13,tr13,11095,66570).
route(prodloc12,prodloc14,tr0,6329,164554).
route(prodloc12,prodloc14,tr13,6329,37974).
route(prodloc12,prodloc15,tr0,169,4394).
route(prodloc12,prodloc15,tr13,169,1014).
route(prodloc12,prodloc16,tr0,22914,595764).
route(prodloc12,prodloc16,tr13,22914,137484).
route(prodloc12,prodloc17,tr0,10121,263146).
route(prodloc12,prodloc17,tr13,10121,60726).
route(prodloc12,prodloc18,tr0,2788,72488).
route(prodloc12,prodloc18,tr13,2788,16728).
route(prodloc12,prodloc19,tr0,15479,402454).
route(prodloc12,prodloc19,tr13,15479,92874).
route(prodloc12,prodloc20,tr0,14828,385528).
route(prodloc12,prodloc20,tr13,14828,88968).
route(prodloc12,prodloc21,tr0,14391,374166).
route(prodloc12,prodloc21,tr13,14391,86346).
route(prodloc12,prodloc22,tr0,15454,401804).
route(prodloc12,prodloc22,tr13,15454,92724).
route(prodloc12,prodloc23,tr0,16763,435838).
route(prodloc12,prodloc23,tr13,16763,100578).
route(prodloc12,prodloc24,tr0,18410,478660).
route(prodloc12,prodloc24,tr13,18410,110460).
route(prodloc12,prodloc25,tr0,6863,178438).
route(prodloc12,prodloc25,tr13,6863,41178).
route(prodloc12,prodloc26,tr0,199,5174).
route(prodloc12,prodloc26,tr13,199,1194).
route(prodloc12,prodloc27,tr0,22401,582426).
route(prodloc12,prodloc27,tr13,22401,134406).
route(prodloc12,prodloc28,tr0,24889,647114).
route(prodloc12,prodloc28,tr13,24889,149334).
route(prodloc12,prodloc29,tr0,19644,510744).
route(prodloc12,prodloc29,tr13,19644,117864).
route(prodloc12,prodloc30,tr0,6891,179166).
route(prodloc12,prodloc30,tr13,6891,41346).
route(prodloc12,prodloc31,tr0,19724,512824).
route(prodloc12,prodloc31,tr13,19724,118344).
route(prodloc12,prodloc32,tr0,2400,62400).
route(prodloc12,prodloc32,tr13,2400,14400).
route(prodloc12,prodloc33,tr0,9115,236990).
route(prodloc12,prodloc33,tr13,9115,54690).
route(prodloc13,harbor0,tr0,5014,130364).
route(prodloc13,harbor0,tr13,5014,30084).
route(prodloc13,harbor1,tr0,11122,289172).
route(prodloc13,harbor1,tr13,11122,66732).
route(prodloc13,harbor2,tr0,24248,630448).
route(prodloc13,harbor2,tr13,24248,145488).
route(prodloc13,harbor3,tr0,28317,736242).
route(prodloc13,harbor3,tr13,28317,169902).
route(prodloc13,harbor4,tr0,1081,28106).
route(prodloc13,harbor4,tr13,1081,6486).
route(prodloc13,harbor5,tr0,28352,737152).
route(prodloc13,harbor5,tr13,28352,170112).
route(prodloc13,harbor6,tr0,1410,36660).
route(prodloc13,harbor6,tr13,1410,8460).
route(prodloc13,harbor7,tr0,2219,57694).
route(prodloc13,harbor7,tr13,2219,13314).
route(prodloc13,harbor8,tr0,17472,454272).
route(prodloc13,harbor8,tr13,17472,104832).
route(prodloc13,harbor9,tr0,10496,272896).
route(prodloc13,harbor9,tr13,10496,62976).
route(prodloc13,harbor10,tr0,15321,398346).
route(prodloc13,harbor10,tr13,15321,91926).
route(prodloc13,harbor11,tr0,22795,592670).
route(prodloc13,harbor11,tr13,22795,136770).
route(prodloc13,harbor12,tr0,6971,181246).
route(prodloc13,harbor12,tr13,6971,41826).
route(prodloc13,harbor13,tr0,25753,669578).
route(prodloc13,harbor13,tr13,25753,154518).
route(prodloc13,harbor14,tr0,22468,584168).
route(prodloc13,harbor14,tr13,22468,134808).
route(prodloc13,harbor15,tr0,9961,258986).
route(prodloc13,harbor15,tr13,9961,59766).
route(prodloc13,harbor16,tr0,12968,337168).
route(prodloc13,harbor16,tr13,12968,77808).
route(prodloc13,prodloc0,tr0,17280,449280).
route(prodloc13,prodloc0,tr13,17280,103680).
route(prodloc13,prodloc1,tr0,25725,668850).
route(prodloc13,prodloc1,tr13,25725,154350).
route(prodloc13,prodloc2,tr0,7133,185458).
route(prodloc13,prodloc2,tr13,7133,42798).
route(prodloc13,prodloc3,tr0,28491,740766).
route(prodloc13,prodloc3,tr13,28491,170946).
route(prodloc13,prodloc4,tr0,17196,447096).
route(prodloc13,prodloc4,tr13,17196,103176).
route(prodloc13,prodloc5,tr0,6032,156832).
route(prodloc13,prodloc5,tr13,6032,36192).
route(prodloc13,prodloc6,tr0,4175,108550).
route(prodloc13,prodloc6,tr13,4175,25050).
route(prodloc13,prodloc7,tr0,3356,87256).
route(prodloc13,prodloc7,tr13,3356,20136).
route(prodloc13,prodloc8,tr0,24822,645372).
route(prodloc13,prodloc8,tr13,24822,148932).
route(prodloc13,prodloc9,tr0,17596,457496).
route(prodloc13,prodloc9,tr13,17596,105576).
route(prodloc13,prodloc10,tr0,8455,219830).
route(prodloc13,prodloc10,tr13,8455,50730).
route(prodloc13,prodloc11,tr0,24429,635154).
route(prodloc13,prodloc11,tr13,24429,146574).
route(prodloc13,prodloc12,tr0,8743,227318).
route(prodloc13,prodloc12,tr13,8743,52458).
route(prodloc13,prodloc14,tr0,16471,428246).
route(prodloc13,prodloc14,tr13,16471,98826).
route(prodloc13,prodloc15,tr0,6256,162656).
route(prodloc13,prodloc15,tr13,6256,37536).
route(prodloc13,prodloc16,tr0,21996,571896).
route(prodloc13,prodloc16,tr13,21996,131976).
route(prodloc13,prodloc17,tr0,26326,684476).
route(prodloc13,prodloc17,tr13,26326,157956).
route(prodloc13,prodloc18,tr0,7405,192530).
route(prodloc13,prodloc18,tr13,7405,44430).
route(prodloc13,prodloc19,tr0,10172,264472).
route(prodloc13,prodloc19,tr13,10172,61032).
route(prodloc13,prodloc20,tr0,6023,156598).
route(prodloc13,prodloc20,tr13,6023,36138).
route(prodloc13,prodloc21,tr0,8284,215384).
route(prodloc13,prodloc21,tr13,8284,49704).
route(prodloc13,prodloc22,tr0,7143,185718).
route(prodloc13,prodloc22,tr13,7143,42858).
route(prodloc13,prodloc23,tr0,12950,336700).
route(prodloc13,prodloc23,tr13,12950,77700).
route(prodloc13,prodloc24,tr0,8788,228488).
route(prodloc13,prodloc24,tr13,8788,52728).
route(prodloc13,prodloc25,tr0,8811,229086).
route(prodloc13,prodloc25,tr13,8811,52866).
route(prodloc13,prodloc26,tr0,13030,338780).
route(prodloc13,prodloc26,tr13,13030,78180).
route(prodloc13,prodloc27,tr0,7602,197652).
route(prodloc13,prodloc27,tr13,7602,45612).
route(prodloc13,prodloc28,tr0,16473,428298).
route(prodloc13,prodloc28,tr13,16473,98838).
route(prodloc13,prodloc29,tr0,22461,583986).
route(prodloc13,prodloc29,tr13,22461,134766).
route(prodloc13,prodloc30,tr0,8830,229580).
route(prodloc13,prodloc30,tr13,8830,52980).
route(prodloc13,prodloc31,tr0,1907,49582).
route(prodloc13,prodloc31,tr13,1907,11442).
route(prodloc13,prodloc32,tr0,11527,299702).
route(prodloc13,prodloc32,tr13,11527,69162).
route(prodloc13,prodloc33,tr0,9845,255970).
route(prodloc13,prodloc33,tr13,9845,59070).
route(prodloc14,harbor0,tr0,26203,681278).
route(prodloc14,harbor0,tr13,26203,157218).
route(prodloc14,harbor1,tr0,8282,215332).
route(prodloc14,harbor1,tr13,8282,49692).
route(prodloc14,harbor2,tr0,26181,680706).
route(prodloc14,harbor2,tr13,26181,157086).
route(prodloc14,harbor3,tr0,8268,214968).
route(prodloc14,harbor3,tr13,8268,49608).
route(prodloc14,harbor4,tr0,23242,604292).
route(prodloc14,harbor4,tr13,23242,139452).
route(prodloc14,harbor5,tr0,18477,480402).
route(prodloc14,harbor5,tr13,18477,110862).
route(prodloc14,harbor6,tr0,3512,91312).
route(prodloc14,harbor6,tr13,3512,21072).
route(prodloc14,harbor7,tr0,20572,534872).
route(prodloc14,harbor7,tr13,20572,123432).
route(prodloc14,harbor8,tr0,16512,429312).
route(prodloc14,harbor8,tr13,16512,99072).
route(prodloc14,harbor9,tr0,20346,528996).
route(prodloc14,harbor9,tr13,20346,122076).
route(prodloc14,harbor10,tr0,8801,228826).
route(prodloc14,harbor10,tr13,8801,52806).
route(prodloc14,harbor11,tr0,5892,153192).
route(prodloc14,harbor11,tr13,5892,35352).
route(prodloc14,harbor12,tr0,18798,488748).
route(prodloc14,harbor12,tr13,18798,112788).
route(prodloc14,harbor13,tr0,27609,717834).
route(prodloc14,harbor13,tr13,27609,165654).
route(prodloc14,harbor14,tr0,25423,660998).
route(prodloc14,harbor14,tr13,25423,152538).
route(prodloc14,harbor15,tr0,20031,520806).
route(prodloc14,harbor15,tr13,20031,120186).
route(prodloc14,harbor16,tr0,23964,623064).
route(prodloc14,harbor16,tr13,23964,143784).
route(prodloc14,prodloc0,tr0,8785,228410).
route(prodloc14,prodloc0,tr13,8785,52710).
route(prodloc14,prodloc1,tr0,23653,614978).
route(prodloc14,prodloc1,tr13,23653,141918).
route(prodloc14,prodloc2,tr0,4997,129922).
route(prodloc14,prodloc2,tr13,4997,29982).
route(prodloc14,prodloc3,tr0,15901,413426).
route(prodloc14,prodloc3,tr13,15901,95406).
route(prodloc14,prodloc4,tr0,25480,662480).
route(prodloc14,prodloc4,tr13,25480,152880).
route(prodloc14,prodloc5,tr0,24635,640510).
route(prodloc14,prodloc5,tr13,24635,147810).
route(prodloc14,prodloc6,tr0,24580,639080).
route(prodloc14,prodloc6,tr13,24580,147480).
route(prodloc14,prodloc7,tr0,23821,619346).
route(prodloc14,prodloc7,tr13,23821,142926).
route(prodloc14,prodloc8,tr0,7561,196586).
route(prodloc14,prodloc8,tr13,7561,45366).
route(prodloc14,prodloc9,tr0,19876,516776).
route(prodloc14,prodloc9,tr13,19876,119256).
route(prodloc14,prodloc10,tr0,14502,377052).
route(prodloc14,prodloc10,tr13,14502,87012).
route(prodloc14,prodloc11,tr0,6211,161486).
route(prodloc14,prodloc11,tr13,6211,37266).
route(prodloc14,prodloc12,tr0,5744,149344).
route(prodloc14,prodloc12,tr13,5744,34464).
route(prodloc14,prodloc13,tr0,1341,34866).
route(prodloc14,prodloc13,tr13,1341,8046).
route(prodloc14,prodloc15,tr0,15188,394888).
route(prodloc14,prodloc15,tr13,15188,91128).
route(prodloc14,prodloc16,tr0,11057,287482).
route(prodloc14,prodloc16,tr13,11057,66342).
route(prodloc14,prodloc17,tr0,8640,224640).
route(prodloc14,prodloc17,tr13,8640,51840).
route(prodloc14,prodloc18,tr0,12993,337818).
route(prodloc14,prodloc18,tr13,12993,77958).
route(prodloc14,prodloc19,tr0,11767,305942).
route(prodloc14,prodloc19,tr13,11767,70602).
route(prodloc14,prodloc20,tr0,3795,98670).
route(prodloc14,prodloc20,tr13,3795,22770).
route(prodloc14,prodloc21,tr0,28382,737932).
route(prodloc14,prodloc21,tr13,28382,170292).
route(prodloc14,prodloc22,tr0,9265,240890).
route(prodloc14,prodloc22,tr13,9265,55590).
route(prodloc14,prodloc23,tr0,16507,429182).
route(prodloc14,prodloc23,tr13,16507,99042).
route(prodloc14,prodloc24,tr0,16862,438412).
route(prodloc14,prodloc24,tr13,16862,101172).
route(prodloc14,prodloc25,tr0,1513,39338).
route(prodloc14,prodloc25,tr13,1513,9078).
route(prodloc14,prodloc26,tr0,18085,470210).
route(prodloc14,prodloc26,tr13,18085,108510).
route(prodloc14,prodloc27,tr0,5451,141726).
route(prodloc14,prodloc27,tr13,5451,32706).
route(prodloc14,prodloc28,tr0,16570,430820).
route(prodloc14,prodloc28,tr13,16570,99420).
route(prodloc14,prodloc29,tr0,3676,95576).
route(prodloc14,prodloc29,tr13,3676,22056).
route(prodloc14,prodloc30,tr0,23055,599430).
route(prodloc14,prodloc30,tr13,23055,138330).
route(prodloc14,prodloc31,tr0,25662,667212).
route(prodloc14,prodloc31,tr13,25662,153972).
route(prodloc14,prodloc32,tr0,18541,482066).
route(prodloc14,prodloc32,tr13,18541,111246).
route(prodloc14,prodloc33,tr0,11935,310310).
route(prodloc14,prodloc33,tr13,11935,71610).
route(prodloc15,harbor0,tr0,15107,392782).
route(prodloc15,harbor0,tr13,15107,90642).
route(prodloc15,harbor1,tr0,27953,726778).
route(prodloc15,harbor1,tr13,27953,167718).
route(prodloc15,harbor2,tr0,8582,223132).
route(prodloc15,harbor2,tr13,8582,51492).
route(prodloc15,harbor3,tr0,22124,575224).
route(prodloc15,harbor3,tr13,22124,132744).
route(prodloc15,harbor4,tr0,19758,513708).
route(prodloc15,harbor4,tr13,19758,118548).
route(prodloc15,harbor5,tr0,18041,469066).
route(prodloc15,harbor5,tr13,18041,108246).
route(prodloc15,harbor6,tr0,3361,87386).
route(prodloc15,harbor6,tr13,3361,20166).
route(prodloc15,harbor7,tr0,22763,591838).
route(prodloc15,harbor7,tr13,22763,136578).
route(prodloc15,harbor8,tr0,24138,627588).
route(prodloc15,harbor8,tr13,24138,144828).
route(prodloc15,harbor9,tr0,21734,565084).
route(prodloc15,harbor9,tr13,21734,130404).
route(prodloc15,harbor10,tr0,26215,681590).
route(prodloc15,harbor10,tr13,26215,157290).
route(prodloc15,harbor11,tr0,943,24518).
route(prodloc15,harbor11,tr13,943,5658).
route(prodloc15,harbor12,tr0,11530,299780).
route(prodloc15,harbor12,tr13,11530,69180).
route(prodloc15,harbor13,tr0,6825,177450).
route(prodloc15,harbor13,tr13,6825,40950).
route(prodloc15,harbor14,tr0,311,8086).
route(prodloc15,harbor14,tr13,311,1866).
route(prodloc15,harbor15,tr0,4864,126464).
route(prodloc15,harbor15,tr13,4864,29184).
route(prodloc15,harbor16,tr0,11027,286702).
route(prodloc15,harbor16,tr13,11027,66162).
route(prodloc15,prodloc0,tr0,26604,691704).
route(prodloc15,prodloc0,tr13,26604,159624).
route(prodloc15,prodloc1,tr0,24548,638248).
route(prodloc15,prodloc1,tr13,24548,147288).
route(prodloc15,prodloc2,tr0,24892,647192).
route(prodloc15,prodloc2,tr13,24892,149352).
route(prodloc15,prodloc3,tr0,11098,288548).
route(prodloc15,prodloc3,tr13,11098,66588).
route(prodloc15,prodloc4,tr0,27207,707382).
route(prodloc15,prodloc4,tr13,27207,163242).
route(prodloc15,prodloc5,tr0,27857,724282).
route(prodloc15,prodloc5,tr13,27857,167142).
route(prodloc15,prodloc6,tr0,21140,549640).
route(prodloc15,prodloc6,tr13,21140,126840).
route(prodloc15,prodloc7,tr0,2801,72826).
route(prodloc15,prodloc7,tr13,2801,16806).
route(prodloc15,prodloc8,tr0,12327,320502).
route(prodloc15,prodloc8,tr13,12327,73962).
route(prodloc15,prodloc9,tr0,24182,628732).
route(prodloc15,prodloc9,tr13,24182,145092).
route(prodloc15,prodloc10,tr0,13649,354874).
route(prodloc15,prodloc10,tr13,13649,81894).
route(prodloc15,prodloc11,tr0,18114,470964).
route(prodloc15,prodloc11,tr13,18114,108684).
route(prodloc15,prodloc12,tr0,15706,408356).
route(prodloc15,prodloc12,tr13,15706,94236).
route(prodloc15,prodloc13,tr0,9663,251238).
route(prodloc15,prodloc13,tr13,9663,57978).
route(prodloc15,prodloc14,tr0,25220,655720).
route(prodloc15,prodloc14,tr13,25220,151320).
route(prodloc15,prodloc16,tr0,11389,296114).
route(prodloc15,prodloc16,tr13,11389,68334).
route(prodloc15,prodloc17,tr0,16124,419224).
route(prodloc15,prodloc17,tr13,16124,96744).
route(prodloc15,prodloc18,tr0,11565,300690).
route(prodloc15,prodloc18,tr13,11565,69390).
route(prodloc15,prodloc19,tr0,9676,251576).
route(prodloc15,prodloc19,tr13,9676,58056).
route(prodloc15,prodloc20,tr0,14381,373906).
route(prodloc15,prodloc20,tr13,14381,86286).
route(prodloc15,prodloc21,tr0,7092,184392).
route(prodloc15,prodloc21,tr13,7092,42552).
route(prodloc15,prodloc22,tr0,15143,393718).
route(prodloc15,prodloc22,tr13,15143,90858).
route(prodloc15,prodloc23,tr0,12171,316446).
route(prodloc15,prodloc23,tr13,12171,73026).
route(prodloc15,prodloc24,tr0,6304,163904).
route(prodloc15,prodloc24,tr13,6304,37824).
route(prodloc15,prodloc25,tr0,27268,708968).
route(prodloc15,prodloc25,tr13,27268,163608).
route(prodloc15,prodloc26,tr0,14643,380718).
route(prodloc15,prodloc26,tr13,14643,87858).
route(prodloc15,prodloc27,tr0,27558,716508).
route(prodloc15,prodloc27,tr13,27558,165348).
route(prodloc15,prodloc28,tr0,1755,45630).
route(prodloc15,prodloc28,tr13,1755,10530).
route(prodloc15,prodloc29,tr0,21373,555698).
route(prodloc15,prodloc29,tr13,21373,128238).
route(prodloc15,prodloc30,tr0,20507,533182).
route(prodloc15,prodloc30,tr13,20507,123042).
route(prodloc15,prodloc31,tr0,21652,562952).
route(prodloc15,prodloc31,tr13,21652,129912).
route(prodloc15,prodloc32,tr0,27386,712036).
route(prodloc15,prodloc32,tr13,27386,164316).
route(prodloc15,prodloc33,tr0,1132,29432).
route(prodloc15,prodloc33,tr13,1132,6792).
route(prodloc16,harbor0,tr0,10620,276120).
route(prodloc16,harbor0,tr13,10620,63720).
route(prodloc16,harbor1,tr0,22303,579878).
route(prodloc16,harbor1,tr13,22303,133818).
route(prodloc16,harbor2,tr0,14743,383318).
route(prodloc16,harbor2,tr13,14743,88458).
route(prodloc16,harbor3,tr0,14711,382486).
route(prodloc16,harbor3,tr13,14711,88266).
route(prodloc16,harbor4,tr0,20521,533546).
route(prodloc16,harbor4,tr13,20521,123126).
route(prodloc16,harbor5,tr0,27417,712842).
route(prodloc16,harbor5,tr13,27417,164502).
route(prodloc16,harbor6,tr0,28897,751322).
route(prodloc16,harbor6,tr13,28897,173382).
route(prodloc16,harbor7,tr0,22540,586040).
route(prodloc16,harbor7,tr13,22540,135240).
route(prodloc16,harbor8,tr0,14567,378742).
route(prodloc16,harbor8,tr13,14567,87402).
route(prodloc16,harbor9,tr0,18928,492128).
route(prodloc16,harbor9,tr13,18928,113568).
route(prodloc16,harbor10,tr0,25085,652210).
route(prodloc16,harbor10,tr13,25085,150510).
route(prodloc16,harbor11,tr0,26430,687180).
route(prodloc16,harbor11,tr13,26430,158580).
route(prodloc16,harbor12,tr0,15543,404118).
route(prodloc16,harbor12,tr13,15543,93258).
route(prodloc16,harbor13,tr0,94,2444).
route(prodloc16,harbor13,tr13,94,564).
route(prodloc16,harbor14,tr0,20283,527358).
route(prodloc16,harbor14,tr13,20283,121698).
route(prodloc16,harbor15,tr0,6313,164138).
route(prodloc16,harbor15,tr13,6313,37878).
route(prodloc16,harbor16,tr0,9703,252278).
route(prodloc16,harbor16,tr13,9703,58218).
route(prodloc16,prodloc0,tr0,11738,305188).
route(prodloc16,prodloc0,tr13,11738,70428).
route(prodloc16,prodloc1,tr0,2370,61620).
route(prodloc16,prodloc1,tr13,2370,14220).
route(prodloc16,prodloc2,tr0,14046,365196).
route(prodloc16,prodloc2,tr13,14046,84276).
route(prodloc16,prodloc3,tr0,23920,621920).
route(prodloc16,prodloc3,tr13,23920,143520).
route(prodloc16,prodloc4,tr13,21651,129906).
route(prodloc16,prodloc4,tr15,21651,692832).
route(prodloc16,prodloc5,tr0,9587,249262).
route(prodloc16,prodloc5,tr13,9587,57522).
route(prodloc16,prodloc6,tr0,23400,608400).
route(prodloc16,prodloc6,tr13,23400,140400).
route(prodloc16,prodloc7,tr0,1588,41288).
route(prodloc16,prodloc7,tr13,1588,9528).
route(prodloc16,prodloc8,tr0,22959,596934).
route(prodloc16,prodloc8,tr13,22959,137754).
route(prodloc16,prodloc9,tr0,21314,554164).
route(prodloc16,prodloc9,tr13,21314,127884).
route(prodloc16,prodloc10,tr0,13343,346918).
route(prodloc16,prodloc10,tr13,13343,80058).
route(prodloc16,prodloc11,tr0,12980,337480).
route(prodloc16,prodloc11,tr13,12980,77880).
route(prodloc16,prodloc12,tr0,9152,237952).
route(prodloc16,prodloc12,tr13,9152,54912).
route(prodloc16,prodloc13,tr0,15494,402844).
route(prodloc16,prodloc13,tr13,15494,92964).
route(prodloc16,prodloc14,tr0,25205,655330).
route(prodloc16,prodloc14,tr13,25205,151230).
route(prodloc16,prodloc15,tr0,27470,714220).
route(prodloc16,prodloc15,tr13,27470,164820).
route(prodloc16,prodloc17,tr0,23619,614094).
route(prodloc16,prodloc17,tr13,23619,141714).
route(prodloc16,prodloc18,tr0,6877,178802).
route(prodloc16,prodloc18,tr13,6877,41262).
route(prodloc16,prodloc19,tr0,17045,443170).
route(prodloc16,prodloc19,tr13,17045,102270).
route(prodloc16,prodloc20,tr0,8419,218894).
route(prodloc16,prodloc20,tr13,8419,50514).
route(prodloc16,prodloc21,tr0,22718,590668).
route(prodloc16,prodloc21,tr13,22718,136308).
route(prodloc16,prodloc22,tr0,2336,60736).
route(prodloc16,prodloc22,tr15,2336,74752).
route(prodloc16,prodloc23,tr0,1413,36738).
route(prodloc16,prodloc23,tr13,1413,8478).
route(prodloc16,prodloc24,tr0,16955,440830).
route(prodloc16,prodloc24,tr13,16955,101730).
route(prodloc16,prodloc25,tr0,26820,697320).
route(prodloc16,prodloc25,tr13,26820,160920).
route(prodloc16,prodloc26,tr0,28434,739284).
route(prodloc16,prodloc26,tr13,28434,170604).
route(prodloc16,prodloc27,tr0,17061,443586).
route(prodloc16,prodloc27,tr13,17061,102366).
route(prodloc16,prodloc28,tr0,24436,635336).
route(prodloc16,prodloc28,tr13,24436,146616).
route(prodloc16,prodloc29,tr0,13872,360672).
route(prodloc16,prodloc29,tr13,13872,83232).
route(prodloc16,prodloc30,tr0,28462,740012).
route(prodloc16,prodloc30,tr13,28462,170772).
route(prodloc16,prodloc31,tr0,354,9204).
route(prodloc16,prodloc31,tr13,354,2124).
route(prodloc16,prodloc32,tr0,28853,750178).
route(prodloc16,prodloc32,tr13,28853,173118).
route(prodloc16,prodloc33,tr0,10058,261508).
route(prodloc16,prodloc33,tr13,10058,60348).
route(prodloc17,harbor0,tr0,14491,376766).
route(prodloc17,harbor0,tr13,14491,86946).
route(prodloc17,harbor1,tr0,17563,456638).
route(prodloc17,harbor1,tr13,17563,105378).
route(prodloc17,harbor2,tr0,26141,679666).
route(prodloc17,harbor2,tr13,26141,156846).
route(prodloc17,harbor3,tr0,11942,310492).
route(prodloc17,harbor3,tr13,11942,71652).
route(prodloc17,harbor4,tr0,13678,355628).
route(prodloc17,harbor4,tr13,13678,82068).
route(prodloc17,harbor5,tr0,6343,164918).
route(prodloc17,harbor5,tr13,6343,38058).
route(prodloc17,harbor6,tr0,1864,48464).
route(prodloc17,harbor6,tr13,1864,11184).
route(prodloc17,harbor7,tr0,16048,417248).
route(prodloc17,harbor7,tr13,16048,96288).
route(prodloc17,harbor8,tr0,27958,726908).
route(prodloc17,harbor8,tr13,27958,167748).
route(prodloc17,harbor9,tr0,7337,190762).
route(prodloc17,harbor9,tr13,7337,44022).
route(prodloc17,harbor10,tr0,12052,313352).
route(prodloc17,harbor10,tr13,12052,72312).
route(prodloc17,harbor11,tr0,24495,636870).
route(prodloc17,harbor11,tr13,24495,146970).
route(prodloc17,harbor12,tr0,9256,240656).
route(prodloc17,harbor12,tr13,9256,55536).
route(prodloc17,harbor13,tr0,8440,219440).
route(prodloc17,harbor13,tr13,8440,50640).
route(prodloc17,harbor14,tr0,12931,336206).
route(prodloc17,harbor14,tr13,12931,77586).
route(prodloc17,harbor15,tr0,5461,141986).
route(prodloc17,harbor15,tr13,5461,32766).
route(prodloc17,harbor16,tr0,17644,458744).
route(prodloc17,harbor16,tr13,17644,105864).
route(prodloc17,prodloc0,tr0,6479,168454).
route(prodloc17,prodloc0,tr13,6479,38874).
route(prodloc17,prodloc1,tr0,21345,554970).
route(prodloc17,prodloc1,tr13,21345,128070).
route(prodloc17,prodloc2,tr0,2908,75608).
route(prodloc17,prodloc2,tr13,2908,17448).
route(prodloc17,prodloc3,tr0,10794,280644).
route(prodloc17,prodloc3,tr13,10794,64764).
route(prodloc17,prodloc4,tr0,27008,702208).
route(prodloc17,prodloc4,tr13,27008,162048).
route(prodloc17,prodloc5,tr0,18618,484068).
route(prodloc17,prodloc5,tr13,18618,111708).
route(prodloc17,prodloc6,tr0,18275,475150).
route(prodloc17,prodloc6,tr13,18275,109650).
route(prodloc17,prodloc7,tr0,11296,293696).
route(prodloc17,prodloc7,tr13,11296,67776).
route(prodloc17,prodloc8,tr0,27649,718874).
route(prodloc17,prodloc8,tr13,27649,165894).
route(prodloc17,prodloc9,tr0,6770,176020).
route(prodloc17,prodloc9,tr13,6770,40620).
route(prodloc17,prodloc10,tr0,3432,89232).
route(prodloc17,prodloc10,tr13,3432,20592).
route(prodloc17,prodloc11,tr0,1431,37206).
route(prodloc17,prodloc11,tr13,1431,8586).
route(prodloc17,prodloc12,tr0,22088,574288).
route(prodloc17,prodloc12,tr13,22088,132528).
route(prodloc17,prodloc13,tr0,10162,264212).
route(prodloc17,prodloc13,tr15,10162,325184).
route(prodloc17,prodloc14,tr0,11000,286000).
route(prodloc17,prodloc14,tr13,11000,66000).
route(prodloc17,prodloc15,tr0,7581,197106).
route(prodloc17,prodloc15,tr13,7581,45486).
route(prodloc17,prodloc16,tr0,26318,684268).
route(prodloc17,prodloc16,tr13,26318,157908).
route(prodloc17,prodloc18,tr0,16589,431314).
route(prodloc17,prodloc18,tr13,16589,99534).
route(prodloc17,prodloc19,tr0,25991,675766).
route(prodloc17,prodloc19,tr13,25991,155946).
route(prodloc17,prodloc20,tr0,19895,517270).
route(prodloc17,prodloc20,tr13,19895,119370).
route(prodloc17,prodloc21,tr0,14494,376844).
route(prodloc17,prodloc21,tr13,14494,86964).
route(prodloc17,prodloc22,tr0,5458,141908).
route(prodloc17,prodloc22,tr13,5458,32748).
route(prodloc17,prodloc23,tr0,18055,469430).
route(prodloc17,prodloc23,tr13,18055,108330).
route(prodloc17,prodloc24,tr0,6916,179816).
route(prodloc17,prodloc24,tr13,6916,41496).
route(prodloc17,prodloc25,tr0,24852,646152).
route(prodloc17,prodloc25,tr13,24852,149112).
route(prodloc17,prodloc26,tr0,26746,695396).
route(prodloc17,prodloc26,tr13,26746,160476).
route(prodloc17,prodloc27,tr0,3034,78884).
route(prodloc17,prodloc27,tr13,3034,18204).
route(prodloc17,prodloc28,tr0,16658,433108).
route(prodloc17,prodloc28,tr13,16658,99948).
route(prodloc17,prodloc29,tr0,3958,102908).
route(prodloc17,prodloc29,tr13,3958,23748).
route(prodloc17,prodloc30,tr0,1234,32084).
route(prodloc17,prodloc30,tr13,1234,7404).
route(prodloc17,prodloc31,tr0,15698,408148).
route(prodloc17,prodloc31,tr13,15698,94188).
route(prodloc17,prodloc32,tr0,6664,173264).
route(prodloc17,prodloc32,tr13,6664,39984).
route(prodloc17,prodloc33,tr0,17621,458146).
route(prodloc17,prodloc33,tr13,17621,105726).
route(prodloc18,harbor0,tr0,4057,105482).
route(prodloc18,harbor0,tr13,4057,24342).
route(prodloc18,harbor1,tr0,7506,195156).
route(prodloc18,harbor1,tr13,7506,45036).
route(prodloc18,harbor2,tr0,5878,152828).
route(prodloc18,harbor2,tr13,5878,35268).
route(prodloc18,harbor3,tr0,25641,666666).
route(prodloc18,harbor3,tr13,25641,153846).
route(prodloc18,harbor4,tr0,980,25480).
route(prodloc18,harbor4,tr13,980,5880).
route(prodloc18,harbor5,tr0,606,15756).
route(prodloc18,harbor5,tr13,606,3636).
route(prodloc18,harbor6,tr0,5233,136058).
route(prodloc18,harbor6,tr13,5233,31398).
route(prodloc18,harbor7,tr0,15891,413166).
route(prodloc18,harbor7,tr13,15891,95346).
route(prodloc18,harbor8,tr0,4746,123396).
route(prodloc18,harbor8,tr13,4746,28476).
route(prodloc18,harbor9,tr0,2484,64584).
route(prodloc18,harbor9,tr13,2484,14904).
route(prodloc18,harbor10,tr0,18314,476164).
route(prodloc18,harbor10,tr13,18314,109884).
route(prodloc18,harbor11,tr0,344,8944).
route(prodloc18,harbor11,tr13,344,2064).
route(prodloc18,harbor12,tr0,20486,532636).
route(prodloc18,harbor12,tr13,20486,122916).
route(prodloc18,harbor13,tr0,16486,428636).
route(prodloc18,harbor13,tr13,16486,98916).
route(prodloc18,harbor14,tr0,4908,127608).
route(prodloc18,harbor14,tr13,4908,29448).
route(prodloc18,harbor15,tr0,28115,730990).
route(prodloc18,harbor15,tr13,28115,168690).
route(prodloc18,harbor16,tr0,27119,705094).
route(prodloc18,harbor16,tr13,27119,162714).
route(prodloc18,prodloc0,tr0,20621,536146).
route(prodloc18,prodloc0,tr13,20621,123726).
route(prodloc18,prodloc1,tr0,4557,118482).
route(prodloc18,prodloc1,tr13,4557,27342).
route(prodloc18,prodloc2,tr0,18829,489554).
route(prodloc18,prodloc2,tr13,18829,112974).
route(prodloc18,prodloc3,tr0,25160,654160).
route(prodloc18,prodloc3,tr13,25160,150960).
route(prodloc18,prodloc4,tr13,1811,10866).
route(prodloc18,prodloc4,tr15,1811,57952).
route(prodloc18,prodloc5,tr0,166,4316).
route(prodloc18,prodloc5,tr13,166,996).
route(prodloc18,prodloc6,tr0,6840,177840).
route(prodloc18,prodloc6,tr13,6840,41040).
route(prodloc18,prodloc7,tr0,27027,702702).
route(prodloc18,prodloc7,tr13,27027,162162).
route(prodloc18,prodloc8,tr0,22268,578968).
route(prodloc18,prodloc8,tr13,22268,133608).
route(prodloc18,prodloc9,tr0,28866,750516).
route(prodloc18,prodloc9,tr13,28866,173196).
route(prodloc18,prodloc10,tr0,21835,567710).
route(prodloc18,prodloc10,tr13,21835,131010).
route(prodloc18,prodloc11,tr0,6302,163852).
route(prodloc18,prodloc11,tr13,6302,37812).
route(prodloc18,prodloc12,tr0,16487,428662).
route(prodloc18,prodloc12,tr13,16487,98922).
route(prodloc18,prodloc13,tr0,12973,337298).
route(prodloc18,prodloc13,tr13,12973,77838).
route(prodloc18,prodloc14,tr0,6421,166946).
route(prodloc18,prodloc14,tr13,6421,38526).
route(prodloc18,prodloc15,tr0,22296,579696).
route(prodloc18,prodloc15,tr13,22296,133776).
route(prodloc18,prodloc16,tr0,1198,31148).
route(prodloc18,prodloc16,tr13,1198,7188).
route(prodloc18,prodloc17,tr0,18752,487552).
route(prodloc18,prodloc17,tr13,18752,112512).
route(prodloc18,prodloc19,tr0,24102,626652).
route(prodloc18,prodloc19,tr13,24102,144612).
route(prodloc18,prodloc20,tr0,24006,624156).
route(prodloc18,prodloc20,tr13,24006,144036).
route(prodloc18,prodloc21,tr0,2266,58916).
route(prodloc18,prodloc21,tr13,2266,13596).
route(prodloc18,prodloc22,tr0,1536,39936).
route(prodloc18,prodloc22,tr13,1536,9216).
route(prodloc18,prodloc23,tr0,2186,56836).
route(prodloc18,prodloc23,tr13,2186,13116).
route(prodloc18,prodloc24,tr0,7969,207194).
route(prodloc18,prodloc24,tr13,7969,47814).
route(prodloc18,prodloc25,tr0,21829,567554).
route(prodloc18,prodloc25,tr13,21829,130974).
route(prodloc18,prodloc26,tr0,22134,575484).
route(prodloc18,prodloc26,tr13,22134,132804).
route(prodloc18,prodloc27,tr0,24325,632450).
route(prodloc18,prodloc27,tr13,24325,145950).
route(prodloc18,prodloc28,tr0,4576,118976).
route(prodloc18,prodloc28,tr15,4576,146432).
route(prodloc18,prodloc29,tr0,21732,565032).
route(prodloc18,prodloc29,tr13,21732,130392).
route(prodloc18,prodloc30,tr0,27379,711854).
route(prodloc18,prodloc30,tr13,27379,164274).
route(prodloc18,prodloc31,tr0,26371,685646).
route(prodloc18,prodloc31,tr13,26371,158226).
route(prodloc18,prodloc32,tr0,8209,213434).
route(prodloc18,prodloc32,tr13,8209,49254).
route(prodloc18,prodloc33,tr0,26295,683670).
route(prodloc18,prodloc33,tr13,26295,157770).
route(prodloc19,harbor0,tr0,23473,610298).
route(prodloc19,harbor0,tr13,23473,140838).
route(prodloc19,harbor1,tr0,33,858).
route(prodloc19,harbor1,tr13,33,198).
route(prodloc19,harbor2,tr0,4460,115960).
route(prodloc19,harbor2,tr13,4460,26760).
route(prodloc19,harbor3,tr0,9977,259402).
route(prodloc19,harbor3,tr13,9977,59862).
route(prodloc19,harbor4,tr0,2347,61022).
route(prodloc19,harbor4,tr13,2347,14082).
route(prodloc19,harbor5,tr0,9573,248898).
route(prodloc19,harbor5,tr13,9573,57438).
route(prodloc19,harbor6,tr0,4047,105222).
route(prodloc19,harbor6,tr13,4047,24282).
route(prodloc19,harbor7,tr0,27512,715312).
route(prodloc19,harbor7,tr13,27512,165072).
route(prodloc19,harbor8,tr0,23764,617864).
route(prodloc19,harbor8,tr13,23764,142584).
route(prodloc19,harbor9,tr0,11910,309660).
route(prodloc19,harbor9,tr13,11910,71460).
route(prodloc19,harbor10,tr0,12678,329628).
route(prodloc19,harbor10,tr13,12678,76068).
route(prodloc19,harbor11,tr0,15497,402922).
route(prodloc19,harbor11,tr13,15497,92982).
route(prodloc19,harbor12,tr0,28886,751036).
route(prodloc19,harbor12,tr13,28886,173316).
route(prodloc19,harbor13,tr0,4741,123266).
route(prodloc19,harbor13,tr13,4741,28446).
route(prodloc19,harbor14,tr0,892,23192).
route(prodloc19,harbor14,tr13,892,5352).
route(prodloc19,harbor15,tr0,9076,235976).
route(prodloc19,harbor15,tr13,9076,54456).
route(prodloc19,harbor16,tr0,14893,387218).
route(prodloc19,harbor16,tr13,14893,89358).
route(prodloc19,prodloc0,tr0,15343,398918).
route(prodloc19,prodloc0,tr13,15343,92058).
route(prodloc19,prodloc1,tr0,21918,569868).
route(prodloc19,prodloc1,tr13,21918,131508).
route(prodloc19,prodloc2,tr0,11982,311532).
route(prodloc19,prodloc2,tr13,11982,71892).
route(prodloc19,prodloc3,tr0,22394,582244).
route(prodloc19,prodloc3,tr13,22394,134364).
route(prodloc19,prodloc4,tr0,18263,474838).
route(prodloc19,prodloc4,tr13,18263,109578).
route(prodloc19,prodloc5,tr0,28472,740272).
route(prodloc19,prodloc5,tr13,28472,170832).
route(prodloc19,prodloc6,tr0,26334,684684).
route(prodloc19,prodloc6,tr13,26334,158004).
route(prodloc19,prodloc7,tr0,24319,632294).
route(prodloc19,prodloc7,tr13,24319,145914).
route(prodloc19,prodloc8,tr0,10622,276172).
route(prodloc19,prodloc8,tr13,10622,63732).
route(prodloc19,prodloc9,tr0,20155,524030).
route(prodloc19,prodloc9,tr13,20155,120930).
route(prodloc19,prodloc10,tr0,14631,380406).
route(prodloc19,prodloc10,tr13,14631,87786).
route(prodloc19,prodloc11,tr0,592,15392).
route(prodloc19,prodloc11,tr13,592,3552).
route(prodloc19,prodloc12,tr0,25285,657410).
route(prodloc19,prodloc12,tr13,25285,151710).
route(prodloc19,prodloc13,tr0,12895,335270).
route(prodloc19,prodloc13,tr13,12895,77370).
route(prodloc19,prodloc14,tr0,17382,451932).
route(prodloc19,prodloc14,tr13,17382,104292).
route(prodloc19,prodloc15,tr0,3035,78910).
route(prodloc19,prodloc15,tr13,3035,18210).
route(prodloc19,prodloc16,tr0,13950,362700).
route(prodloc19,prodloc16,tr13,13950,83700).
route(prodloc19,prodloc17,tr0,17292,449592).
route(prodloc19,prodloc17,tr13,17292,103752).
route(prodloc19,prodloc18,tr0,7067,183742).
route(prodloc19,prodloc18,tr13,7067,42402).
route(prodloc19,prodloc20,tr0,8378,217828).
route(prodloc19,prodloc20,tr13,8378,50268).
route(prodloc19,prodloc21,tr0,19238,500188).
route(prodloc19,prodloc21,tr13,19238,115428).
route(prodloc19,prodloc22,tr0,22805,592930).
route(prodloc19,prodloc22,tr13,22805,136830).
route(prodloc19,prodloc23,tr0,11093,288418).
route(prodloc19,prodloc23,tr13,11093,66558).
route(prodloc19,prodloc24,tr0,11615,301990).
route(prodloc19,prodloc24,tr13,11615,69690).
route(prodloc19,prodloc25,tr0,27513,715338).
route(prodloc19,prodloc25,tr13,27513,165078).
route(prodloc19,prodloc26,tr0,20513,533338).
route(prodloc19,prodloc26,tr13,20513,123078).
route(prodloc19,prodloc27,tr0,21596,561496).
route(prodloc19,prodloc27,tr13,21596,129576).
route(prodloc19,prodloc28,tr0,24781,644306).
route(prodloc19,prodloc28,tr13,24781,148686).
route(prodloc19,prodloc29,tr13,1220,7320).
route(prodloc19,prodloc29,tr15,1220,39040).
route(prodloc19,prodloc30,tr0,10028,260728).
route(prodloc19,prodloc30,tr13,10028,60168).
route(prodloc19,prodloc31,tr0,26339,684814).
route(prodloc19,prodloc31,tr13,26339,158034).
route(prodloc19,prodloc32,tr0,13193,343018).
route(prodloc19,prodloc32,tr13,13193,79158).
route(prodloc19,prodloc33,tr0,16448,427648).
route(prodloc19,prodloc33,tr13,16448,98688).
route(prodloc20,harbor0,tr0,27846,723996).
route(prodloc20,harbor0,tr13,27846,167076).
route(prodloc20,harbor1,tr0,19006,494156).
route(prodloc20,harbor1,tr13,19006,114036).
route(prodloc20,harbor2,tr0,10051,261326).
route(prodloc20,harbor2,tr13,10051,60306).
route(prodloc20,harbor3,tr0,22526,585676).
route(prodloc20,harbor3,tr13,22526,135156).
route(prodloc20,harbor4,tr0,16510,429260).
route(prodloc20,harbor4,tr13,16510,99060).
route(prodloc20,harbor5,tr0,24689,641914).
route(prodloc20,harbor5,tr13,24689,148134).
route(prodloc20,harbor6,tr0,23871,620646).
route(prodloc20,harbor6,tr13,23871,143226).
route(prodloc20,harbor7,tr0,19409,504634).
route(prodloc20,harbor7,tr13,19409,116454).
route(prodloc20,harbor8,tr0,537,13962).
route(prodloc20,harbor8,tr13,537,3222).
route(prodloc20,harbor9,tr0,741,19266).
route(prodloc20,harbor9,tr13,741,4446).
route(prodloc20,harbor10,tr0,26318,684268).
route(prodloc20,harbor10,tr13,26318,157908).
route(prodloc20,harbor11,tr0,167,4342).
route(prodloc20,harbor11,tr13,167,1002).
route(prodloc20,harbor12,tr0,20996,545896).
route(prodloc20,harbor12,tr13,20996,125976).
route(prodloc20,harbor13,tr0,25512,663312).
route(prodloc20,harbor13,tr13,25512,153072).
route(prodloc20,harbor14,tr0,3131,81406).
route(prodloc20,harbor14,tr13,3131,18786).
route(prodloc20,harbor15,tr0,1094,28444).
route(prodloc20,harbor15,tr13,1094,6564).
route(prodloc20,harbor16,tr0,9877,256802).
route(prodloc20,harbor16,tr13,9877,59262).
route(prodloc20,prodloc0,tr0,16172,420472).
route(prodloc20,prodloc0,tr13,16172,97032).
route(prodloc20,prodloc1,tr0,4601,119626).
route(prodloc20,prodloc1,tr13,4601,27606).
route(prodloc20,prodloc2,tr0,16797,436722).
route(prodloc20,prodloc2,tr13,16797,100782).
route(prodloc20,prodloc3,tr0,10250,266500).
route(prodloc20,prodloc3,tr13,10250,61500).
route(prodloc20,prodloc4,tr0,15855,412230).
route(prodloc20,prodloc4,tr13,15855,95130).
route(prodloc20,prodloc5,tr0,4622,120172).
route(prodloc20,prodloc5,tr13,4622,27732).
route(prodloc20,prodloc6,tr0,25862,672412).
route(prodloc20,prodloc6,tr13,25862,155172).
route(prodloc20,prodloc7,tr0,23801,618826).
route(prodloc20,prodloc7,tr13,23801,142806).
route(prodloc20,prodloc8,tr0,26720,694720).
route(prodloc20,prodloc8,tr13,26720,160320).
route(prodloc20,prodloc9,tr0,4938,128388).
route(prodloc20,prodloc9,tr13,4938,29628).
route(prodloc20,prodloc10,tr0,5274,137124).
route(prodloc20,prodloc10,tr13,5274,31644).
route(prodloc20,prodloc11,tr0,14894,387244).
route(prodloc20,prodloc11,tr13,14894,89364).
route(prodloc20,prodloc12,tr0,26772,696072).
route(prodloc20,prodloc12,tr13,26772,160632).
route(prodloc20,prodloc13,tr0,1864,48464).
route(prodloc20,prodloc13,tr13,1864,11184).
route(prodloc20,prodloc14,tr0,4419,114894).
route(prodloc20,prodloc14,tr13,4419,26514).
route(prodloc20,prodloc15,tr0,12951,336726).
route(prodloc20,prodloc15,tr13,12951,77706).
route(prodloc20,prodloc16,tr0,5445,141570).
route(prodloc20,prodloc16,tr13,5445,32670).
route(prodloc20,prodloc17,tr0,8512,221312).
route(prodloc20,prodloc17,tr13,8512,51072).
route(prodloc20,prodloc18,tr0,10711,278486).
route(prodloc20,prodloc18,tr13,10711,64266).
route(prodloc20,prodloc19,tr0,17672,459472).
route(prodloc20,prodloc19,tr13,17672,106032).
route(prodloc20,prodloc21,tr0,21091,548366).
route(prodloc20,prodloc21,tr13,21091,126546).
route(prodloc20,prodloc22,tr0,8662,225212).
route(prodloc20,prodloc22,tr13,8662,51972).
route(prodloc20,prodloc23,tr0,24347,633022).
route(prodloc20,prodloc23,tr13,24347,146082).
route(prodloc20,prodloc24,tr0,7096,184496).
route(prodloc20,prodloc24,tr13,7096,42576).
route(prodloc20,prodloc25,tr0,11492,298792).
route(prodloc20,prodloc25,tr13,11492,68952).
route(prodloc20,prodloc26,tr0,11530,299780).
route(prodloc20,prodloc26,tr13,11530,69180).
route(prodloc20,prodloc27,tr0,28522,741572).
route(prodloc20,prodloc27,tr13,28522,171132).
route(prodloc20,prodloc28,tr0,12357,321282).
route(prodloc20,prodloc28,tr13,12357,74142).
route(prodloc20,prodloc29,tr0,18907,491582).
route(prodloc20,prodloc29,tr13,18907,113442).
route(prodloc20,prodloc30,tr0,5199,135174).
route(prodloc20,prodloc30,tr13,5199,31194).
route(prodloc20,prodloc31,tr0,1010,26260).
route(prodloc20,prodloc31,tr13,1010,6060).
route(prodloc20,prodloc32,tr0,24241,630266).
route(prodloc20,prodloc32,tr13,24241,145446).
route(prodloc20,prodloc33,tr0,1854,48204).
route(prodloc20,prodloc33,tr13,1854,11124).
route(prodloc21,harbor0,tr0,11949,310674).
route(prodloc21,harbor0,tr13,11949,71694).
route(prodloc21,harbor1,tr0,10263,266838).
route(prodloc21,harbor1,tr13,10263,61578).
route(prodloc21,harbor2,tr0,25570,664820).
route(prodloc21,harbor2,tr13,25570,153420).
route(prodloc21,harbor3,tr0,8209,213434).
route(prodloc21,harbor3,tr13,8209,49254).
route(prodloc21,harbor4,tr0,23847,620022).
route(prodloc21,harbor4,tr13,23847,143082).
route(prodloc21,harbor5,tr0,6413,166738).
route(prodloc21,harbor5,tr13,6413,38478).
route(prodloc21,harbor6,tr0,22779,592254).
route(prodloc21,harbor6,tr13,22779,136674).
route(prodloc21,harbor7,tr0,6249,162474).
route(prodloc21,harbor7,tr13,6249,37494).
route(prodloc21,harbor8,tr0,16142,419692).
route(prodloc21,harbor8,tr13,16142,96852).
route(prodloc21,harbor9,tr0,12852,334152).
route(prodloc21,harbor9,tr13,12852,77112).
route(prodloc21,harbor10,tr0,14573,378898).
route(prodloc21,harbor10,tr13,14573,87438).
route(prodloc21,harbor11,tr0,15514,403364).
route(prodloc21,harbor11,tr13,15514,93084).
route(prodloc21,harbor12,tr0,1683,43758).
route(prodloc21,harbor12,tr13,1683,10098).
route(prodloc21,harbor13,tr0,24552,638352).
route(prodloc21,harbor13,tr13,24552,147312).
route(prodloc21,harbor14,tr0,21606,561756).
route(prodloc21,harbor14,tr13,21606,129636).
route(prodloc21,harbor15,tr0,12087,314262).
route(prodloc21,harbor15,tr13,12087,72522).
route(prodloc21,harbor16,tr0,20984,545584).
route(prodloc21,harbor16,tr13,20984,125904).
route(prodloc21,prodloc0,tr0,8778,228228).
route(prodloc21,prodloc0,tr13,8778,52668).
route(prodloc21,prodloc1,tr0,12206,317356).
route(prodloc21,prodloc1,tr13,12206,73236).
route(prodloc21,prodloc2,tr0,17667,459342).
route(prodloc21,prodloc2,tr13,17667,106002).
route(prodloc21,prodloc3,tr0,4799,124774).
route(prodloc21,prodloc3,tr13,4799,28794).
route(prodloc21,prodloc4,tr0,20759,539734).
route(prodloc21,prodloc4,tr13,20759,124554).
route(prodloc21,prodloc5,tr0,8492,220792).
route(prodloc21,prodloc5,tr13,8492,50952).
route(prodloc21,prodloc6,tr0,19244,500344).
route(prodloc21,prodloc6,tr13,19244,115464).
route(prodloc21,prodloc7,tr0,26377,685802).
route(prodloc21,prodloc7,tr13,26377,158262).
route(prodloc21,prodloc8,tr0,17340,450840).
route(prodloc21,prodloc8,tr13,17340,104040).
route(prodloc21,prodloc9,tr0,2932,76232).
route(prodloc21,prodloc9,tr13,2932,17592).
route(prodloc21,prodloc10,tr0,5938,154388).
route(prodloc21,prodloc10,tr13,5938,35628).
route(prodloc21,prodloc11,tr0,19615,509990).
route(prodloc21,prodloc11,tr13,19615,117690).
route(prodloc21,prodloc12,tr0,12167,316342).
route(prodloc21,prodloc12,tr13,12167,73002).
route(prodloc21,prodloc13,tr0,25179,654654).
route(prodloc21,prodloc13,tr13,25179,151074).
route(prodloc21,prodloc14,tr0,23517,611442).
route(prodloc21,prodloc14,tr13,23517,141102).
route(prodloc21,prodloc15,tr0,24558,638508).
route(prodloc21,prodloc15,tr13,24558,147348).
route(prodloc21,prodloc16,tr0,1486,38636).
route(prodloc21,prodloc16,tr13,1486,8916).
route(prodloc21,prodloc17,tr0,12176,316576).
route(prodloc21,prodloc17,tr13,12176,73056).
route(prodloc21,prodloc18,tr0,22838,593788).
route(prodloc21,prodloc18,tr13,22838,137028).
route(prodloc21,prodloc19,tr0,22496,584896).
route(prodloc21,prodloc19,tr13,22496,134976).
route(prodloc21,prodloc20,tr0,15626,406276).
route(prodloc21,prodloc20,tr13,15626,93756).
route(prodloc21,prodloc22,tr0,6939,180414).
route(prodloc21,prodloc22,tr13,6939,41634).
route(prodloc21,prodloc23,tr0,15742,409292).
route(prodloc21,prodloc23,tr13,15742,94452).
route(prodloc21,prodloc24,tr0,8908,231608).
route(prodloc21,prodloc24,tr13,8908,53448).
route(prodloc21,prodloc25,tr0,20942,544492).
route(prodloc21,prodloc25,tr13,20942,125652).
route(prodloc21,prodloc26,tr0,3650,94900).
route(prodloc21,prodloc26,tr13,3650,21900).
route(prodloc21,prodloc27,tr0,9647,250822).
route(prodloc21,prodloc27,tr13,9647,57882).
route(prodloc21,prodloc28,tr0,16792,436592).
route(prodloc21,prodloc28,tr13,16792,100752).
route(prodloc21,prodloc29,tr0,2125,55250).
route(prodloc21,prodloc29,tr13,2125,12750).
route(prodloc21,prodloc30,tr0,22464,584064).
route(prodloc21,prodloc30,tr13,22464,134784).
route(prodloc21,prodloc31,tr0,15255,396630).
route(prodloc21,prodloc31,tr13,15255,91530).
route(prodloc21,prodloc32,tr0,1290,33540).
route(prodloc21,prodloc32,tr13,1290,7740).
route(prodloc21,prodloc33,tr0,1471,38246).
route(prodloc21,prodloc33,tr13,1471,8826).
route(prodloc22,harbor0,tr0,24841,645866).
route(prodloc22,harbor0,tr13,24841,149046).
route(prodloc22,harbor1,tr0,26617,692042).
route(prodloc22,harbor1,tr13,26617,159702).
route(prodloc22,harbor2,tr0,26077,678002).
route(prodloc22,harbor2,tr13,26077,156462).
route(prodloc22,harbor3,tr0,15633,406458).
route(prodloc22,harbor3,tr13,15633,93798).
route(prodloc22,harbor4,tr0,1829,47554).
route(prodloc22,harbor4,tr13,1829,10974).
route(prodloc22,harbor5,tr0,3641,94666).
route(prodloc22,harbor5,tr13,3641,21846).
route(prodloc22,harbor6,tr0,21931,570206).
route(prodloc22,harbor6,tr13,21931,131586).
route(prodloc22,harbor7,tr0,27592,717392).
route(prodloc22,harbor7,tr13,27592,165552).
route(prodloc22,harbor8,tr0,22578,587028).
route(prodloc22,harbor8,tr13,22578,135468).
route(prodloc22,harbor9,tr0,18572,482872).
route(prodloc22,harbor9,tr13,18572,111432).
route(prodloc22,harbor10,tr0,27964,727064).
route(prodloc22,harbor10,tr13,27964,167784).
route(prodloc22,harbor11,tr0,18147,471822).
route(prodloc22,harbor11,tr13,18147,108882).
route(prodloc22,harbor12,tr0,7841,203866).
route(prodloc22,harbor12,tr13,7841,47046).
route(prodloc22,harbor13,tr0,5890,153140).
route(prodloc22,harbor13,tr13,5890,35340).
route(prodloc22,harbor14,tr0,28236,734136).
route(prodloc22,harbor14,tr13,28236,169416).
route(prodloc22,harbor15,tr0,11920,309920).
route(prodloc22,harbor15,tr13,11920,71520).
route(prodloc22,harbor16,tr0,10932,284232).
route(prodloc22,harbor16,tr13,10932,65592).
route(prodloc22,prodloc0,tr0,6223,161798).
route(prodloc22,prodloc0,tr13,6223,37338).
route(prodloc22,prodloc1,tr0,13166,342316).
route(prodloc22,prodloc1,tr13,13166,78996).
route(prodloc22,prodloc2,tr0,644,16744).
route(prodloc22,prodloc2,tr13,644,3864).
route(prodloc22,prodloc3,tr0,12427,323102).
route(prodloc22,prodloc3,tr13,12427,74562).
route(prodloc22,prodloc4,tr0,23026,598676).
route(prodloc22,prodloc4,tr13,23026,138156).
route(prodloc22,prodloc5,tr0,13011,338286).
route(prodloc22,prodloc5,tr13,13011,78066).
route(prodloc22,prodloc6,tr0,3205,83330).
route(prodloc22,prodloc6,tr13,3205,19230).
route(prodloc22,prodloc7,tr0,18069,469794).
route(prodloc22,prodloc7,tr13,18069,108414).
route(prodloc22,prodloc8,tr0,2874,74724).
route(prodloc22,prodloc8,tr13,2874,17244).
route(prodloc22,prodloc9,tr0,19831,515606).
route(prodloc22,prodloc9,tr13,19831,118986).
route(prodloc22,prodloc10,tr0,25662,667212).
route(prodloc22,prodloc10,tr13,25662,153972).
route(prodloc22,prodloc11,tr0,2324,60424).
route(prodloc22,prodloc11,tr13,2324,13944).
route(prodloc22,prodloc12,tr0,27129,705354).
route(prodloc22,prodloc12,tr13,27129,162774).
route(prodloc22,prodloc13,tr0,2658,69108).
route(prodloc22,prodloc13,tr13,2658,15948).
route(prodloc22,prodloc14,tr0,3318,86268).
route(prodloc22,prodloc14,tr13,3318,19908).
route(prodloc22,prodloc15,tr0,1537,39962).
route(prodloc22,prodloc15,tr13,1537,9222).
route(prodloc22,prodloc16,tr0,14508,377208).
route(prodloc22,prodloc16,tr13,14508,87048).
route(prodloc22,prodloc17,tr0,21852,568152).
route(prodloc22,prodloc17,tr13,21852,131112).
route(prodloc22,prodloc18,tr0,4986,129636).
route(prodloc22,prodloc18,tr13,4986,29916).
route(prodloc22,prodloc19,tr0,19284,501384).
route(prodloc22,prodloc19,tr13,19284,115704).
route(prodloc22,prodloc20,tr0,11228,291928).
route(prodloc22,prodloc20,tr13,11228,67368).
route(prodloc22,prodloc21,tr0,20512,533312).
route(prodloc22,prodloc21,tr13,20512,123072).
route(prodloc22,prodloc23,tr0,15007,390182).
route(prodloc22,prodloc23,tr13,15007,90042).
route(prodloc22,prodloc24,tr0,9285,241410).
route(prodloc22,prodloc24,tr13,9285,55710).
route(prodloc22,prodloc25,tr0,11176,290576).
route(prodloc22,prodloc25,tr13,11176,67056).
route(prodloc22,prodloc26,tr0,15032,390832).
route(prodloc22,prodloc26,tr13,15032,90192).
route(prodloc22,prodloc27,tr0,16669,433394).
route(prodloc22,prodloc27,tr13,16669,100014).
route(prodloc22,prodloc28,tr0,23510,611260).
route(prodloc22,prodloc28,tr13,23510,141060).
route(prodloc22,prodloc29,tr0,12150,315900).
route(prodloc22,prodloc29,tr13,12150,72900).
route(prodloc22,prodloc30,tr0,6608,171808).
route(prodloc22,prodloc30,tr13,6608,39648).
route(prodloc22,prodloc31,tr0,24888,647088).
route(prodloc22,prodloc31,tr13,24888,149328).
route(prodloc22,prodloc32,tr0,5486,142636).
route(prodloc22,prodloc32,tr13,5486,32916).
route(prodloc22,prodloc33,tr0,28430,739180).
route(prodloc22,prodloc33,tr13,28430,170580).
route(prodloc23,harbor0,tr0,15148,393848).
route(prodloc23,harbor0,tr13,15148,90888).
route(prodloc23,harbor1,tr0,9633,250458).
route(prodloc23,harbor1,tr13,9633,57798).
route(prodloc23,harbor2,tr0,6130,159380).
route(prodloc23,harbor2,tr13,6130,36780).
route(prodloc23,harbor3,tr0,7714,200564).
route(prodloc23,harbor3,tr13,7714,46284).
route(prodloc23,harbor4,tr0,5053,131378).
route(prodloc23,harbor4,tr13,5053,30318).
route(prodloc23,harbor5,tr0,14490,376740).
route(prodloc23,harbor5,tr13,14490,86940).
route(prodloc23,harbor6,tr0,26785,696410).
route(prodloc23,harbor6,tr13,26785,160710).
route(prodloc23,harbor7,tr0,12418,322868).
route(prodloc23,harbor7,tr13,12418,74508).
route(prodloc23,harbor8,tr0,26357,685282).
route(prodloc23,harbor8,tr13,26357,158142).
route(prodloc23,harbor9,tr0,11485,298610).
route(prodloc23,harbor9,tr13,11485,68910).
route(prodloc23,harbor10,tr0,3822,99372).
route(prodloc23,harbor10,tr13,3822,22932).
route(prodloc23,harbor11,tr0,21420,556920).
route(prodloc23,harbor11,tr13,21420,128520).
route(prodloc23,harbor12,tr0,22526,585676).
route(prodloc23,harbor12,tr13,22526,135156).
route(prodloc23,harbor13,tr0,14469,376194).
route(prodloc23,harbor13,tr13,14469,86814).
route(prodloc23,harbor14,tr0,1675,43550).
route(prodloc23,harbor14,tr13,1675,10050).
route(prodloc23,harbor15,tr0,2120,55120).
route(prodloc23,harbor15,tr13,2120,12720).
route(prodloc23,harbor16,tr0,23404,608504).
route(prodloc23,harbor16,tr13,23404,140424).
route(prodloc23,prodloc0,tr0,2475,64350).
route(prodloc23,prodloc0,tr13,2475,14850).
route(prodloc23,prodloc1,tr0,26430,687180).
route(prodloc23,prodloc1,tr13,26430,158580).
route(prodloc23,prodloc2,tr0,20238,526188).
route(prodloc23,prodloc2,tr13,20238,121428).
route(prodloc23,prodloc3,tr0,3472,90272).
route(prodloc23,prodloc3,tr13,3472,20832).
route(prodloc23,prodloc4,tr0,21949,570674).
route(prodloc23,prodloc4,tr13,21949,131694).
route(prodloc23,prodloc5,tr0,16960,440960).
route(prodloc23,prodloc5,tr13,16960,101760).
route(prodloc23,prodloc6,tr0,8379,217854).
route(prodloc23,prodloc6,tr13,8379,50274).
route(prodloc23,prodloc7,tr0,23019,598494).
route(prodloc23,prodloc7,tr13,23019,138114).
route(prodloc23,prodloc8,tr0,10292,267592).
route(prodloc23,prodloc8,tr13,10292,61752).
route(prodloc23,prodloc9,tr0,24583,639158).
route(prodloc23,prodloc9,tr13,24583,147498).
route(prodloc23,prodloc10,tr0,7456,193856).
route(prodloc23,prodloc10,tr13,7456,44736).
route(prodloc23,prodloc11,tr0,23209,603434).
route(prodloc23,prodloc11,tr13,23209,139254).
route(prodloc23,prodloc12,tr0,2012,52312).
route(prodloc23,prodloc12,tr13,2012,12072).
route(prodloc23,prodloc13,tr0,2497,64922).
route(prodloc23,prodloc13,tr13,2497,14982).
route(prodloc23,prodloc14,tr0,26667,693342).
route(prodloc23,prodloc14,tr13,26667,160002).
route(prodloc23,prodloc15,tr0,12490,324740).
route(prodloc23,prodloc15,tr13,12490,74940).
route(prodloc23,prodloc16,tr0,12829,333554).
route(prodloc23,prodloc16,tr13,12829,76974).
route(prodloc23,prodloc17,tr0,3627,94302).
route(prodloc23,prodloc17,tr13,3627,21762).
route(prodloc23,prodloc18,tr0,25673,667498).
route(prodloc23,prodloc18,tr13,25673,154038).
route(prodloc23,prodloc19,tr0,23584,613184).
route(prodloc23,prodloc19,tr13,23584,141504).
route(prodloc23,prodloc20,tr0,18387,478062).
route(prodloc23,prodloc20,tr13,18387,110322).
route(prodloc23,prodloc21,tr0,25972,675272).
route(prodloc23,prodloc21,tr13,25972,155832).
route(prodloc23,prodloc22,tr0,25221,655746).
route(prodloc23,prodloc22,tr13,25221,151326).
route(prodloc23,prodloc24,tr0,7616,198016).
route(prodloc23,prodloc24,tr13,7616,45696).
route(prodloc23,prodloc25,tr0,19177,498602).
route(prodloc23,prodloc25,tr13,19177,115062).
route(prodloc23,prodloc26,tr0,8559,222534).
route(prodloc23,prodloc26,tr13,8559,51354).
route(prodloc23,prodloc27,tr0,8134,211484).
route(prodloc23,prodloc27,tr13,8134,48804).
route(prodloc23,prodloc28,tr0,12048,313248).
route(prodloc23,prodloc28,tr13,12048,72288).
route(prodloc23,prodloc29,tr0,18924,492024).
route(prodloc23,prodloc29,tr13,18924,113544).
route(prodloc23,prodloc30,tr0,6148,159848).
route(prodloc23,prodloc30,tr13,6148,36888).
route(prodloc23,prodloc31,tr0,13852,360152).
route(prodloc23,prodloc31,tr13,13852,83112).
route(prodloc23,prodloc32,tr0,10754,279604).
route(prodloc23,prodloc32,tr13,10754,64524).
route(prodloc23,prodloc33,tr0,21746,565396).
route(prodloc23,prodloc33,tr13,21746,130476).
route(prodloc24,harbor0,tr0,4960,128960).
route(prodloc24,harbor0,tr13,4960,29760).
route(prodloc24,harbor1,tr0,10195,265070).
route(prodloc24,harbor1,tr13,10195,61170).
route(prodloc24,harbor2,tr0,461,11986).
route(prodloc24,harbor2,tr13,461,2766).
route(prodloc24,harbor3,tr0,14337,372762).
route(prodloc24,harbor3,tr13,14337,86022).
route(prodloc24,harbor4,tr0,12969,337194).
route(prodloc24,harbor4,tr13,12969,77814).
route(prodloc24,harbor5,tr0,24678,641628).
route(prodloc24,harbor5,tr13,24678,148068).
route(prodloc24,harbor6,tr0,27120,705120).
route(prodloc24,harbor6,tr13,27120,162720).
route(prodloc24,harbor7,tr0,22556,586456).
route(prodloc24,harbor7,tr13,22556,135336).
route(prodloc24,harbor8,tr0,20604,535704).
route(prodloc24,harbor8,tr13,20604,123624).
route(prodloc24,harbor9,tr0,21716,564616).
route(prodloc24,harbor9,tr13,21716,130296).
route(prodloc24,harbor10,tr0,21679,563654).
route(prodloc24,harbor10,tr13,21679,130074).
route(prodloc24,harbor11,tr0,9879,256854).
route(prodloc24,harbor11,tr13,9879,59274).
route(prodloc24,harbor12,tr0,15259,396734).
route(prodloc24,harbor12,tr13,15259,91554).
route(prodloc24,harbor13,tr0,6194,161044).
route(prodloc24,harbor13,tr13,6194,37164).
route(prodloc24,harbor14,tr0,5566,144716).
route(prodloc24,harbor14,tr13,5566,33396).
route(prodloc24,harbor15,tr0,25400,660400).
route(prodloc24,harbor15,tr13,25400,152400).
route(prodloc24,harbor16,tr0,8381,217906).
route(prodloc24,harbor16,tr13,8381,50286).
route(prodloc24,prodloc0,tr0,3839,99814).
route(prodloc24,prodloc0,tr13,3839,23034).
route(prodloc24,prodloc1,tr0,3185,82810).
route(prodloc24,prodloc1,tr13,3185,19110).
route(prodloc24,prodloc2,tr0,323,8398).
route(prodloc24,prodloc2,tr13,323,1938).
route(prodloc24,prodloc3,tr0,19822,515372).
route(prodloc24,prodloc3,tr13,19822,118932).
route(prodloc24,prodloc4,tr0,4057,105482).
route(prodloc24,prodloc4,tr13,4057,24342).
route(prodloc24,prodloc5,tr0,5289,137514).
route(prodloc24,prodloc5,tr13,5289,31734).
route(prodloc24,prodloc6,tr0,21897,569322).
route(prodloc24,prodloc6,tr13,21897,131382).
route(prodloc24,prodloc7,tr0,21853,568178).
route(prodloc24,prodloc7,tr13,21853,131118).
route(prodloc24,prodloc8,tr0,5381,139906).
route(prodloc24,prodloc8,tr13,5381,32286).
route(prodloc24,prodloc9,tr0,913,23738).
route(prodloc24,prodloc9,tr13,913,5478).
route(prodloc24,prodloc10,tr0,8131,211406).
route(prodloc24,prodloc10,tr13,8131,48786).
route(prodloc24,prodloc11,tr0,23855,620230).
route(prodloc24,prodloc11,tr13,23855,143130).
route(prodloc24,prodloc12,tr0,16868,438568).
route(prodloc24,prodloc12,tr13,16868,101208).
route(prodloc24,prodloc13,tr0,8106,210756).
route(prodloc24,prodloc13,tr13,8106,48636).
route(prodloc24,prodloc14,tr0,113,2938).
route(prodloc24,prodloc14,tr13,113,678).
route(prodloc24,prodloc15,tr0,5311,138086).
route(prodloc24,prodloc15,tr13,5311,31866).
route(prodloc24,prodloc16,tr0,14995,389870).
route(prodloc24,prodloc16,tr13,14995,89970).
route(prodloc24,prodloc17,tr0,24425,635050).
route(prodloc24,prodloc17,tr13,24425,146550).
route(prodloc24,prodloc18,tr0,7249,188474).
route(prodloc24,prodloc18,tr13,7249,43494).
route(prodloc24,prodloc19,tr0,16089,418314).
route(prodloc24,prodloc19,tr13,16089,96534).
route(prodloc24,prodloc20,tr0,25764,669864).
route(prodloc24,prodloc20,tr13,25764,154584).
route(prodloc24,prodloc21,tr0,2181,56706).
route(prodloc24,prodloc21,tr13,2181,13086).
route(prodloc24,prodloc22,tr0,21490,558740).
route(prodloc24,prodloc22,tr13,21490,128940).
route(prodloc24,prodloc23,tr0,17694,460044).
route(prodloc24,prodloc23,tr13,17694,106164).
route(prodloc24,prodloc25,tr0,14964,389064).
route(prodloc24,prodloc25,tr13,14964,89784).
route(prodloc24,prodloc26,tr0,17497,454922).
route(prodloc24,prodloc26,tr13,17497,104982).
route(prodloc24,prodloc27,tr0,7980,207480).
route(prodloc24,prodloc27,tr13,7980,47880).
route(prodloc24,prodloc28,tr0,25097,652522).
route(prodloc24,prodloc28,tr13,25097,150582).
route(prodloc24,prodloc29,tr0,19898,517348).
route(prodloc24,prodloc29,tr13,19898,119388).
route(prodloc24,prodloc30,tr0,21390,556140).
route(prodloc24,prodloc30,tr13,21390,128340).
route(prodloc24,prodloc31,tr0,14004,364104).
route(prodloc24,prodloc31,tr13,14004,84024).
route(prodloc24,prodloc32,tr0,14437,375362).
route(prodloc24,prodloc32,tr13,14437,86622).
route(prodloc24,prodloc33,tr0,18210,473460).
route(prodloc24,prodloc33,tr13,18210,109260).
route(prodloc25,harbor0,tr0,3627,94302).
route(prodloc25,harbor0,tr13,3627,21762).
route(prodloc25,harbor1,tr0,14343,372918).
route(prodloc25,harbor1,tr13,14343,86058).
route(prodloc25,harbor2,tr0,20751,539526).
route(prodloc25,harbor2,tr13,20751,124506).
route(prodloc25,harbor3,tr0,26504,689104).
route(prodloc25,harbor3,tr13,26504,159024).
route(prodloc25,harbor4,tr0,12561,326586).
route(prodloc25,harbor4,tr13,12561,75366).
route(prodloc25,harbor5,tr0,25240,656240).
route(prodloc25,harbor5,tr13,25240,151440).
route(prodloc25,harbor6,tr0,6546,170196).
route(prodloc25,harbor6,tr13,6546,39276).
route(prodloc25,harbor7,tr0,27493,714818).
route(prodloc25,harbor7,tr13,27493,164958).
route(prodloc25,harbor8,tr0,775,20150).
route(prodloc25,harbor8,tr13,775,4650).
route(prodloc25,harbor9,tr0,11124,289224).
route(prodloc25,harbor9,tr13,11124,66744).
route(prodloc25,harbor10,tr0,2290,59540).
route(prodloc25,harbor10,tr13,2290,13740).
route(prodloc25,harbor11,tr0,6549,170274).
route(prodloc25,harbor11,tr13,6549,39294).
route(prodloc25,harbor12,tr0,3735,97110).
route(prodloc25,harbor12,tr13,3735,22410).
route(prodloc25,harbor13,tr0,26609,691834).
route(prodloc25,harbor13,tr13,26609,159654).
route(prodloc25,harbor14,tr0,1607,41782).
route(prodloc25,harbor14,tr13,1607,9642).
route(prodloc25,harbor15,tr0,12226,317876).
route(prodloc25,harbor15,tr13,12226,73356).
route(prodloc25,harbor16,tr0,16927,440102).
route(prodloc25,harbor16,tr13,16927,101562).
route(prodloc25,prodloc0,tr0,16196,421096).
route(prodloc25,prodloc0,tr13,16196,97176).
route(prodloc25,prodloc1,tr0,10670,277420).
route(prodloc25,prodloc1,tr13,10670,64020).
route(prodloc25,prodloc2,tr0,14729,382954).
route(prodloc25,prodloc2,tr13,14729,88374).
route(prodloc25,prodloc3,tr0,7779,202254).
route(prodloc25,prodloc3,tr13,7779,46674).
route(prodloc25,prodloc4,tr0,15298,397748).
route(prodloc25,prodloc4,tr13,15298,91788).
route(prodloc25,prodloc5,tr0,28194,733044).
route(prodloc25,prodloc5,tr13,28194,169164).
route(prodloc25,prodloc6,tr0,21996,571896).
route(prodloc25,prodloc6,tr13,21996,131976).
route(prodloc25,prodloc7,tr0,13869,360594).
route(prodloc25,prodloc7,tr13,13869,83214).
route(prodloc25,prodloc8,tr0,20446,531596).
route(prodloc25,prodloc8,tr13,20446,122676).
route(prodloc25,prodloc9,tr0,25932,674232).
route(prodloc25,prodloc9,tr13,25932,155592).
route(prodloc25,prodloc10,tr0,6828,177528).
route(prodloc25,prodloc10,tr13,6828,40968).
route(prodloc25,prodloc11,tr0,673,17498).
route(prodloc25,prodloc11,tr13,673,4038).
route(prodloc25,prodloc12,tr0,15993,415818).
route(prodloc25,prodloc12,tr13,15993,95958).
route(prodloc25,prodloc13,tr0,24528,637728).
route(prodloc25,prodloc13,tr13,24528,147168).
route(prodloc25,prodloc14,tr0,27806,722956).
route(prodloc25,prodloc14,tr13,27806,166836).
route(prodloc25,prodloc15,tr0,16682,433732).
route(prodloc25,prodloc15,tr13,16682,100092).
route(prodloc25,prodloc16,tr0,14953,388778).
route(prodloc25,prodloc16,tr13,14953,89718).
route(prodloc25,prodloc17,tr0,23582,613132).
route(prodloc25,prodloc17,tr13,23582,141492).
route(prodloc25,prodloc18,tr0,15079,392054).
route(prodloc25,prodloc18,tr13,15079,90474).
route(prodloc25,prodloc19,tr0,8998,233948).
route(prodloc25,prodloc19,tr13,8998,53988).
route(prodloc25,prodloc20,tr0,9488,246688).
route(prodloc25,prodloc20,tr13,9488,56928).
route(prodloc25,prodloc21,tr0,14403,374478).
route(prodloc25,prodloc21,tr13,14403,86418).
route(prodloc25,prodloc22,tr0,13385,348010).
route(prodloc25,prodloc22,tr13,13385,80310).
route(prodloc25,prodloc23,tr0,7416,192816).
route(prodloc25,prodloc23,tr13,7416,44496).
route(prodloc25,prodloc24,tr0,12707,330382).
route(prodloc25,prodloc24,tr13,12707,76242).
route(prodloc25,prodloc26,tr0,9229,239954).
route(prodloc25,prodloc26,tr13,9229,55374).
route(prodloc25,prodloc27,tr0,6148,159848).
route(prodloc25,prodloc27,tr13,6148,36888).
route(prodloc25,prodloc29,tr0,19720,512720).
route(prodloc25,prodloc29,tr13,19720,118320).
route(prodloc25,prodloc30,tr0,26631,692406).
route(prodloc25,prodloc30,tr13,26631,159786).
route(prodloc25,prodloc31,tr0,2237,58162).
route(prodloc25,prodloc31,tr13,2237,13422).
route(prodloc25,prodloc32,tr0,9416,244816).
route(prodloc25,prodloc32,tr13,9416,56496).
route(prodloc25,prodloc33,tr0,8070,209820).
route(prodloc25,prodloc33,tr13,8070,48420).
route(prodloc26,harbor0,tr0,7145,185770).
route(prodloc26,harbor0,tr13,7145,42870).
route(prodloc26,harbor1,tr0,528,13728).
route(prodloc26,harbor1,tr13,528,3168).
route(prodloc26,harbor2,tr0,14091,366366).
route(prodloc26,harbor2,tr13,14091,84546).
route(prodloc26,harbor3,tr0,26485,688610).
route(prodloc26,harbor3,tr13,26485,158910).
route(prodloc26,harbor4,tr0,11422,296972).
route(prodloc26,harbor4,tr13,11422,68532).
route(prodloc26,harbor5,tr0,14055,365430).
route(prodloc26,harbor5,tr13,14055,84330).
route(prodloc26,harbor6,tr0,18018,468468).
route(prodloc26,harbor6,tr13,18018,108108).
route(prodloc26,harbor7,tr0,12477,324402).
route(prodloc26,harbor7,tr13,12477,74862).
route(prodloc26,harbor8,tr0,9418,244868).
route(prodloc26,harbor8,tr13,9418,56508).
route(prodloc26,harbor9,tr0,28388,738088).
route(prodloc26,harbor9,tr13,28388,170328).
route(prodloc26,harbor10,tr0,12542,326092).
route(prodloc26,harbor10,tr13,12542,75252).
route(prodloc26,harbor11,tr0,24655,641030).
route(prodloc26,harbor11,tr13,24655,147930).
route(prodloc26,harbor12,tr0,16178,420628).
route(prodloc26,harbor12,tr13,16178,97068).
route(prodloc26,harbor13,tr0,8111,210886).
route(prodloc26,harbor13,tr13,8111,48666).
route(prodloc26,harbor14,tr0,24822,645372).
route(prodloc26,harbor14,tr13,24822,148932).
route(prodloc26,harbor15,tr0,20715,538590).
route(prodloc26,harbor15,tr13,20715,124290).
route(prodloc26,harbor16,tr0,8992,233792).
route(prodloc26,harbor16,tr13,8992,53952).
route(prodloc26,prodloc0,tr0,21297,553722).
route(prodloc26,prodloc0,tr13,21297,127782).
route(prodloc26,prodloc1,tr0,11878,308828).
route(prodloc26,prodloc1,tr13,11878,71268).
route(prodloc26,prodloc2,tr0,16155,420030).
route(prodloc26,prodloc2,tr13,16155,96930).
route(prodloc26,prodloc3,tr0,3251,84526).
route(prodloc26,prodloc3,tr13,3251,19506).
route(prodloc26,prodloc4,tr0,16740,435240).
route(prodloc26,prodloc4,tr13,16740,100440).
route(prodloc26,prodloc5,tr0,8428,219128).
route(prodloc26,prodloc5,tr13,8428,50568).
route(prodloc26,prodloc6,tr0,20991,545766).
route(prodloc26,prodloc6,tr13,20991,125946).
route(prodloc26,prodloc7,tr0,23370,607620).
route(prodloc26,prodloc7,tr13,23370,140220).
route(prodloc26,prodloc8,tr0,8414,218764).
route(prodloc26,prodloc8,tr13,8414,50484).
route(prodloc26,prodloc9,tr0,8684,225784).
route(prodloc26,prodloc9,tr13,8684,52104).
route(prodloc26,prodloc10,tr0,11792,306592).
route(prodloc26,prodloc10,tr13,11792,70752).
route(prodloc26,prodloc11,tr0,6126,159276).
route(prodloc26,prodloc11,tr13,6126,36756).
route(prodloc26,prodloc12,tr0,8132,211432).
route(prodloc26,prodloc12,tr13,8132,48792).
route(prodloc26,prodloc13,tr0,21819,567294).
route(prodloc26,prodloc13,tr13,21819,130914).
route(prodloc26,prodloc14,tr0,22387,582062).
route(prodloc26,prodloc14,tr13,22387,134322).
route(prodloc26,prodloc15,tr0,19243,500318).
route(prodloc26,prodloc15,tr13,19243,115458).
route(prodloc26,prodloc16,tr0,14074,365924).
route(prodloc26,prodloc16,tr13,14074,84444).
route(prodloc26,prodloc17,tr0,28045,729170).
route(prodloc26,prodloc17,tr13,28045,168270).
route(prodloc26,prodloc18,tr0,4534,117884).
route(prodloc26,prodloc18,tr13,4534,27204).
route(prodloc26,prodloc19,tr0,24967,649142).
route(prodloc26,prodloc19,tr13,24967,149802).
route(prodloc26,prodloc20,tr0,5979,155454).
route(prodloc26,prodloc20,tr13,5979,35874).
route(prodloc26,prodloc21,tr0,26221,681746).
route(prodloc26,prodloc21,tr13,26221,157326).
route(prodloc26,prodloc22,tr0,20089,522314).
route(prodloc26,prodloc22,tr13,20089,120534).
route(prodloc26,prodloc23,tr0,13196,343096).
route(prodloc26,prodloc23,tr13,13196,79176).
route(prodloc26,prodloc24,tr0,14677,381602).
route(prodloc26,prodloc24,tr13,14677,88062).
route(prodloc26,prodloc25,tr0,10150,263900).
route(prodloc26,prodloc25,tr13,10150,60900).
route(prodloc26,prodloc27,tr0,7232,188032).
route(prodloc26,prodloc27,tr13,7232,43392).
route(prodloc26,prodloc28,tr0,26759,695734).
route(prodloc26,prodloc28,tr13,26759,160554).
route(prodloc26,prodloc29,tr0,23519,611494).
route(prodloc26,prodloc29,tr13,23519,141114).
route(prodloc26,prodloc30,tr0,8270,215020).
route(prodloc26,prodloc30,tr15,8270,264640).
route(prodloc26,prodloc31,tr0,9526,247676).
route(prodloc26,prodloc31,tr13,9526,57156).
route(prodloc26,prodloc32,tr0,2044,53144).
route(prodloc26,prodloc32,tr13,2044,12264).
route(prodloc26,prodloc33,tr0,5495,142870).
route(prodloc26,prodloc33,tr13,5495,32970).
route(prodloc27,harbor0,tr0,20927,544102).
route(prodloc27,harbor0,tr13,20927,125562).
route(prodloc27,harbor1,tr0,15382,399932).
route(prodloc27,harbor1,tr13,15382,92292).
route(prodloc27,harbor2,tr0,2566,66716).
route(prodloc27,harbor2,tr13,2566,15396).
route(prodloc27,harbor3,tr0,27921,725946).
route(prodloc27,harbor3,tr13,27921,167526).
route(prodloc27,harbor4,tr0,6703,174278).
route(prodloc27,harbor4,tr13,6703,40218).
route(prodloc27,harbor5,tr0,5913,153738).
route(prodloc27,harbor5,tr13,5913,35478).
route(prodloc27,harbor6,tr0,6621,172146).
route(prodloc27,harbor6,tr13,6621,39726).
route(prodloc27,harbor7,tr0,9141,237666).
route(prodloc27,harbor7,tr13,9141,54846).
route(prodloc27,harbor8,tr0,11914,309764).
route(prodloc27,harbor8,tr13,11914,71484).
route(prodloc27,harbor9,tr0,3593,93418).
route(prodloc27,harbor9,tr13,3593,21558).
route(prodloc27,harbor10,tr0,21918,569868).
route(prodloc27,harbor10,tr13,21918,131508).
route(prodloc27,harbor11,tr0,25496,662896).
route(prodloc27,harbor11,tr13,25496,152976).
route(prodloc27,harbor12,tr0,6103,158678).
route(prodloc27,harbor12,tr13,6103,36618).
route(prodloc27,harbor13,tr0,5845,151970).
route(prodloc27,harbor13,tr13,5845,35070).
route(prodloc27,harbor14,tr0,28178,732628).
route(prodloc27,harbor14,tr13,28178,169068).
route(prodloc27,harbor15,tr0,5565,144690).
route(prodloc27,harbor15,tr13,5565,33390).
route(prodloc27,harbor16,tr0,3296,85696).
route(prodloc27,harbor16,tr13,3296,19776).
route(prodloc27,prodloc0,tr0,11743,305318).
route(prodloc27,prodloc0,tr13,11743,70458).
route(prodloc27,prodloc1,tr0,4033,104858).
route(prodloc27,prodloc1,tr13,4033,24198).
route(prodloc27,prodloc2,tr0,2298,59748).
route(prodloc27,prodloc2,tr13,2298,13788).
route(prodloc27,prodloc3,tr0,18151,471926).
route(prodloc27,prodloc3,tr13,18151,108906).
route(prodloc27,prodloc4,tr0,25700,668200).
route(prodloc27,prodloc4,tr13,25700,154200).
route(prodloc27,prodloc5,tr0,13484,350584).
route(prodloc27,prodloc5,tr13,13484,80904).
route(prodloc27,prodloc6,tr0,15641,406666).
route(prodloc27,prodloc6,tr13,15641,93846).
route(prodloc27,prodloc7,tr0,8146,211796).
route(prodloc27,prodloc7,tr13,8146,48876).
route(prodloc27,prodloc8,tr0,23632,614432).
route(prodloc27,prodloc8,tr13,23632,141792).
route(prodloc27,prodloc9,tr0,5722,148772).
route(prodloc27,prodloc9,tr13,5722,34332).
route(prodloc27,prodloc10,tr0,8242,214292).
route(prodloc27,prodloc10,tr13,8242,49452).
route(prodloc27,prodloc11,tr0,24179,628654).
route(prodloc27,prodloc11,tr13,24179,145074).
route(prodloc27,prodloc12,tr0,651,16926).
route(prodloc27,prodloc12,tr13,651,3906).
route(prodloc27,prodloc13,tr0,1030,26780).
route(prodloc27,prodloc13,tr13,1030,6180).
route(prodloc27,prodloc14,tr0,24638,640588).
route(prodloc27,prodloc14,tr13,24638,147828).
route(prodloc27,prodloc15,tr0,16760,435760).
route(prodloc27,prodloc15,tr13,16760,100560).
route(prodloc27,prodloc16,tr0,5953,154778).
route(prodloc27,prodloc16,tr13,5953,35718).
route(prodloc27,prodloc17,tr0,14302,371852).
route(prodloc27,prodloc17,tr13,14302,85812).
route(prodloc27,prodloc18,tr0,23284,605384).
route(prodloc27,prodloc18,tr13,23284,139704).
route(prodloc27,prodloc19,tr0,17652,458952).
route(prodloc27,prodloc19,tr13,17652,105912).
route(prodloc27,prodloc20,tr0,556,14456).
route(prodloc27,prodloc20,tr13,556,3336).
route(prodloc27,prodloc21,tr0,11558,300508).
route(prodloc27,prodloc21,tr13,11558,69348).
route(prodloc27,prodloc22,tr0,23054,599404).
route(prodloc27,prodloc22,tr13,23054,138324).
route(prodloc27,prodloc23,tr0,7074,183924).
route(prodloc27,prodloc23,tr13,7074,42444).
route(prodloc27,prodloc24,tr0,1778,46228).
route(prodloc27,prodloc24,tr13,1778,10668).
route(prodloc27,prodloc25,tr0,4691,121966).
route(prodloc27,prodloc25,tr13,4691,28146).
route(prodloc27,prodloc26,tr0,24828,645528).
route(prodloc27,prodloc26,tr13,24828,148968).
route(prodloc27,prodloc28,tr0,26750,695500).
route(prodloc27,prodloc28,tr13,26750,160500).
route(prodloc27,prodloc29,tr0,4958,128908).
route(prodloc27,prodloc29,tr13,4958,29748).
route(prodloc27,prodloc30,tr0,11085,288210).
route(prodloc27,prodloc30,tr13,11085,66510).
route(prodloc27,prodloc31,tr0,1775,46150).
route(prodloc27,prodloc31,tr13,1775,10650).
route(prodloc27,prodloc32,tr0,9925,258050).
route(prodloc27,prodloc32,tr13,9925,59550).
route(prodloc27,prodloc33,tr0,3323,86398).
route(prodloc27,prodloc33,tr13,3323,19938).
route(prodloc28,harbor0,tr0,11865,308490).
route(prodloc28,harbor0,tr13,11865,71190).
route(prodloc28,harbor1,tr0,8943,232518).
route(prodloc28,harbor1,tr13,8943,53658).
route(prodloc28,harbor2,tr0,9138,237588).
route(prodloc28,harbor2,tr13,9138,54828).
route(prodloc28,harbor3,tr0,15801,410826).
route(prodloc28,harbor3,tr13,15801,94806).
route(prodloc28,harbor4,tr0,19535,507910).
route(prodloc28,harbor4,tr13,19535,117210).
route(prodloc28,harbor5,tr0,7769,201994).
route(prodloc28,harbor5,tr13,7769,46614).
route(prodloc28,harbor6,tr0,14041,365066).
route(prodloc28,harbor6,tr13,14041,84246).
route(prodloc28,harbor7,tr0,5661,147186).
route(prodloc28,harbor7,tr13,5661,33966).
route(prodloc28,harbor8,tr0,3281,85306).
route(prodloc28,harbor8,tr13,3281,19686).
route(prodloc28,harbor9,tr0,4338,112788).
route(prodloc28,harbor9,tr13,4338,26028).
route(prodloc28,harbor10,tr0,8135,211510).
route(prodloc28,harbor10,tr13,8135,48810).
route(prodloc28,harbor11,tr0,26531,689806).
route(prodloc28,harbor11,tr13,26531,159186).
route(prodloc28,harbor12,tr0,28198,733148).
route(prodloc28,harbor12,tr13,28198,169188).
route(prodloc28,harbor13,tr0,19612,509912).
route(prodloc28,harbor13,tr13,19612,117672).
route(prodloc28,harbor14,tr0,9426,245076).
route(prodloc28,harbor14,tr13,9426,56556).
route(prodloc28,harbor15,tr0,291,7566).
route(prodloc28,harbor15,tr13,291,1746).
route(prodloc28,harbor16,tr0,24960,648960).
route(prodloc28,harbor16,tr13,24960,149760).
route(prodloc28,prodloc0,tr0,25536,663936).
route(prodloc28,prodloc0,tr13,25536,153216).
route(prodloc28,prodloc1,tr0,21865,568490).
route(prodloc28,prodloc1,tr13,21865,131190).
route(prodloc28,prodloc2,tr0,10132,263432).
route(prodloc28,prodloc2,tr13,10132,60792).
route(prodloc28,prodloc3,tr0,27892,725192).
route(prodloc28,prodloc3,tr13,27892,167352).
route(prodloc28,prodloc4,tr0,16884,438984).
route(prodloc28,prodloc4,tr13,16884,101304).
route(prodloc28,prodloc5,tr0,17379,451854).
route(prodloc28,prodloc5,tr13,17379,104274).
route(prodloc28,prodloc6,tr0,18863,490438).
route(prodloc28,prodloc6,tr13,18863,113178).
route(prodloc28,prodloc7,tr0,407,10582).
route(prodloc28,prodloc7,tr13,407,2442).
route(prodloc28,prodloc8,tr0,7769,201994).
route(prodloc28,prodloc8,tr13,7769,46614).
route(prodloc28,prodloc9,tr0,793,20618).
route(prodloc28,prodloc9,tr13,793,4758).
route(prodloc28,prodloc10,tr0,13185,342810).
route(prodloc28,prodloc10,tr13,13185,79110).
route(prodloc28,prodloc11,tr0,17267,448942).
route(prodloc28,prodloc11,tr13,17267,103602).
route(prodloc28,prodloc12,tr0,16948,440648).
route(prodloc28,prodloc12,tr13,16948,101688).
route(prodloc28,prodloc13,tr0,6769,175994).
route(prodloc28,prodloc13,tr13,6769,40614).
route(prodloc28,prodloc14,tr0,2174,56524).
route(prodloc28,prodloc14,tr13,2174,13044).
route(prodloc28,prodloc15,tr0,6448,167648).
route(prodloc28,prodloc15,tr13,6448,38688).
route(prodloc28,prodloc16,tr0,9695,252070).
route(prodloc28,prodloc16,tr13,9695,58170).
route(prodloc28,prodloc17,tr0,25033,650858).
route(prodloc28,prodloc17,tr13,25033,150198).
route(prodloc28,prodloc18,tr0,3401,88426).
route(prodloc28,prodloc18,tr13,3401,20406).
route(prodloc28,prodloc19,tr0,8746,227396).
route(prodloc28,prodloc19,tr13,8746,52476).
route(prodloc28,prodloc20,tr0,23645,614770).
route(prodloc28,prodloc20,tr13,23645,141870).
route(prodloc28,prodloc21,tr0,4334,112684).
route(prodloc28,prodloc21,tr13,4334,26004).
route(prodloc28,prodloc22,tr0,7750,201500).
route(prodloc28,prodloc22,tr13,7750,46500).
route(prodloc28,prodloc23,tr0,23835,619710).
route(prodloc28,prodloc23,tr13,23835,143010).
route(prodloc28,prodloc24,tr0,5108,132808).
route(prodloc28,prodloc24,tr13,5108,30648).
route(prodloc28,prodloc25,tr0,28350,737100).
route(prodloc28,prodloc25,tr13,28350,170100).
route(prodloc28,prodloc26,tr0,9262,240812).
route(prodloc28,prodloc26,tr13,9262,55572).
route(prodloc28,prodloc27,tr0,20289,527514).
route(prodloc28,prodloc27,tr13,20289,121734).
route(prodloc28,prodloc29,tr0,20180,524680).
route(prodloc28,prodloc29,tr13,20180,121080).
route(prodloc28,prodloc30,tr0,5202,135252).
route(prodloc28,prodloc30,tr13,5202,31212).
route(prodloc28,prodloc31,tr0,22915,595790).
route(prodloc28,prodloc31,tr13,22915,137490).
route(prodloc28,prodloc32,tr0,779,20254).
route(prodloc28,prodloc32,tr13,779,4674).
route(prodloc28,prodloc33,tr0,12044,313144).
route(prodloc28,prodloc33,tr13,12044,72264).
route(prodloc29,harbor0,tr0,11058,287508).
route(prodloc29,harbor0,tr13,11058,66348).
route(prodloc29,harbor1,tr0,12442,323492).
route(prodloc29,harbor1,tr13,12442,74652).
route(prodloc29,harbor2,tr0,9556,248456).
route(prodloc29,harbor2,tr13,9556,57336).
route(prodloc29,harbor3,tr0,1140,29640).
route(prodloc29,harbor3,tr13,1140,6840).
route(prodloc29,harbor4,tr0,5768,149968).
route(prodloc29,harbor4,tr13,5768,34608).
route(prodloc29,harbor5,tr0,15531,403806).
route(prodloc29,harbor5,tr13,15531,93186).
route(prodloc29,harbor6,tr0,18226,473876).
route(prodloc29,harbor6,tr13,18226,109356).
route(prodloc29,harbor7,tr0,20733,539058).
route(prodloc29,harbor7,tr13,20733,124398).
route(prodloc29,harbor8,tr0,7064,183664).
route(prodloc29,harbor8,tr13,7064,42384).
route(prodloc29,harbor9,tr0,18087,470262).
route(prodloc29,harbor9,tr13,18087,108522).
route(prodloc29,harbor10,tr0,4337,112762).
route(prodloc29,harbor10,tr13,4337,26022).
route(prodloc29,harbor11,tr0,20772,540072).
route(prodloc29,harbor11,tr13,20772,124632).
route(prodloc29,harbor12,tr0,17999,467974).
route(prodloc29,harbor12,tr13,17999,107994).
route(prodloc29,harbor13,tr0,13223,343798).
route(prodloc29,harbor13,tr13,13223,79338).
route(prodloc29,harbor14,tr0,26999,701974).
route(prodloc29,harbor14,tr13,26999,161994).
route(prodloc29,harbor15,tr0,4871,126646).
route(prodloc29,harbor15,tr13,4871,29226).
route(prodloc29,harbor16,tr0,28338,736788).
route(prodloc29,harbor16,tr13,28338,170028).
route(prodloc29,prodloc0,tr0,24592,639392).
route(prodloc29,prodloc0,tr13,24592,147552).
route(prodloc29,prodloc1,tr0,16350,425100).
route(prodloc29,prodloc1,tr13,16350,98100).
route(prodloc29,prodloc2,tr0,4138,107588).
route(prodloc29,prodloc2,tr13,4138,24828).
route(prodloc29,prodloc3,tr0,27988,727688).
route(prodloc29,prodloc3,tr13,27988,167928).
route(prodloc29,prodloc4,tr0,21363,555438).
route(prodloc29,prodloc4,tr13,21363,128178).
route(prodloc29,prodloc5,tr0,5389,140114).
route(prodloc29,prodloc5,tr13,5389,32334).
route(prodloc29,prodloc6,tr0,28711,746486).
route(prodloc29,prodloc6,tr13,28711,172266).
route(prodloc29,prodloc7,tr0,5947,154622).
route(prodloc29,prodloc7,tr13,5947,35682).
route(prodloc29,prodloc8,tr0,27432,713232).
route(prodloc29,prodloc8,tr13,27432,164592).
route(prodloc29,prodloc9,tr0,1879,48854).
route(prodloc29,prodloc9,tr13,1879,11274).
route(prodloc29,prodloc10,tr0,10685,277810).
route(prodloc29,prodloc10,tr13,10685,64110).
route(prodloc29,prodloc11,tr0,26483,688558).
route(prodloc29,prodloc11,tr13,26483,158898).
route(prodloc29,prodloc12,tr0,12317,320242).
route(prodloc29,prodloc12,tr13,12317,73902).
route(prodloc29,prodloc13,tr0,5978,155428).
route(prodloc29,prodloc13,tr13,5978,35868).
route(prodloc29,prodloc14,tr0,3873,100698).
route(prodloc29,prodloc14,tr13,3873,23238).
route(prodloc29,prodloc15,tr0,14371,373646).
route(prodloc29,prodloc15,tr13,14371,86226).
route(prodloc29,prodloc16,tr0,18899,491374).
route(prodloc29,prodloc16,tr13,18899,113394).
route(prodloc29,prodloc17,tr0,16360,425360).
route(prodloc29,prodloc17,tr13,16360,98160).
route(prodloc29,prodloc18,tr0,23643,614718).
route(prodloc29,prodloc18,tr13,23643,141858).
route(prodloc29,prodloc19,tr0,2514,65364).
route(prodloc29,prodloc19,tr13,2514,15084).
route(prodloc29,prodloc20,tr0,8374,217724).
route(prodloc29,prodloc20,tr13,8374,50244).
route(prodloc29,prodloc21,tr0,9523,247598).
route(prodloc29,prodloc21,tr13,9523,57138).
route(prodloc29,prodloc22,tr0,1863,48438).
route(prodloc29,prodloc22,tr13,1863,11178).
route(prodloc29,prodloc23,tr0,1653,42978).
route(prodloc29,prodloc23,tr13,1653,9918).
route(prodloc29,prodloc24,tr0,13137,341562).
route(prodloc29,prodloc24,tr13,13137,78822).
route(prodloc29,prodloc25,tr0,13934,362284).
route(prodloc29,prodloc25,tr15,13934,445888).
route(prodloc29,prodloc26,tr0,17413,452738).
route(prodloc29,prodloc26,tr13,17413,104478).
route(prodloc29,prodloc27,tr0,7562,196612).
route(prodloc29,prodloc27,tr13,7562,45372).
route(prodloc29,prodloc28,tr0,11601,301626).
route(prodloc29,prodloc28,tr13,11601,69606).
route(prodloc29,prodloc30,tr0,19265,500890).
route(prodloc29,prodloc30,tr13,19265,115590).
route(prodloc29,prodloc31,tr0,8118,211068).
route(prodloc29,prodloc31,tr13,8118,48708).
route(prodloc29,prodloc32,tr0,22292,579592).
route(prodloc29,prodloc32,tr13,22292,133752).
route(prodloc29,prodloc33,tr0,13428,349128).
route(prodloc29,prodloc33,tr13,13428,80568).
route(prodloc30,harbor0,tr0,13918,361868).
route(prodloc30,harbor0,tr13,13918,83508).
route(prodloc30,harbor1,tr0,17954,466804).
route(prodloc30,harbor1,tr13,17954,107724).
route(prodloc30,harbor2,tr0,16135,419510).
route(prodloc30,harbor2,tr13,16135,96810).
route(prodloc30,harbor3,tr0,4592,119392).
route(prodloc30,harbor3,tr13,4592,27552).
route(prodloc30,harbor4,tr0,8368,217568).
route(prodloc30,harbor4,tr13,8368,50208).
route(prodloc30,harbor5,tr0,22087,574262).
route(prodloc30,harbor5,tr13,22087,132522).
route(prodloc30,harbor6,tr0,3335,86710).
route(prodloc30,harbor6,tr13,3335,20010).
route(prodloc30,harbor7,tr0,27162,706212).
route(prodloc30,harbor7,tr13,27162,162972).
route(prodloc30,harbor8,tr0,25474,662324).
route(prodloc30,harbor8,tr13,25474,152844).
route(prodloc30,harbor9,tr0,15087,392262).
route(prodloc30,harbor9,tr13,15087,90522).
route(prodloc30,harbor10,tr0,9469,246194).
route(prodloc30,harbor10,tr13,9469,56814).
route(prodloc30,harbor11,tr0,10900,283400).
route(prodloc30,harbor11,tr13,10900,65400).
route(prodloc30,harbor12,tr0,4705,122330).
route(prodloc30,harbor12,tr13,4705,28230).
route(prodloc30,harbor13,tr0,23328,606528).
route(prodloc30,harbor13,tr13,23328,139968).
route(prodloc30,harbor14,tr0,15606,405756).
route(prodloc30,harbor14,tr13,15606,93636).
route(prodloc30,harbor15,tr0,5897,153322).
route(prodloc30,harbor15,tr13,5897,35382).
route(prodloc30,harbor16,tr0,20638,536588).
route(prodloc30,harbor16,tr13,20638,123828).
route(prodloc30,prodloc0,tr0,25928,674128).
route(prodloc30,prodloc0,tr13,25928,155568).
route(prodloc30,prodloc1,tr0,1201,31226).
route(prodloc30,prodloc1,tr13,1201,7206).
route(prodloc30,prodloc2,tr0,27425,713050).
route(prodloc30,prodloc2,tr13,27425,164550).
route(prodloc30,prodloc3,tr0,13484,350584).
route(prodloc30,prodloc3,tr13,13484,80904).
route(prodloc30,prodloc4,tr0,4231,110006).
route(prodloc30,prodloc4,tr13,4231,25386).
route(prodloc30,prodloc5,tr0,28295,735670).
route(prodloc30,prodloc5,tr13,28295,169770).
route(prodloc30,prodloc6,tr0,4880,126880).
route(prodloc30,prodloc6,tr13,4880,29280).
route(prodloc30,prodloc7,tr0,21896,569296).
route(prodloc30,prodloc7,tr13,21896,131376).
route(prodloc30,prodloc8,tr0,23251,604526).
route(prodloc30,prodloc8,tr13,23251,139506).
route(prodloc30,prodloc9,tr0,1893,49218).
route(prodloc30,prodloc9,tr13,1893,11358).
route(prodloc30,prodloc10,tr0,22570,586820).
route(prodloc30,prodloc10,tr13,22570,135420).
route(prodloc30,prodloc11,tr0,24133,627458).
route(prodloc30,prodloc11,tr13,24133,144798).
route(prodloc30,prodloc12,tr0,22212,577512).
route(prodloc30,prodloc12,tr13,22212,133272).
route(prodloc30,prodloc13,tr0,16204,421304).
route(prodloc30,prodloc13,tr13,16204,97224).
route(prodloc30,prodloc14,tr0,3797,98722).
route(prodloc30,prodloc14,tr13,3797,22782).
route(prodloc30,prodloc15,tr0,2602,67652).
route(prodloc30,prodloc15,tr13,2602,15612).
route(prodloc30,prodloc16,tr0,4469,116194).
route(prodloc30,prodloc16,tr13,4469,26814).
route(prodloc30,prodloc17,tr0,21891,569166).
route(prodloc30,prodloc17,tr13,21891,131346).
route(prodloc30,prodloc18,tr0,8231,214006).
route(prodloc30,prodloc18,tr13,8231,49386).
route(prodloc30,prodloc19,tr0,143,3718).
route(prodloc30,prodloc19,tr13,143,858).
route(prodloc30,prodloc20,tr0,13056,339456).
route(prodloc30,prodloc20,tr13,13056,78336).
route(prodloc30,prodloc21,tr0,7308,190008).
route(prodloc30,prodloc21,tr13,7308,43848).
route(prodloc30,prodloc22,tr0,15882,412932).
route(prodloc30,prodloc22,tr13,15882,95292).
route(prodloc30,prodloc23,tr0,26430,687180).
route(prodloc30,prodloc23,tr13,26430,158580).
route(prodloc30,prodloc24,tr0,14474,376324).
route(prodloc30,prodloc24,tr15,14474,463168).
route(prodloc30,prodloc25,tr0,20518,533468).
route(prodloc30,prodloc25,tr13,20518,123108).
route(prodloc30,prodloc26,tr0,7702,200252).
route(prodloc30,prodloc26,tr13,7702,46212).
route(prodloc30,prodloc27,tr0,4359,113334).
route(prodloc30,prodloc27,tr13,4359,26154).
route(prodloc30,prodloc28,tr0,23053,599378).
route(prodloc30,prodloc28,tr13,23053,138318).
route(prodloc30,prodloc29,tr13,20021,120126).
route(prodloc30,prodloc29,tr15,20021,640672).
route(prodloc30,prodloc31,tr0,4910,127660).
route(prodloc30,prodloc31,tr13,4910,29460).
route(prodloc30,prodloc32,tr0,14767,383942).
route(prodloc30,prodloc32,tr13,14767,88602).
route(prodloc30,prodloc33,tr0,16153,419978).
route(prodloc30,prodloc33,tr13,16153,96918).
route(prodloc31,harbor0,tr0,11529,299754).
route(prodloc31,harbor0,tr13,11529,69174).
route(prodloc31,harbor1,tr0,14991,389766).
route(prodloc31,harbor1,tr13,14991,89946).
route(prodloc31,harbor2,tr0,24657,641082).
route(prodloc31,harbor2,tr13,24657,147942).
route(prodloc31,harbor3,tr0,18448,479648).
route(prodloc31,harbor3,tr13,18448,110688).
route(prodloc31,harbor4,tr0,1485,38610).
route(prodloc31,harbor4,tr13,1485,8910).
route(prodloc31,harbor5,tr0,4063,105638).
route(prodloc31,harbor5,tr13,4063,24378).
route(prodloc31,harbor6,tr0,13497,350922).
route(prodloc31,harbor6,tr13,13497,80982).
route(prodloc31,harbor7,tr0,26943,700518).
route(prodloc31,harbor7,tr13,26943,161658).
route(prodloc31,harbor8,tr0,13085,340210).
route(prodloc31,harbor8,tr13,13085,78510).
route(prodloc31,harbor9,tr0,24974,649324).
route(prodloc31,harbor9,tr13,24974,149844).
route(prodloc31,harbor10,tr0,11916,309816).
route(prodloc31,harbor10,tr13,11916,71496).
route(prodloc31,harbor11,tr0,13681,355706).
route(prodloc31,harbor11,tr13,13681,82086).
route(prodloc31,harbor12,tr0,6175,160550).
route(prodloc31,harbor12,tr13,6175,37050).
route(prodloc31,harbor13,tr0,27404,712504).
route(prodloc31,harbor13,tr13,27404,164424).
route(prodloc31,harbor14,tr0,6375,165750).
route(prodloc31,harbor14,tr13,6375,38250).
route(prodloc31,harbor15,tr0,19272,501072).
route(prodloc31,harbor15,tr13,19272,115632).
route(prodloc31,harbor16,tr0,6912,179712).
route(prodloc31,harbor16,tr13,6912,41472).
route(prodloc31,prodloc0,tr0,21629,562354).
route(prodloc31,prodloc0,tr13,21629,129774).
route(prodloc31,prodloc1,tr0,5736,149136).
route(prodloc31,prodloc1,tr13,5736,34416).
route(prodloc31,prodloc2,tr0,7260,188760).
route(prodloc31,prodloc2,tr13,7260,43560).
route(prodloc31,prodloc3,tr0,24557,638482).
route(prodloc31,prodloc3,tr13,24557,147342).
route(prodloc31,prodloc4,tr0,13139,341614).
route(prodloc31,prodloc4,tr13,13139,78834).
route(prodloc31,prodloc5,tr0,28383,737958).
route(prodloc31,prodloc5,tr13,28383,170298).
route(prodloc31,prodloc6,tr0,7041,183066).
route(prodloc31,prodloc6,tr13,7041,42246).
route(prodloc31,prodloc7,tr0,18003,468078).
route(prodloc31,prodloc7,tr13,18003,108018).
route(prodloc31,prodloc8,tr0,18303,475878).
route(prodloc31,prodloc8,tr13,18303,109818).
route(prodloc31,prodloc9,tr0,28869,750594).
route(prodloc31,prodloc9,tr15,28869,923808).
route(prodloc31,prodloc10,tr0,17179,446654).
route(prodloc31,prodloc10,tr13,17179,103074).
route(prodloc31,prodloc11,tr0,11849,308074).
route(prodloc31,prodloc11,tr13,11849,71094).
route(prodloc31,prodloc12,tr0,20967,545142).
route(prodloc31,prodloc12,tr13,20967,125802).
route(prodloc31,prodloc13,tr0,3611,93886).
route(prodloc31,prodloc13,tr13,3611,21666).
route(prodloc31,prodloc14,tr0,25410,660660).
route(prodloc31,prodloc14,tr13,25410,152460).
route(prodloc31,prodloc15,tr0,3550,92300).
route(prodloc31,prodloc15,tr13,3550,21300).
route(prodloc31,prodloc16,tr0,14790,384540).
route(prodloc31,prodloc16,tr13,14790,88740).
route(prodloc31,prodloc17,tr0,23004,598104).
route(prodloc31,prodloc17,tr13,23004,138024).
route(prodloc31,prodloc18,tr0,3935,102310).
route(prodloc31,prodloc18,tr13,3935,23610).
route(prodloc31,prodloc19,tr0,2054,53404).
route(prodloc31,prodloc19,tr13,2054,12324).
route(prodloc31,prodloc20,tr0,13945,362570).
route(prodloc31,prodloc20,tr13,13945,83670).
route(prodloc31,prodloc21,tr0,28241,734266).
route(prodloc31,prodloc21,tr13,28241,169446).
route(prodloc31,prodloc22,tr0,15121,393146).
route(prodloc31,prodloc22,tr13,15121,90726).
route(prodloc31,prodloc23,tr0,7835,203710).
route(prodloc31,prodloc23,tr13,7835,47010).
route(prodloc31,prodloc24,tr0,8214,213564).
route(prodloc31,prodloc24,tr13,8214,49284).
route(prodloc31,prodloc25,tr0,6930,180180).
route(prodloc31,prodloc25,tr13,6930,41580).
route(prodloc31,prodloc26,tr0,19364,503464).
route(prodloc31,prodloc26,tr13,19364,116184).
route(prodloc31,prodloc27,tr0,13801,358826).
route(prodloc31,prodloc27,tr13,13801,82806).
route(prodloc31,prodloc28,tr0,24577,639002).
route(prodloc31,prodloc28,tr13,24577,147462).
route(prodloc31,prodloc29,tr0,27796,722696).
route(prodloc31,prodloc29,tr13,27796,166776).
route(prodloc31,prodloc30,tr0,9065,235690).
route(prodloc31,prodloc30,tr13,9065,54390).
route(prodloc31,prodloc32,tr0,5463,142038).
route(prodloc31,prodloc32,tr13,5463,32778).
route(prodloc31,prodloc33,tr0,6518,169468).
route(prodloc31,prodloc33,tr13,6518,39108).
route(prodloc32,harbor0,tr0,27596,717496).
route(prodloc32,harbor0,tr13,27596,165576).
route(prodloc32,harbor1,tr0,23348,607048).
route(prodloc32,harbor1,tr13,23348,140088).
route(prodloc32,harbor2,tr0,9638,250588).
route(prodloc32,harbor2,tr13,9638,57828).
route(prodloc32,harbor3,tr0,13710,356460).
route(prodloc32,harbor3,tr13,13710,82260).
route(prodloc32,harbor4,tr0,13320,346320).
route(prodloc32,harbor4,tr13,13320,79920).
route(prodloc32,harbor5,tr0,28942,752492).
route(prodloc32,harbor5,tr13,28942,173652).
route(prodloc32,harbor6,tr0,15660,407160).
route(prodloc32,harbor6,tr13,15660,93960).
route(prodloc32,harbor7,tr0,22156,576056).
route(prodloc32,harbor7,tr13,22156,132936).
route(prodloc32,harbor8,tr0,24462,636012).
route(prodloc32,harbor8,tr13,24462,146772).
route(prodloc32,harbor9,tr0,28514,741364).
route(prodloc32,harbor9,tr13,28514,171084).
route(prodloc32,harbor10,tr0,20687,537862).
route(prodloc32,harbor10,tr13,20687,124122).
route(prodloc32,harbor11,tr0,3435,89310).
route(prodloc32,harbor11,tr13,3435,20610).
route(prodloc32,harbor12,tr0,1952,50752).
route(prodloc32,harbor12,tr13,1952,11712).
route(prodloc32,harbor13,tr0,15835,411710).
route(prodloc32,harbor13,tr13,15835,95010).
route(prodloc32,harbor14,tr0,6971,181246).
route(prodloc32,harbor14,tr13,6971,41826).
route(prodloc32,harbor15,tr0,7178,186628).
route(prodloc32,harbor15,tr13,7178,43068).
route(prodloc32,harbor16,tr0,9198,239148).
route(prodloc32,harbor16,tr13,9198,55188).
route(prodloc32,prodloc0,tr0,24223,629798).
route(prodloc32,prodloc0,tr13,24223,145338).
route(prodloc32,prodloc1,tr0,14530,377780).
route(prodloc32,prodloc1,tr13,14530,87180).
route(prodloc32,prodloc2,tr0,1100,28600).
route(prodloc32,prodloc2,tr13,1100,6600).
route(prodloc32,prodloc3,tr0,15333,398658).
route(prodloc32,prodloc3,tr13,15333,91998).
route(prodloc32,prodloc4,tr0,14151,367926).
route(prodloc32,prodloc4,tr13,14151,84906).
route(prodloc32,prodloc5,tr0,23156,602056).
route(prodloc32,prodloc5,tr13,23156,138936).
route(prodloc32,prodloc6,tr0,9872,256672).
route(prodloc32,prodloc6,tr13,9872,59232).
route(prodloc32,prodloc7,tr0,21453,557778).
route(prodloc32,prodloc7,tr13,21453,128718).
route(prodloc32,prodloc8,tr0,3877,100802).
route(prodloc32,prodloc8,tr13,3877,23262).
route(prodloc32,prodloc9,tr0,18951,492726).
route(prodloc32,prodloc9,tr13,18951,113706).
route(prodloc32,prodloc10,tr0,23185,602810).
route(prodloc32,prodloc10,tr13,23185,139110).
route(prodloc32,prodloc11,tr0,8977,233402).
route(prodloc32,prodloc11,tr13,8977,53862).
route(prodloc32,prodloc12,tr0,5859,152334).
route(prodloc32,prodloc12,tr13,5859,35154).
route(prodloc32,prodloc13,tr0,25957,674882).
route(prodloc32,prodloc13,tr13,25957,155742).
route(prodloc32,prodloc14,tr0,17894,465244).
route(prodloc32,prodloc14,tr13,17894,107364).
route(prodloc32,prodloc15,tr0,6325,164450).
route(prodloc32,prodloc15,tr13,6325,37950).
route(prodloc32,prodloc16,tr0,6131,159406).
route(prodloc32,prodloc16,tr13,6131,36786).
route(prodloc32,prodloc17,tr0,9108,236808).
route(prodloc32,prodloc17,tr13,9108,54648).
route(prodloc32,prodloc18,tr0,17407,452582).
route(prodloc32,prodloc18,tr13,17407,104442).
route(prodloc32,prodloc19,tr0,20949,544674).
route(prodloc32,prodloc19,tr13,20949,125694).
route(prodloc32,prodloc20,tr0,797,20722).
route(prodloc32,prodloc20,tr13,797,4782).
route(prodloc32,prodloc21,tr0,19355,503230).
route(prodloc32,prodloc21,tr13,19355,116130).
route(prodloc32,prodloc22,tr0,13957,362882).
route(prodloc32,prodloc22,tr13,13957,83742).
route(prodloc32,prodloc23,tr0,14357,373282).
route(prodloc32,prodloc23,tr13,14357,86142).
route(prodloc32,prodloc24,tr0,2977,77402).
route(prodloc32,prodloc24,tr13,2977,17862).
route(prodloc32,prodloc25,tr0,2284,59384).
route(prodloc32,prodloc25,tr13,2284,13704).
route(prodloc32,prodloc26,tr0,15500,403000).
route(prodloc32,prodloc26,tr13,15500,93000).
route(prodloc32,prodloc27,tr0,7322,190372).
route(prodloc32,prodloc27,tr13,7322,43932).
route(prodloc32,prodloc28,tr0,18223,473798).
route(prodloc32,prodloc28,tr13,18223,109338).
route(prodloc32,prodloc29,tr0,10212,265512).
route(prodloc32,prodloc29,tr13,10212,61272).
route(prodloc32,prodloc30,tr0,21231,552006).
route(prodloc32,prodloc30,tr13,21231,127386).
route(prodloc32,prodloc31,tr0,11759,305734).
route(prodloc32,prodloc31,tr13,11759,70554).
route(prodloc32,prodloc33,tr0,20444,531544).
route(prodloc32,prodloc33,tr13,20444,122664).
route(prodloc33,harbor0,tr0,23297,605722).
route(prodloc33,harbor0,tr13,23297,139782).
route(prodloc33,harbor1,tr0,9062,235612).
route(prodloc33,harbor1,tr13,9062,54372).
route(prodloc33,harbor2,tr0,10888,283088).
route(prodloc33,harbor2,tr13,10888,65328).
route(prodloc33,harbor3,tr0,19020,494520).
route(prodloc33,harbor3,tr13,19020,114120).
route(prodloc33,harbor4,tr0,21861,568386).
route(prodloc33,harbor4,tr13,21861,131166).
route(prodloc33,harbor5,tr0,2017,52442).
route(prodloc33,harbor5,tr13,2017,12102).
route(prodloc33,harbor6,tr0,9744,253344).
route(prodloc33,harbor6,tr13,9744,58464).
route(prodloc33,harbor7,tr0,18072,469872).
route(prodloc33,harbor7,tr13,18072,108432).
route(prodloc33,harbor8,tr0,27589,717314).
route(prodloc33,harbor8,tr13,27589,165534).
route(prodloc33,harbor9,tr0,4964,129064).
route(prodloc33,harbor9,tr13,4964,29784).
route(prodloc33,harbor10,tr0,9668,251368).
route(prodloc33,harbor10,tr13,9668,58008).
route(prodloc33,harbor11,tr0,2686,69836).
route(prodloc33,harbor11,tr13,2686,16116).
route(prodloc33,harbor12,tr0,22402,582452).
route(prodloc33,harbor12,tr13,22402,134412).
route(prodloc33,harbor13,tr0,363,9438).
route(prodloc33,harbor13,tr13,363,2178).
route(prodloc33,harbor14,tr0,27856,724256).
route(prodloc33,harbor14,tr13,27856,167136).
route(prodloc33,harbor15,tr0,13366,347516).
route(prodloc33,harbor15,tr13,13366,80196).
route(prodloc33,harbor16,tr0,13022,338572).
route(prodloc33,harbor16,tr13,13022,78132).
route(prodloc33,prodloc0,tr0,3036,78936).
route(prodloc33,prodloc0,tr13,3036,18216).
route(prodloc33,prodloc1,tr0,17021,442546).
route(prodloc33,prodloc1,tr13,17021,102126).
route(prodloc33,prodloc2,tr0,23668,615368).
route(prodloc33,prodloc2,tr13,23668,142008).
route(prodloc33,prodloc3,tr0,17998,467948).
route(prodloc33,prodloc3,tr13,17998,107988).
route(prodloc33,prodloc4,tr0,19160,498160).
route(prodloc33,prodloc4,tr13,19160,114960).
route(prodloc33,prodloc5,tr0,18241,474266).
route(prodloc33,prodloc5,tr13,18241,109446).
route(prodloc33,prodloc6,tr0,23687,615862).
route(prodloc33,prodloc6,tr13,23687,142122).
route(prodloc33,prodloc7,tr0,15819,411294).
route(prodloc33,prodloc7,tr13,15819,94914).
route(prodloc33,prodloc8,tr0,23575,612950).
route(prodloc33,prodloc8,tr13,23575,141450).
route(prodloc33,prodloc9,tr0,25000,650000).
route(prodloc33,prodloc9,tr13,25000,150000).
route(prodloc33,prodloc10,tr0,402,10452).
route(prodloc33,prodloc10,tr13,402,2412).
route(prodloc33,prodloc11,tr0,679,17654).
route(prodloc33,prodloc11,tr13,679,4074).
route(prodloc33,prodloc12,tr13,27949,167694).
route(prodloc33,prodloc12,tr15,27949,894368).
route(prodloc33,prodloc13,tr0,17452,453752).
route(prodloc33,prodloc13,tr13,17452,104712).
route(prodloc33,prodloc14,tr0,17342,450892).
route(prodloc33,prodloc14,tr13,17342,104052).
route(prodloc33,prodloc15,tr0,20114,522964).
route(prodloc33,prodloc15,tr13,20114,120684).
route(prodloc33,prodloc16,tr0,8955,232830).
route(prodloc33,prodloc16,tr13,8955,53730).
route(prodloc33,prodloc18,tr0,12932,336232).
route(prodloc33,prodloc18,tr13,12932,77592).
route(prodloc33,prodloc19,tr0,17704,460304).
route(prodloc33,prodloc19,tr13,17704,106224).
route(prodloc33,prodloc20,tr0,6049,157274).
route(prodloc33,prodloc20,tr13,6049,36294).
route(prodloc33,prodloc21,tr0,3158,82108).
route(prodloc33,prodloc21,tr13,3158,18948).
route(prodloc33,prodloc22,tr0,20150,523900).
route(prodloc33,prodloc22,tr13,20150,120900).
route(prodloc33,prodloc23,tr0,27700,720200).
route(prodloc33,prodloc23,tr13,27700,166200).
route(prodloc33,prodloc24,tr0,17604,457704).
route(prodloc33,prodloc24,tr13,17604,105624).
route(prodloc33,prodloc25,tr0,25850,672100).
route(prodloc33,prodloc25,tr13,25850,155100).
route(prodloc33,prodloc26,tr0,8086,210236).
route(prodloc33,prodloc26,tr13,8086,48516).
route(prodloc33,prodloc27,tr0,22472,584272).
route(prodloc33,prodloc27,tr13,22472,134832).
route(prodloc33,prodloc28,tr0,524,13624).
route(prodloc33,prodloc28,tr13,524,3144).
route(prodloc33,prodloc29,tr0,16181,420706).
route(prodloc33,prodloc29,tr13,16181,97086).
route(prodloc33,prodloc30,tr0,3664,95264).
route(prodloc33,prodloc30,tr13,3664,21984).
route(prodloc33,prodloc31,tr0,21178,550628).
route(prodloc33,prodloc31,tr13,21178,127068).
route(prodloc33,prodloc32,tr0,8198,213148).
route(prodloc33,prodloc32,tr13,8198,49188).
hub(harbor6).
hub(harbor13).
hub(harbor16).
hub(prodloc1).
hub(prodloc3).
hub(prodloc6).
hub(prodloc10).
hub(prodloc15).
hub(prodloc28).
hub(prodloc29).
