% Multibatching benchmark instance
% Source: instances.lp
% seed=9  harbors=17  prodlocs=34  hubs=10  disruptions=2

% ---- locations ----
location(harbor0).
location(harbor1).
location(harbor2).
location(harbor3).
location(harbor4).
location(harbor5).
location(harbor6).
location(harbor7).
location(harbor8).
location(harbor9).
location(harbor10).
location(harbor11).
location(harbor12).
location(harbor13).
location(harbor14).
location(harbor15).
location(harbor16).
location(prodloc0).
location(prodloc1).
location(prodloc2).
location(prodloc3).
location(prodloc4).
location(prodloc5).
location(prodloc6).
location(prodloc7).
location(prodloc8).
location(prodloc9).
location(prodloc10).
location(prodloc11).
location(prodloc12).
location(prodloc13).
location(prodloc14).
location(prodloc15).
location(prodloc16).
location(prodloc17).
location(prodloc18).
location(prodloc19).
location(prodloc20).
location(prodloc21).
location(prodloc22).
location(prodloc23).
location(prodloc24).
location(prodloc25).
location(prodloc26).
location(prodloc27).
location(prodloc28).
location(prodloc29).
location(prodloc30).
location(prodloc31).
location(prodloc32).
location(prodloc33).

% ---- transport resources ----
transportCapacity(tr0,1800).
transportCO2(tr0,1680).
transportCost(tr0,26).
transportSpeed(tr0,12).
transportCapacity(tr1,65).
transportCO2(tr1,90).
transportCost(tr1,1).
transportSpeed(tr1,35).
transportCapacity(tr10,1).
transportCO2(tr10,700).
transportCost(tr10,4).
transportSpeed(tr10,40).
transportCapacity(tr11,65).
transportCO2(tr11,62).
transportCost(tr11,1).
transportSpeed(tr11,25).
transportCapacity(tr12,65).
transportCO2(tr12,709).
transportCost(tr12,3).
transportSpeed(tr12,55).
transportCapacity(tr13,68).
transportCO2(tr13,160).
transportCost(tr13,6).
transportSpeed(tr13,25).
transportCapacity(tr14,146).
transportCO2(tr14,780).
transportCost(tr14,4).
transportSpeed(tr14,50).
transportCapacity(tr15,2217).
transportCO2(tr15,49470).
transportCost(tr15,32).
transportSpeed(tr15,625).
transportCapacity(tr2,96).
transportCO2(tr2,709).
transportCost(tr2,3).
transportSpeed(tr2,55).
transportCapacity(tr3,1).
transportCO2(tr3,6250).
transportCost(tr3,108).
transportSpeed(tr3,25).
transportCapacity(tr4,148).
transportCO2(tr4,780).
transportCost(tr4,4).
transportSpeed(tr4,50).
transportCapacity(tr5,65).
transportCO2(tr5,780).
transportCost(tr5,3).
transportSpeed(tr5,50).
transportCapacity(tr6,1).
transportCO2(tr6,100).
transportCost(tr6,40).
transportSpeed(tr6,25).
transportCapacity(tr7,1).
transportCO2(tr7,18000).
transportCost(tr7,278).
transportSpeed(tr7,10).
transportCapacity(tr8,1).
transportCO2(tr8,14400).
transportCost(tr8,107).
transportSpeed(tr8,25).
transportCapacity(tr9,65).
transportCO2(tr9,708).
transportCost(tr9,2).
transportSpeed(tr9,60).

% ---- parts ----
part(part0).
partSize(part0,21).
valid_transport(part0,tr0).
valid_transport(part0,tr15).
valid_transport(part0,tr14).
valid_transport(part0,tr13).
valid_transport(part0,tr4).
part(part1).
partSize(part1,1).
valid_transport(part1,tr0).
valid_transport(part1,tr2).
valid_transport(part1,tr15).
valid_transport(part1,tr9).
valid_transport(part1,tr12).
valid_transport(part1,tr13).
valid_transport(part1,tr11).
part(part10).
partSize(part10,1).
valid_transport(part10,tr0).
valid_transport(part10,tr2).
valid_transport(part10,tr15).
valid_transport(part10,tr9).
valid_transport(part10,tr12).
valid_transport(part10,tr13).
valid_transport(part10,tr11).
part(part11).
partSize(part11,83).
valid_transport(part11,tr0).
valid_transport(part11,tr7).
valid_transport(part11,tr8).
valid_transport(part11,tr15).
valid_transport(part11,tr3).
valid_transport(part11,tr13).
part(part12).
partSize(part12,273).
valid_transport(part12,tr0).
valid_transport(part12,tr7).
valid_transport(part12,tr8).
valid_transport(part12,tr15).
valid_transport(part12,tr3).
valid_transport(part12,tr13).
part(part13).
partSize(part13,1).
valid_transport(part13,tr0).
valid_transport(part13,tr2).
valid_transport(part13,tr15).
valid_transport(part13,tr9).
valid_transport(part13,tr12).
valid_transport(part13,tr13).
valid_transport(part13,tr11).
part(part14).
partSize(part14,68).
valid_transport(part14,tr0).
valid_transport(part14,tr15).
valid_transport(part14,tr13).
part(part15).
partSize(part15,4).
valid_transport(part15,tr0).
valid_transport(part15,tr2).
valid_transport(part15,tr15).
valid_transport(part15,tr9).
valid_transport(part15,tr12).
valid_transport(part15,tr13).
valid_transport(part15,tr11).
part(part16).
partSize(part16,4).
valid_transport(part16,tr0).
valid_transport(part16,tr2).
valid_transport(part16,tr15).
valid_transport(part16,tr9).
valid_transport(part16,tr12).
valid_transport(part16,tr13).
valid_transport(part16,tr11).
part(part17).
partSize(part17,8).
valid_transport(part17,tr0).
valid_transport(part17,tr15).
valid_transport(part17,tr14).
valid_transport(part17,tr13).
valid_transport(part17,tr4).
part(part18).
partSize(part18,24).
valid_transport(part18,tr0).
valid_transport(part18,tr15).
valid_transport(part18,tr14).
valid_transport(part18,tr13).
valid_transport(part18,tr4).
part(part19).
partSize(part19,6).
valid_transport(part19,tr0).
valid_transport(part19,tr2).
valid_transport(part19,tr15).
valid_transport(part19,tr9).
valid_transport(part19,tr12).
valid_transport(part19,tr13).
valid_transport(part19,tr11).
part(part2).
partSize(part2,19).
valid_transport(part2,tr0).
valid_transport(part2,tr15).
valid_transport(part2,tr14).
valid_transport(part2,tr13).
valid_transport(part2,tr4).
part(part20).
partSize(part20,128).
valid_transport(part20,tr0).
valid_transport(part20,tr7).
valid_transport(part20,tr8).
valid_transport(part20,tr15).
valid_transport(part20,tr3).
valid_transport(part20,tr13).
part(part21).
partSize(part21,25).
valid_transport(part21,tr0).
valid_transport(part21,tr15).
valid_transport(part21,tr14).
valid_transport(part21,tr13).
valid_transport(part21,tr4).
part(part22).
partSize(part22,7).
valid_transport(part22,tr0).
valid_transport(part22,tr2).
valid_transport(part22,tr15).
valid_transport(part22,tr9).
valid_transport(part22,tr12).
valid_transport(part22,tr13).
valid_transport(part22,tr11).
part(part23).
partSize(part23,5).
valid_transport(part23,tr0).
valid_transport(part23,tr15).
valid_transport(part23,tr14).
valid_transport(part23,tr13).
valid_transport(part23,tr4).
part(part24).
partSize(part24,55).
valid_transport(part24,tr0).
valid_transport(part24,tr7).
valid_transport(part24,tr8).
valid_transport(part24,tr15).
valid_transport(part24,tr3).
valid_transport(part24,tr13).
part(part25).
partSize(part25,5).
valid_transport(part25,tr0).
valid_transport(part25,tr4).
valid_transport(part25,tr2).
valid_transport(part25,tr15).
valid_transport(part25,tr13).
part(part26).
partSize(part26,32).
valid_transport(part26,tr0).
valid_transport(part26,tr7).
valid_transport(part26,tr8).
valid_transport(part26,tr15).
valid_transport(part26,tr3).
valid_transport(part26,tr13).
part(part27).
partSize(part27,5).
valid_transport(part27,tr0).
valid_transport(part27,tr2).
valid_transport(part27,tr15).
valid_transport(part27,tr9).
valid_transport(part27,tr12).
valid_transport(part27,tr13).
valid_transport(part27,tr11).
part(part28).
partSize(part28,3).
valid_transport(part28,tr0).
valid_transport(part28,tr4).
valid_transport(part28,tr2).
valid_transport(part28,tr15).
valid_transport(part28,tr14).
valid_transport(part28,tr13).
part(part29).
partSize(part29,627).
part(part3).
partSize(part3,48).
valid_transport(part3,tr0).
valid_transport(part3,tr7).
valid_transport(part3,tr8).
valid_transport(part3,tr15).
valid_transport(part3,tr3).
valid_transport(part3,tr13).
part(part30).
partSize(part30,2).
valid_transport(part30,tr0).
valid_transport(part30,tr2).
valid_transport(part30,tr15).
valid_transport(part30,tr9).
valid_transport(part30,tr12).
valid_transport(part30,tr13).
valid_transport(part30,tr11).
part(part31).
partSize(part31,144).
valid_transport(part31,tr0).
valid_transport(part31,tr7).
valid_transport(part31,tr8).
valid_transport(part31,tr15).
valid_transport(part31,tr3).
valid_transport(part31,tr13).
part(part32).
partSize(part32,16).
valid_transport(part32,tr0).
valid_transport(part32,tr4).
valid_transport(part32,tr2).
valid_transport(part32,tr15).
valid_transport(part32,tr14).
valid_transport(part32,tr13).
part(part33).
partSize(part33,7).
valid_transport(part33,tr0).
valid_transport(part33,tr2).
valid_transport(part33,tr15).
valid_transport(part33,tr9).
valid_transport(part33,tr12).
valid_transport(part33,tr13).
valid_transport(part33,tr11).
part(part3345).
partSize(part3345,353).
valid_transport(part3345,tr0).
valid_transport(part3345,tr7).
valid_transport(part3345,tr8).
valid_transport(part3345,tr15).
valid_transport(part3345,tr3).
valid_transport(part3345,tr13).
part(part34).
partSize(part34,2).
valid_transport(part34,tr0).
valid_transport(part34,tr2).
valid_transport(part34,tr15).
valid_transport(part34,tr9).
valid_transport(part34,tr12).
valid_transport(part34,tr13).
valid_transport(part34,tr11).
part(part4).
partSize(part4,2).
valid_transport(part4,tr0).
valid_transport(part4,tr2).
valid_transport(part4,tr15).
valid_transport(part4,tr9).
valid_transport(part4,tr12).
valid_transport(part4,tr13).
valid_transport(part4,tr11).
part(part5).
partSize(part5,2).
valid_transport(part5,tr0).
valid_transport(part5,tr2).
valid_transport(part5,tr15).
valid_transport(part5,tr9).
valid_transport(part5,tr12).
valid_transport(part5,tr14).
valid_transport(part5,tr13).
valid_transport(part5,tr11).
part(part6).
partSize(part6,111).
valid_transport(part6,tr0).
valid_transport(part6,tr7).
valid_transport(part6,tr8).
valid_transport(part6,tr15).
valid_transport(part6,tr3).
valid_transport(part6,tr13).
part(part8).
partSize(part8,163).
valid_transport(part8,tr0).
valid_transport(part8,tr7).
valid_transport(part8,tr8).
valid_transport(part8,tr15).
valid_transport(part8,tr3).
valid_transport(part8,tr13).
part(part9).
partSize(part9,2).
valid_transport(part9,tr0).
valid_transport(part9,tr2).
valid_transport(part9,tr15).
valid_transport(part9,tr9).
valid_transport(part9,tr12).
valid_transport(part9,tr13).
valid_transport(part9,tr11).

% ---- demand ----
demandOffer(part0,prodloc29,40).
demandOffer(part0,prodloc23,40).
demandOffer(part0,prodloc17,-27).
demandOffer(part0,prodloc8,-53).
demandOffer(part1,prodloc11,20).
demandOffer(part1,prodloc0,20).
demandOffer(part1,prodloc21,-20).
demandOffer(part1,prodloc32,-20).
demandOffer(part10,prodloc29,20).
demandOffer(part10,prodloc5,20).
demandOffer(part10,prodloc21,-20).
demandOffer(part10,prodloc2,-20).
demandOffer(part12,prodloc24,10).
demandOffer(part12,prodloc10,20).
demandOffer(part12,prodloc28,-10).
demandOffer(part12,prodloc27,-10).
demandOffer(part12,prodloc15,-10).
demandOffer(part13,prodloc3,20).
demandOffer(part13,prodloc7,20).
demandOffer(part13,prodloc8,-20).
demandOffer(part13,prodloc32,-20).
demandOffer(part14,prodloc4,26).
demandOffer(part14,prodloc24,-26).
demandOffer(part15,prodloc6,53).
demandOffer(part15,prodloc18,27).
demandOffer(part15,prodloc13,-53).
demandOffer(part15,prodloc14,-27).
demandOffer(part16,prodloc26,53).
demandOffer(part16,prodloc5,27).
demandOffer(part16,prodloc17,-53).
demandOffer(part16,prodloc13,-27).
demandOffer(part17,prodloc25,20).
demandOffer(part17,prodloc17,-20).
demandOffer(part18,prodloc21,40).
demandOffer(part18,prodloc2,40).
demandOffer(part18,prodloc12,-27).
demandOffer(part18,prodloc0,-53).
demandOffer(part19,prodloc26,26).
demandOffer(part19,prodloc3,-26).
demandOffer(part2,prodloc24,40).
demandOffer(part2,prodloc31,40).
demandOffer(part2,prodloc8,-27).
demandOffer(part2,prodloc1,-53).
demandOffer(part20,prodloc15,53).
demandOffer(part20,prodloc27,27).
demandOffer(part20,prodloc7,-14).
demandOffer(part20,prodloc0,-46).
demandOffer(part20,prodloc12,-20).
demandOffer(part21,prodloc12,26).
demandOffer(part21,prodloc21,-26).
demandOffer(part22,prodloc0,53).
demandOffer(part22,prodloc5,27).
demandOffer(part22,prodloc8,-53).
demandOffer(part22,prodloc1,-27).
demandOffer(part23,prodloc32,20).
demandOffer(part23,prodloc5,20).
demandOffer(part23,prodloc31,-20).
demandOffer(part23,prodloc12,-20).
demandOffer(part25,prodloc26,20).
demandOffer(part25,prodloc4,-20).
demandOffer(part26,prodloc25,20).
demandOffer(part26,prodloc12,20).
demandOffer(part26,prodloc5,-14).
demandOffer(part26,prodloc9,-26).
demandOffer(part27,prodloc11,53).
demandOffer(part27,prodloc2,27).
demandOffer(part27,prodloc3,-53).
demandOffer(part27,prodloc17,-27).
demandOffer(part28,prodloc9,20).
demandOffer(part28,prodloc17,20).
demandOffer(part28,prodloc2,-20).
demandOffer(part28,prodloc7,-20).
demandOffer(part3,prodloc25,40).
demandOffer(part3,prodloc15,-14).
demandOffer(part3,prodloc10,-26).
demandOffer(part30,prodloc32,40).
demandOffer(part30,prodloc2,40).
demandOffer(part30,prodloc23,-27).
demandOffer(part30,prodloc33,-53).
demandOffer(part31,prodloc5,7).
demandOffer(part31,prodloc22,7).
demandOffer(part31,prodloc7,-14).
demandOffer(part32,prodloc23,53).
demandOffer(part32,prodloc28,27).
demandOffer(part32,prodloc13,-53).
demandOffer(part32,prodloc25,-27).
demandOffer(part33,prodloc12,53).
demandOffer(part33,prodloc1,27).
demandOffer(part33,prodloc24,-53).
demandOffer(part33,prodloc21,-27).
demandOffer(part34,prodloc0,20).
demandOffer(part34,prodloc27,-20).
demandOffer(part4,prodloc7,26).
demandOffer(part4,prodloc13,-26).
demandOffer(part5,prodloc14,20).
demandOffer(part5,prodloc28,-20).
demandOffer(part6,prodloc17,27).
demandOffer(part6,prodloc20,53).
demandOffer(part6,prodloc5,-24).
demandOffer(part6,prodloc9,-36).
demandOffer(part6,prodloc32,-10).
demandOffer(part6,prodloc30,-10).
demandOffer(part8,prodloc6,3).
demandOffer(part8,prodloc33,17).
demandOffer(part8,prodloc3,-10).
demandOffer(part8,prodloc1,-10).
demandOffer(part9,prodloc24,20).
demandOffer(part9,prodloc27,-20).

% ---- network (ASP-generated) ----
route(harbor0,harbor1,tr13,16326,97956).
route(harbor0,harbor1,tr2,16326,48978).
route(harbor0,harbor2,tr13,11370,68220).
route(harbor0,harbor2,tr2,11370,34110).
route(harbor0,harbor3,tr13,23277,139662).
route(harbor0,harbor3,tr2,23277,69831).
route(harbor0,harbor4,tr13,25516,153096).
route(harbor0,harbor4,tr2,25516,76548).
route(harbor0,harbor5,tr13,8165,48990).
route(harbor0,harbor5,tr2,8165,24495).
route(harbor0,harbor6,tr13,18577,111462).
route(harbor0,harbor6,tr2,18577,55731).
route(harbor0,harbor7,tr13,24200,145200).
route(harbor0,harbor7,tr2,24200,72600).
route(harbor0,harbor8,tr13,2201,13206).
route(harbor0,harbor8,tr2,2201,6603).
route(harbor0,harbor9,tr13,13956,83736).
route(harbor0,harbor9,tr2,13956,41868).
route(harbor0,harbor10,tr13,21258,127548).
route(harbor0,harbor10,tr2,21258,63774).
route(harbor0,harbor11,tr13,7597,45582).
route(harbor0,harbor11,tr2,7597,22791).
route(harbor0,harbor12,tr13,3168,19008).
route(harbor0,harbor12,tr2,3168,9504).
route(harbor0,harbor13,tr13,24957,149742).
route(harbor0,harbor13,tr2,24957,74871).
route(harbor0,harbor14,tr13,13166,78996).
route(harbor0,harbor14,tr2,13166,39498).
route(harbor0,harbor15,tr13,16737,100422).
route(harbor0,harbor15,tr2,16737,50211).
route(harbor0,harbor16,tr13,12251,73506).
route(harbor0,harbor16,tr2,12251,36753).
route(harbor0,prodloc0,tr0,28179,732654).
route(harbor0,prodloc0,tr13,28179,169074).
route(harbor0,prodloc1,tr0,18367,477542).
route(harbor0,prodloc1,tr13,18367,110202).
route(harbor0,prodloc2,tr0,12105,314730).
route(harbor0,prodloc2,tr13,12105,72630).
route(harbor0,prodloc3,tr0,4561,118586).
route(harbor0,prodloc3,tr13,4561,27366).
route(harbor0,prodloc4,tr0,21874,568724).
route(harbor0,prodloc4,tr13,21874,131244).
route(harbor0,prodloc5,tr0,9514,247364).
route(harbor0,prodloc5,tr13,9514,57084).
route(harbor0,prodloc6,tr0,5607,145782).
route(harbor0,prodloc6,tr13,5607,33642).
route(harbor0,prodloc7,tr0,22698,590148).
route(harbor0,prodloc7,tr13,22698,136188).
route(harbor0,prodloc8,tr0,27634,718484).
route(harbor0,prodloc8,tr13,27634,165804).
route(harbor0,prodloc9,tr0,28690,745940).
route(harbor0,prodloc9,tr13,28690,172140).
route(harbor0,prodloc10,tr0,8486,220636).
route(harbor0,prodloc10,tr13,8486,50916).
route(harbor0,prodloc11,tr0,964,25064).
route(harbor0,prodloc11,tr13,964,5784).
route(harbor0,prodloc12,tr0,1656,43056).
route(harbor0,prodloc12,tr13,1656,9936).
route(harbor0,prodloc13,tr0,26530,689780).
route(harbor0,prodloc13,tr13,26530,159180).
route(harbor0,prodloc14,tr0,5662,147212).
route(harbor0,prodloc14,tr13,5662,33972).
route(harbor0,prodloc15,tr0,8618,224068).
route(harbor0,prodloc15,tr13,8618,51708).
route(harbor0,prodloc16,tr0,5382,139932).
route(harbor0,prodloc16,tr13,5382,32292).
route(harbor0,prodloc17,tr0,3942,102492).
route(harbor0,prodloc17,tr13,3942,23652).
route(harbor0,prodloc18,tr0,19877,516802).
route(harbor0,prodloc18,tr13,19877,119262).
route(harbor0,prodloc19,tr0,4862,126412).
route(harbor0,prodloc19,tr13,4862,29172).
route(harbor0,prodloc20,tr0,391,10166).
route(harbor0,prodloc20,tr13,391,2346).
route(harbor0,prodloc21,tr0,1601,41626).
route(harbor0,prodloc21,tr13,1601,9606).
route(harbor0,prodloc22,tr0,1997,51922).
route(harbor0,prodloc22,tr13,1997,11982).
route(harbor0,prodloc23,tr0,14761,383786).
route(harbor0,prodloc23,tr13,14761,88566).
route(harbor0,prodloc24,tr0,6837,177762).
route(harbor0,prodloc24,tr13,6837,41022).
route(harbor0,prodloc25,tr0,25776,670176).
route(harbor0,prodloc25,tr13,25776,154656).
route(harbor0,prodloc26,tr0,12744,331344).
route(harbor0,prodloc26,tr13,12744,76464).
route(harbor0,prodloc27,tr0,9643,250718).
route(harbor0,prodloc27,tr13,9643,57858).
route(harbor0,prodloc28,tr0,20041,521066).
route(harbor0,prodloc28,tr13,20041,120246).
route(harbor0,prodloc29,tr0,486,12636).
route(harbor0,prodloc29,tr13,486,2916).
route(harbor0,prodloc30,tr0,26173,680498).
route(harbor0,prodloc30,tr13,26173,157038).
route(harbor0,prodloc31,tr0,11619,302094).
route(harbor0,prodloc31,tr13,11619,69714).
route(harbor0,prodloc32,tr0,9341,242866).
route(harbor0,prodloc32,tr13,9341,56046).
route(harbor0,prodloc33,tr0,4610,119860).
route(harbor0,prodloc33,tr13,4610,27660).
route(harbor1,harbor0,tr13,15788,94728).
route(harbor1,harbor0,tr2,15788,47364).
route(harbor1,harbor2,tr13,18443,110658).
route(harbor1,harbor2,tr2,18443,55329).
route(harbor1,harbor3,tr13,9130,54780).
route(harbor1,harbor3,tr2,9130,27390).
route(harbor1,harbor4,tr13,4529,27174).
route(harbor1,harbor4,tr2,4529,13587).
route(harbor1,harbor5,tr13,2867,17202).
route(harbor1,harbor5,tr2,2867,8601).
route(harbor1,harbor6,tr13,24524,147144).
route(harbor1,harbor6,tr2,24524,73572).
route(harbor1,harbor7,tr13,18247,109482).
route(harbor1,harbor7,tr2,18247,54741).
route(harbor1,harbor8,tr13,9729,58374).
route(harbor1,harbor8,tr2,9729,29187).
route(harbor1,harbor9,tr13,22836,137016).
route(harbor1,harbor9,tr2,22836,68508).
route(harbor1,harbor10,tr13,3894,23364).
route(harbor1,harbor10,tr2,3894,11682).
route(harbor1,harbor11,tr13,2179,13074).
route(harbor1,harbor11,tr2,2179,6537).
route(harbor1,harbor12,tr13,13790,82740).
route(harbor1,harbor12,tr2,13790,41370).
route(harbor1,harbor13,tr13,14821,88926).
route(harbor1,harbor13,tr2,14821,44463).
route(harbor1,harbor14,tr13,4700,28200).
route(harbor1,harbor14,tr2,4700,14100).
route(harbor1,harbor15,tr13,23093,138558).
route(harbor1,harbor15,tr2,23093,69279).
route(harbor1,harbor16,tr13,18443,110658).
route(harbor1,harbor16,tr2,18443,55329).
route(harbor1,prodloc0,tr0,25042,651092).
route(harbor1,prodloc0,tr13,25042,150252).
route(harbor1,prodloc1,tr0,26048,677248).
route(harbor1,prodloc1,tr13,26048,156288).
route(harbor1,prodloc2,tr0,12552,326352).
route(harbor1,prodloc2,tr13,12552,75312).
route(harbor1,prodloc3,tr0,19275,501150).
route(harbor1,prodloc3,tr13,19275,115650).
route(harbor1,prodloc4,tr0,26306,683956).
route(harbor1,prodloc4,tr13,26306,157836).
route(harbor1,prodloc5,tr0,5542,144092).
route(harbor1,prodloc5,tr13,5542,33252).
route(harbor1,prodloc6,tr0,21733,565058).
route(harbor1,prodloc6,tr13,21733,130398).
route(harbor1,prodloc7,tr0,23446,609596).
route(harbor1,prodloc7,tr13,23446,140676).
route(harbor1,prodloc8,tr0,8985,233610).
route(harbor1,prodloc8,tr13,8985,53910).
route(harbor1,prodloc9,tr0,25289,657514).
route(harbor1,prodloc9,tr13,25289,151734).
route(harbor1,prodloc10,tr0,19573,508898).
route(harbor1,prodloc10,tr13,19573,117438).
route(harbor1,prodloc11,tr0,28846,749996).
route(harbor1,prodloc11,tr13,28846,173076).
route(harbor1,prodloc12,tr0,19940,518440).
route(harbor1,prodloc12,tr13,19940,119640).
route(harbor1,prodloc13,tr0,16203,421278).
route(harbor1,prodloc13,tr13,16203,97218).
route(harbor1,prodloc14,tr0,11433,297258).
route(harbor1,prodloc14,tr13,11433,68598).
route(harbor1,prodloc15,tr0,3253,84578).
route(harbor1,prodloc15,tr13,3253,19518).
route(harbor1,prodloc16,tr0,1589,41314).
route(harbor1,prodloc16,tr13,1589,9534).
route(harbor1,prodloc17,tr0,9073,235898).
route(harbor1,prodloc17,tr13,9073,54438).
route(harbor1,prodloc18,tr0,17330,450580).
route(harbor1,prodloc18,tr13,17330,103980).
route(harbor1,prodloc19,tr0,4207,109382).
route(harbor1,prodloc19,tr13,4207,25242).
route(harbor1,prodloc20,tr0,5681,147706).
route(harbor1,prodloc20,tr13,5681,34086).
route(harbor1,prodloc21,tr0,26164,680264).
route(harbor1,prodloc21,tr13,26164,156984).
route(harbor1,prodloc22,tr0,20635,536510).
route(harbor1,prodloc22,tr13,20635,123810).
route(harbor1,prodloc23,tr0,26884,698984).
route(harbor1,prodloc23,tr13,26884,161304).
route(harbor1,prodloc24,tr0,2763,71838).
route(harbor1,prodloc24,tr13,2763,16578).
route(harbor1,prodloc25,tr0,5317,138242).
route(harbor1,prodloc25,tr13,5317,31902).
route(harbor1,prodloc26,tr0,25565,664690).
route(harbor1,prodloc26,tr13,25565,153390).
route(harbor1,prodloc27,tr0,25877,672802).
route(harbor1,prodloc27,tr13,25877,155262).
route(harbor1,prodloc28,tr0,7289,189514).
route(harbor1,prodloc28,tr13,7289,43734).
route(harbor1,prodloc29,tr0,28153,731978).
route(harbor1,prodloc29,tr13,28153,168918).
route(harbor1,prodloc30,tr0,428,11128).
route(harbor1,prodloc30,tr13,428,2568).
route(harbor1,prodloc31,tr0,6650,172900).
route(harbor1,prodloc31,tr13,6650,39900).
route(harbor1,prodloc32,tr0,5764,149864).
route(harbor1,prodloc32,tr13,5764,34584).
route(harbor1,prodloc33,tr0,15522,403572).
route(harbor1,prodloc33,tr13,15522,93132).
route(harbor2,harbor0,tr13,14995,89970).
route(harbor2,harbor0,tr2,14995,44985).
route(harbor2,harbor1,tr13,19413,116478).
route(harbor2,harbor1,tr2,19413,58239).
route(harbor2,harbor3,tr13,18355,110130).
route(harbor2,harbor3,tr2,18355,55065).
route(harbor2,harbor4,tr13,17905,107430).
route(harbor2,harbor4,tr2,17905,53715).
route(harbor2,harbor5,tr13,12753,76518).
route(harbor2,harbor5,tr2,12753,38259).
route(harbor2,harbor6,tr13,2756,16536).
route(harbor2,harbor6,tr2,2756,8268).
route(harbor2,harbor7,tr13,5700,34200).
route(harbor2,harbor7,tr2,5700,17100).
route(harbor2,harbor8,tr13,18007,108042).
route(harbor2,harbor8,tr2,18007,54021).
route(harbor2,harbor9,tr13,15826,94956).
route(harbor2,harbor9,tr2,15826,47478).
route(harbor2,harbor10,tr13,19459,116754).
route(harbor2,harbor10,tr2,19459,58377).
route(harbor2,harbor11,tr13,8629,51774).
route(harbor2,harbor11,tr2,8629,25887).
route(harbor2,harbor12,tr13,17574,105444).
route(harbor2,harbor12,tr2,17574,52722).
route(harbor2,harbor13,tr13,2211,13266).
route(harbor2,harbor13,tr2,2211,6633).
route(harbor2,harbor14,tr13,21364,128184).
route(harbor2,harbor14,tr2,21364,64092).
route(harbor2,harbor15,tr13,972,5832).
route(harbor2,harbor15,tr2,972,2916).
route(harbor2,harbor16,tr13,19068,114408).
route(harbor2,harbor16,tr2,19068,57204).
route(harbor2,prodloc0,tr0,19179,498654).
route(harbor2,prodloc0,tr13,19179,115074).
route(harbor2,prodloc1,tr0,14280,371280).
route(harbor2,prodloc1,tr13,14280,85680).
route(harbor2,prodloc2,tr0,17839,463814).
route(harbor2,prodloc2,tr13,17839,107034).
route(harbor2,prodloc3,tr0,10119,263094).
route(harbor2,prodloc3,tr13,10119,60714).
route(harbor2,prodloc4,tr0,17155,446030).
route(harbor2,prodloc4,tr13,17155,102930).
route(harbor2,prodloc5,tr0,17270,449020).
route(harbor2,prodloc5,tr13,17270,103620).
route(harbor2,prodloc6,tr0,17602,457652).
route(harbor2,prodloc6,tr13,17602,105612).
route(harbor2,prodloc7,tr0,21026,546676).
route(harbor2,prodloc7,tr13,21026,126156).
route(harbor2,prodloc8,tr0,26089,678314).
route(harbor2,prodloc8,tr13,26089,156534).
route(harbor2,prodloc9,tr0,2150,55900).
route(harbor2,prodloc9,tr13,2150,12900).
route(harbor2,prodloc10,tr0,28753,747578).
route(harbor2,prodloc10,tr13,28753,172518).
route(harbor2,prodloc11,tr0,21065,547690).
route(harbor2,prodloc11,tr13,21065,126390).
route(harbor2,prodloc12,tr0,18806,488956).
route(harbor2,prodloc12,tr13,18806,112836).
route(harbor2,prodloc13,tr0,17767,461942).
route(harbor2,prodloc13,tr13,17767,106602).
route(harbor2,prodloc14,tr0,9842,255892).
route(harbor2,prodloc14,tr13,9842,59052).
route(harbor2,prodloc15,tr0,2109,54834).
route(harbor2,prodloc15,tr13,2109,12654).
route(harbor2,prodloc16,tr0,23756,617656).
route(harbor2,prodloc16,tr13,23756,142536).
route(harbor2,prodloc17,tr0,7351,191126).
route(harbor2,prodloc17,tr13,7351,44106).
route(harbor2,prodloc18,tr0,23617,614042).
route(harbor2,prodloc18,tr13,23617,141702).
route(harbor2,prodloc19,tr0,4506,117156).
route(harbor2,prodloc19,tr13,4506,27036).
route(harbor2,prodloc20,tr0,3383,87958).
route(harbor2,prodloc20,tr13,3383,20298).
route(harbor2,prodloc21,tr0,3266,84916).
route(harbor2,prodloc21,tr13,3266,19596).
route(harbor2,prodloc22,tr0,22923,595998).
route(harbor2,prodloc22,tr13,22923,137538).
route(harbor2,prodloc23,tr0,16112,418912).
route(harbor2,prodloc23,tr13,16112,96672).
route(harbor2,prodloc24,tr0,14863,386438).
route(harbor2,prodloc24,tr13,14863,89178).
route(harbor2,prodloc25,tr0,1982,51532).
route(harbor2,prodloc25,tr13,1982,11892).
route(harbor2,prodloc26,tr0,16065,417690).
route(harbor2,prodloc26,tr13,16065,96390).
route(harbor2,prodloc27,tr0,20867,542542).
route(harbor2,prodloc27,tr13,20867,125202).
route(harbor2,prodloc28,tr0,23840,619840).
route(harbor2,prodloc28,tr13,23840,143040).
route(harbor2,prodloc29,tr0,1737,45162).
route(harbor2,prodloc29,tr13,1737,10422).
route(harbor2,prodloc30,tr0,22244,578344).
route(harbor2,prodloc30,tr13,22244,133464).
route(harbor2,prodloc31,tr0,19758,513708).
route(harbor2,prodloc31,tr13,19758,118548).
route(harbor2,prodloc32,tr0,958,24908).
route(harbor2,prodloc32,tr13,958,5748).
route(harbor2,prodloc33,tr0,12229,317954).
route(harbor2,prodloc33,tr13,12229,73374).
route(harbor3,harbor0,tr13,8013,48078).
route(harbor3,harbor0,tr2,8013,24039).
route(harbor3,harbor1,tr13,28824,172944).
route(harbor3,harbor1,tr2,28824,86472).
route(harbor3,harbor2,tr13,15058,90348).
route(harbor3,harbor2,tr2,15058,45174).
route(harbor3,harbor4,tr13,7602,45612).
route(harbor3,harbor4,tr2,7602,22806).
route(harbor3,harbor5,tr13,12194,73164).
route(harbor3,harbor5,tr2,12194,36582).
route(harbor3,harbor6,tr13,27002,162012).
route(harbor3,harbor6,tr2,27002,81006).
route(harbor3,harbor7,tr13,23937,143622).
route(harbor3,harbor7,tr2,23937,71811).
route(harbor3,harbor8,tr13,18811,112866).
route(harbor3,harbor8,tr2,18811,56433).
route(harbor3,harbor9,tr13,20509,123054).
route(harbor3,harbor9,tr2,20509,61527).
route(harbor3,harbor10,tr13,16280,97680).
route(harbor3,harbor10,tr2,16280,48840).
route(harbor3,harbor11,tr13,28729,172374).
route(harbor3,harbor11,tr2,28729,86187).
route(harbor3,harbor12,tr13,7996,47976).
route(harbor3,harbor12,tr2,7996,23988).
route(harbor3,harbor13,tr13,1209,7254).
route(harbor3,harbor13,tr2,1209,3627).
route(harbor3,harbor14,tr13,20426,122556).
route(harbor3,harbor14,tr2,20426,61278).
route(harbor3,harbor15,tr13,19591,117546).
route(harbor3,harbor15,tr2,19591,58773).
route(harbor3,harbor16,tr13,2803,16818).
route(harbor3,harbor16,tr2,2803,8409).
route(harbor3,prodloc0,tr0,20097,522522).
route(harbor3,prodloc0,tr13,20097,120582).
route(harbor3,prodloc1,tr0,1539,40014).
route(harbor3,prodloc1,tr13,1539,9234).
route(harbor3,prodloc2,tr0,22220,577720).
route(harbor3,prodloc2,tr13,22220,133320).
route(harbor3,prodloc3,tr0,13429,349154).
route(harbor3,prodloc3,tr13,13429,80574).
route(harbor3,prodloc4,tr0,13327,346502).
route(harbor3,prodloc4,tr13,13327,79962).
route(harbor3,prodloc5,tr0,19287,501462).
route(harbor3,prodloc5,tr13,19287,115722).
route(harbor3,prodloc6,tr0,2261,58786).
route(harbor3,prodloc6,tr13,2261,13566).
route(harbor3,prodloc7,tr0,2647,68822).
route(harbor3,prodloc7,tr13,2647,15882).
route(harbor3,prodloc8,tr0,6198,161148).
route(harbor3,prodloc8,tr13,6198,37188).
route(harbor3,prodloc9,tr0,1119,29094).
route(harbor3,prodloc9,tr13,1119,6714).
route(harbor3,prodloc10,tr0,19928,518128).
route(harbor3,prodloc10,tr13,19928,119568).
route(harbor3,prodloc11,tr0,24664,641264).
route(harbor3,prodloc11,tr13,24664,147984).
route(harbor3,prodloc12,tr0,5943,154518).
route(harbor3,prodloc12,tr13,5943,35658).
route(harbor3,prodloc13,tr0,2768,71968).
route(harbor3,prodloc13,tr13,2768,16608).
route(harbor3,prodloc14,tr0,2127,55302).
route(harbor3,prodloc14,tr13,2127,12762).
route(harbor3,prodloc15,tr0,980,25480).
route(harbor3,prodloc15,tr13,980,5880).
route(harbor3,prodloc16,tr0,11627,302302).
route(harbor3,prodloc16,tr13,11627,69762).
route(harbor3,prodloc17,tr0,20468,532168).
route(harbor3,prodloc17,tr13,20468,122808).
route(harbor3,prodloc18,tr0,15410,400660).
route(harbor3,prodloc18,tr13,15410,92460).
route(harbor3,prodloc19,tr0,17926,466076).
route(harbor3,prodloc19,tr13,17926,107556).
route(harbor3,prodloc20,tr0,17551,456326).
route(harbor3,prodloc20,tr13,17551,105306).
route(harbor3,prodloc21,tr0,15554,404404).
route(harbor3,prodloc21,tr13,15554,93324).
route(harbor3,prodloc22,tr0,853,22178).
route(harbor3,prodloc22,tr13,853,5118).
route(harbor3,prodloc23,tr0,23055,599430).
route(harbor3,prodloc23,tr13,23055,138330).
route(harbor3,prodloc24,tr0,25416,660816).
route(harbor3,prodloc24,tr13,25416,152496).
route(harbor3,prodloc25,tr0,2469,64194).
route(harbor3,prodloc25,tr13,2469,14814).
route(harbor3,prodloc26,tr0,10940,284440).
route(harbor3,prodloc26,tr13,10940,65640).
route(harbor3,prodloc27,tr0,2774,72124).
route(harbor3,prodloc27,tr13,2774,16644).
route(harbor3,prodloc28,tr0,25653,666978).
route(harbor3,prodloc28,tr13,25653,153918).
route(harbor3,prodloc29,tr0,10536,273936).
route(harbor3,prodloc29,tr13,10536,63216).
route(harbor3,prodloc30,tr0,282,7332).
route(harbor3,prodloc30,tr13,282,1692).
route(harbor3,prodloc31,tr0,15201,395226).
route(harbor3,prodloc31,tr13,15201,91206).
route(harbor3,prodloc32,tr0,14719,382694).
route(harbor3,prodloc32,tr13,14719,88314).
route(harbor3,prodloc33,tr0,19343,502918).
route(harbor3,prodloc33,tr13,19343,116058).
route(harbor4,harbor0,tr13,4898,29388).
route(harbor4,harbor0,tr2,4898,14694).
route(harbor4,harbor1,tr13,12681,76086).
route(harbor4,harbor1,tr2,12681,38043).
route(harbor4,harbor2,tr13,15700,94200).
route(harbor4,harbor2,tr2,15700,47100).
route(harbor4,harbor3,tr13,27318,163908).
route(harbor4,harbor3,tr2,27318,81954).
route(harbor4,harbor5,tr13,4548,27288).
route(harbor4,harbor5,tr2,4548,13644).
route(harbor4,harbor6,tr13,3511,21066).
route(harbor4,harbor6,tr2,3511,10533).
route(harbor4,harbor7,tr13,29281,175686).
route(harbor4,harbor7,tr2,29281,87843).
route(harbor4,harbor8,tr13,11458,68748).
route(harbor4,harbor8,tr2,11458,34374).
route(harbor4,harbor9,tr13,22025,132150).
route(harbor4,harbor9,tr2,22025,66075).
route(harbor4,harbor10,tr13,7609,45654).
route(harbor4,harbor10,tr2,7609,22827).
route(harbor4,harbor11,tr13,14824,88944).
route(harbor4,harbor11,tr2,14824,44472).
route(harbor4,harbor12,tr13,25588,153528).
route(harbor4,harbor12,tr2,25588,76764).
route(harbor4,harbor13,tr13,4270,25620).
route(harbor4,harbor13,tr2,4270,12810).
route(harbor4,harbor14,tr13,6326,37956).
route(harbor4,harbor14,tr2,6326,18978).
route(harbor4,harbor15,tr13,7276,43656).
route(harbor4,harbor15,tr2,7276,21828).
route(harbor4,harbor16,tr13,3594,21564).
route(harbor4,harbor16,tr2,3594,10782).
route(harbor4,prodloc0,tr0,3626,94276).
route(harbor4,prodloc0,tr13,3626,21756).
route(harbor4,prodloc1,tr0,1729,44954).
route(harbor4,prodloc1,tr13,1729,10374).
route(harbor4,prodloc2,tr0,3937,102362).
route(harbor4,prodloc2,tr13,3937,23622).
route(harbor4,prodloc3,tr0,2447,63622).
route(harbor4,prodloc3,tr13,2447,14682).
route(harbor4,prodloc4,tr0,21147,549822).
route(harbor4,prodloc4,tr13,21147,126882).
route(harbor4,prodloc5,tr0,2707,70382).
route(harbor4,prodloc5,tr13,2707,16242).
route(harbor4,prodloc6,tr0,12205,317330).
route(harbor4,prodloc6,tr13,12205,73230).
route(harbor4,prodloc7,tr0,3397,88322).
route(harbor4,prodloc7,tr13,3397,20382).
route(harbor4,prodloc8,tr0,24284,631384).
route(harbor4,prodloc8,tr13,24284,145704).
route(harbor4,prodloc9,tr0,770,20020).
route(harbor4,prodloc9,tr13,770,4620).
route(harbor4,prodloc10,tr0,15321,398346).
route(harbor4,prodloc10,tr13,15321,91926).
route(harbor4,prodloc11,tr0,20532,533832).
route(harbor4,prodloc11,tr13,20532,123192).
route(harbor4,prodloc12,tr0,17107,444782).
route(harbor4,prodloc12,tr13,17107,102642).
route(harbor4,prodloc13,tr0,6577,171002).
route(harbor4,prodloc13,tr13,6577,39462).
route(harbor4,prodloc14,tr0,12109,314834).
route(harbor4,prodloc14,tr13,12109,72654).
route(harbor4,prodloc15,tr0,28651,744926).
route(harbor4,prodloc15,tr13,28651,171906).
route(harbor4,prodloc16,tr0,20800,540800).
route(harbor4,prodloc16,tr13,20800,124800).
route(harbor4,prodloc17,tr0,2660,69160).
route(harbor4,prodloc17,tr13,2660,15960).
route(harbor4,prodloc18,tr0,7740,201240).
route(harbor4,prodloc18,tr13,7740,46440).
route(harbor4,prodloc19,tr0,181,4706).
route(harbor4,prodloc19,tr13,181,1086).
route(harbor4,prodloc20,tr0,8402,218452).
route(harbor4,prodloc20,tr13,8402,50412).
route(harbor4,prodloc21,tr0,25015,650390).
route(harbor4,prodloc21,tr13,25015,150090).
route(harbor4,prodloc22,tr0,16970,441220).
route(harbor4,prodloc22,tr13,16970,101820).
route(harbor4,prodloc23,tr0,22375,581750).
route(harbor4,prodloc23,tr13,22375,134250).
route(harbor4,prodloc24,tr0,6469,168194).
route(harbor4,prodloc24,tr13,6469,38814).
route(harbor4,prodloc25,tr0,509,13234).
route(harbor4,prodloc25,tr13,509,3054).
route(harbor4,prodloc26,tr0,14395,374270).
route(harbor4,prodloc26,tr13,14395,86370).
route(harbor4,prodloc27,tr0,8300,215800).
route(harbor4,prodloc27,tr13,8300,49800).
route(harbor4,prodloc28,tr0,20015,520390).
route(harbor4,prodloc28,tr13,20015,120090).
route(harbor4,prodloc29,tr0,730,18980).
route(harbor4,prodloc29,tr13,730,4380).
route(harbor4,prodloc30,tr0,3385,88010).
route(harbor4,prodloc30,tr13,3385,20310).
route(harbor4,prodloc31,tr0,17023,442598).
route(harbor4,prodloc31,tr13,17023,102138).
route(harbor4,prodloc32,tr0,26215,681590).
route(harbor4,prodloc32,tr13,26215,157290).
route(harbor4,prodloc33,tr0,13671,355446).
route(harbor4,prodloc33,tr13,13671,82026).
route(harbor5,harbor0,tr13,1924,11544).
route(harbor5,harbor0,tr2,1924,5772).
route(harbor5,harbor1,tr13,8262,49572).
route(harbor5,harbor1,tr2,8262,24786).
route(harbor5,harbor2,tr13,15613,93678).
route(harbor5,harbor2,tr2,15613,46839).
route(harbor5,harbor3,tr13,27936,167616).
route(harbor5,harbor3,tr2,27936,83808).
route(harbor5,harbor4,tr13,10355,62130).
route(harbor5,harbor4,tr2,10355,31065).
route(harbor5,harbor6,tr13,19862,119172).
route(harbor5,harbor6,tr2,19862,59586).
route(harbor5,harbor7,tr13,28696,172176).
route(harbor5,harbor7,tr2,28696,86088).
route(harbor5,harbor8,tr13,7261,43566).
route(harbor5,harbor8,tr2,7261,21783).
route(harbor5,harbor9,tr13,20966,125796).
route(harbor5,harbor9,tr2,20966,62898).
route(harbor5,harbor10,tr13,1950,11700).
route(harbor5,harbor10,tr2,1950,5850).
route(harbor5,harbor11,tr13,22351,134106).
route(harbor5,harbor11,tr2,22351,67053).
route(harbor5,harbor12,tr13,9047,54282).
route(harbor5,harbor12,tr2,9047,27141).
route(harbor5,harbor13,tr13,4362,26172).
route(harbor5,harbor13,tr2,4362,13086).
route(harbor5,harbor14,tr13,9865,59190).
route(harbor5,harbor14,tr2,9865,29595).
route(harbor5,harbor15,tr13,1304,7824).
route(harbor5,harbor15,tr2,1304,3912).
route(harbor5,harbor16,tr13,26253,157518).
route(harbor5,harbor16,tr2,26253,78759).
route(harbor5,prodloc0,tr0,6119,159094).
route(harbor5,prodloc0,tr13,6119,36714).
route(harbor5,prodloc1,tr0,11583,301158).
route(harbor5,prodloc1,tr13,11583,69498).
route(harbor5,prodloc2,tr0,25767,669942).
route(harbor5,prodloc2,tr13,25767,154602).
route(harbor5,prodloc3,tr0,13214,343564).
route(harbor5,prodloc3,tr13,13214,79284).
route(harbor5,prodloc4,tr0,239,6214).
route(harbor5,prodloc4,tr13,239,1434).
route(harbor5,prodloc5,tr0,28725,746850).
route(harbor5,prodloc5,tr13,28725,172350).
route(harbor5,prodloc6,tr0,9921,257946).
route(harbor5,prodloc6,tr13,9921,59526).
route(harbor5,prodloc7,tr0,28154,732004).
route(harbor5,prodloc7,tr13,28154,168924).
route(harbor5,prodloc8,tr0,3095,80470).
route(harbor5,prodloc8,tr13,3095,18570).
route(harbor5,prodloc9,tr0,967,25142).
route(harbor5,prodloc9,tr13,967,5802).
route(harbor5,prodloc10,tr0,10411,270686).
route(harbor5,prodloc10,tr13,10411,62466).
route(harbor5,prodloc11,tr0,14397,374322).
route(harbor5,prodloc11,tr13,14397,86382).
route(harbor5,prodloc12,tr0,8101,210626).
route(harbor5,prodloc12,tr13,8101,48606).
route(harbor5,prodloc13,tr0,13652,354952).
route(harbor5,prodloc13,tr13,13652,81912).
route(harbor5,prodloc14,tr0,19799,514774).
route(harbor5,prodloc14,tr13,19799,118794).
route(harbor5,prodloc15,tr0,10545,274170).
route(harbor5,prodloc15,tr13,10545,63270).
route(harbor5,prodloc16,tr0,16114,418964).
route(harbor5,prodloc16,tr13,16114,96684).
route(harbor5,prodloc17,tr0,18463,480038).
route(harbor5,prodloc17,tr13,18463,110778).
route(harbor5,prodloc18,tr0,11370,295620).
route(harbor5,prodloc18,tr13,11370,68220).
route(harbor5,prodloc19,tr0,28864,750464).
route(harbor5,prodloc19,tr13,28864,173184).
route(harbor5,prodloc20,tr0,27432,713232).
route(harbor5,prodloc20,tr13,27432,164592).
route(harbor5,prodloc21,tr0,13079,340054).
route(harbor5,prodloc21,tr13,13079,78474).
route(harbor5,prodloc22,tr0,14094,366444).
route(harbor5,prodloc22,tr13,14094,84564).
route(harbor5,prodloc23,tr0,6848,178048).
route(harbor5,prodloc23,tr13,6848,41088).
route(harbor5,prodloc24,tr0,2576,66976).
route(harbor5,prodloc24,tr13,2576,15456).
route(harbor5,prodloc25,tr0,9058,235508).
route(harbor5,prodloc25,tr13,9058,54348).
route(harbor5,prodloc26,tr0,9861,256386).
route(harbor5,prodloc26,tr13,9861,59166).
route(harbor5,prodloc27,tr0,15132,393432).
route(harbor5,prodloc27,tr13,15132,90792).
route(harbor5,prodloc28,tr0,15291,397566).
route(harbor5,prodloc28,tr13,15291,91746).
route(harbor5,prodloc29,tr0,20005,520130).
route(harbor5,prodloc29,tr13,20005,120030).
route(harbor5,prodloc30,tr0,18628,484328).
route(harbor5,prodloc30,tr13,18628,111768).
route(harbor5,prodloc31,tr0,14941,388466).
route(harbor5,prodloc31,tr13,14941,89646).
route(harbor5,prodloc32,tr0,14417,374842).
route(harbor5,prodloc32,tr13,14417,86502).
route(harbor5,prodloc33,tr0,12618,328068).
route(harbor5,prodloc33,tr13,12618,75708).
route(harbor6,harbor0,tr13,6135,36810).
route(harbor6,harbor0,tr2,6135,18405).
route(harbor6,harbor1,tr13,10826,64956).
route(harbor6,harbor1,tr2,10826,32478).
route(harbor6,harbor2,tr13,13208,79248).
route(harbor6,harbor2,tr2,13208,39624).
route(harbor6,harbor3,tr13,1959,11754).
route(harbor6,harbor3,tr2,1959,5877).
route(harbor6,harbor4,tr13,10680,64080).
route(harbor6,harbor4,tr2,10680,32040).
route(harbor6,harbor5,tr13,3038,18228).
route(harbor6,harbor5,tr2,3038,9114).
route(harbor6,harbor7,tr13,5619,33714).
route(harbor6,harbor7,tr2,5619,16857).
route(harbor6,harbor8,tr13,10434,62604).
route(harbor6,harbor8,tr2,10434,31302).
route(harbor6,harbor9,tr13,17851,107106).
route(harbor6,harbor9,tr2,17851,53553).
route(harbor6,harbor10,tr13,910,5460).
route(harbor6,harbor10,tr2,910,2730).
route(harbor6,harbor11,tr13,6208,37248).
route(harbor6,harbor11,tr2,6208,18624).
route(harbor6,harbor12,tr13,6947,41682).
route(harbor6,harbor12,tr2,6947,20841).
route(harbor6,harbor13,tr13,23347,140082).
route(harbor6,harbor13,tr2,23347,70041).
route(harbor6,harbor14,tr13,11977,71862).
route(harbor6,harbor14,tr2,11977,35931).
route(harbor6,harbor15,tr13,21616,129696).
route(harbor6,harbor15,tr2,21616,64848).
route(harbor6,harbor16,tr13,4541,27246).
route(harbor6,harbor16,tr2,4541,13623).
route(harbor6,prodloc0,tr0,20494,532844).
route(harbor6,prodloc0,tr13,20494,122964).
route(harbor6,prodloc1,tr0,2817,73242).
route(harbor6,prodloc1,tr13,2817,16902).
route(harbor6,prodloc2,tr0,11072,287872).
route(harbor6,prodloc2,tr13,11072,66432).
route(harbor6,prodloc3,tr0,14651,380926).
route(harbor6,prodloc3,tr13,14651,87906).
route(harbor6,prodloc4,tr0,19877,516802).
route(harbor6,prodloc4,tr13,19877,119262).
route(harbor6,prodloc5,tr0,19646,510796).
route(harbor6,prodloc5,tr13,19646,117876).
route(harbor6,prodloc6,tr0,24958,648908).
route(harbor6,prodloc6,tr13,24958,149748).
route(harbor6,prodloc7,tr0,21964,571064).
route(harbor6,prodloc7,tr13,21964,131784).
route(harbor6,prodloc8,tr0,24038,624988).
route(harbor6,prodloc8,tr13,24038,144228).
route(harbor6,prodloc9,tr0,12613,327938).
route(harbor6,prodloc9,tr13,12613,75678).
route(harbor6,prodloc10,tr0,6923,179998).
route(harbor6,prodloc10,tr13,6923,41538).
route(harbor6,prodloc11,tr0,22841,593866).
route(harbor6,prodloc11,tr13,22841,137046).
route(harbor6,prodloc12,tr0,17760,461760).
route(harbor6,prodloc12,tr13,17760,106560).
route(harbor6,prodloc13,tr0,25278,657228).
route(harbor6,prodloc13,tr13,25278,151668).
route(harbor6,prodloc14,tr0,10991,285766).
route(harbor6,prodloc14,tr13,10991,65946).
route(harbor6,prodloc15,tr0,2487,64662).
route(harbor6,prodloc15,tr13,2487,14922).
route(harbor6,prodloc16,tr0,628,16328).
route(harbor6,prodloc16,tr13,628,3768).
route(harbor6,prodloc17,tr0,21949,570674).
route(harbor6,prodloc17,tr13,21949,131694).
route(harbor6,prodloc18,tr0,18105,470730).
route(harbor6,prodloc18,tr13,18105,108630).
route(harbor6,prodloc19,tr0,13824,359424).
route(harbor6,prodloc19,tr13,13824,82944).
route(harbor6,prodloc20,tr0,15422,400972).
route(harbor6,prodloc20,tr13,15422,92532).
route(harbor6,prodloc21,tr0,7451,193726).
route(harbor6,prodloc21,tr13,7451,44706).
route(harbor6,prodloc22,tr0,28408,738608).
route(harbor6,prodloc22,tr13,28408,170448).
route(harbor6,prodloc23,tr0,23832,619632).
route(harbor6,prodloc23,tr13,23832,142992).
route(harbor6,prodloc24,tr0,10608,275808).
route(harbor6,prodloc24,tr13,10608,63648).
route(harbor6,prodloc25,tr0,25035,650910).
route(harbor6,prodloc25,tr13,25035,150210).
route(harbor6,prodloc26,tr0,27316,710216).
route(harbor6,prodloc26,tr13,27316,163896).
route(harbor6,prodloc27,tr0,26189,680914).
route(harbor6,prodloc27,tr13,26189,157134).
route(harbor6,prodloc28,tr0,16849,438074).
route(harbor6,prodloc28,tr13,16849,101094).
route(harbor6,prodloc29,tr0,16462,428012).
route(harbor6,prodloc29,tr13,16462,98772).
route(harbor6,prodloc30,tr0,3249,84474).
route(harbor6,prodloc30,tr13,3249,19494).
route(harbor6,prodloc31,tr0,15181,394706).
route(harbor6,prodloc31,tr13,15181,91086).
route(harbor6,prodloc32,tr0,23493,610818).
route(harbor6,prodloc32,tr13,23493,140958).
route(harbor6,prodloc33,tr0,106,2756).
route(harbor6,prodloc33,tr13,106,636).
route(harbor7,harbor0,tr13,9357,56142).
route(harbor7,harbor0,tr2,9357,28071).
route(harbor7,harbor1,tr13,17511,105066).
route(harbor7,harbor1,tr2,17511,52533).
route(harbor7,harbor2,tr13,6751,40506).
route(harbor7,harbor2,tr2,6751,20253).
route(harbor7,harbor3,tr13,2370,14220).
route(harbor7,harbor3,tr2,2370,7110).
route(harbor7,harbor4,tr13,7361,44166).
route(harbor7,harbor4,tr2,7361,22083).
route(harbor7,harbor5,tr13,383,2298).
route(harbor7,harbor5,tr2,383,1149).
route(harbor7,harbor6,tr13,10340,62040).
route(harbor7,harbor6,tr2,10340,31020).
route(harbor7,harbor8,tr13,1406,8436).
route(harbor7,harbor8,tr2,1406,4218).
route(harbor7,harbor9,tr13,3027,18162).
route(harbor7,harbor9,tr2,3027,9081).
route(harbor7,harbor10,tr13,4916,29496).
route(harbor7,harbor10,tr2,4916,14748).
route(harbor7,harbor11,tr13,10796,64776).
route(harbor7,harbor11,tr2,10796,32388).
route(harbor7,harbor12,tr13,5380,32280).
route(harbor7,harbor12,tr2,5380,16140).
route(harbor7,harbor13,tr13,22758,136548).
route(harbor7,harbor13,tr2,22758,68274).
route(harbor7,harbor14,tr13,3177,19062).
route(harbor7,harbor14,tr2,3177,9531).
route(harbor7,harbor15,tr13,16729,100374).
route(harbor7,harbor15,tr2,16729,50187).
route(harbor7,harbor16,tr13,27033,162198).
route(harbor7,harbor16,tr2,27033,81099).
route(harbor7,prodloc0,tr0,25881,672906).
route(harbor7,prodloc0,tr13,25881,155286).
route(harbor7,prodloc1,tr0,13232,344032).
route(harbor7,prodloc1,tr13,13232,79392).
route(harbor7,prodloc2,tr0,21274,553124).
route(harbor7,prodloc2,tr13,21274,127644).
route(harbor7,prodloc3,tr0,27519,715494).
route(harbor7,prodloc3,tr13,27519,165114).
route(harbor7,prodloc4,tr0,12960,336960).
route(harbor7,prodloc4,tr13,12960,77760).
route(harbor7,prodloc5,tr0,12762,331812).
route(harbor7,prodloc5,tr13,12762,76572).
route(harbor7,prodloc6,tr0,19222,499772).
route(harbor7,prodloc6,tr13,19222,115332).
route(harbor7,prodloc7,tr0,16589,431314).
route(harbor7,prodloc7,tr13,16589,99534).
route(harbor7,prodloc8,tr0,28457,739882).
route(harbor7,prodloc8,tr13,28457,170742).
route(harbor7,prodloc9,tr0,4420,114920).
route(harbor7,prodloc9,tr13,4420,26520).
route(harbor7,prodloc10,tr0,16671,433446).
route(harbor7,prodloc10,tr13,16671,100026).
route(harbor7,prodloc11,tr0,22618,588068).
route(harbor7,prodloc11,tr13,22618,135708).
route(harbor7,prodloc12,tr0,11713,304538).
route(harbor7,prodloc12,tr13,11713,70278).
route(harbor7,prodloc13,tr0,11765,305890).
route(harbor7,prodloc13,tr13,11765,70590).
route(harbor7,prodloc14,tr0,8846,229996).
route(harbor7,prodloc14,tr13,8846,53076).
route(harbor7,prodloc15,tr0,6620,172120).
route(harbor7,prodloc15,tr13,6620,39720).
route(harbor7,prodloc16,tr0,10502,273052).
route(harbor7,prodloc16,tr13,10502,63012).
route(harbor7,prodloc17,tr0,12619,328094).
route(harbor7,prodloc17,tr13,12619,75714).
route(harbor7,prodloc18,tr0,18591,483366).
route(harbor7,prodloc18,tr13,18591,111546).
route(harbor7,prodloc19,tr0,5979,155454).
route(harbor7,prodloc19,tr13,5979,35874).
route(harbor7,prodloc20,tr0,26200,681200).
route(harbor7,prodloc20,tr13,26200,157200).
route(harbor7,prodloc21,tr0,20072,521872).
route(harbor7,prodloc21,tr13,20072,120432).
route(harbor7,prodloc22,tr0,25467,662142).
route(harbor7,prodloc22,tr13,25467,152802).
route(harbor7,prodloc23,tr0,28458,739908).
route(harbor7,prodloc23,tr13,28458,170748).
route(harbor7,prodloc24,tr0,5839,151814).
route(harbor7,prodloc24,tr13,5839,35034).
route(harbor7,prodloc25,tr0,18705,486330).
route(harbor7,prodloc25,tr13,18705,112230).
route(harbor7,prodloc26,tr0,5623,146198).
route(harbor7,prodloc26,tr13,5623,33738).
route(harbor7,prodloc27,tr0,311,8086).
route(harbor7,prodloc27,tr13,311,1866).
route(harbor7,prodloc28,tr0,10029,260754).
route(harbor7,prodloc28,tr13,10029,60174).
route(harbor7,prodloc29,tr0,22422,582972).
route(harbor7,prodloc29,tr13,22422,134532).
route(harbor7,prodloc30,tr0,661,17186).
route(harbor7,prodloc30,tr13,661,3966).
route(harbor7,prodloc31,tr0,9128,237328).
route(harbor7,prodloc31,tr13,9128,54768).
route(harbor7,prodloc32,tr0,15690,407940).
route(harbor7,prodloc32,tr13,15690,94140).
route(harbor7,prodloc33,tr0,17124,445224).
route(harbor7,prodloc33,tr13,17124,102744).
route(harbor8,harbor0,tr13,28398,170388).
route(harbor8,harbor0,tr2,28398,85194).
route(harbor8,harbor1,tr13,24751,148506).
route(harbor8,harbor1,tr2,24751,74253).
route(harbor8,harbor2,tr13,22218,133308).
route(harbor8,harbor2,tr2,22218,66654).
route(harbor8,harbor3,tr13,14026,84156).
route(harbor8,harbor3,tr2,14026,42078).
route(harbor8,harbor4,tr13,24757,148542).
route(harbor8,harbor4,tr2,24757,74271).
route(harbor8,harbor5,tr13,3101,18606).
route(harbor8,harbor5,tr2,3101,9303).
route(harbor8,harbor6,tr13,8969,53814).
route(harbor8,harbor6,tr2,8969,26907).
route(harbor8,harbor7,tr13,9367,56202).
route(harbor8,harbor7,tr2,9367,28101).
route(harbor8,harbor9,tr13,4739,28434).
route(harbor8,harbor9,tr2,4739,14217).
route(harbor8,harbor10,tr13,16968,101808).
route(harbor8,harbor10,tr2,16968,50904).
route(harbor8,harbor11,tr13,14824,88944).
route(harbor8,harbor11,tr2,14824,44472).
route(harbor8,harbor12,tr13,15719,94314).
route(harbor8,harbor12,tr2,15719,47157).
route(harbor8,harbor13,tr13,22305,133830).
route(harbor8,harbor13,tr2,22305,66915).
route(harbor8,harbor14,tr13,7634,45804).
route(harbor8,harbor14,tr2,7634,22902).
route(harbor8,harbor15,tr13,5898,35388).
route(harbor8,harbor15,tr2,5898,17694).
route(harbor8,harbor16,tr13,10877,65262).
route(harbor8,harbor16,tr2,10877,32631).
route(harbor8,prodloc0,tr0,4808,125008).
route(harbor8,prodloc0,tr13,4808,28848).
route(harbor8,prodloc1,tr0,24516,637416).
route(harbor8,prodloc1,tr13,24516,147096).
route(harbor8,prodloc2,tr0,22237,578162).
route(harbor8,prodloc2,tr13,22237,133422).
route(harbor8,prodloc3,tr0,11393,296218).
route(harbor8,prodloc3,tr13,11393,68358).
route(harbor8,prodloc4,tr0,24368,633568).
route(harbor8,prodloc4,tr13,24368,146208).
route(harbor8,prodloc5,tr0,19692,511992).
route(harbor8,prodloc5,tr13,19692,118152).
route(harbor8,prodloc6,tr0,1668,43368).
route(harbor8,prodloc6,tr13,1668,10008).
route(harbor8,prodloc7,tr0,17874,464724).
route(harbor8,prodloc7,tr13,17874,107244).
route(harbor8,prodloc8,tr0,9130,237380).
route(harbor8,prodloc8,tr13,9130,54780).
route(harbor8,prodloc9,tr0,11284,293384).
route(harbor8,prodloc9,tr13,11284,67704).
route(harbor8,prodloc10,tr0,861,22386).
route(harbor8,prodloc10,tr13,861,5166).
route(harbor8,prodloc11,tr0,18960,492960).
route(harbor8,prodloc11,tr13,18960,113760).
route(harbor8,prodloc12,tr0,6110,158860).
route(harbor8,prodloc12,tr13,6110,36660).
route(harbor8,prodloc13,tr0,17623,458198).
route(harbor8,prodloc13,tr13,17623,105738).
route(harbor8,prodloc14,tr0,25513,663338).
route(harbor8,prodloc14,tr13,25513,153078).
route(harbor8,prodloc15,tr0,21926,570076).
route(harbor8,prodloc15,tr13,21926,131556).
route(harbor8,prodloc16,tr0,24971,649246).
route(harbor8,prodloc16,tr13,24971,149826).
route(harbor8,prodloc17,tr0,3166,82316).
route(harbor8,prodloc17,tr13,3166,18996).
route(harbor8,prodloc18,tr0,14860,386360).
route(harbor8,prodloc18,tr13,14860,89160).
route(harbor8,prodloc19,tr0,4410,114660).
route(harbor8,prodloc19,tr13,4410,26460).
route(harbor8,prodloc20,tr0,11167,290342).
route(harbor8,prodloc20,tr13,11167,67002).
route(harbor8,prodloc21,tr0,6909,179634).
route(harbor8,prodloc21,tr13,6909,41454).
route(harbor8,prodloc22,tr0,24506,637156).
route(harbor8,prodloc22,tr13,24506,147036).
route(harbor8,prodloc23,tr0,17799,462774).
route(harbor8,prodloc23,tr13,17799,106794).
route(harbor8,prodloc24,tr0,4404,114504).
route(harbor8,prodloc24,tr13,4404,26424).
route(harbor8,prodloc25,tr0,13855,360230).
route(harbor8,prodloc25,tr13,13855,83130).
route(harbor8,prodloc26,tr0,7098,184548).
route(harbor8,prodloc26,tr13,7098,42588).
route(harbor8,prodloc27,tr0,16889,439114).
route(harbor8,prodloc27,tr13,16889,101334).
route(harbor8,prodloc28,tr0,6647,172822).
route(harbor8,prodloc28,tr13,6647,39882).
route(harbor8,prodloc29,tr0,27499,714974).
route(harbor8,prodloc29,tr13,27499,164994).
route(harbor8,prodloc30,tr0,22473,584298).
route(harbor8,prodloc30,tr13,22473,134838).
route(harbor8,prodloc31,tr0,18634,484484).
route(harbor8,prodloc31,tr13,18634,111804).
route(harbor8,prodloc32,tr0,13866,360516).
route(harbor8,prodloc32,tr13,13866,83196).
route(harbor8,prodloc33,tr0,330,8580).
route(harbor8,prodloc33,tr13,330,1980).
route(harbor9,harbor0,tr13,27773,166638).
route(harbor9,harbor0,tr2,27773,83319).
route(harbor9,harbor1,tr13,18213,109278).
route(harbor9,harbor1,tr2,18213,54639).
route(harbor9,harbor2,tr13,1647,9882).
route(harbor9,harbor2,tr2,1647,4941).
route(harbor9,harbor3,tr13,25377,152262).
route(harbor9,harbor3,tr2,25377,76131).
route(harbor9,harbor4,tr13,23480,140880).
route(harbor9,harbor4,tr2,23480,70440).
route(harbor9,harbor5,tr13,11657,69942).
route(harbor9,harbor5,tr2,11657,34971).
route(harbor9,harbor6,tr13,16289,97734).
route(harbor9,harbor6,tr2,16289,48867).
route(harbor9,harbor7,tr13,12222,73332).
route(harbor9,harbor7,tr2,12222,36666).
route(harbor9,harbor8,tr13,2025,12150).
route(harbor9,harbor8,tr2,2025,6075).
route(harbor9,harbor10,tr13,12232,73392).
route(harbor9,harbor10,tr2,12232,36696).
route(harbor9,harbor11,tr13,26510,159060).
route(harbor9,harbor11,tr2,26510,79530).
route(harbor9,harbor12,tr13,26200,157200).
route(harbor9,harbor12,tr2,26200,78600).
route(harbor9,harbor13,tr13,13089,78534).
route(harbor9,harbor13,tr2,13089,39267).
route(harbor9,harbor14,tr13,29084,174504).
route(harbor9,harbor14,tr2,29084,87252).
route(harbor9,harbor15,tr13,15221,91326).
route(harbor9,harbor15,tr2,15221,45663).
route(harbor9,harbor16,tr13,14362,86172).
route(harbor9,harbor16,tr2,14362,43086).
route(harbor9,prodloc0,tr0,20716,538616).
route(harbor9,prodloc0,tr13,20716,124296).
route(harbor9,prodloc1,tr0,23810,619060).
route(harbor9,prodloc1,tr13,23810,142860).
route(harbor9,prodloc2,tr0,6251,162526).
route(harbor9,prodloc2,tr13,6251,37506).
route(harbor9,prodloc3,tr0,18220,473720).
route(harbor9,prodloc3,tr13,18220,109320).
route(harbor9,prodloc4,tr0,3237,84162).
route(harbor9,prodloc4,tr13,3237,19422).
route(harbor9,prodloc5,tr0,5443,141518).
route(harbor9,prodloc5,tr13,5443,32658).
route(harbor9,prodloc6,tr0,19251,500526).
route(harbor9,prodloc6,tr13,19251,115506).
route(harbor9,prodloc7,tr0,2783,72358).
route(harbor9,prodloc7,tr13,2783,16698).
route(harbor9,prodloc8,tr0,11622,302172).
route(harbor9,prodloc8,tr13,11622,69732).
route(harbor9,prodloc9,tr0,8528,221728).
route(harbor9,prodloc9,tr13,8528,51168).
route(harbor9,prodloc10,tr0,8099,210574).
route(harbor9,prodloc10,tr13,8099,48594).
route(harbor9,prodloc11,tr0,25148,653848).
route(harbor9,prodloc11,tr13,25148,150888).
route(harbor9,prodloc12,tr0,15388,400088).
route(harbor9,prodloc12,tr13,15388,92328).
route(harbor9,prodloc13,tr0,17222,447772).
route(harbor9,prodloc13,tr13,17222,103332).
route(harbor9,prodloc14,tr0,6107,158782).
route(harbor9,prodloc14,tr13,6107,36642).
route(harbor9,prodloc15,tr0,24936,648336).
route(harbor9,prodloc15,tr13,24936,149616).
route(harbor9,prodloc16,tr0,17407,452582).
route(harbor9,prodloc16,tr13,17407,104442).
route(harbor9,prodloc17,tr0,396,10296).
route(harbor9,prodloc17,tr13,396,2376).
route(harbor9,prodloc18,tr0,21702,564252).
route(harbor9,prodloc18,tr13,21702,130212).
route(harbor9,prodloc19,tr0,17690,459940).
route(harbor9,prodloc19,tr13,17690,106140).
route(harbor9,prodloc20,tr0,10994,285844).
route(harbor9,prodloc20,tr13,10994,65964).
route(harbor9,prodloc21,tr0,21969,571194).
route(harbor9,prodloc21,tr13,21969,131814).
route(harbor9,prodloc22,tr0,7307,189982).
route(harbor9,prodloc22,tr13,7307,43842).
route(harbor9,prodloc23,tr0,5680,147680).
route(harbor9,prodloc23,tr13,5680,34080).
route(harbor9,prodloc24,tr0,922,23972).
route(harbor9,prodloc24,tr13,922,5532).
route(harbor9,prodloc25,tr0,1853,48178).
route(harbor9,prodloc25,tr13,1853,11118).
route(harbor9,prodloc26,tr0,23477,610402).
route(harbor9,prodloc26,tr13,23477,140862).
route(harbor9,prodloc27,tr0,27981,727506).
route(harbor9,prodloc27,tr13,27981,167886).
route(harbor9,prodloc28,tr0,19223,499798).
route(harbor9,prodloc28,tr13,19223,115338).
route(harbor9,prodloc29,tr0,19042,495092).
route(harbor9,prodloc29,tr13,19042,114252).
route(harbor9,prodloc30,tr0,6567,170742).
route(harbor9,prodloc30,tr13,6567,39402).
route(harbor9,prodloc31,tr0,21538,559988).
route(harbor9,prodloc31,tr13,21538,129228).
route(harbor9,prodloc32,tr0,27275,709150).
route(harbor9,prodloc32,tr13,27275,163650).
route(harbor9,prodloc33,tr0,11103,288678).
route(harbor9,prodloc33,tr13,11103,66618).
route(harbor10,harbor0,tr13,9320,55920).
route(harbor10,harbor0,tr2,9320,27960).
route(harbor10,harbor1,tr13,23202,139212).
route(harbor10,harbor1,tr2,23202,69606).
route(harbor10,harbor2,tr13,4282,25692).
route(harbor10,harbor2,tr2,4282,12846).
route(harbor10,harbor3,tr13,10851,65106).
route(harbor10,harbor3,tr2,10851,32553).
route(harbor10,harbor4,tr13,9783,58698).
route(harbor10,harbor4,tr2,9783,29349).
route(harbor10,harbor5,tr13,12992,77952).
route(harbor10,harbor5,tr2,12992,38976).
route(harbor10,harbor6,tr13,1211,7266).
route(harbor10,harbor6,tr2,1211,3633).
route(harbor10,harbor7,tr13,2532,15192).
route(harbor10,harbor7,tr2,2532,7596).
route(harbor10,harbor8,tr13,13327,79962).
route(harbor10,harbor8,tr2,13327,39981).
route(harbor10,harbor9,tr13,26962,161772).
route(harbor10,harbor9,tr2,26962,80886).
route(harbor10,harbor11,tr13,25574,153444).
route(harbor10,harbor11,tr2,25574,76722).
route(harbor10,harbor12,tr13,8070,48420).
route(harbor10,harbor12,tr2,8070,24210).
route(harbor10,harbor13,tr13,14907,89442).
route(harbor10,harbor13,tr2,14907,44721).
route(harbor10,harbor14,tr13,15244,91464).
route(harbor10,harbor14,tr2,15244,45732).
route(harbor10,harbor15,tr13,22792,136752).
route(harbor10,harbor15,tr2,22792,68376).
route(harbor10,harbor16,tr13,1403,8418).
route(harbor10,harbor16,tr2,1403,4209).
route(harbor10,prodloc0,tr0,10303,267878).
route(harbor10,prodloc0,tr13,10303,61818).
route(harbor10,prodloc1,tr0,5673,147498).
route(harbor10,prodloc1,tr13,5673,34038).
route(harbor10,prodloc2,tr0,27490,714740).
route(harbor10,prodloc2,tr13,27490,164940).
route(harbor10,prodloc3,tr0,4714,122564).
route(harbor10,prodloc3,tr13,4714,28284).
route(harbor10,prodloc4,tr0,28937,752362).
route(harbor10,prodloc4,tr13,28937,173622).
route(harbor10,prodloc5,tr0,18825,489450).
route(harbor10,prodloc5,tr13,18825,112950).
route(harbor10,prodloc6,tr0,23299,605774).
route(harbor10,prodloc6,tr13,23299,139794).
route(harbor10,prodloc7,tr0,6544,170144).
route(harbor10,prodloc7,tr13,6544,39264).
route(harbor10,prodloc8,tr0,20877,542802).
route(harbor10,prodloc8,tr13,20877,125262).
route(harbor10,prodloc9,tr0,21866,568516).
route(harbor10,prodloc9,tr13,21866,131196).
route(harbor10,prodloc10,tr0,26064,677664).
route(harbor10,prodloc10,tr13,26064,156384).
route(harbor10,prodloc11,tr0,17146,445796).
route(harbor10,prodloc11,tr13,17146,102876).
route(harbor10,prodloc12,tr0,19034,494884).
route(harbor10,prodloc12,tr13,19034,114204).
route(harbor10,prodloc13,tr0,12500,325000).
route(harbor10,prodloc13,tr13,12500,75000).
route(harbor10,prodloc14,tr0,27690,719940).
route(harbor10,prodloc14,tr13,27690,166140).
route(harbor10,prodloc15,tr0,24802,644852).
route(harbor10,prodloc15,tr13,24802,148812).
route(harbor10,prodloc16,tr0,25884,672984).
route(harbor10,prodloc16,tr13,25884,155304).
route(harbor10,prodloc17,tr0,16444,427544).
route(harbor10,prodloc17,tr13,16444,98664).
route(harbor10,prodloc18,tr0,4985,129610).
route(harbor10,prodloc18,tr13,4985,29910).
route(harbor10,prodloc19,tr0,27236,708136).
route(harbor10,prodloc19,tr13,27236,163416).
route(harbor10,prodloc20,tr0,12429,323154).
route(harbor10,prodloc20,tr13,12429,74574).
route(harbor10,prodloc21,tr0,1085,28210).
route(harbor10,prodloc21,tr13,1085,6510).
route(harbor10,prodloc22,tr0,13004,338104).
route(harbor10,prodloc22,tr13,13004,78024).
route(harbor10,prodloc23,tr0,4594,119444).
route(harbor10,prodloc23,tr13,4594,27564).
route(harbor10,prodloc24,tr0,9358,243308).
route(harbor10,prodloc24,tr13,9358,56148).
route(harbor10,prodloc25,tr0,13637,354562).
route(harbor10,prodloc25,tr13,13637,81822).
route(harbor10,prodloc26,tr0,15790,410540).
route(harbor10,prodloc26,tr13,15790,94740).
route(harbor10,prodloc27,tr0,24521,637546).
route(harbor10,prodloc27,tr13,24521,147126).
route(harbor10,prodloc28,tr0,5929,154154).
route(harbor10,prodloc28,tr13,5929,35574).
route(harbor10,prodloc29,tr0,27397,712322).
route(harbor10,prodloc29,tr13,27397,164382).
route(harbor10,prodloc30,tr0,27800,722800).
route(harbor10,prodloc30,tr13,27800,166800).
route(harbor10,prodloc31,tr0,21813,567138).
route(harbor10,prodloc31,tr13,21813,130878).
route(harbor10,prodloc32,tr0,20843,541918).
route(harbor10,prodloc32,tr13,20843,125058).
route(harbor10,prodloc33,tr0,20222,525772).
route(harbor10,prodloc33,tr13,20222,121332).
route(harbor11,harbor0,tr13,3128,18768).
route(harbor11,harbor0,tr2,3128,9384).
route(harbor11,harbor1,tr13,16818,100908).
route(harbor11,harbor1,tr2,16818,50454).
route(harbor11,harbor2,tr13,16358,98148).
route(harbor11,harbor2,tr2,16358,49074).
route(harbor11,harbor3,tr13,17082,102492).
route(harbor11,harbor3,tr2,17082,51246).
route(harbor11,harbor4,tr13,8582,51492).
route(harbor11,harbor4,tr2,8582,25746).
route(harbor11,harbor5,tr13,8343,50058).
route(harbor11,harbor5,tr2,8343,25029).
route(harbor11,harbor6,tr13,12279,73674).
route(harbor11,harbor6,tr2,12279,36837).
route(harbor11,harbor7,tr13,20105,120630).
route(harbor11,harbor7,tr2,20105,60315).
route(harbor11,harbor8,tr13,25328,151968).
route(harbor11,harbor8,tr2,25328,75984).
route(harbor11,harbor9,tr13,27874,167244).
route(harbor11,harbor9,tr2,27874,83622).
route(harbor11,harbor10,tr13,11395,68370).
route(harbor11,harbor10,tr2,11395,34185).
route(harbor11,harbor12,tr13,17623,105738).
route(harbor11,harbor12,tr2,17623,52869).
route(harbor11,harbor13,tr13,486,2916).
route(harbor11,harbor13,tr2,486,1458).
route(harbor11,harbor14,tr13,6507,39042).
route(harbor11,harbor14,tr2,6507,19521).
route(harbor11,harbor15,tr13,24223,145338).
route(harbor11,harbor15,tr2,24223,72669).
route(harbor11,harbor16,tr13,1951,11706).
route(harbor11,harbor16,tr2,1951,5853).
route(harbor11,prodloc0,tr0,21193,551018).
route(harbor11,prodloc0,tr13,21193,127158).
route(harbor11,prodloc1,tr0,17323,450398).
route(harbor11,prodloc1,tr13,17323,103938).
route(harbor11,prodloc2,tr0,15188,394888).
route(harbor11,prodloc2,tr13,15188,91128).
route(harbor11,prodloc3,tr0,10208,265408).
route(harbor11,prodloc3,tr13,10208,61248).
route(harbor11,prodloc4,tr0,27905,725530).
route(harbor11,prodloc4,tr13,27905,167430).
route(harbor11,prodloc5,tr0,3385,88010).
route(harbor11,prodloc5,tr13,3385,20310).
route(harbor11,prodloc6,tr0,6759,175734).
route(harbor11,prodloc6,tr13,6759,40554).
route(harbor11,prodloc7,tr0,28204,733304).
route(harbor11,prodloc7,tr13,28204,169224).
route(harbor11,prodloc8,tr0,496,12896).
route(harbor11,prodloc8,tr13,496,2976).
route(harbor11,prodloc9,tr0,6490,168740).
route(harbor11,prodloc9,tr13,6490,38940).
route(harbor11,prodloc10,tr0,15227,395902).
route(harbor11,prodloc10,tr13,15227,91362).
route(harbor11,prodloc11,tr0,23617,614042).
route(harbor11,prodloc11,tr13,23617,141702).
route(harbor11,prodloc12,tr0,4044,105144).
route(harbor11,prodloc12,tr13,4044,24264).
route(harbor11,prodloc13,tr0,8348,217048).
route(harbor11,prodloc13,tr13,8348,50088).
route(harbor11,prodloc14,tr0,10174,264524).
route(harbor11,prodloc14,tr13,10174,61044).
route(harbor11,prodloc15,tr0,9680,251680).
route(harbor11,prodloc15,tr13,9680,58080).
route(harbor11,prodloc16,tr0,7391,192166).
route(harbor11,prodloc16,tr13,7391,44346).
route(harbor11,prodloc17,tr0,381,9906).
route(harbor11,prodloc17,tr13,381,2286).
route(harbor11,prodloc18,tr0,5840,151840).
route(harbor11,prodloc18,tr13,5840,35040).
route(harbor11,prodloc19,tr0,21915,569790).
route(harbor11,prodloc19,tr13,21915,131490).
route(harbor11,prodloc20,tr0,20849,542074).
route(harbor11,prodloc20,tr13,20849,125094).
route(harbor11,prodloc21,tr0,13589,353314).
route(harbor11,prodloc21,tr13,13589,81534).
route(harbor11,prodloc22,tr0,8910,231660).
route(harbor11,prodloc22,tr13,8910,53460).
route(harbor11,prodloc23,tr0,12129,315354).
route(harbor11,prodloc23,tr13,12129,72774).
route(harbor11,prodloc24,tr0,20926,544076).
route(harbor11,prodloc24,tr13,20926,125556).
route(harbor11,prodloc25,tr0,11412,296712).
route(harbor11,prodloc25,tr13,11412,68472).
route(harbor11,prodloc26,tr0,10590,275340).
route(harbor11,prodloc26,tr13,10590,63540).
route(harbor11,prodloc27,tr0,18337,476762).
route(harbor11,prodloc27,tr13,18337,110022).
route(harbor11,prodloc28,tr0,5260,136760).
route(harbor11,prodloc28,tr13,5260,31560).
route(harbor11,prodloc29,tr0,18118,471068).
route(harbor11,prodloc29,tr13,18118,108708).
route(harbor11,prodloc30,tr0,22295,579670).
route(harbor11,prodloc30,tr13,22295,133770).
route(harbor11,prodloc31,tr0,961,24986).
route(harbor11,prodloc31,tr13,961,5766).
route(harbor11,prodloc32,tr0,4363,113438).
route(harbor11,prodloc32,tr13,4363,26178).
route(harbor11,prodloc33,tr0,24309,632034).
route(harbor11,prodloc33,tr13,24309,145854).
route(harbor12,harbor0,tr13,6907,41442).
route(harbor12,harbor0,tr2,6907,20721).
route(harbor12,harbor1,tr13,2948,17688).
route(harbor12,harbor1,tr2,2948,8844).
route(harbor12,harbor2,tr13,1566,9396).
route(harbor12,harbor2,tr2,1566,4698).
route(harbor12,harbor3,tr13,6932,41592).
route(harbor12,harbor3,tr2,6932,20796).
route(harbor12,harbor4,tr13,664,3984).
route(harbor12,harbor4,tr2,664,1992).
route(harbor12,harbor5,tr13,8495,50970).
route(harbor12,harbor5,tr2,8495,25485).
route(harbor12,harbor6,tr13,27563,165378).
route(harbor12,harbor6,tr2,27563,82689).
route(harbor12,harbor7,tr13,28963,173778).
route(harbor12,harbor7,tr2,28963,86889).
route(harbor12,harbor8,tr13,23290,139740).
route(harbor12,harbor8,tr2,23290,69870).
route(harbor12,harbor9,tr13,14404,86424).
route(harbor12,harbor9,tr2,14404,43212).
route(harbor12,harbor10,tr13,11762,70572).
route(harbor12,harbor10,tr2,11762,35286).
route(harbor12,harbor11,tr13,11597,69582).
route(harbor12,harbor11,tr2,11597,34791).
route(harbor12,harbor13,tr13,18301,109806).
route(harbor12,harbor13,tr2,18301,54903).
route(harbor12,harbor14,tr13,25343,152058).
route(harbor12,harbor14,tr2,25343,76029).
route(harbor12,harbor15,tr13,23145,138870).
route(harbor12,harbor15,tr2,23145,69435).
route(harbor12,harbor16,tr13,2503,15018).
route(harbor12,harbor16,tr2,2503,7509).
route(harbor12,prodloc0,tr0,3079,80054).
route(harbor12,prodloc0,tr13,3079,18474).
route(harbor12,prodloc1,tr0,23130,601380).
route(harbor12,prodloc1,tr13,23130,138780).
route(harbor12,prodloc2,tr0,13378,347828).
route(harbor12,prodloc2,tr13,13378,80268).
route(harbor12,prodloc3,tr0,23226,603876).
route(harbor12,prodloc3,tr13,23226,139356).
route(harbor12,prodloc4,tr0,13969,363194).
route(harbor12,prodloc4,tr13,13969,83814).
route(harbor12,prodloc5,tr0,5781,150306).
route(harbor12,prodloc5,tr13,5781,34686).
route(harbor12,prodloc6,tr0,1939,50414).
route(harbor12,prodloc6,tr13,1939,11634).
route(harbor12,prodloc7,tr0,7941,206466).
route(harbor12,prodloc7,tr13,7941,47646).
route(harbor12,prodloc8,tr0,18759,487734).
route(harbor12,prodloc8,tr13,18759,112554).
route(harbor12,prodloc9,tr0,5092,132392).
route(harbor12,prodloc9,tr13,5092,30552).
route(harbor12,prodloc10,tr0,16655,433030).
route(harbor12,prodloc10,tr13,16655,99930).
route(harbor12,prodloc11,tr0,18779,488254).
route(harbor12,prodloc11,tr13,18779,112674).
route(harbor12,prodloc12,tr0,27727,720902).
route(harbor12,prodloc12,tr13,27727,166362).
route(harbor12,prodloc13,tr0,13824,359424).
route(harbor12,prodloc13,tr13,13824,82944).
route(harbor12,prodloc14,tr0,11932,310232).
route(harbor12,prodloc14,tr13,11932,71592).
route(harbor12,prodloc15,tr0,23025,598650).
route(harbor12,prodloc15,tr13,23025,138150).
route(harbor12,prodloc16,tr0,21708,564408).
route(harbor12,prodloc16,tr13,21708,130248).
route(harbor12,prodloc17,tr0,6302,163852).
route(harbor12,prodloc17,tr13,6302,37812).
route(harbor12,prodloc18,tr0,20980,545480).
route(harbor12,prodloc18,tr13,20980,125880).
route(harbor12,prodloc19,tr0,11430,297180).
route(harbor12,prodloc19,tr13,11430,68580).
route(harbor12,prodloc20,tr0,23696,616096).
route(harbor12,prodloc20,tr13,23696,142176).
route(harbor12,prodloc21,tr0,16890,439140).
route(harbor12,prodloc21,tr13,16890,101340).
route(harbor12,prodloc22,tr0,16899,439374).
route(harbor12,prodloc22,tr13,16899,101394).
route(harbor12,prodloc23,tr0,13395,348270).
route(harbor12,prodloc23,tr13,13395,80370).
route(harbor12,prodloc24,tr0,1120,29120).
route(harbor12,prodloc24,tr13,1120,6720).
route(harbor12,prodloc25,tr0,5284,137384).
route(harbor12,prodloc25,tr13,5284,31704).
route(harbor12,prodloc26,tr0,17881,464906).
route(harbor12,prodloc26,tr13,17881,107286).
route(harbor12,prodloc27,tr0,10258,266708).
route(harbor12,prodloc27,tr13,10258,61548).
route(harbor12,prodloc28,tr0,9071,235846).
route(harbor12,prodloc28,tr13,9071,54426).
route(harbor12,prodloc29,tr0,14987,389662).
route(harbor12,prodloc29,tr13,14987,89922).
route(harbor12,prodloc30,tr0,9522,247572).
route(harbor12,prodloc30,tr13,9522,57132).
route(harbor12,prodloc31,tr0,9427,245102).
route(harbor12,prodloc31,tr13,9427,56562).
route(harbor12,prodloc32,tr0,14294,371644).
route(harbor12,prodloc32,tr13,14294,85764).
route(harbor12,prodloc33,tr0,26140,679640).
route(harbor12,prodloc33,tr13,26140,156840).
route(harbor13,harbor0,tr13,17484,104904).
route(harbor13,harbor0,tr2,17484,52452).
route(harbor13,harbor1,tr13,13917,83502).
route(harbor13,harbor1,tr2,13917,41751).
route(harbor13,harbor2,tr13,24531,147186).
route(harbor13,harbor2,tr2,24531,73593).
route(harbor13,harbor3,tr13,24946,149676).
route(harbor13,harbor3,tr2,24946,74838).
route(harbor13,harbor4,tr13,3432,20592).
route(harbor13,harbor4,tr2,3432,10296).
route(harbor13,harbor5,tr13,1896,11376).
route(harbor13,harbor5,tr2,1896,5688).
route(harbor13,harbor6,tr13,28879,173274).
route(harbor13,harbor6,tr2,28879,86637).
route(harbor13,harbor7,tr13,11790,70740).
route(harbor13,harbor7,tr2,11790,35370).
route(harbor13,harbor8,tr13,26927,161562).
route(harbor13,harbor8,tr2,26927,80781).
route(harbor13,harbor9,tr13,23880,143280).
route(harbor13,harbor9,tr2,23880,71640).
route(harbor13,harbor10,tr13,22322,133932).
route(harbor13,harbor10,tr2,22322,66966).
route(harbor13,harbor11,tr13,21611,129666).
route(harbor13,harbor11,tr2,21611,64833).
route(harbor13,harbor12,tr13,7330,43980).
route(harbor13,harbor12,tr2,7330,21990).
route(harbor13,harbor14,tr13,13557,81342).
route(harbor13,harbor14,tr2,13557,40671).
route(harbor13,harbor15,tr13,8537,51222).
route(harbor13,harbor15,tr2,8537,25611).
route(harbor13,harbor16,tr13,11987,71922).
route(harbor13,harbor16,tr2,11987,35961).
route(harbor13,prodloc0,tr0,14814,385164).
route(harbor13,prodloc0,tr13,14814,88884).
route(harbor13,prodloc1,tr0,12271,319046).
route(harbor13,prodloc1,tr13,12271,73626).
route(harbor13,prodloc2,tr0,2135,55510).
route(harbor13,prodloc2,tr13,2135,12810).
route(harbor13,prodloc3,tr0,26437,687362).
route(harbor13,prodloc3,tr13,26437,158622).
route(harbor13,prodloc4,tr0,13365,347490).
route(harbor13,prodloc4,tr13,13365,80190).
route(harbor13,prodloc5,tr0,16662,433212).
route(harbor13,prodloc5,tr13,16662,99972).
route(harbor13,prodloc6,tr0,23919,621894).
route(harbor13,prodloc6,tr13,23919,143514).
route(harbor13,prodloc7,tr0,5995,155870).
route(harbor13,prodloc7,tr13,5995,35970).
route(harbor13,prodloc8,tr0,2095,54470).
route(harbor13,prodloc8,tr13,2095,12570).
route(harbor13,prodloc9,tr0,21237,552162).
route(harbor13,prodloc9,tr13,21237,127422).
route(harbor13,prodloc10,tr0,3874,100724).
route(harbor13,prodloc10,tr13,3874,23244).
route(harbor13,prodloc11,tr0,26175,680550).
route(harbor13,prodloc11,tr13,26175,157050).
route(harbor13,prodloc12,tr0,23487,610662).
route(harbor13,prodloc12,tr13,23487,140922).
route(harbor13,prodloc13,tr0,21121,549146).
route(harbor13,prodloc13,tr13,21121,126726).
route(harbor13,prodloc14,tr0,10570,274820).
route(harbor13,prodloc14,tr13,10570,63420).
route(harbor13,prodloc15,tr0,13866,360516).
route(harbor13,prodloc15,tr13,13866,83196).
route(harbor13,prodloc16,tr0,16205,421330).
route(harbor13,prodloc16,tr13,16205,97230).
route(harbor13,prodloc17,tr0,628,16328).
route(harbor13,prodloc17,tr13,628,3768).
route(harbor13,prodloc18,tr0,10127,263302).
route(harbor13,prodloc18,tr13,10127,60762).
route(harbor13,prodloc19,tr0,14271,371046).
route(harbor13,prodloc19,tr13,14271,85626).
route(harbor13,prodloc20,tr0,2584,67184).
route(harbor13,prodloc20,tr13,2584,15504).
route(harbor13,prodloc21,tr0,12785,332410).
route(harbor13,prodloc21,tr13,12785,76710).
route(harbor13,prodloc22,tr0,8482,220532).
route(harbor13,prodloc22,tr13,8482,50892).
route(harbor13,prodloc23,tr0,6396,166296).
route(harbor13,prodloc23,tr13,6396,38376).
route(harbor13,prodloc24,tr0,19155,498030).
route(harbor13,prodloc24,tr13,19155,114930).
route(harbor13,prodloc25,tr0,15435,401310).
route(harbor13,prodloc25,tr13,15435,92610).
route(harbor13,prodloc26,tr0,5536,143936).
route(harbor13,prodloc26,tr13,5536,33216).
route(harbor13,prodloc27,tr0,19924,518024).
route(harbor13,prodloc27,tr13,19924,119544).
route(harbor13,prodloc28,tr0,974,25324).
route(harbor13,prodloc28,tr13,974,5844).
route(harbor13,prodloc29,tr0,7934,206284).
route(harbor13,prodloc29,tr13,7934,47604).
route(harbor13,prodloc30,tr0,9572,248872).
route(harbor13,prodloc30,tr13,9572,57432).
route(harbor13,prodloc31,tr0,23276,605176).
route(harbor13,prodloc31,tr13,23276,139656).
route(harbor13,prodloc32,tr0,261,6786).
route(harbor13,prodloc32,tr13,261,1566).
route(harbor13,prodloc33,tr0,17000,442000).
route(harbor13,prodloc33,tr13,17000,102000).
route(harbor14,harbor0,tr13,3924,23544).
route(harbor14,harbor0,tr2,3924,11772).
route(harbor14,harbor1,tr13,19454,116724).
route(harbor14,harbor1,tr2,19454,58362).
route(harbor14,harbor2,tr13,18943,113658).
route(harbor14,harbor2,tr2,18943,56829).
route(harbor14,harbor3,tr13,220,1320).
route(harbor14,harbor3,tr2,220,660).
route(harbor14,harbor4,tr13,6613,39678).
route(harbor14,harbor4,tr2,6613,19839).
route(harbor14,harbor5,tr13,14466,86796).
route(harbor14,harbor5,tr2,14466,43398).
route(harbor14,harbor6,tr13,20042,120252).
route(harbor14,harbor6,tr2,20042,60126).
route(harbor14,harbor7,tr13,3374,20244).
route(harbor14,harbor7,tr2,3374,10122).
route(harbor14,harbor8,tr13,12502,75012).
route(harbor14,harbor8,tr2,12502,37506).
route(harbor14,harbor9,tr13,16617,99702).
route(harbor14,harbor9,tr2,16617,49851).
route(harbor14,harbor10,tr13,9010,54060).
route(harbor14,harbor10,tr2,9010,27030).
route(harbor14,harbor11,tr13,22668,136008).
route(harbor14,harbor11,tr2,22668,68004).
route(harbor14,harbor12,tr13,29102,174612).
route(harbor14,harbor12,tr2,29102,87306).
route(harbor14,harbor13,tr13,6133,36798).
route(harbor14,harbor13,tr2,6133,18399).
route(harbor14,harbor15,tr13,28943,173658).
route(harbor14,harbor15,tr2,28943,86829).
route(harbor14,harbor16,tr13,2452,14712).
route(harbor14,harbor16,tr2,2452,7356).
route(harbor14,prodloc0,tr0,17265,448890).
route(harbor14,prodloc0,tr13,17265,103590).
route(harbor14,prodloc1,tr0,17186,446836).
route(harbor14,prodloc1,tr13,17186,103116).
route(harbor14,prodloc2,tr0,21726,564876).
route(harbor14,prodloc2,tr13,21726,130356).
route(harbor14,prodloc3,tr0,10095,262470).
route(harbor14,prodloc3,tr13,10095,60570).
route(harbor14,prodloc4,tr0,4720,122720).
route(harbor14,prodloc4,tr13,4720,28320).
route(harbor14,prodloc5,tr0,28182,732732).
route(harbor14,prodloc5,tr13,28182,169092).
route(harbor14,prodloc6,tr0,24412,634712).
route(harbor14,prodloc6,tr13,24412,146472).
route(harbor14,prodloc7,tr0,13800,358800).
route(harbor14,prodloc7,tr13,13800,82800).
route(harbor14,prodloc8,tr0,5956,154856).
route(harbor14,prodloc8,tr13,5956,35736).
route(harbor14,prodloc9,tr0,6493,168818).
route(harbor14,prodloc9,tr13,6493,38958).
route(harbor14,prodloc10,tr0,10000,260000).
route(harbor14,prodloc10,tr13,10000,60000).
route(harbor14,prodloc11,tr0,15494,402844).
route(harbor14,prodloc11,tr13,15494,92964).
route(harbor14,prodloc12,tr0,9314,242164).
route(harbor14,prodloc12,tr13,9314,55884).
route(harbor14,prodloc13,tr0,21409,556634).
route(harbor14,prodloc13,tr13,21409,128454).
route(harbor14,prodloc14,tr0,23911,621686).
route(harbor14,prodloc14,tr13,23911,143466).
route(harbor14,prodloc15,tr0,15556,404456).
route(harbor14,prodloc15,tr13,15556,93336).
route(harbor14,prodloc16,tr0,26460,687960).
route(harbor14,prodloc16,tr13,26460,158760).
route(harbor14,prodloc17,tr0,24643,640718).
route(harbor14,prodloc17,tr13,24643,147858).
route(harbor14,prodloc18,tr0,16576,430976).
route(harbor14,prodloc18,tr13,16576,99456).
route(harbor14,prodloc19,tr0,21114,548964).
route(harbor14,prodloc19,tr13,21114,126684).
route(harbor14,prodloc20,tr0,10291,267566).
route(harbor14,prodloc20,tr13,10291,61746).
route(harbor14,prodloc21,tr0,22319,580294).
route(harbor14,prodloc21,tr13,22319,133914).
route(harbor14,prodloc22,tr0,16593,431418).
route(harbor14,prodloc22,tr13,16593,99558).
route(harbor14,prodloc23,tr0,25334,658684).
route(harbor14,prodloc23,tr13,25334,152004).
route(harbor14,prodloc24,tr0,28205,733330).
route(harbor14,prodloc24,tr13,28205,169230).
route(harbor14,prodloc25,tr0,15186,394836).
route(harbor14,prodloc25,tr13,15186,91116).
route(harbor14,prodloc26,tr0,1917,49842).
route(harbor14,prodloc26,tr13,1917,11502).
route(harbor14,prodloc27,tr0,19346,502996).
route(harbor14,prodloc27,tr13,19346,116076).
route(harbor14,prodloc28,tr0,17420,452920).
route(harbor14,prodloc28,tr13,17420,104520).
route(harbor14,prodloc29,tr0,20797,540722).
route(harbor14,prodloc29,tr13,20797,124782).
route(harbor14,prodloc30,tr0,23243,604318).
route(harbor14,prodloc30,tr13,23243,139458).
route(harbor14,prodloc31,tr0,15628,406328).
route(harbor14,prodloc31,tr13,15628,93768).
route(harbor14,prodloc32,tr0,26893,699218).
route(harbor14,prodloc32,tr13,26893,161358).
route(harbor14,prodloc33,tr0,2912,75712).
route(harbor14,prodloc33,tr13,2912,17472).
route(harbor15,harbor0,tr13,2701,16206).
route(harbor15,harbor0,tr2,2701,8103).
route(harbor15,harbor1,tr13,13389,80334).
route(harbor15,harbor1,tr2,13389,40167).
route(harbor15,harbor2,tr13,24735,148410).
route(harbor15,harbor2,tr2,24735,74205).
route(harbor15,harbor3,tr13,25523,153138).
route(harbor15,harbor3,tr2,25523,76569).
route(harbor15,harbor4,tr13,27600,165600).
route(harbor15,harbor4,tr2,27600,82800).
route(harbor15,harbor5,tr13,23751,142506).
route(harbor15,harbor5,tr2,23751,71253).
route(harbor15,harbor6,tr13,11078,66468).
route(harbor15,harbor6,tr2,11078,33234).
route(harbor15,harbor7,tr13,2461,14766).
route(harbor15,harbor7,tr2,2461,7383).
route(harbor15,harbor8,tr13,26101,156606).
route(harbor15,harbor8,tr2,26101,78303).
route(harbor15,harbor9,tr13,15695,94170).
route(harbor15,harbor9,tr2,15695,47085).
route(harbor15,harbor10,tr13,5359,32154).
route(harbor15,harbor10,tr2,5359,16077).
route(harbor15,harbor11,tr13,19288,115728).
route(harbor15,harbor11,tr2,19288,57864).
route(harbor15,harbor12,tr13,17492,104952).
route(harbor15,harbor12,tr2,17492,52476).
route(harbor15,harbor13,tr13,20007,120042).
route(harbor15,harbor13,tr2,20007,60021).
route(harbor15,harbor14,tr13,4937,29622).
route(harbor15,harbor14,tr2,4937,14811).
route(harbor15,harbor16,tr13,21221,127326).
route(harbor15,harbor16,tr2,21221,63663).
route(harbor15,prodloc0,tr0,16017,416442).
route(harbor15,prodloc0,tr13,16017,96102).
route(harbor15,prodloc1,tr0,22852,594152).
route(harbor15,prodloc1,tr13,22852,137112).
route(harbor15,prodloc2,tr0,13534,351884).
route(harbor15,prodloc2,tr13,13534,81204).
route(harbor15,prodloc3,tr0,17555,456430).
route(harbor15,prodloc3,tr13,17555,105330).
route(harbor15,prodloc4,tr0,16287,423462).
route(harbor15,prodloc4,tr13,16287,97722).
route(harbor15,prodloc5,tr0,3818,99268).
route(harbor15,prodloc5,tr13,3818,22908).
route(harbor15,prodloc6,tr0,18929,492154).
route(harbor15,prodloc6,tr13,18929,113574).
route(harbor15,prodloc7,tr0,16693,434018).
route(harbor15,prodloc7,tr13,16693,100158).
route(harbor15,prodloc8,tr0,405,10530).
route(harbor15,prodloc8,tr13,405,2430).
route(harbor15,prodloc9,tr0,23050,599300).
route(harbor15,prodloc9,tr13,23050,138300).
route(harbor15,prodloc10,tr0,9336,242736).
route(harbor15,prodloc10,tr13,9336,56016).
route(harbor15,prodloc11,tr0,14353,373178).
route(harbor15,prodloc11,tr13,14353,86118).
route(harbor15,prodloc12,tr0,23007,598182).
route(harbor15,prodloc12,tr13,23007,138042).
route(harbor15,prodloc13,tr0,19121,497146).
route(harbor15,prodloc13,tr13,19121,114726).
route(harbor15,prodloc14,tr0,2616,68016).
route(harbor15,prodloc14,tr13,2616,15696).
route(harbor15,prodloc15,tr0,28184,732784).
route(harbor15,prodloc15,tr13,28184,169104).
route(harbor15,prodloc16,tr0,18674,485524).
route(harbor15,prodloc16,tr13,18674,112044).
route(harbor15,prodloc17,tr0,22908,595608).
route(harbor15,prodloc17,tr13,22908,137448).
route(harbor15,prodloc18,tr0,8674,225524).
route(harbor15,prodloc18,tr13,8674,52044).
route(harbor15,prodloc19,tr0,25069,651794).
route(harbor15,prodloc19,tr13,25069,150414).
route(harbor15,prodloc20,tr0,18247,474422).
route(harbor15,prodloc20,tr13,18247,109482).
route(harbor15,prodloc21,tr0,5569,144794).
route(harbor15,prodloc21,tr13,5569,33414).
route(harbor15,prodloc22,tr0,9029,234754).
route(harbor15,prodloc22,tr13,9029,54174).
route(harbor15,prodloc23,tr0,223,5798).
route(harbor15,prodloc23,tr13,223,1338).
route(harbor15,prodloc24,tr0,27672,719472).
route(harbor15,prodloc24,tr13,27672,166032).
route(harbor15,prodloc25,tr0,28610,743860).
route(harbor15,prodloc25,tr13,28610,171660).
route(harbor15,prodloc26,tr0,10806,280956).
route(harbor15,prodloc26,tr13,10806,64836).
route(harbor15,prodloc27,tr0,16746,435396).
route(harbor15,prodloc27,tr13,16746,100476).
route(harbor15,prodloc28,tr0,24151,627926).
route(harbor15,prodloc28,tr13,24151,144906).
route(harbor15,prodloc29,tr0,14486,376636).
route(harbor15,prodloc29,tr13,14486,86916).
route(harbor15,prodloc30,tr0,16986,441636).
route(harbor15,prodloc30,tr13,16986,101916).
route(harbor15,prodloc31,tr0,25174,654524).
route(harbor15,prodloc31,tr13,25174,151044).
route(harbor15,prodloc32,tr0,12208,317408).
route(harbor15,prodloc32,tr13,12208,73248).
route(harbor15,prodloc33,tr0,10621,276146).
route(harbor15,prodloc33,tr13,10621,63726).
route(harbor16,harbor0,tr13,25351,152106).
route(harbor16,harbor0,tr2,25351,76053).
route(harbor16,harbor1,tr13,5788,34728).
route(harbor16,harbor1,tr2,5788,17364).
route(harbor16,harbor2,tr13,5335,32010).
route(harbor16,harbor2,tr2,5335,16005).
route(harbor16,harbor3,tr13,22832,136992).
route(harbor16,harbor3,tr2,22832,68496).
route(harbor16,harbor4,tr13,10422,62532).
route(harbor16,harbor4,tr2,10422,31266).
route(harbor16,harbor5,tr13,22832,136992).
route(harbor16,harbor5,tr2,22832,68496).
route(harbor16,harbor6,tr13,23226,139356).
route(harbor16,harbor6,tr2,23226,69678).
route(harbor16,harbor7,tr13,10469,62814).
route(harbor16,harbor7,tr2,10469,31407).
route(harbor16,harbor8,tr13,10874,65244).
route(harbor16,harbor8,tr2,10874,32622).
route(harbor16,harbor9,tr13,15663,93978).
route(harbor16,harbor9,tr2,15663,46989).
route(harbor16,harbor10,tr13,2716,16296).
route(harbor16,harbor10,tr2,2716,8148).
route(harbor16,harbor11,tr13,28910,173460).
route(harbor16,harbor11,tr2,28910,86730).
route(harbor16,harbor12,tr13,25693,154158).
route(harbor16,harbor12,tr2,25693,77079).
route(harbor16,harbor13,tr13,10699,64194).
route(harbor16,harbor13,tr2,10699,32097).
route(harbor16,harbor14,tr13,22935,137610).
route(harbor16,harbor14,tr2,22935,68805).
route(harbor16,harbor15,tr13,9320,55920).
route(harbor16,harbor15,tr2,9320,27960).
route(harbor16,prodloc0,tr0,3079,80054).
route(harbor16,prodloc0,tr13,3079,18474).
route(harbor16,prodloc1,tr0,18437,479362).
route(harbor16,prodloc1,tr13,18437,110622).
route(harbor16,prodloc2,tr0,8381,217906).
route(harbor16,prodloc2,tr13,8381,50286).
route(harbor16,prodloc3,tr0,9844,255944).
route(harbor16,prodloc3,tr13,9844,59064).
route(harbor16,prodloc4,tr0,26044,677144).
route(harbor16,prodloc4,tr13,26044,156264).
route(harbor16,prodloc5,tr0,1966,51116).
route(harbor16,prodloc5,tr13,1966,11796).
route(harbor16,prodloc6,tr0,19946,518596).
route(harbor16,prodloc6,tr13,19946,119676).
route(harbor16,prodloc7,tr0,12897,335322).
route(harbor16,prodloc7,tr13,12897,77382).
route(harbor16,prodloc8,tr0,26496,688896).
route(harbor16,prodloc8,tr13,26496,158976).
route(harbor16,prodloc9,tr0,15523,403598).
route(harbor16,prodloc9,tr13,15523,93138).
route(harbor16,prodloc10,tr0,2279,59254).
route(harbor16,prodloc10,tr13,2279,13674).
route(harbor16,prodloc11,tr0,10014,260364).
route(harbor16,prodloc11,tr13,10014,60084).
route(harbor16,prodloc12,tr0,13535,351910).
route(harbor16,prodloc12,tr13,13535,81210).
route(harbor16,prodloc13,tr0,7626,198276).
route(harbor16,prodloc13,tr13,7626,45756).
route(harbor16,prodloc14,tr0,14798,384748).
route(harbor16,prodloc14,tr13,14798,88788).
route(harbor16,prodloc15,tr0,9642,250692).
route(harbor16,prodloc15,tr13,9642,57852).
route(harbor16,prodloc16,tr0,26692,693992).
route(harbor16,prodloc16,tr13,26692,160152).
route(harbor16,prodloc17,tr0,12336,320736).
route(harbor16,prodloc17,tr13,12336,74016).
route(harbor16,prodloc18,tr0,14814,385164).
route(harbor16,prodloc18,tr13,14814,88884).
route(harbor16,prodloc19,tr0,16732,435032).
route(harbor16,prodloc19,tr13,16732,100392).
route(harbor16,prodloc20,tr0,1379,35854).
route(harbor16,prodloc20,tr13,1379,8274).
route(harbor16,prodloc21,tr0,6856,178256).
route(harbor16,prodloc21,tr13,6856,41136).
route(harbor16,prodloc22,tr0,5386,140036).
route(harbor16,prodloc22,tr13,5386,32316).
route(harbor16,prodloc23,tr0,27250,708500).
route(harbor16,prodloc23,tr13,27250,163500).
route(harbor16,prodloc24,tr0,22488,584688).
route(harbor16,prodloc24,tr13,22488,134928).
route(harbor16,prodloc25,tr0,28931,752206).
route(harbor16,prodloc25,tr13,28931,173586).
route(harbor16,prodloc26,tr0,3896,101296).
route(harbor16,prodloc26,tr13,3896,23376).
route(harbor16,prodloc27,tr0,18803,488878).
route(harbor16,prodloc27,tr13,18803,112818).
route(harbor16,prodloc28,tr0,2258,58708).
route(harbor16,prodloc28,tr13,2258,13548).
route(harbor16,prodloc29,tr0,2616,68016).
route(harbor16,prodloc29,tr13,2616,15696).
route(harbor16,prodloc30,tr0,3067,79742).
route(harbor16,prodloc30,tr13,3067,18402).
route(harbor16,prodloc31,tr0,25336,658736).
route(harbor16,prodloc31,tr13,25336,152016).
route(harbor16,prodloc32,tr0,21747,565422).
route(harbor16,prodloc32,tr13,21747,130482).
route(harbor16,prodloc33,tr0,28385,738010).
route(harbor16,prodloc33,tr13,28385,170310).
route(prodloc0,harbor0,tr0,9411,244686).
route(prodloc0,harbor0,tr13,9411,56466).
route(prodloc0,harbor1,tr0,293,7618).
route(prodloc0,harbor1,tr13,293,1758).
route(prodloc0,harbor2,tr0,15791,410566).
route(prodloc0,harbor2,tr13,15791,94746).
route(prodloc0,harbor3,tr0,9527,247702).
route(prodloc0,harbor3,tr13,9527,57162).
route(prodloc0,harbor4,tr0,25474,662324).
route(prodloc0,harbor4,tr13,25474,152844).
route(prodloc0,harbor5,tr0,1754,45604).
route(prodloc0,harbor5,tr13,1754,10524).
route(prodloc0,harbor6,tr0,14645,380770).
route(prodloc0,harbor6,tr13,14645,87870).
route(prodloc0,harbor7,tr0,24049,625274).
route(prodloc0,harbor7,tr13,24049,144294).
route(prodloc0,harbor8,tr0,5601,145626).
route(prodloc0,harbor8,tr13,5601,33606).
route(prodloc0,harbor9,tr0,5211,135486).
route(prodloc0,harbor9,tr13,5211,31266).
route(prodloc0,harbor10,tr0,27341,710866).
route(prodloc0,harbor10,tr13,27341,164046).
route(prodloc0,harbor11,tr0,2854,74204).
route(prodloc0,harbor11,tr13,2854,17124).
route(prodloc0,harbor12,tr0,8725,226850).
route(prodloc0,harbor12,tr13,8725,52350).
route(prodloc0,harbor13,tr0,3159,82134).
route(prodloc0,harbor13,tr13,3159,18954).
route(prodloc0,harbor14,tr0,3953,102778).
route(prodloc0,harbor14,tr13,3953,23718).
route(prodloc0,harbor15,tr0,24896,647296).
route(prodloc0,harbor15,tr13,24896,149376).
route(prodloc0,harbor16,tr0,28070,729820).
route(prodloc0,harbor16,tr13,28070,168420).
route(prodloc0,prodloc1,tr0,26709,694434).
route(prodloc0,prodloc1,tr13,26709,160254).
route(prodloc0,prodloc2,tr0,5205,135330).
route(prodloc0,prodloc2,tr13,5205,31230).
route(prodloc0,prodloc3,tr0,8219,213694).
route(prodloc0,prodloc3,tr13,8219,49314).
route(prodloc0,prodloc4,tr0,20624,536224).
route(prodloc0,prodloc4,tr13,20624,123744).
route(prodloc0,prodloc5,tr0,12197,317122).
route(prodloc0,prodloc5,tr13,12197,73182).
route(prodloc0,prodloc6,tr0,8522,221572).
route(prodloc0,prodloc6,tr13,8522,51132).
route(prodloc0,prodloc7,tr0,7307,189982).
route(prodloc0,prodloc7,tr13,7307,43842).
route(prodloc0,prodloc8,tr0,6560,170560).
route(prodloc0,prodloc8,tr13,6560,39360).
route(prodloc0,prodloc9,tr0,23204,603304).
route(prodloc0,prodloc9,tr13,23204,139224).
route(prodloc0,prodloc10,tr0,22782,592332).
route(prodloc0,prodloc10,tr13,22782,136692).
route(prodloc0,prodloc11,tr0,22087,574262).
route(prodloc0,prodloc11,tr13,22087,132522).
route(prodloc0,prodloc12,tr0,24380,633880).
route(prodloc0,prodloc12,tr13,24380,146280).
route(prodloc0,prodloc13,tr0,6422,166972).
route(prodloc0,prodloc13,tr13,6422,38532).
route(prodloc0,prodloc14,tr0,16157,420082).
route(prodloc0,prodloc14,tr13,16157,96942).
route(prodloc0,prodloc15,tr0,18461,479986).
route(prodloc0,prodloc15,tr13,18461,110766).
route(prodloc0,prodloc16,tr0,17611,457886).
route(prodloc0,prodloc16,tr13,17611,105666).
route(prodloc0,prodloc17,tr0,6356,165256).
route(prodloc0,prodloc17,tr13,6356,38136).
route(prodloc0,prodloc18,tr0,13371,347646).
route(prodloc0,prodloc18,tr13,13371,80226).
route(prodloc0,prodloc19,tr0,23411,608686).
route(prodloc0,prodloc19,tr13,23411,140466).
route(prodloc0,prodloc20,tr0,21783,566358).
route(prodloc0,prodloc20,tr13,21783,130698).
route(prodloc0,prodloc21,tr13,8828,52968).
route(prodloc0,prodloc21,tr15,8828,282496).
route(prodloc0,prodloc22,tr0,15287,397462).
route(prodloc0,prodloc22,tr13,15287,91722).
route(prodloc0,prodloc23,tr0,8043,209118).
route(prodloc0,prodloc23,tr13,8043,48258).
route(prodloc0,prodloc24,tr0,13219,343694).
route(prodloc0,prodloc24,tr13,13219,79314).
route(prodloc0,prodloc25,tr0,22819,593294).
route(prodloc0,prodloc25,tr13,22819,136914).
route(prodloc0,prodloc26,tr0,2891,75166).
route(prodloc0,prodloc26,tr13,2891,17346).
route(prodloc0,prodloc27,tr0,8355,217230).
route(prodloc0,prodloc27,tr13,8355,50130).
route(prodloc0,prodloc28,tr0,8743,227318).
route(prodloc0,prodloc28,tr13,8743,52458).
route(prodloc0,prodloc29,tr0,4964,129064).
route(prodloc0,prodloc29,tr13,4964,29784).
route(prodloc0,prodloc30,tr0,23830,619580).
route(prodloc0,prodloc30,tr13,23830,142980).
route(prodloc0,prodloc31,tr0,24312,632112).
route(prodloc0,prodloc31,tr13,24312,145872).
route(prodloc0,prodloc32,tr0,6028,156728).
route(prodloc0,prodloc32,tr13,6028,36168).
route(prodloc0,prodloc33,tr0,24634,640484).
route(prodloc0,prodloc33,tr13,24634,147804).
route(prodloc1,harbor0,tr0,701,18226).
route(prodloc1,harbor0,tr13,701,4206).
route(prodloc1,harbor1,tr0,19851,516126).
route(prodloc1,harbor1,tr13,19851,119106).
route(prodloc1,harbor2,tr0,19601,509626).
route(prodloc1,harbor2,tr13,19601,117606).
route(prodloc1,harbor3,tr0,12506,325156).
route(prodloc1,harbor3,tr13,12506,75036).
route(prodloc1,harbor4,tr0,4393,114218).
route(prodloc1,harbor4,tr13,4393,26358).
route(prodloc1,harbor5,tr0,14921,387946).
route(prodloc1,harbor5,tr13,14921,89526).
route(prodloc1,harbor6,tr0,16384,425984).
route(prodloc1,harbor6,tr13,16384,98304).
route(prodloc1,harbor7,tr0,4014,104364).
route(prodloc1,harbor7,tr13,4014,24084).
route(prodloc1,harbor8,tr0,19668,511368).
route(prodloc1,harbor8,tr13,19668,118008).
route(prodloc1,harbor9,tr0,3463,90038).
route(prodloc1,harbor9,tr13,3463,20778).
route(prodloc1,harbor10,tr0,26494,688844).
route(prodloc1,harbor10,tr13,26494,158964).
route(prodloc1,harbor11,tr0,20178,524628).
route(prodloc1,harbor11,tr13,20178,121068).
route(prodloc1,harbor12,tr0,12718,330668).
route(prodloc1,harbor12,tr13,12718,76308).
route(prodloc1,harbor13,tr0,12926,336076).
route(prodloc1,harbor13,tr13,12926,77556).
route(prodloc1,harbor14,tr0,17894,465244).
route(prodloc1,harbor14,tr13,17894,107364).
route(prodloc1,harbor15,tr0,26692,693992).
route(prodloc1,harbor15,tr13,26692,160152).
route(prodloc1,harbor16,tr0,10888,283088).
route(prodloc1,harbor16,tr13,10888,65328).
route(prodloc1,prodloc0,tr0,4415,114790).
route(prodloc1,prodloc0,tr13,4415,26490).
route(prodloc1,prodloc2,tr0,7235,188110).
route(prodloc1,prodloc2,tr13,7235,43410).
route(prodloc1,prodloc3,tr0,11010,286260).
route(prodloc1,prodloc3,tr13,11010,66060).
route(prodloc1,prodloc4,tr0,26460,687960).
route(prodloc1,prodloc4,tr13,26460,158760).
route(prodloc1,prodloc5,tr0,26501,689026).
route(prodloc1,prodloc5,tr13,26501,159006).
route(prodloc1,prodloc6,tr0,7743,201318).
route(prodloc1,prodloc6,tr13,7743,46458).
route(prodloc1,prodloc7,tr0,11736,305136).
route(prodloc1,prodloc7,tr13,11736,70416).
route(prodloc1,prodloc8,tr0,17908,465608).
route(prodloc1,prodloc8,tr13,17908,107448).
route(prodloc1,prodloc9,tr0,20505,533130).
route(prodloc1,prodloc9,tr13,20505,123030).
route(prodloc1,prodloc10,tr0,2754,71604).
route(prodloc1,prodloc10,tr13,2754,16524).
route(prodloc1,prodloc11,tr0,3534,91884).
route(prodloc1,prodloc11,tr13,3534,21204).
route(prodloc1,prodloc12,tr0,2785,72410).
route(prodloc1,prodloc12,tr13,2785,16710).
route(prodloc1,prodloc13,tr0,20,520).
route(prodloc1,prodloc13,tr13,20,120).
route(prodloc1,prodloc14,tr0,11903,309478).
route(prodloc1,prodloc14,tr13,11903,71418).
route(prodloc1,prodloc15,tr0,18488,480688).
route(prodloc1,prodloc15,tr13,18488,110928).
route(prodloc1,prodloc16,tr0,15208,395408).
route(prodloc1,prodloc16,tr13,15208,91248).
route(prodloc1,prodloc17,tr0,12047,313222).
route(prodloc1,prodloc17,tr13,12047,72282).
route(prodloc1,prodloc18,tr0,21158,550108).
route(prodloc1,prodloc18,tr13,21158,126948).
route(prodloc1,prodloc19,tr0,7228,187928).
route(prodloc1,prodloc19,tr13,7228,43368).
route(prodloc1,prodloc20,tr0,22218,577668).
route(prodloc1,prodloc20,tr13,22218,133308).
route(prodloc1,prodloc21,tr0,14676,381576).
route(prodloc1,prodloc21,tr13,14676,88056).
route(prodloc1,prodloc22,tr0,17829,463554).
route(prodloc1,prodloc22,tr13,17829,106974).
route(prodloc1,prodloc23,tr0,21408,556608).
route(prodloc1,prodloc23,tr13,21408,128448).
route(prodloc1,prodloc24,tr0,217,5642).
route(prodloc1,prodloc24,tr13,217,1302).
route(prodloc1,prodloc25,tr0,20518,533468).
route(prodloc1,prodloc25,tr13,20518,123108).
route(prodloc1,prodloc26,tr0,14844,385944).
route(prodloc1,prodloc26,tr13,14844,89064).
route(prodloc1,prodloc27,tr0,8410,218660).
route(prodloc1,prodloc27,tr13,8410,50460).
route(prodloc1,prodloc28,tr0,22444,583544).
route(prodloc1,prodloc28,tr13,22444,134664).
route(prodloc1,prodloc29,tr0,19088,496288).
route(prodloc1,prodloc29,tr13,19088,114528).
route(prodloc1,prodloc30,tr0,11145,289770).
route(prodloc1,prodloc30,tr13,11145,66870).
route(prodloc1,prodloc31,tr0,5162,134212).
route(prodloc1,prodloc31,tr13,5162,30972).
route(prodloc1,prodloc32,tr0,12064,313664).
route(prodloc1,prodloc32,tr13,12064,72384).
route(prodloc1,prodloc33,tr0,2060,53560).
route(prodloc1,prodloc33,tr13,2060,12360).
route(prodloc2,harbor0,tr0,9612,249912).
route(prodloc2,harbor0,tr13,9612,57672).
route(prodloc2,harbor1,tr0,26051,677326).
route(prodloc2,harbor1,tr13,26051,156306).
route(prodloc2,harbor2,tr0,6770,176020).
route(prodloc2,harbor2,tr13,6770,40620).
route(prodloc2,harbor3,tr0,8751,227526).
route(prodloc2,harbor3,tr13,8751,52506).
route(prodloc2,harbor4,tr0,20051,521326).
route(prodloc2,harbor4,tr13,20051,120306).
route(prodloc2,harbor5,tr0,5267,136942).
route(prodloc2,harbor5,tr13,5267,31602).
route(prodloc2,harbor6,tr0,13268,344968).
route(prodloc2,harbor6,tr13,13268,79608).
route(prodloc2,harbor7,tr0,26865,698490).
route(prodloc2,harbor7,tr13,26865,161190).
route(prodloc2,harbor8,tr0,27571,716846).
route(prodloc2,harbor8,tr13,27571,165426).
route(prodloc2,harbor9,tr0,4013,104338).
route(prodloc2,harbor9,tr13,4013,24078).
route(prodloc2,harbor10,tr0,866,22516).
route(prodloc2,harbor10,tr13,866,5196).
route(prodloc2,harbor11,tr0,7752,201552).
route(prodloc2,harbor11,tr13,7752,46512).
route(prodloc2,harbor12,tr0,18540,482040).
route(prodloc2,harbor12,tr13,18540,111240).
route(prodloc2,harbor13,tr0,4972,129272).
route(prodloc2,harbor13,tr13,4972,29832).
route(prodloc2,harbor14,tr0,26381,685906).
route(prodloc2,harbor14,tr13,26381,158286).
route(prodloc2,harbor15,tr0,570,14820).
route(prodloc2,harbor15,tr13,570,3420).
route(prodloc2,harbor16,tr0,22337,580762).
route(prodloc2,harbor16,tr13,22337,134022).
route(prodloc2,prodloc0,tr13,22677,136062).
route(prodloc2,prodloc0,tr15,22677,725664).
route(prodloc2,prodloc1,tr0,5932,154232).
route(prodloc2,prodloc1,tr13,5932,35592).
route(prodloc2,prodloc3,tr0,19970,519220).
route(prodloc2,prodloc3,tr13,19970,119820).
route(prodloc2,prodloc4,tr0,2359,61334).
route(prodloc2,prodloc4,tr13,2359,14154).
route(prodloc2,prodloc5,tr0,20543,534118).
route(prodloc2,prodloc5,tr13,20543,123258).
route(prodloc2,prodloc6,tr0,13191,342966).
route(prodloc2,prodloc6,tr13,13191,79146).
route(prodloc2,prodloc7,tr0,4210,109460).
route(prodloc2,prodloc7,tr13,4210,25260).
route(prodloc2,prodloc8,tr0,13731,357006).
route(prodloc2,prodloc8,tr13,13731,82386).
route(prodloc2,prodloc9,tr0,23418,608868).
route(prodloc2,prodloc9,tr13,23418,140508).
route(prodloc2,prodloc10,tr0,23540,612040).
route(prodloc2,prodloc10,tr13,23540,141240).
route(prodloc2,prodloc11,tr0,22614,587964).
route(prodloc2,prodloc11,tr13,22614,135684).
route(prodloc2,prodloc12,tr0,9203,239278).
route(prodloc2,prodloc12,tr13,9203,55218).
route(prodloc2,prodloc13,tr0,19274,501124).
route(prodloc2,prodloc13,tr13,19274,115644).
route(prodloc2,prodloc14,tr0,21404,556504).
route(prodloc2,prodloc14,tr13,21404,128424).
route(prodloc2,prodloc15,tr0,15695,408070).
route(prodloc2,prodloc15,tr13,15695,94170).
route(prodloc2,prodloc16,tr0,2431,63206).
route(prodloc2,prodloc16,tr13,2431,14586).
route(prodloc2,prodloc17,tr0,13623,354198).
route(prodloc2,prodloc17,tr13,13623,81738).
route(prodloc2,prodloc18,tr0,4877,126802).
route(prodloc2,prodloc18,tr13,4877,29262).
route(prodloc2,prodloc19,tr0,9215,239590).
route(prodloc2,prodloc19,tr13,9215,55290).
route(prodloc2,prodloc20,tr0,3525,91650).
route(prodloc2,prodloc20,tr13,3525,21150).
route(prodloc2,prodloc21,tr0,21187,550862).
route(prodloc2,prodloc21,tr13,21187,127122).
route(prodloc2,prodloc22,tr0,16581,431106).
route(prodloc2,prodloc22,tr13,16581,99486).
route(prodloc2,prodloc23,tr0,4939,128414).
route(prodloc2,prodloc23,tr13,4939,29634).
route(prodloc2,prodloc24,tr0,4662,121212).
route(prodloc2,prodloc24,tr13,4662,27972).
route(prodloc2,prodloc25,tr0,15628,406328).
route(prodloc2,prodloc25,tr13,15628,93768).
route(prodloc2,prodloc26,tr0,17397,452322).
route(prodloc2,prodloc26,tr13,17397,104382).
route(prodloc2,prodloc27,tr0,8528,221728).
route(prodloc2,prodloc27,tr13,8528,51168).
route(prodloc2,prodloc28,tr0,246,6396).
route(prodloc2,prodloc28,tr13,246,1476).
route(prodloc2,prodloc29,tr0,12052,313352).
route(prodloc2,prodloc29,tr13,12052,72312).
route(prodloc2,prodloc30,tr0,3207,83382).
route(prodloc2,prodloc30,tr13,3207,19242).
route(prodloc2,prodloc31,tr0,18592,483392).
route(prodloc2,prodloc31,tr13,18592,111552).
route(prodloc2,prodloc32,tr0,18956,492856).
route(prodloc2,prodloc32,tr13,18956,113736).
route(prodloc2,prodloc33,tr0,21149,549874).
route(prodloc2,prodloc33,tr13,21149,126894).
route(prodloc3,harbor0,tr0,9247,240422).
route(prodloc3,harbor0,tr13,9247,55482).
route(prodloc3,harbor1,tr0,21214,551564).
route(prodloc3,harbor1,tr13,21214,127284).
route(prodloc3,harbor2,tr0,3864,100464).
route(prodloc3,harbor2,tr13,3864,23184).
route(prodloc3,harbor3,tr0,48,1248).
route(prodloc3,harbor3,tr13,48,288).
route(prodloc3,harbor4,tr0,7532,195832).
route(prodloc3,harbor4,tr13,7532,45192).
route(prodloc3,harbor5,tr0,25660,667160).
route(prodloc3,harbor5,tr13,25660,153960).
route(prodloc3,harbor6,tr0,15743,409318).
route(prodloc3,harbor6,tr13,15743,94458).
route(prodloc3,harbor7,tr0,28673,745498).
route(prodloc3,harbor7,tr13,28673,172038).
route(prodloc3,harbor8,tr0,18333,476658).
route(prodloc3,harbor8,tr13,18333,109998).
route(prodloc3,harbor9,tr0,24452,635752).
route(prodloc3,harbor9,tr13,24452,146712).
route(prodloc3,harbor10,tr0,5410,140660).
route(prodloc3,harbor10,tr13,5410,32460).
route(prodloc3,harbor11,tr0,17118,445068).
route(prodloc3,harbor11,tr13,17118,102708).
route(prodloc3,harbor12,tr0,21618,562068).
route(prodloc3,harbor12,tr13,21618,129708).
route(prodloc3,harbor13,tr0,27715,720590).
route(prodloc3,harbor13,tr13,27715,166290).
route(prodloc3,harbor14,tr0,11572,300872).
route(prodloc3,harbor14,tr13,11572,69432).
route(prodloc3,harbor15,tr0,27349,711074).
route(prodloc3,harbor15,tr13,27349,164094).
route(prodloc3,harbor16,tr0,9071,235846).
route(prodloc3,harbor16,tr13,9071,54426).
route(prodloc3,prodloc0,tr0,6520,169520).
route(prodloc3,prodloc0,tr13,6520,39120).
route(prodloc3,prodloc1,tr0,5379,139854).
route(prodloc3,prodloc1,tr13,5379,32274).
route(prodloc3,prodloc2,tr0,22159,576134).
route(prodloc3,prodloc2,tr13,22159,132954).
route(prodloc3,prodloc4,tr0,11062,287612).
route(prodloc3,prodloc4,tr13,11062,66372).
route(prodloc3,prodloc5,tr0,21808,567008).
route(prodloc3,prodloc5,tr13,21808,130848).
route(prodloc3,prodloc6,tr0,597,15522).
route(prodloc3,prodloc6,tr13,597,3582).
route(prodloc3,prodloc7,tr0,24341,632866).
route(prodloc3,prodloc7,tr13,24341,146046).
route(prodloc3,prodloc8,tr0,7707,200382).
route(prodloc3,prodloc8,tr13,7707,46242).
route(prodloc3,prodloc9,tr0,27820,723320).
route(prodloc3,prodloc9,tr13,27820,166920).
route(prodloc3,prodloc10,tr0,2708,70408).
route(prodloc3,prodloc10,tr13,2708,16248).
route(prodloc3,prodloc11,tr0,6275,163150).
route(prodloc3,prodloc11,tr13,6275,37650).
route(prodloc3,prodloc12,tr0,286,7436).
route(prodloc3,prodloc12,tr13,286,1716).
route(prodloc3,prodloc13,tr0,24950,648700).
route(prodloc3,prodloc13,tr13,24950,149700).
route(prodloc3,prodloc14,tr0,13103,340678).
route(prodloc3,prodloc14,tr13,13103,78618).
route(prodloc3,prodloc15,tr0,23237,604162).
route(prodloc3,prodloc15,tr13,23237,139422).
route(prodloc3,prodloc16,tr0,204,5304).
route(prodloc3,prodloc16,tr13,204,1224).
route(prodloc3,prodloc17,tr0,23779,618254).
route(prodloc3,prodloc17,tr13,23779,142674).
route(prodloc3,prodloc18,tr0,15753,409578).
route(prodloc3,prodloc18,tr13,15753,94518).
route(prodloc3,prodloc19,tr0,681,17706).
route(prodloc3,prodloc19,tr13,681,4086).
route(prodloc3,prodloc20,tr0,27874,724724).
route(prodloc3,prodloc20,tr13,27874,167244).
route(prodloc3,prodloc21,tr0,28187,732862).
route(prodloc3,prodloc21,tr13,28187,169122).
route(prodloc3,prodloc22,tr0,23367,607542).
route(prodloc3,prodloc22,tr13,23367,140202).
route(prodloc3,prodloc23,tr0,22376,581776).
route(prodloc3,prodloc23,tr13,22376,134256).
route(prodloc3,prodloc24,tr0,1711,44486).
route(prodloc3,prodloc24,tr13,1711,10266).
route(prodloc3,prodloc25,tr0,24346,632996).
route(prodloc3,prodloc25,tr13,24346,146076).
route(prodloc3,prodloc26,tr0,23855,620230).
route(prodloc3,prodloc26,tr13,23855,143130).
route(prodloc3,prodloc27,tr0,27494,714844).
route(prodloc3,prodloc27,tr13,27494,164964).
route(prodloc3,prodloc28,tr0,6232,162032).
route(prodloc3,prodloc28,tr13,6232,37392).
route(prodloc3,prodloc29,tr0,9827,255502).
route(prodloc3,prodloc29,tr13,9827,58962).
route(prodloc3,prodloc30,tr0,26407,686582).
route(prodloc3,prodloc30,tr13,26407,158442).
route(prodloc3,prodloc31,tr0,28098,730548).
route(prodloc3,prodloc31,tr13,28098,168588).
route(prodloc3,prodloc32,tr0,21099,548574).
route(prodloc3,prodloc32,tr13,21099,126594).
route(prodloc3,prodloc33,tr0,9956,258856).
route(prodloc3,prodloc33,tr13,9956,59736).
route(prodloc4,harbor0,tr0,17833,463658).
route(prodloc4,harbor0,tr13,17833,106998).
route(prodloc4,harbor1,tr0,2363,61438).
route(prodloc4,harbor1,tr13,2363,14178).
route(prodloc4,harbor2,tr0,14289,371514).
route(prodloc4,harbor2,tr13,14289,85734).
route(prodloc4,harbor3,tr0,18039,469014).
route(prodloc4,harbor3,tr13,18039,108234).
route(prodloc4,harbor4,tr0,26268,682968).
route(prodloc4,harbor4,tr13,26268,157608).
route(prodloc4,harbor5,tr0,6882,178932).
route(prodloc4,harbor5,tr13,6882,41292).
route(prodloc4,harbor6,tr0,22028,572728).
route(prodloc4,harbor6,tr13,22028,132168).
route(prodloc4,harbor7,tr0,16802,436852).
route(prodloc4,harbor7,tr13,16802,100812).
route(prodloc4,harbor8,tr0,6713,174538).
route(prodloc4,harbor8,tr13,6713,40278).
route(prodloc4,harbor9,tr0,3042,79092).
route(prodloc4,harbor9,tr13,3042,18252).
route(prodloc4,harbor10,tr0,3082,80132).
route(prodloc4,harbor10,tr13,3082,18492).
route(prodloc4,harbor11,tr0,2667,69342).
route(prodloc4,harbor11,tr13,2667,16002).
route(prodloc4,harbor12,tr0,7072,183872).
route(prodloc4,harbor12,tr13,7072,42432).
route(prodloc4,harbor13,tr0,10456,271856).
route(prodloc4,harbor13,tr13,10456,62736).
route(prodloc4,harbor14,tr0,1222,31772).
route(prodloc4,harbor14,tr13,1222,7332).
route(prodloc4,harbor15,tr0,15059,391534).
route(prodloc4,harbor15,tr13,15059,90354).
route(prodloc4,harbor16,tr0,27223,707798).
route(prodloc4,harbor16,tr13,27223,163338).
route(prodloc4,prodloc0,tr0,21764,565864).
route(prodloc4,prodloc0,tr13,21764,130584).
route(prodloc4,prodloc1,tr0,6059,157534).
route(prodloc4,prodloc1,tr13,6059,36354).
route(prodloc4,prodloc2,tr0,23521,611546).
route(prodloc4,prodloc2,tr13,23521,141126).
route(prodloc4,prodloc3,tr0,18782,488332).
route(prodloc4,prodloc3,tr13,18782,112692).
route(prodloc4,prodloc5,tr0,21725,564850).
route(prodloc4,prodloc5,tr13,21725,130350).
route(prodloc4,prodloc6,tr0,8991,233766).
route(prodloc4,prodloc6,tr13,8991,53946).
route(prodloc4,prodloc7,tr0,19407,504582).
route(prodloc4,prodloc7,tr13,19407,116442).
route(prodloc4,prodloc8,tr0,11747,305422).
route(prodloc4,prodloc8,tr13,11747,70482).
route(prodloc4,prodloc9,tr0,3227,83902).
route(prodloc4,prodloc9,tr13,3227,19362).
route(prodloc4,prodloc10,tr0,25753,669578).
route(prodloc4,prodloc10,tr13,25753,154518).
route(prodloc4,prodloc11,tr0,18003,468078).
route(prodloc4,prodloc11,tr13,18003,108018).
route(prodloc4,prodloc12,tr0,8756,227656).
route(prodloc4,prodloc12,tr13,8756,52536).
route(prodloc4,prodloc13,tr0,25157,654082).
route(prodloc4,prodloc13,tr13,25157,150942).
route(prodloc4,prodloc14,tr0,24414,634764).
route(prodloc4,prodloc14,tr13,24414,146484).
route(prodloc4,prodloc15,tr0,8433,219258).
route(prodloc4,prodloc15,tr13,8433,50598).
route(prodloc4,prodloc16,tr0,4707,122382).
route(prodloc4,prodloc16,tr13,4707,28242).
route(prodloc4,prodloc17,tr0,1913,49738).
route(prodloc4,prodloc17,tr13,1913,11478).
route(prodloc4,prodloc18,tr0,1339,34814).
route(prodloc4,prodloc18,tr13,1339,8034).
route(prodloc4,prodloc19,tr0,11952,310752).
route(prodloc4,prodloc19,tr13,11952,71712).
route(prodloc4,prodloc20,tr0,22770,592020).
route(prodloc4,prodloc20,tr13,22770,136620).
route(prodloc4,prodloc21,tr0,2575,66950).
route(prodloc4,prodloc21,tr13,2575,15450).
route(prodloc4,prodloc22,tr0,27931,726206).
route(prodloc4,prodloc22,tr13,27931,167586).
route(prodloc4,prodloc23,tr0,4737,123162).
route(prodloc4,prodloc23,tr13,4737,28422).
route(prodloc4,prodloc24,tr0,25075,651950).
route(prodloc4,prodloc24,tr13,25075,150450).
route(prodloc4,prodloc25,tr0,10768,279968).
route(prodloc4,prodloc25,tr13,10768,64608).
route(prodloc4,prodloc26,tr0,22849,594074).
route(prodloc4,prodloc26,tr13,22849,137094).
route(prodloc4,prodloc27,tr0,556,14456).
route(prodloc4,prodloc27,tr13,556,3336).
route(prodloc4,prodloc28,tr0,8632,224432).
route(prodloc4,prodloc28,tr13,8632,51792).
route(prodloc4,prodloc29,tr0,25885,673010).
route(prodloc4,prodloc29,tr13,25885,155310).
route(prodloc4,prodloc30,tr0,18587,483262).
route(prodloc4,prodloc30,tr13,18587,111522).
route(prodloc4,prodloc31,tr0,7786,202436).
route(prodloc4,prodloc31,tr13,7786,46716).
route(prodloc4,prodloc32,tr0,5810,151060).
route(prodloc4,prodloc32,tr13,5810,34860).
route(prodloc4,prodloc33,tr0,844,21944).
route(prodloc4,prodloc33,tr13,844,5064).
route(prodloc5,harbor0,tr0,18983,493558).
route(prodloc5,harbor0,tr13,18983,113898).
route(prodloc5,harbor1,tr0,1739,45214).
route(prodloc5,harbor1,tr13,1739,10434).
route(prodloc5,harbor2,tr0,13993,363818).
route(prodloc5,harbor2,tr13,13993,83958).
route(prodloc5,harbor3,tr0,163,4238).
route(prodloc5,harbor3,tr13,163,978).
route(prodloc5,harbor4,tr0,23214,603564).
route(prodloc5,harbor4,tr13,23214,139284).
route(prodloc5,harbor5,tr0,21152,549952).
route(prodloc5,harbor5,tr13,21152,126912).
route(prodloc5,harbor6,tr0,11434,297284).
route(prodloc5,harbor6,tr13,11434,68604).
route(prodloc5,harbor7,tr0,22960,596960).
route(prodloc5,harbor7,tr13,22960,137760).
route(prodloc5,harbor8,tr0,2380,61880).
route(prodloc5,harbor8,tr13,2380,14280).
route(prodloc5,harbor9,tr0,4298,111748).
route(prodloc5,harbor9,tr13,4298,25788).
route(prodloc5,harbor10,tr0,6341,164866).
route(prodloc5,harbor10,tr13,6341,38046).
route(prodloc5,harbor11,tr0,4668,121368).
route(prodloc5,harbor11,tr13,4668,28008).
route(prodloc5,harbor12,tr0,21493,558818).
route(prodloc5,harbor12,tr13,21493,128958).
route(prodloc5,harbor13,tr0,24010,624260).
route(prodloc5,harbor13,tr13,24010,144060).
route(prodloc5,harbor14,tr0,18505,481130).
route(prodloc5,harbor14,tr13,18505,111030).
route(prodloc5,harbor15,tr0,22557,586482).
route(prodloc5,harbor15,tr13,22557,135342).
route(prodloc5,harbor16,tr0,15036,390936).
route(prodloc5,harbor16,tr13,15036,90216).
route(prodloc5,prodloc0,tr0,17464,454064).
route(prodloc5,prodloc0,tr13,17464,104784).
route(prodloc5,prodloc1,tr0,15149,393874).
route(prodloc5,prodloc1,tr13,15149,90894).
route(prodloc5,prodloc2,tr0,10416,270816).
route(prodloc5,prodloc2,tr13,10416,62496).
route(prodloc5,prodloc3,tr0,23886,621036).
route(prodloc5,prodloc3,tr13,23886,143316).
route(prodloc5,prodloc4,tr0,19639,510614).
route(prodloc5,prodloc4,tr13,19639,117834).
route(prodloc5,prodloc6,tr0,14666,381316).
route(prodloc5,prodloc6,tr13,14666,87996).
route(prodloc5,prodloc7,tr0,19373,503698).
route(prodloc5,prodloc7,tr13,19373,116238).
route(prodloc5,prodloc8,tr0,16200,421200).
route(prodloc5,prodloc8,tr13,16200,97200).
route(prodloc5,prodloc9,tr0,7353,191178).
route(prodloc5,prodloc9,tr13,7353,44118).
route(prodloc5,prodloc10,tr0,6444,167544).
route(prodloc5,prodloc10,tr13,6444,38664).
route(prodloc5,prodloc11,tr0,15408,400608).
route(prodloc5,prodloc11,tr13,15408,92448).
route(prodloc5,prodloc12,tr13,8896,53376).
route(prodloc5,prodloc12,tr15,8896,284672).
route(prodloc5,prodloc13,tr13,14503,87018).
route(prodloc5,prodloc13,tr15,14503,464096).
route(prodloc5,prodloc14,tr0,2014,52364).
route(prodloc5,prodloc14,tr13,2014,12084).
route(prodloc5,prodloc15,tr0,15442,401492).
route(prodloc5,prodloc15,tr13,15442,92652).
route(prodloc5,prodloc16,tr0,18813,489138).
route(prodloc5,prodloc16,tr13,18813,112878).
route(prodloc5,prodloc17,tr0,6811,177086).
route(prodloc5,prodloc17,tr15,6811,217952).
route(prodloc5,prodloc18,tr0,4643,120718).
route(prodloc5,prodloc18,tr13,4643,27858).
route(prodloc5,prodloc19,tr0,14680,381680).
route(prodloc5,prodloc19,tr13,14680,88080).
route(prodloc5,prodloc20,tr0,5218,135668).
route(prodloc5,prodloc20,tr13,5218,31308).
route(prodloc5,prodloc21,tr0,15428,401128).
route(prodloc5,prodloc21,tr13,15428,92568).
route(prodloc5,prodloc22,tr0,3707,96382).
route(prodloc5,prodloc22,tr13,3707,22242).
route(prodloc5,prodloc23,tr0,13931,362206).
route(prodloc5,prodloc23,tr13,13931,83586).
route(prodloc5,prodloc24,tr0,12254,318604).
route(prodloc5,prodloc24,tr13,12254,73524).
route(prodloc5,prodloc25,tr0,24383,633958).
route(prodloc5,prodloc25,tr13,24383,146298).
route(prodloc5,prodloc26,tr0,6130,159380).
route(prodloc5,prodloc26,tr13,6130,36780).
route(prodloc5,prodloc27,tr0,10978,285428).
route(prodloc5,prodloc27,tr13,10978,65868).
route(prodloc5,prodloc28,tr0,15234,396084).
route(prodloc5,prodloc28,tr13,15234,91404).
route(prodloc5,prodloc29,tr0,20412,530712).
route(prodloc5,prodloc29,tr13,20412,122472).
route(prodloc5,prodloc30,tr0,3115,80990).
route(prodloc5,prodloc30,tr13,3115,18690).
route(prodloc5,prodloc31,tr0,21962,571012).
route(prodloc5,prodloc31,tr13,21962,131772).
route(prodloc5,prodloc32,tr0,1120,29120).
route(prodloc5,prodloc32,tr13,1120,6720).
route(prodloc5,prodloc33,tr0,4433,115258).
route(prodloc5,prodloc33,tr13,4433,26598).
route(prodloc6,harbor0,tr0,2146,55796).
route(prodloc6,harbor0,tr13,2146,12876).
route(prodloc6,harbor1,tr0,26968,701168).
route(prodloc6,harbor1,tr13,26968,161808).
route(prodloc6,harbor2,tr0,12037,312962).
route(prodloc6,harbor2,tr13,12037,72222).
route(prodloc6,harbor3,tr0,2298,59748).
route(prodloc6,harbor3,tr13,2298,13788).
route(prodloc6,harbor4,tr0,8443,219518).
route(prodloc6,harbor4,tr13,8443,50658).
route(prodloc6,harbor5,tr0,16822,437372).
route(prodloc6,harbor5,tr13,16822,100932).
route(prodloc6,harbor6,tr0,27238,708188).
route(prodloc6,harbor6,tr13,27238,163428).
route(prodloc6,harbor7,tr0,8457,219882).
route(prodloc6,harbor7,tr13,8457,50742).
route(prodloc6,harbor8,tr0,3906,101556).
route(prodloc6,harbor8,tr13,3906,23436).
route(prodloc6,harbor9,tr0,16407,426582).
route(prodloc6,harbor9,tr13,16407,98442).
route(prodloc6,harbor10,tr0,9041,235066).
route(prodloc6,harbor10,tr13,9041,54246).
route(prodloc6,harbor11,tr0,14448,375648).
route(prodloc6,harbor11,tr13,14448,86688).
route(prodloc6,harbor12,tr0,13529,351754).
route(prodloc6,harbor12,tr13,13529,81174).
route(prodloc6,harbor13,tr0,6981,181506).
route(prodloc6,harbor13,tr13,6981,41886).
route(prodloc6,harbor14,tr0,25734,669084).
route(prodloc6,harbor14,tr13,25734,154404).
route(prodloc6,harbor15,tr0,13018,338468).
route(prodloc6,harbor15,tr13,13018,78108).
route(prodloc6,harbor16,tr0,7138,185588).
route(prodloc6,harbor16,tr13,7138,42828).
route(prodloc6,prodloc0,tr0,9591,249366).
route(prodloc6,prodloc0,tr13,9591,57546).
route(prodloc6,prodloc1,tr13,21001,126006).
route(prodloc6,prodloc1,tr15,21001,672032).
route(prodloc6,prodloc2,tr0,12957,336882).
route(prodloc6,prodloc2,tr13,12957,77742).
route(prodloc6,prodloc3,tr13,27186,163116).
route(prodloc6,prodloc3,tr15,27186,869952).
route(prodloc6,prodloc4,tr0,16844,437944).
route(prodloc6,prodloc4,tr13,16844,101064).
route(prodloc6,prodloc5,tr0,10309,268034).
route(prodloc6,prodloc5,tr13,10309,61854).
route(prodloc6,prodloc7,tr0,11553,300378).
route(prodloc6,prodloc7,tr13,11553,69318).
route(prodloc6,prodloc8,tr0,4994,129844).
route(prodloc6,prodloc8,tr13,4994,29964).
route(prodloc6,prodloc9,tr0,6519,169494).
route(prodloc6,prodloc9,tr13,6519,39114).
route(prodloc6,prodloc10,tr0,2289,59514).
route(prodloc6,prodloc10,tr13,2289,13734).
route(prodloc6,prodloc11,tr0,28767,747942).
route(prodloc6,prodloc11,tr13,28767,172602).
route(prodloc6,prodloc12,tr0,1464,38064).
route(prodloc6,prodloc12,tr13,1464,8784).
route(prodloc6,prodloc13,tr0,28093,730418).
route(prodloc6,prodloc13,tr13,28093,168558).
route(prodloc6,prodloc14,tr0,1572,40872).
route(prodloc6,prodloc14,tr13,1572,9432).
route(prodloc6,prodloc15,tr0,10888,283088).
route(prodloc6,prodloc15,tr13,10888,65328).
route(prodloc6,prodloc16,tr0,23729,616954).
route(prodloc6,prodloc16,tr13,23729,142374).
route(prodloc6,prodloc17,tr0,19371,503646).
route(prodloc6,prodloc17,tr13,19371,116226).
route(prodloc6,prodloc18,tr0,2205,57330).
route(prodloc6,prodloc18,tr13,2205,13230).
route(prodloc6,prodloc19,tr0,25852,672152).
route(prodloc6,prodloc19,tr13,25852,155112).
route(prodloc6,prodloc20,tr0,14864,386464).
route(prodloc6,prodloc20,tr13,14864,89184).
route(prodloc6,prodloc21,tr0,26719,694694).
route(prodloc6,prodloc21,tr13,26719,160314).
route(prodloc6,prodloc22,tr0,13590,353340).
route(prodloc6,prodloc22,tr13,13590,81540).
route(prodloc6,prodloc23,tr0,20693,538018).
route(prodloc6,prodloc23,tr13,20693,124158).
route(prodloc6,prodloc24,tr0,11871,308646).
route(prodloc6,prodloc24,tr13,11871,71226).
route(prodloc6,prodloc25,tr0,23371,607646).
route(prodloc6,prodloc25,tr13,23371,140226).
route(prodloc6,prodloc26,tr0,28690,745940).
route(prodloc6,prodloc26,tr13,28690,172140).
route(prodloc6,prodloc27,tr0,19783,514358).
route(prodloc6,prodloc27,tr13,19783,118698).
route(prodloc6,prodloc28,tr0,21804,566904).
route(prodloc6,prodloc28,tr13,21804,130824).
route(prodloc6,prodloc29,tr0,610,15860).
route(prodloc6,prodloc29,tr13,610,3660).
route(prodloc6,prodloc30,tr0,24417,634842).
route(prodloc6,prodloc30,tr13,24417,146502).
route(prodloc6,prodloc31,tr0,10958,284908).
route(prodloc6,prodloc31,tr13,10958,65748).
route(prodloc6,prodloc32,tr0,5980,155480).
route(prodloc6,prodloc32,tr13,5980,35880).
route(prodloc6,prodloc33,tr0,24906,647556).
route(prodloc6,prodloc33,tr13,24906,149436).
route(prodloc7,harbor0,tr0,23879,620854).
route(prodloc7,harbor0,tr13,23879,143274).
route(prodloc7,harbor1,tr0,14499,376974).
route(prodloc7,harbor1,tr13,14499,86994).
route(prodloc7,harbor2,tr0,8356,217256).
route(prodloc7,harbor2,tr13,8356,50136).
route(prodloc7,harbor3,tr0,1817,47242).
route(prodloc7,harbor3,tr13,1817,10902).
route(prodloc7,harbor4,tr0,1575,40950).
route(prodloc7,harbor4,tr13,1575,9450).
route(prodloc7,harbor5,tr0,25442,661492).
route(prodloc7,harbor5,tr13,25442,152652).
route(prodloc7,harbor6,tr0,8663,225238).
route(prodloc7,harbor6,tr13,8663,51978).
route(prodloc7,harbor7,tr0,14973,389298).
route(prodloc7,harbor7,tr13,14973,89838).
route(prodloc7,harbor8,tr0,7681,199706).
route(prodloc7,harbor8,tr13,7681,46086).
route(prodloc7,harbor9,tr0,866,22516).
route(prodloc7,harbor9,tr13,866,5196).
route(prodloc7,harbor10,tr0,8799,228774).
route(prodloc7,harbor10,tr13,8799,52794).
route(prodloc7,harbor11,tr0,13022,338572).
route(prodloc7,harbor11,tr13,13022,78132).
route(prodloc7,harbor12,tr0,1676,43576).
route(prodloc7,harbor12,tr13,1676,10056).
route(prodloc7,harbor13,tr0,6815,177190).
route(prodloc7,harbor13,tr13,6815,40890).
route(prodloc7,harbor14,tr0,14055,365430).
route(prodloc7,harbor14,tr13,14055,84330).
route(prodloc7,harbor15,tr0,3436,89336).
route(prodloc7,harbor15,tr13,3436,20616).
route(prodloc7,harbor16,tr0,10634,276484).
route(prodloc7,harbor16,tr13,10634,63804).
route(prodloc7,prodloc0,tr0,1829,47554).
route(prodloc7,prodloc0,tr13,1829,10974).
route(prodloc7,prodloc1,tr0,21378,555828).
route(prodloc7,prodloc1,tr13,21378,128268).
route(prodloc7,prodloc2,tr0,13296,345696).
route(prodloc7,prodloc2,tr13,13296,79776).
route(prodloc7,prodloc3,tr0,3639,94614).
route(prodloc7,prodloc3,tr13,3639,21834).
route(prodloc7,prodloc4,tr0,13780,358280).
route(prodloc7,prodloc4,tr13,13780,82680).
route(prodloc7,prodloc5,tr0,19786,514436).
route(prodloc7,prodloc5,tr13,19786,118716).
route(prodloc7,prodloc6,tr0,2598,67548).
route(prodloc7,prodloc6,tr13,2598,15588).
route(prodloc7,prodloc8,tr0,16928,440128).
route(prodloc7,prodloc8,tr13,16928,101568).
route(prodloc7,prodloc9,tr0,9631,250406).
route(prodloc7,prodloc9,tr13,9631,57786).
route(prodloc7,prodloc10,tr0,11289,293514).
route(prodloc7,prodloc10,tr13,11289,67734).
route(prodloc7,prodloc11,tr0,8116,211016).
route(prodloc7,prodloc11,tr13,8116,48696).
route(prodloc7,prodloc12,tr0,627,16302).
route(prodloc7,prodloc12,tr13,627,3762).
route(prodloc7,prodloc13,tr13,23103,138618).
route(prodloc7,prodloc13,tr15,23103,739296).
route(prodloc7,prodloc14,tr0,15530,403780).
route(prodloc7,prodloc14,tr13,15530,93180).
route(prodloc7,prodloc15,tr0,28403,738478).
route(prodloc7,prodloc15,tr13,28403,170418).
route(prodloc7,prodloc16,tr0,5163,134238).
route(prodloc7,prodloc16,tr13,5163,30978).
route(prodloc7,prodloc17,tr0,13526,351676).
route(prodloc7,prodloc17,tr13,13526,81156).
route(prodloc7,prodloc18,tr0,5912,153712).
route(prodloc7,prodloc18,tr13,5912,35472).
route(prodloc7,prodloc19,tr0,1622,42172).
route(prodloc7,prodloc19,tr13,1622,9732).
route(prodloc7,prodloc20,tr0,24645,640770).
route(prodloc7,prodloc20,tr13,24645,147870).
route(prodloc7,prodloc21,tr0,11951,310726).
route(prodloc7,prodloc21,tr13,11951,71706).
route(prodloc7,prodloc22,tr0,14046,365196).
route(prodloc7,prodloc22,tr13,14046,84276).
route(prodloc7,prodloc23,tr0,13013,338338).
route(prodloc7,prodloc23,tr13,13013,78078).
route(prodloc7,prodloc24,tr0,11698,304148).
route(prodloc7,prodloc24,tr13,11698,70188).
route(prodloc7,prodloc25,tr0,9604,249704).
route(prodloc7,prodloc25,tr13,9604,57624).
route(prodloc7,prodloc26,tr0,18175,472550).
route(prodloc7,prodloc26,tr13,18175,109050).
route(prodloc7,prodloc27,tr0,18115,470990).
route(prodloc7,prodloc27,tr13,18115,108690).
route(prodloc7,prodloc28,tr0,24048,625248).
route(prodloc7,prodloc28,tr13,24048,144288).
route(prodloc7,prodloc29,tr0,897,23322).
route(prodloc7,prodloc29,tr13,897,5382).
route(prodloc7,prodloc30,tr0,20553,534378).
route(prodloc7,prodloc30,tr13,20553,123318).
route(prodloc7,prodloc31,tr0,23253,604578).
route(prodloc7,prodloc31,tr13,23253,139518).
route(prodloc7,prodloc32,tr0,23450,609700).
route(prodloc7,prodloc32,tr13,23450,140700).
route(prodloc7,prodloc33,tr0,13637,354562).
route(prodloc7,prodloc33,tr13,13637,81822).
route(prodloc8,harbor0,tr0,11181,290706).
route(prodloc8,harbor0,tr13,11181,67086).
route(prodloc8,harbor1,tr0,21431,557206).
route(prodloc8,harbor1,tr13,21431,128586).
route(prodloc8,harbor2,tr0,15868,412568).
route(prodloc8,harbor2,tr13,15868,95208).
route(prodloc8,harbor3,tr0,515,13390).
route(prodloc8,harbor3,tr13,515,3090).
route(prodloc8,harbor4,tr0,10296,267696).
route(prodloc8,harbor4,tr13,10296,61776).
route(prodloc8,harbor5,tr0,6163,160238).
route(prodloc8,harbor5,tr13,6163,36978).
route(prodloc8,harbor6,tr0,7706,200356).
route(prodloc8,harbor6,tr13,7706,46236).
route(prodloc8,harbor7,tr0,3987,103662).
route(prodloc8,harbor7,tr13,3987,23922).
route(prodloc8,harbor8,tr0,12506,325156).
route(prodloc8,harbor8,tr13,12506,75036).
route(prodloc8,harbor9,tr0,11593,301418).
route(prodloc8,harbor9,tr13,11593,69558).
route(prodloc8,harbor10,tr0,23537,611962).
route(prodloc8,harbor10,tr13,23537,141222).
route(prodloc8,harbor11,tr0,12753,331578).
route(prodloc8,harbor11,tr13,12753,76518).
route(prodloc8,harbor12,tr0,19515,507390).
route(prodloc8,harbor12,tr13,19515,117090).
route(prodloc8,harbor13,tr0,20737,539162).
route(prodloc8,harbor13,tr13,20737,124422).
route(prodloc8,harbor14,tr0,2065,53690).
route(prodloc8,harbor14,tr13,2065,12390).
route(prodloc8,harbor15,tr0,11399,296374).
route(prodloc8,harbor15,tr13,11399,68394).
route(prodloc8,harbor16,tr0,13815,359190).
route(prodloc8,harbor16,tr13,13815,82890).
route(prodloc8,prodloc0,tr0,15823,411398).
route(prodloc8,prodloc0,tr13,15823,94938).
route(prodloc8,prodloc1,tr0,21738,565188).
route(prodloc8,prodloc1,tr13,21738,130428).
route(prodloc8,prodloc2,tr0,22192,576992).
route(prodloc8,prodloc2,tr13,22192,133152).
route(prodloc8,prodloc3,tr0,6354,165204).
route(prodloc8,prodloc3,tr13,6354,38124).
route(prodloc8,prodloc4,tr0,12077,314002).
route(prodloc8,prodloc4,tr13,12077,72462).
route(prodloc8,prodloc5,tr0,12619,328094).
route(prodloc8,prodloc5,tr13,12619,75714).
route(prodloc8,prodloc6,tr0,8039,209014).
route(prodloc8,prodloc6,tr13,8039,48234).
route(prodloc8,prodloc7,tr0,18554,482404).
route(prodloc8,prodloc7,tr13,18554,111324).
route(prodloc8,prodloc9,tr0,27519,715494).
route(prodloc8,prodloc9,tr13,27519,165114).
route(prodloc8,prodloc10,tr0,12021,312546).
route(prodloc8,prodloc10,tr13,12021,72126).
route(prodloc8,prodloc11,tr0,28755,747630).
route(prodloc8,prodloc11,tr13,28755,172530).
route(prodloc8,prodloc12,tr0,3754,97604).
route(prodloc8,prodloc12,tr13,3754,22524).
route(prodloc8,prodloc13,tr0,9488,246688).
route(prodloc8,prodloc13,tr13,9488,56928).
route(prodloc8,prodloc14,tr0,2209,57434).
route(prodloc8,prodloc14,tr13,2209,13254).
route(prodloc8,prodloc15,tr0,13910,361660).
route(prodloc8,prodloc15,tr13,13910,83460).
route(prodloc8,prodloc16,tr0,19452,505752).
route(prodloc8,prodloc16,tr13,19452,116712).
route(prodloc8,prodloc17,tr0,10128,263328).
route(prodloc8,prodloc17,tr13,10128,60768).
route(prodloc8,prodloc18,tr0,10132,263432).
route(prodloc8,prodloc18,tr13,10132,60792).
route(prodloc8,prodloc19,tr0,15192,394992).
route(prodloc8,prodloc19,tr13,15192,91152).
route(prodloc8,prodloc20,tr0,18658,485108).
route(prodloc8,prodloc20,tr13,18658,111948).
route(prodloc8,prodloc21,tr0,6150,159900).
route(prodloc8,prodloc21,tr13,6150,36900).
route(prodloc8,prodloc22,tr0,12707,330382).
route(prodloc8,prodloc22,tr13,12707,76242).
route(prodloc8,prodloc23,tr0,6737,175162).
route(prodloc8,prodloc23,tr13,6737,40422).
route(prodloc8,prodloc24,tr0,16579,431054).
route(prodloc8,prodloc24,tr13,16579,99474).
route(prodloc8,prodloc25,tr0,22279,579254).
route(prodloc8,prodloc25,tr13,22279,133674).
route(prodloc8,prodloc26,tr0,10607,275782).
route(prodloc8,prodloc26,tr13,10607,63642).
route(prodloc8,prodloc27,tr0,14099,366574).
route(prodloc8,prodloc27,tr13,14099,84594).
route(prodloc8,prodloc28,tr0,19295,501670).
route(prodloc8,prodloc28,tr13,19295,115770).
route(prodloc8,prodloc29,tr0,12133,315458).
route(prodloc8,prodloc29,tr13,12133,72798).
route(prodloc8,prodloc30,tr0,17871,464646).
route(prodloc8,prodloc30,tr13,17871,107226).
route(prodloc8,prodloc31,tr0,11188,290888).
route(prodloc8,prodloc31,tr13,11188,67128).
route(prodloc8,prodloc32,tr0,5958,154908).
route(prodloc8,prodloc32,tr13,5958,35748).
route(prodloc8,prodloc33,tr0,25274,657124).
route(prodloc8,prodloc33,tr13,25274,151644).
route(prodloc9,harbor0,tr0,1951,50726).
route(prodloc9,harbor0,tr13,1951,11706).
route(prodloc9,harbor1,tr0,2491,64766).
route(prodloc9,harbor1,tr13,2491,14946).
route(prodloc9,harbor2,tr0,24653,640978).
route(prodloc9,harbor2,tr13,24653,147918).
route(prodloc9,harbor3,tr0,1903,49478).
route(prodloc9,harbor3,tr13,1903,11418).
route(prodloc9,harbor4,tr0,27219,707694).
route(prodloc9,harbor4,tr13,27219,163314).
route(prodloc9,harbor5,tr0,14631,380406).
route(prodloc9,harbor5,tr13,14631,87786).
route(prodloc9,harbor6,tr0,11089,288314).
route(prodloc9,harbor6,tr13,11089,66534).
route(prodloc9,harbor7,tr0,27906,725556).
route(prodloc9,harbor7,tr13,27906,167436).
route(prodloc9,harbor8,tr0,6539,170014).
route(prodloc9,harbor8,tr13,6539,39234).
route(prodloc9,harbor9,tr0,3322,86372).
route(prodloc9,harbor9,tr13,3322,19932).
route(prodloc9,harbor10,tr0,25688,667888).
route(prodloc9,harbor10,tr13,25688,154128).
route(prodloc9,harbor11,tr0,20418,530868).
route(prodloc9,harbor11,tr13,20418,122508).
route(prodloc9,harbor12,tr0,7251,188526).
route(prodloc9,harbor12,tr13,7251,43506).
route(prodloc9,harbor13,tr0,18963,493038).
route(prodloc9,harbor13,tr13,18963,113778).
route(prodloc9,harbor14,tr0,4526,117676).
route(prodloc9,harbor14,tr13,4526,27156).
route(prodloc9,harbor15,tr0,11298,293748).
route(prodloc9,harbor15,tr13,11298,67788).
route(prodloc9,harbor16,tr0,22215,577590).
route(prodloc9,harbor16,tr13,22215,133290).
route(prodloc9,prodloc0,tr0,7717,200642).
route(prodloc9,prodloc0,tr13,7717,46302).
route(prodloc9,prodloc1,tr0,18789,488514).
route(prodloc9,prodloc1,tr13,18789,112734).
route(prodloc9,prodloc2,tr13,24673,148038).
route(prodloc9,prodloc2,tr15,24673,789536).
route(prodloc9,prodloc3,tr0,19475,506350).
route(prodloc9,prodloc3,tr13,19475,116850).
route(prodloc9,prodloc4,tr0,11283,293358).
route(prodloc9,prodloc4,tr13,11283,67698).
route(prodloc9,prodloc5,tr0,1916,49816).
route(prodloc9,prodloc5,tr13,1916,11496).
route(prodloc9,prodloc6,tr0,5500,143000).
route(prodloc9,prodloc6,tr13,5500,33000).
route(prodloc9,prodloc7,tr0,9671,251446).
route(prodloc9,prodloc7,tr13,9671,58026).
route(prodloc9,prodloc8,tr0,4007,104182).
route(prodloc9,prodloc8,tr13,4007,24042).
route(prodloc9,prodloc10,tr0,16386,426036).
route(prodloc9,prodloc10,tr13,16386,98316).
route(prodloc9,prodloc11,tr0,4202,109252).
route(prodloc9,prodloc11,tr13,4202,25212).
route(prodloc9,prodloc12,tr0,415,10790).
route(prodloc9,prodloc12,tr13,415,2490).
route(prodloc9,prodloc13,tr0,661,17186).
route(prodloc9,prodloc13,tr13,661,3966).
route(prodloc9,prodloc14,tr0,27901,725426).
route(prodloc9,prodloc14,tr13,27901,167406).
route(prodloc9,prodloc15,tr0,6868,178568).
route(prodloc9,prodloc15,tr13,6868,41208).
route(prodloc9,prodloc16,tr0,16408,426608).
route(prodloc9,prodloc16,tr13,16408,98448).
route(prodloc9,prodloc17,tr0,7589,197314).
route(prodloc9,prodloc17,tr13,7589,45534).
route(prodloc9,prodloc18,tr0,24913,647738).
route(prodloc9,prodloc18,tr13,24913,149478).
route(prodloc9,prodloc19,tr0,21127,549302).
route(prodloc9,prodloc19,tr13,21127,126762).
route(prodloc9,prodloc20,tr0,21704,564304).
route(prodloc9,prodloc20,tr13,21704,130224).
route(prodloc9,prodloc21,tr0,21500,559000).
route(prodloc9,prodloc21,tr13,21500,129000).
route(prodloc9,prodloc22,tr0,28610,743860).
route(prodloc9,prodloc22,tr13,28610,171660).
route(prodloc9,prodloc23,tr0,12869,334594).
route(prodloc9,prodloc23,tr13,12869,77214).
route(prodloc9,prodloc24,tr0,7265,188890).
route(prodloc9,prodloc24,tr13,7265,43590).
route(prodloc9,prodloc25,tr0,2011,52286).
route(prodloc9,prodloc25,tr13,2011,12066).
route(prodloc9,prodloc26,tr0,10078,262028).
route(prodloc9,prodloc26,tr13,10078,60468).
route(prodloc9,prodloc27,tr0,28319,736294).
route(prodloc9,prodloc27,tr13,28319,169914).
route(prodloc9,prodloc28,tr0,3283,85358).
route(prodloc9,prodloc28,tr13,3283,19698).
route(prodloc9,prodloc29,tr0,12589,327314).
route(prodloc9,prodloc29,tr13,12589,75534).
route(prodloc9,prodloc30,tr0,1733,45058).
route(prodloc9,prodloc30,tr13,1733,10398).
route(prodloc9,prodloc31,tr0,23716,616616).
route(prodloc9,prodloc31,tr13,23716,142296).
route(prodloc9,prodloc32,tr0,25822,671372).
route(prodloc9,prodloc32,tr13,25822,154932).
route(prodloc9,prodloc33,tr0,8866,230516).
route(prodloc9,prodloc33,tr13,8866,53196).
route(prodloc10,harbor0,tr0,25567,664742).
route(prodloc10,harbor0,tr13,25567,153402).
route(prodloc10,harbor1,tr0,7882,204932).
route(prodloc10,harbor1,tr13,7882,47292).
route(prodloc10,harbor2,tr0,27946,726596).
route(prodloc10,harbor2,tr13,27946,167676).
route(prodloc10,harbor3,tr0,16465,428090).
route(prodloc10,harbor3,tr13,16465,98790).
route(prodloc10,harbor4,tr0,26197,681122).
route(prodloc10,harbor4,tr13,26197,157182).
route(prodloc10,harbor5,tr0,14659,381134).
route(prodloc10,harbor5,tr13,14659,87954).
route(prodloc10,harbor6,tr0,7416,192816).
route(prodloc10,harbor6,tr13,7416,44496).
route(prodloc10,harbor7,tr0,5976,155376).
route(prodloc10,harbor7,tr13,5976,35856).
route(prodloc10,harbor8,tr0,11906,309556).
route(prodloc10,harbor8,tr13,11906,71436).
route(prodloc10,harbor9,tr0,12129,315354).
route(prodloc10,harbor9,tr13,12129,72774).
route(prodloc10,harbor10,tr0,9193,239018).
route(prodloc10,harbor10,tr13,9193,55158).
route(prodloc10,harbor11,tr0,24718,642668).
route(prodloc10,harbor11,tr13,24718,148308).
route(prodloc10,harbor12,tr0,28334,736684).
route(prodloc10,harbor12,tr13,28334,170004).
route(prodloc10,harbor13,tr0,1541,40066).
route(prodloc10,harbor13,tr13,1541,9246).
route(prodloc10,harbor14,tr0,65,1690).
route(prodloc10,harbor14,tr13,65,390).
route(prodloc10,harbor15,tr0,10573,274898).
route(prodloc10,harbor15,tr13,10573,63438).
route(prodloc10,harbor16,tr0,9999,259974).
route(prodloc10,harbor16,tr13,9999,59994).
route(prodloc10,prodloc0,tr0,2645,68770).
route(prodloc10,prodloc0,tr13,2645,15870).
route(prodloc10,prodloc1,tr0,21408,556608).
route(prodloc10,prodloc1,tr13,21408,128448).
route(prodloc10,prodloc2,tr0,28480,740480).
route(prodloc10,prodloc2,tr13,28480,170880).
route(prodloc10,prodloc3,tr0,20877,542802).
route(prodloc10,prodloc3,tr13,20877,125262).
route(prodloc10,prodloc4,tr0,19678,511628).
route(prodloc10,prodloc4,tr13,19678,118068).
route(prodloc10,prodloc5,tr0,97,2522).
route(prodloc10,prodloc5,tr13,97,582).
route(prodloc10,prodloc6,tr0,3692,95992).
route(prodloc10,prodloc6,tr13,3692,22152).
route(prodloc10,prodloc7,tr0,3296,85696).
route(prodloc10,prodloc7,tr13,3296,19776).
route(prodloc10,prodloc8,tr0,5530,143780).
route(prodloc10,prodloc8,tr13,5530,33180).
route(prodloc10,prodloc9,tr0,10195,265070).
route(prodloc10,prodloc9,tr13,10195,61170).
route(prodloc10,prodloc11,tr0,7188,186888).
route(prodloc10,prodloc11,tr13,7188,43128).
route(prodloc10,prodloc12,tr0,21608,561808).
route(prodloc10,prodloc12,tr13,21608,129648).
route(prodloc10,prodloc13,tr0,16768,435968).
route(prodloc10,prodloc13,tr13,16768,100608).
route(prodloc10,prodloc14,tr0,24201,629226).
route(prodloc10,prodloc14,tr13,24201,145206).
route(prodloc10,prodloc15,tr0,1008,26208).
route(prodloc10,prodloc15,tr15,1008,32256).
route(prodloc10,prodloc16,tr0,25392,660192).
route(prodloc10,prodloc16,tr13,25392,152352).
route(prodloc10,prodloc17,tr0,27118,705068).
route(prodloc10,prodloc17,tr13,27118,162708).
route(prodloc10,prodloc18,tr0,15260,396760).
route(prodloc10,prodloc18,tr13,15260,91560).
route(prodloc10,prodloc19,tr0,24362,633412).
route(prodloc10,prodloc19,tr13,24362,146172).
route(prodloc10,prodloc20,tr0,21373,555698).
route(prodloc10,prodloc20,tr13,21373,128238).
route(prodloc10,prodloc21,tr0,21028,546728).
route(prodloc10,prodloc21,tr13,21028,126168).
route(prodloc10,prodloc22,tr0,11858,308308).
route(prodloc10,prodloc22,tr13,11858,71148).
route(prodloc10,prodloc23,tr0,14954,388804).
route(prodloc10,prodloc23,tr13,14954,89724).
route(prodloc10,prodloc24,tr0,27793,722618).
route(prodloc10,prodloc24,tr13,27793,166758).
route(prodloc10,prodloc25,tr0,3408,88608).
route(prodloc10,prodloc25,tr13,3408,20448).
route(prodloc10,prodloc26,tr0,27898,725348).
route(prodloc10,prodloc26,tr13,27898,167388).
route(prodloc10,prodloc27,tr13,28400,170400).
route(prodloc10,prodloc27,tr15,28400,908800).
route(prodloc10,prodloc28,tr0,12559,326534).
route(prodloc10,prodloc28,tr15,12559,401888).
route(prodloc10,prodloc29,tr0,8085,210210).
route(prodloc10,prodloc29,tr13,8085,48510).
route(prodloc10,prodloc30,tr0,4864,126464).
route(prodloc10,prodloc30,tr13,4864,29184).
route(prodloc10,prodloc31,tr0,16851,438126).
route(prodloc10,prodloc31,tr13,16851,101106).
route(prodloc10,prodloc32,tr0,27592,717392).
route(prodloc10,prodloc32,tr13,27592,165552).
route(prodloc10,prodloc33,tr0,18435,479310).
route(prodloc10,prodloc33,tr13,18435,110610).
route(prodloc11,harbor0,tr0,10370,269620).
route(prodloc11,harbor0,tr13,10370,62220).
route(prodloc11,harbor1,tr0,22029,572754).
route(prodloc11,harbor1,tr13,22029,132174).
route(prodloc11,harbor2,tr0,453,11778).
route(prodloc11,harbor2,tr13,453,2718).
route(prodloc11,harbor3,tr0,17777,462202).
route(prodloc11,harbor3,tr13,17777,106662).
route(prodloc11,harbor4,tr0,2414,62764).
route(prodloc11,harbor4,tr13,2414,14484).
route(prodloc11,harbor5,tr0,23586,613236).
route(prodloc11,harbor5,tr13,23586,141516).
route(prodloc11,harbor6,tr0,19061,495586).
route(prodloc11,harbor6,tr13,19061,114366).
route(prodloc11,harbor7,tr0,1672,43472).
route(prodloc11,harbor7,tr13,1672,10032).
route(prodloc11,harbor8,tr0,20553,534378).
route(prodloc11,harbor8,tr13,20553,123318).
route(prodloc11,harbor9,tr0,17520,455520).
route(prodloc11,harbor9,tr13,17520,105120).
route(prodloc11,harbor10,tr0,26946,700596).
route(prodloc11,harbor10,tr13,26946,161676).
route(prodloc11,harbor11,tr0,16407,426582).
route(prodloc11,harbor11,tr13,16407,98442).
route(prodloc11,harbor12,tr0,169,4394).
route(prodloc11,harbor12,tr13,169,1014).
route(prodloc11,harbor13,tr0,20305,527930).
route(prodloc11,harbor13,tr13,20305,121830).
route(prodloc11,harbor14,tr0,1593,41418).
route(prodloc11,harbor14,tr13,1593,9558).
route(prodloc11,harbor15,tr0,3503,91078).
route(prodloc11,harbor15,tr13,3503,21018).
route(prodloc11,harbor16,tr0,24729,642954).
route(prodloc11,harbor16,tr13,24729,148374).
route(prodloc11,prodloc0,tr0,23187,602862).
route(prodloc11,prodloc0,tr13,23187,139122).
route(prodloc11,prodloc1,tr0,11166,290316).
route(prodloc11,prodloc1,tr13,11166,66996).
route(prodloc11,prodloc2,tr0,2677,69602).
route(prodloc11,prodloc2,tr13,2677,16062).
route(prodloc11,prodloc3,tr0,10851,282126).
route(prodloc11,prodloc3,tr13,10851,65106).
route(prodloc11,prodloc4,tr0,1528,39728).
route(prodloc11,prodloc4,tr13,1528,9168).
route(prodloc11,prodloc5,tr0,3833,99658).
route(prodloc11,prodloc5,tr13,3833,22998).
route(prodloc11,prodloc6,tr0,1704,44304).
route(prodloc11,prodloc6,tr13,1704,10224).
route(prodloc11,prodloc7,tr0,21179,550654).
route(prodloc11,prodloc7,tr13,21179,127074).
route(prodloc11,prodloc8,tr0,5310,138060).
route(prodloc11,prodloc8,tr13,5310,31860).
route(prodloc11,prodloc9,tr0,22422,582972).
route(prodloc11,prodloc9,tr13,22422,134532).
route(prodloc11,prodloc10,tr0,17973,467298).
route(prodloc11,prodloc10,tr13,17973,107838).
route(prodloc11,prodloc12,tr0,1836,47736).
route(prodloc11,prodloc12,tr13,1836,11016).
route(prodloc11,prodloc13,tr0,12896,335296).
route(prodloc11,prodloc13,tr13,12896,77376).
route(prodloc11,prodloc14,tr0,19839,515814).
route(prodloc11,prodloc14,tr13,19839,119034).
route(prodloc11,prodloc15,tr0,24263,630838).
route(prodloc11,prodloc15,tr13,24263,145578).
route(prodloc11,prodloc16,tr0,7131,185406).
route(prodloc11,prodloc16,tr13,7131,42786).
route(prodloc11,prodloc17,tr0,19231,500006).
route(prodloc11,prodloc17,tr15,19231,615392).
route(prodloc11,prodloc18,tr0,19636,510536).
route(prodloc11,prodloc18,tr13,19636,117816).
route(prodloc11,prodloc19,tr0,8694,226044).
route(prodloc11,prodloc19,tr13,8694,52164).
route(prodloc11,prodloc20,tr0,24200,629200).
route(prodloc11,prodloc20,tr13,24200,145200).
route(prodloc11,prodloc21,tr0,22176,576576).
route(prodloc11,prodloc21,tr13,22176,133056).
route(prodloc11,prodloc22,tr0,17718,460668).
route(prodloc11,prodloc22,tr13,17718,106308).
route(prodloc11,prodloc23,tr0,23513,611338).
route(prodloc11,prodloc23,tr13,23513,141078).
route(prodloc11,prodloc24,tr0,23609,613834).
route(prodloc11,prodloc24,tr13,23609,141654).
route(prodloc11,prodloc25,tr0,69,1794).
route(prodloc11,prodloc25,tr13,69,414).
route(prodloc11,prodloc26,tr0,7847,204022).
route(prodloc11,prodloc26,tr13,7847,47082).
route(prodloc11,prodloc27,tr0,1784,46384).
route(prodloc11,prodloc27,tr13,1784,10704).
route(prodloc11,prodloc28,tr0,5602,145652).
route(prodloc11,prodloc28,tr13,5602,33612).
route(prodloc11,prodloc29,tr0,7769,201994).
route(prodloc11,prodloc29,tr13,7769,46614).
route(prodloc11,prodloc30,tr0,6268,162968).
route(prodloc11,prodloc30,tr13,6268,37608).
route(prodloc11,prodloc31,tr0,14812,385112).
route(prodloc11,prodloc31,tr13,14812,88872).
route(prodloc11,prodloc32,tr0,2820,73320).
route(prodloc11,prodloc32,tr13,2820,16920).
route(prodloc11,prodloc33,tr0,25025,650650).
route(prodloc11,prodloc33,tr13,25025,150150).
route(prodloc12,harbor0,tr0,18098,470548).
route(prodloc12,harbor0,tr13,18098,108588).
route(prodloc12,harbor1,tr0,864,22464).
route(prodloc12,harbor1,tr13,864,5184).
route(prodloc12,harbor2,tr0,6743,175318).
route(prodloc12,harbor2,tr13,6743,40458).
route(prodloc12,harbor3,tr0,17191,446966).
route(prodloc12,harbor3,tr13,17191,103146).
route(prodloc12,harbor4,tr0,16297,423722).
route(prodloc12,harbor4,tr13,16297,97782).
route(prodloc12,harbor5,tr0,10642,276692).
route(prodloc12,harbor5,tr13,10642,63852).
route(prodloc12,harbor6,tr0,14292,371592).
route(prodloc12,harbor6,tr13,14292,85752).
route(prodloc12,harbor7,tr0,2700,70200).
route(prodloc12,harbor7,tr13,2700,16200).
route(prodloc12,harbor8,tr0,796,20696).
route(prodloc12,harbor8,tr13,796,4776).
route(prodloc12,harbor9,tr0,9285,241410).
route(prodloc12,harbor9,tr13,9285,55710).
route(prodloc12,harbor10,tr0,2997,77922).
route(prodloc12,harbor10,tr13,2997,17982).
route(prodloc12,harbor11,tr0,856,22256).
route(prodloc12,harbor11,tr13,856,5136).
route(prodloc12,harbor12,tr0,478,12428).
route(prodloc12,harbor12,tr13,478,2868).
route(prodloc12,harbor13,tr0,2935,76310).
route(prodloc12,harbor13,tr13,2935,17610).
route(prodloc12,harbor14,tr0,27523,715598).
route(prodloc12,harbor14,tr13,27523,165138).
route(prodloc12,harbor15,tr0,8236,214136).
route(prodloc12,harbor15,tr13,8236,49416).
route(prodloc12,harbor16,tr0,10347,269022).
route(prodloc12,harbor16,tr13,10347,62082).
route(prodloc12,prodloc0,tr0,18318,476268).
route(prodloc12,prodloc0,tr13,18318,109908).
route(prodloc12,prodloc1,tr0,23458,609908).
route(prodloc12,prodloc1,tr13,23458,140748).
route(prodloc12,prodloc2,tr0,12662,329212).
route(prodloc12,prodloc2,tr13,12662,75972).
route(prodloc12,prodloc3,tr0,8064,209664).
route(prodloc12,prodloc3,tr13,8064,48384).
route(prodloc12,prodloc4,tr0,12565,326690).
route(prodloc12,prodloc4,tr13,12565,75390).
route(prodloc12,prodloc5,tr0,24235,630110).
route(prodloc12,prodloc5,tr15,24235,775520).
route(prodloc12,prodloc6,tr0,2334,60684).
route(prodloc12,prodloc6,tr13,2334,14004).
route(prodloc12,prodloc7,tr0,28937,752362).
route(prodloc12,prodloc7,tr13,28937,173622).
route(prodloc12,prodloc8,tr0,579,15054).
route(prodloc12,prodloc8,tr13,579,3474).
route(prodloc12,prodloc9,tr0,20446,531596).
route(prodloc12,prodloc9,tr13,20446,122676).
route(prodloc12,prodloc10,tr0,19749,513474).
route(prodloc12,prodloc10,tr13,19749,118494).
route(prodloc12,prodloc11,tr0,3842,99892).
route(prodloc12,prodloc11,tr13,3842,23052).
route(prodloc12,prodloc13,tr0,12337,320762).
route(prodloc12,prodloc13,tr13,12337,74022).
route(prodloc12,prodloc14,tr0,25209,655434).
route(prodloc12,prodloc14,tr13,25209,151254).
route(prodloc12,prodloc15,tr0,5218,135668).
route(prodloc12,prodloc15,tr13,5218,31308).
route(prodloc12,prodloc16,tr0,3978,103428).
route(prodloc12,prodloc16,tr13,3978,23868).
route(prodloc12,prodloc17,tr0,3213,83538).
route(prodloc12,prodloc17,tr13,3213,19278).
route(prodloc12,prodloc18,tr0,23933,622258).
route(prodloc12,prodloc18,tr13,23933,143598).
route(prodloc12,prodloc19,tr0,24735,643110).
route(prodloc12,prodloc19,tr13,24735,148410).
route(prodloc12,prodloc20,tr0,19374,503724).
route(prodloc12,prodloc20,tr13,19374,116244).
route(prodloc12,prodloc22,tr0,2145,55770).
route(prodloc12,prodloc22,tr13,2145,12870).
route(prodloc12,prodloc23,tr0,21558,560508).
route(prodloc12,prodloc23,tr13,21558,129348).
route(prodloc12,prodloc24,tr0,7981,207506).
route(prodloc12,prodloc24,tr13,7981,47886).
route(prodloc12,prodloc25,tr0,20431,531206).
route(prodloc12,prodloc25,tr13,20431,122586).
route(prodloc12,prodloc26,tr0,26440,687440).
route(prodloc12,prodloc26,tr13,26440,158640).
route(prodloc12,prodloc27,tr0,6538,169988).
route(prodloc12,prodloc27,tr13,6538,39228).
route(prodloc12,prodloc28,tr0,26877,698802).
route(prodloc12,prodloc28,tr13,26877,161262).
route(prodloc12,prodloc29,tr0,1588,41288).
route(prodloc12,prodloc29,tr13,1588,9528).
route(prodloc12,prodloc30,tr0,28083,730158).
route(prodloc12,prodloc30,tr13,28083,168498).
route(prodloc12,prodloc31,tr0,10764,279864).
route(prodloc12,prodloc31,tr13,10764,64584).
route(prodloc12,prodloc32,tr0,2445,63570).
route(prodloc12,prodloc32,tr13,2445,14670).
route(prodloc12,prodloc33,tr0,6329,164554).
route(prodloc12,prodloc33,tr13,6329,37974).
route(prodloc13,harbor0,tr0,15454,401804).
route(prodloc13,harbor0,tr13,15454,92724).
route(prodloc13,harbor1,tr0,19283,501358).
route(prodloc13,harbor1,tr13,19283,115698).
route(prodloc13,harbor2,tr0,265,6890).
route(prodloc13,harbor2,tr13,265,1590).
route(prodloc13,harbor3,tr0,7030,182780).
route(prodloc13,harbor3,tr13,7030,42180).
route(prodloc13,harbor4,tr0,16957,440882).
route(prodloc13,harbor4,tr13,16957,101742).
route(prodloc13,harbor5,tr0,11455,297830).
route(prodloc13,harbor5,tr13,11455,68730).
route(prodloc13,harbor6,tr0,9930,258180).
route(prodloc13,harbor6,tr13,9930,59580).
route(prodloc13,harbor7,tr0,10901,283426).
route(prodloc13,harbor7,tr13,10901,65406).
route(prodloc13,harbor8,tr0,23078,600028).
route(prodloc13,harbor8,tr13,23078,138468).
route(prodloc13,harbor9,tr0,16218,421668).
route(prodloc13,harbor9,tr13,16218,97308).
route(prodloc13,harbor10,tr0,13703,356278).
route(prodloc13,harbor10,tr13,13703,82218).
route(prodloc13,harbor11,tr0,24145,627770).
route(prodloc13,harbor11,tr13,24145,144870).
route(prodloc13,harbor12,tr0,28634,744484).
route(prodloc13,harbor12,tr13,28634,171804).
route(prodloc13,harbor13,tr0,11823,307398).
route(prodloc13,harbor13,tr13,11823,70938).
route(prodloc13,harbor14,tr0,22691,589966).
route(prodloc13,harbor14,tr13,22691,136146).
route(prodloc13,harbor15,tr0,2976,77376).
route(prodloc13,harbor15,tr13,2976,17856).
route(prodloc13,harbor16,tr0,11374,295724).
route(prodloc13,harbor16,tr13,11374,68244).
route(prodloc13,prodloc0,tr0,3487,90662).
route(prodloc13,prodloc0,tr13,3487,20922).
route(prodloc13,prodloc1,tr0,10865,282490).
route(prodloc13,prodloc1,tr13,10865,65190).
route(prodloc13,prodloc2,tr0,22439,583414).
route(prodloc13,prodloc2,tr13,22439,134634).
route(prodloc13,prodloc3,tr0,11792,306592).
route(prodloc13,prodloc3,tr13,11792,70752).
route(prodloc13,prodloc4,tr0,27704,720304).
route(prodloc13,prodloc4,tr13,27704,166224).
route(prodloc13,prodloc5,tr0,6058,157508).
route(prodloc13,prodloc5,tr13,6058,36348).
route(prodloc13,prodloc6,tr0,9852,256152).
route(prodloc13,prodloc6,tr13,9852,59112).
route(prodloc13,prodloc7,tr0,26428,687128).
route(prodloc13,prodloc7,tr13,26428,158568).
route(prodloc13,prodloc8,tr0,22373,581698).
route(prodloc13,prodloc8,tr13,22373,134238).
route(prodloc13,prodloc9,tr0,19296,501696).
route(prodloc13,prodloc9,tr13,19296,115776).
route(prodloc13,prodloc10,tr0,4280,111280).
route(prodloc13,prodloc10,tr13,4280,25680).
route(prodloc13,prodloc11,tr0,15022,390572).
route(prodloc13,prodloc11,tr13,15022,90132).
route(prodloc13,prodloc12,tr0,5073,131898).
route(prodloc13,prodloc12,tr13,5073,30438).
route(prodloc13,prodloc14,tr0,16233,422058).
route(prodloc13,prodloc14,tr13,16233,97398).
route(prodloc13,prodloc15,tr0,14897,387322).
route(prodloc13,prodloc15,tr13,14897,89382).
route(prodloc13,prodloc16,tr0,16813,437138).
route(prodloc13,prodloc16,tr13,16813,100878).
route(prodloc13,prodloc17,tr0,11291,293566).
route(prodloc13,prodloc17,tr13,11291,67746).
route(prodloc13,prodloc18,tr0,19093,496418).
route(prodloc13,prodloc18,tr13,19093,114558).
route(prodloc13,prodloc19,tr0,7061,183586).
route(prodloc13,prodloc19,tr13,7061,42366).
route(prodloc13,prodloc20,tr0,4970,129220).
route(prodloc13,prodloc20,tr13,4970,29820).
route(prodloc13,prodloc21,tr0,23574,612924).
route(prodloc13,prodloc21,tr13,23574,141444).
route(prodloc13,prodloc22,tr0,2545,66170).
route(prodloc13,prodloc22,tr13,2545,15270).
route(prodloc13,prodloc23,tr0,8598,223548).
route(prodloc13,prodloc23,tr13,8598,51588).
route(prodloc13,prodloc24,tr0,16024,416624).
route(prodloc13,prodloc24,tr13,16024,96144).
route(prodloc13,prodloc25,tr0,675,17550).
route(prodloc13,prodloc25,tr13,675,4050).
route(prodloc13,prodloc26,tr0,5159,134134).
route(prodloc13,prodloc26,tr13,5159,30954).
route(prodloc13,prodloc27,tr0,17619,458094).
route(prodloc13,prodloc27,tr13,17619,105714).
route(prodloc13,prodloc28,tr0,3214,83564).
route(prodloc13,prodloc28,tr13,3214,19284).
route(prodloc13,prodloc29,tr0,27578,717028).
route(prodloc13,prodloc29,tr13,27578,165468).
route(prodloc13,prodloc30,tr0,26270,683020).
route(prodloc13,prodloc30,tr13,26270,157620).
route(prodloc13,prodloc31,tr0,12306,319956).
route(prodloc13,prodloc31,tr13,12306,73836).
route(prodloc13,prodloc32,tr0,25137,653562).
route(prodloc13,prodloc32,tr13,25137,150822).
route(prodloc13,prodloc33,tr0,983,25558).
route(prodloc13,prodloc33,tr13,983,5898).
route(prodloc14,harbor0,tr0,14039,365014).
route(prodloc14,harbor0,tr13,14039,84234).
route(prodloc14,harbor1,tr0,2457,63882).
route(prodloc14,harbor1,tr13,2457,14742).
route(prodloc14,harbor2,tr0,19967,519142).
route(prodloc14,harbor2,tr13,19967,119802).
route(prodloc14,harbor3,tr0,24605,639730).
route(prodloc14,harbor3,tr13,24605,147630).
route(prodloc14,harbor4,tr0,7915,205790).
route(prodloc14,harbor4,tr13,7915,47490).
route(prodloc14,harbor5,tr0,26834,697684).
route(prodloc14,harbor5,tr13,26834,161004).
route(prodloc14,harbor6,tr0,7076,183976).
route(prodloc14,harbor6,tr13,7076,42456).
route(prodloc14,harbor7,tr0,16876,438776).
route(prodloc14,harbor7,tr13,16876,101256).
route(prodloc14,harbor8,tr0,3333,86658).
route(prodloc14,harbor8,tr13,3333,19998).
route(prodloc14,harbor9,tr0,24559,638534).
route(prodloc14,harbor9,tr13,24559,147354).
route(prodloc14,harbor10,tr0,3018,78468).
route(prodloc14,harbor10,tr13,3018,18108).
route(prodloc14,harbor11,tr0,25172,654472).
route(prodloc14,harbor11,tr13,25172,151032).
route(prodloc14,harbor12,tr0,7019,182494).
route(prodloc14,harbor12,tr13,7019,42114).
route(prodloc14,harbor13,tr0,15008,390208).
route(prodloc14,harbor13,tr13,15008,90048).
route(prodloc14,harbor14,tr0,13563,352638).
route(prodloc14,harbor14,tr13,13563,81378).
route(prodloc14,harbor15,tr0,1153,29978).
route(prodloc14,harbor15,tr13,1153,6918).
route(prodloc14,harbor16,tr0,491,12766).
route(prodloc14,harbor16,tr13,491,2946).
route(prodloc14,prodloc0,tr0,25345,658970).
route(prodloc14,prodloc0,tr13,25345,152070).
route(prodloc14,prodloc1,tr0,18570,482820).
route(prodloc14,prodloc1,tr13,18570,111420).
route(prodloc14,prodloc2,tr0,9640,250640).
route(prodloc14,prodloc2,tr13,9640,57840).
route(prodloc14,prodloc3,tr0,10412,270712).
route(prodloc14,prodloc3,tr13,10412,62472).
route(prodloc14,prodloc4,tr0,19245,500370).
route(prodloc14,prodloc4,tr13,19245,115470).
route(prodloc14,prodloc5,tr0,20498,532948).
route(prodloc14,prodloc5,tr13,20498,122988).
route(prodloc14,prodloc6,tr0,22516,585416).
route(prodloc14,prodloc6,tr13,22516,135096).
route(prodloc14,prodloc7,tr0,4838,125788).
route(prodloc14,prodloc7,tr13,4838,29028).
route(prodloc14,prodloc8,tr0,2920,75920).
route(prodloc14,prodloc8,tr13,2920,17520).
route(prodloc14,prodloc9,tr0,23263,604838).
route(prodloc14,prodloc9,tr13,23263,139578).
route(prodloc14,prodloc10,tr0,1500,39000).
route(prodloc14,prodloc10,tr13,1500,9000).
route(prodloc14,prodloc11,tr0,2073,53898).
route(prodloc14,prodloc11,tr13,2073,12438).
route(prodloc14,prodloc12,tr0,16213,421538).
route(prodloc14,prodloc12,tr13,16213,97278).
route(prodloc14,prodloc13,tr0,22961,596986).
route(prodloc14,prodloc13,tr13,22961,137766).
route(prodloc14,prodloc15,tr0,20645,536770).
route(prodloc14,prodloc15,tr13,20645,123870).
route(prodloc14,prodloc16,tr0,22151,575926).
route(prodloc14,prodloc16,tr13,22151,132906).
route(prodloc14,prodloc17,tr0,16232,422032).
route(prodloc14,prodloc17,tr13,16232,97392).
route(prodloc14,prodloc18,tr0,14287,371462).
route(prodloc14,prodloc18,tr13,14287,85722).
route(prodloc14,prodloc19,tr0,17696,460096).
route(prodloc14,prodloc19,tr13,17696,106176).
route(prodloc14,prodloc20,tr0,19171,498446).
route(prodloc14,prodloc20,tr13,19171,115026).
route(prodloc14,prodloc21,tr0,12149,315874).
route(prodloc14,prodloc21,tr13,12149,72894).
route(prodloc14,prodloc22,tr0,22346,580996).
route(prodloc14,prodloc22,tr13,22346,134076).
route(prodloc14,prodloc23,tr0,23238,604188).
route(prodloc14,prodloc23,tr13,23238,139428).
route(prodloc14,prodloc24,tr0,15507,403182).
route(prodloc14,prodloc24,tr13,15507,93042).
route(prodloc14,prodloc25,tr0,17425,453050).
route(prodloc14,prodloc25,tr13,17425,104550).
route(prodloc14,prodloc26,tr0,11658,303108).
route(prodloc14,prodloc26,tr13,11658,69948).
route(prodloc14,prodloc27,tr0,20916,543816).
route(prodloc14,prodloc27,tr13,20916,125496).
route(prodloc14,prodloc28,tr0,9924,258024).
route(prodloc14,prodloc28,tr15,9924,317568).
route(prodloc14,prodloc29,tr0,25431,661206).
route(prodloc14,prodloc29,tr13,25431,152586).
route(prodloc14,prodloc30,tr0,23906,621556).
route(prodloc14,prodloc30,tr13,23906,143436).
route(prodloc14,prodloc31,tr0,18212,473512).
route(prodloc14,prodloc31,tr13,18212,109272).
route(prodloc14,prodloc32,tr0,23112,600912).
route(prodloc14,prodloc32,tr13,23112,138672).
route(prodloc14,prodloc33,tr0,24798,644748).
route(prodloc14,prodloc33,tr13,24798,148788).
route(prodloc15,harbor0,tr0,4352,113152).
route(prodloc15,harbor0,tr13,4352,26112).
route(prodloc15,harbor1,tr0,25355,659230).
route(prodloc15,harbor1,tr13,25355,152130).
route(prodloc15,harbor2,tr0,17272,449072).
route(prodloc15,harbor2,tr13,17272,103632).
route(prodloc15,harbor3,tr0,16364,425464).
route(prodloc15,harbor3,tr13,16364,98184).
route(prodloc15,harbor4,tr0,24692,641992).
route(prodloc15,harbor4,tr13,24692,148152).
route(prodloc15,harbor5,tr0,15233,396058).
route(prodloc15,harbor5,tr13,15233,91398).
route(prodloc15,harbor6,tr0,28856,750256).
route(prodloc15,harbor6,tr13,28856,173136).
route(prodloc15,harbor7,tr0,6495,168870).
route(prodloc15,harbor7,tr13,6495,38970).
route(prodloc15,harbor8,tr0,4786,124436).
route(prodloc15,harbor8,tr13,4786,28716).
route(prodloc15,harbor9,tr0,21387,556062).
route(prodloc15,harbor9,tr13,21387,128322).
route(prodloc15,harbor10,tr0,17227,447902).
route(prodloc15,harbor10,tr13,17227,103362).
route(prodloc15,harbor11,tr0,23828,619528).
route(prodloc15,harbor11,tr13,23828,142968).
route(prodloc15,harbor12,tr0,13462,350012).
route(prodloc15,harbor12,tr13,13462,80772).
route(prodloc15,harbor13,tr0,1251,32526).
route(prodloc15,harbor13,tr13,1251,7506).
route(prodloc15,harbor14,tr0,2175,56550).
route(prodloc15,harbor14,tr13,2175,13050).
route(prodloc15,harbor15,tr0,23122,601172).
route(prodloc15,harbor15,tr13,23122,138732).
route(prodloc15,harbor16,tr0,21224,551824).
route(prodloc15,harbor16,tr13,21224,127344).
route(prodloc15,prodloc0,tr0,5157,134082).
route(prodloc15,prodloc0,tr13,5157,30942).
route(prodloc15,prodloc1,tr0,21218,551668).
route(prodloc15,prodloc1,tr13,21218,127308).
route(prodloc15,prodloc2,tr0,25234,656084).
route(prodloc15,prodloc2,tr13,25234,151404).
route(prodloc15,prodloc3,tr0,5001,130026).
route(prodloc15,prodloc3,tr13,5001,30006).
route(prodloc15,prodloc4,tr0,823,21398).
route(prodloc15,prodloc4,tr13,823,4938).
route(prodloc15,prodloc5,tr0,23866,620516).
route(prodloc15,prodloc5,tr13,23866,143196).
route(prodloc15,prodloc6,tr0,15124,393224).
route(prodloc15,prodloc6,tr13,15124,90744).
route(prodloc15,prodloc7,tr0,26226,681876).
route(prodloc15,prodloc7,tr15,26226,839232).
route(prodloc15,prodloc8,tr0,7389,192114).
route(prodloc15,prodloc8,tr13,7389,44334).
route(prodloc15,prodloc9,tr0,4844,125944).
route(prodloc15,prodloc9,tr13,4844,29064).
route(prodloc15,prodloc10,tr0,4860,126360).
route(prodloc15,prodloc10,tr13,4860,29160).
route(prodloc15,prodloc11,tr0,8895,231270).
route(prodloc15,prodloc11,tr13,8895,53370).
route(prodloc15,prodloc12,tr13,17469,104814).
route(prodloc15,prodloc12,tr15,17469,559008).
route(prodloc15,prodloc13,tr0,17357,451282).
route(prodloc15,prodloc13,tr13,17357,104142).
route(prodloc15,prodloc14,tr0,185,4810).
route(prodloc15,prodloc14,tr13,185,1110).
route(prodloc15,prodloc16,tr0,16792,436592).
route(prodloc15,prodloc16,tr13,16792,100752).
route(prodloc15,prodloc17,tr0,13979,363454).
route(prodloc15,prodloc17,tr13,13979,83874).
route(prodloc15,prodloc18,tr0,5716,148616).
route(prodloc15,prodloc18,tr13,5716,34296).
route(prodloc15,prodloc19,tr0,23530,611780).
route(prodloc15,prodloc19,tr13,23530,141180).
route(prodloc15,prodloc20,tr0,4958,128908).
route(prodloc15,prodloc20,tr13,4958,29748).
route(prodloc15,prodloc21,tr0,27565,716690).
route(prodloc15,prodloc21,tr13,27565,165390).
route(prodloc15,prodloc22,tr0,26055,677430).
route(prodloc15,prodloc22,tr13,26055,156330).
route(prodloc15,prodloc23,tr0,13964,363064).
route(prodloc15,prodloc23,tr13,13964,83784).
route(prodloc15,prodloc24,tr0,7730,200980).
route(prodloc15,prodloc24,tr13,7730,46380).
route(prodloc15,prodloc25,tr0,13524,351624).
route(prodloc15,prodloc25,tr13,13524,81144).
route(prodloc15,prodloc26,tr0,18836,489736).
route(prodloc15,prodloc26,tr13,18836,113016).
route(prodloc15,prodloc27,tr0,26900,699400).
route(prodloc15,prodloc27,tr13,26900,161400).
route(prodloc15,prodloc28,tr0,21344,554944).
route(prodloc15,prodloc28,tr13,21344,128064).
route(prodloc15,prodloc29,tr0,18703,486278).
route(prodloc15,prodloc29,tr13,18703,112218).
route(prodloc15,prodloc30,tr0,6655,173030).
route(prodloc15,prodloc30,tr13,6655,39930).
route(prodloc15,prodloc31,tr0,17607,457782).
route(prodloc15,prodloc31,tr13,17607,105642).
route(prodloc15,prodloc32,tr0,1635,42510).
route(prodloc15,prodloc32,tr13,1635,9810).
route(prodloc15,prodloc33,tr0,259,6734).
route(prodloc15,prodloc33,tr13,259,1554).
route(prodloc16,harbor0,tr0,23046,599196).
route(prodloc16,harbor0,tr13,23046,138276).
route(prodloc16,harbor1,tr0,16412,426712).
route(prodloc16,harbor1,tr13,16412,98472).
route(prodloc16,harbor2,tr0,28678,745628).
route(prodloc16,harbor2,tr13,28678,172068).
route(prodloc16,harbor3,tr0,28049,729274).
route(prodloc16,harbor3,tr13,28049,168294).
route(prodloc16,harbor4,tr0,26486,688636).
route(prodloc16,harbor4,tr13,26486,158916).
route(prodloc16,harbor5,tr0,23456,609856).
route(prodloc16,harbor5,tr13,23456,140736).
route(prodloc16,harbor6,tr0,3388,88088).
route(prodloc16,harbor6,tr13,3388,20328).
route(prodloc16,harbor7,tr0,6198,161148).
route(prodloc16,harbor7,tr13,6198,37188).
route(prodloc16,harbor8,tr0,10959,284934).
route(prodloc16,harbor8,tr13,10959,65754).
route(prodloc16,harbor9,tr0,18516,481416).
route(prodloc16,harbor9,tr13,18516,111096).
route(prodloc16,harbor10,tr0,14832,385632).
route(prodloc16,harbor10,tr13,14832,88992).
route(prodloc16,harbor11,tr0,1125,29250).
route(prodloc16,harbor11,tr13,1125,6750).
route(prodloc16,harbor12,tr0,1079,28054).
route(prodloc16,harbor12,tr13,1079,6474).
route(prodloc16,harbor13,tr0,22748,591448).
route(prodloc16,harbor13,tr13,22748,136488).
route(prodloc16,harbor14,tr0,22094,574444).
route(prodloc16,harbor14,tr13,22094,132564).
route(prodloc16,harbor15,tr0,27140,705640).
route(prodloc16,harbor15,tr13,27140,162840).
route(prodloc16,harbor16,tr0,8066,209716).
route(prodloc16,harbor16,tr13,8066,48396).
route(prodloc16,prodloc0,tr0,5051,131326).
route(prodloc16,prodloc0,tr13,5051,30306).
route(prodloc16,prodloc1,tr0,20419,530894).
route(prodloc16,prodloc1,tr13,20419,122514).
route(prodloc16,prodloc2,tr0,27442,713492).
route(prodloc16,prodloc2,tr13,27442,164652).
route(prodloc16,prodloc3,tr0,3382,87932).
route(prodloc16,prodloc3,tr13,3382,20292).
route(prodloc16,prodloc4,tr0,9753,253578).
route(prodloc16,prodloc4,tr13,9753,58518).
route(prodloc16,prodloc5,tr0,2419,62894).
route(prodloc16,prodloc5,tr13,2419,14514).
route(prodloc16,prodloc6,tr0,21370,555620).
route(prodloc16,prodloc6,tr13,21370,128220).
route(prodloc16,prodloc7,tr0,13174,342524).
route(prodloc16,prodloc7,tr13,13174,79044).
route(prodloc16,prodloc8,tr0,28613,743938).
route(prodloc16,prodloc8,tr13,28613,171678).
route(prodloc16,prodloc9,tr0,10166,264316).
route(prodloc16,prodloc9,tr13,10166,60996).
route(prodloc16,prodloc10,tr0,266,6916).
route(prodloc16,prodloc10,tr13,266,1596).
route(prodloc16,prodloc11,tr0,22163,576238).
route(prodloc16,prodloc11,tr13,22163,132978).
route(prodloc16,prodloc12,tr0,2408,62608).
route(prodloc16,prodloc12,tr13,2408,14448).
route(prodloc16,prodloc13,tr0,11808,307008).
route(prodloc16,prodloc13,tr13,11808,70848).
route(prodloc16,prodloc14,tr0,25528,663728).
route(prodloc16,prodloc14,tr13,25528,153168).
route(prodloc16,prodloc15,tr0,2991,77766).
route(prodloc16,prodloc15,tr13,2991,17946).
route(prodloc16,prodloc17,tr0,23085,600210).
route(prodloc16,prodloc17,tr13,23085,138510).
route(prodloc16,prodloc18,tr0,26007,676182).
route(prodloc16,prodloc18,tr13,26007,156042).
route(prodloc16,prodloc19,tr0,12445,323570).
route(prodloc16,prodloc19,tr13,12445,74670).
route(prodloc16,prodloc20,tr0,6150,159900).
route(prodloc16,prodloc20,tr13,6150,36900).
route(prodloc16,prodloc21,tr0,8005,208130).
route(prodloc16,prodloc21,tr13,8005,48030).
route(prodloc16,prodloc22,tr0,12330,320580).
route(prodloc16,prodloc22,tr13,12330,73980).
route(prodloc16,prodloc23,tr0,6214,161564).
route(prodloc16,prodloc23,tr13,6214,37284).
route(prodloc16,prodloc24,tr0,28911,751686).
route(prodloc16,prodloc24,tr13,28911,173466).
route(prodloc16,prodloc25,tr0,10561,274586).
route(prodloc16,prodloc25,tr13,10561,63366).
route(prodloc16,prodloc26,tr0,21226,551876).
route(prodloc16,prodloc26,tr13,21226,127356).
route(prodloc16,prodloc27,tr0,26028,676728).
route(prodloc16,prodloc27,tr13,26028,156168).
route(prodloc16,prodloc28,tr0,4079,106054).
route(prodloc16,prodloc28,tr13,4079,24474).
route(prodloc16,prodloc29,tr0,16052,417352).
route(prodloc16,prodloc29,tr13,16052,96312).
route(prodloc16,prodloc30,tr0,26919,699894).
route(prodloc16,prodloc30,tr13,26919,161514).
route(prodloc16,prodloc31,tr0,14706,382356).
route(prodloc16,prodloc31,tr13,14706,88236).
route(prodloc16,prodloc32,tr0,11355,295230).
route(prodloc16,prodloc32,tr13,11355,68130).
route(prodloc16,prodloc33,tr0,14203,369278).
route(prodloc16,prodloc33,tr13,14203,85218).
route(prodloc17,harbor0,tr0,27049,703274).
route(prodloc17,harbor0,tr13,27049,162294).
route(prodloc17,harbor1,tr0,11141,289666).
route(prodloc17,harbor1,tr13,11141,66846).
route(prodloc17,harbor2,tr0,16449,427674).
route(prodloc17,harbor2,tr13,16449,98694).
route(prodloc17,harbor3,tr0,19970,519220).
route(prodloc17,harbor3,tr13,19970,119820).
route(prodloc17,harbor4,tr0,28233,734058).
route(prodloc17,harbor4,tr13,28233,169398).
route(prodloc17,harbor5,tr0,24117,627042).
route(prodloc17,harbor5,tr13,24117,144702).
route(prodloc17,harbor6,tr0,17994,467844).
route(prodloc17,harbor6,tr13,17994,107964).
route(prodloc17,harbor7,tr0,11575,300950).
route(prodloc17,harbor7,tr13,11575,69450).
route(prodloc17,harbor8,tr0,23622,614172).
route(prodloc17,harbor8,tr13,23622,141732).
route(prodloc17,harbor9,tr0,13292,345592).
route(prodloc17,harbor9,tr13,13292,79752).
route(prodloc17,harbor10,tr0,25316,658216).
route(prodloc17,harbor10,tr13,25316,151896).
route(prodloc17,harbor11,tr0,17928,466128).
route(prodloc17,harbor11,tr13,17928,107568).
route(prodloc17,harbor12,tr0,22562,586612).
route(prodloc17,harbor12,tr13,22562,135372).
route(prodloc17,harbor13,tr0,17122,445172).
route(prodloc17,harbor13,tr13,17122,102732).
route(prodloc17,harbor14,tr0,7315,190190).
route(prodloc17,harbor14,tr13,7315,43890).
route(prodloc17,harbor15,tr0,19764,513864).
route(prodloc17,harbor15,tr13,19764,118584).
route(prodloc17,harbor16,tr0,22132,575432).
route(prodloc17,harbor16,tr13,22132,132792).
route(prodloc17,prodloc0,tr0,10792,280592).
route(prodloc17,prodloc0,tr13,10792,64752).
route(prodloc17,prodloc1,tr0,8893,231218).
route(prodloc17,prodloc1,tr13,8893,53358).
route(prodloc17,prodloc2,tr13,4773,28638).
route(prodloc17,prodloc2,tr15,4773,152736).
route(prodloc17,prodloc3,tr0,28834,749684).
route(prodloc17,prodloc3,tr13,28834,173004).
route(prodloc17,prodloc4,tr0,13790,358540).
route(prodloc17,prodloc4,tr13,13790,82740).
route(prodloc17,prodloc5,tr13,28329,169974).
route(prodloc17,prodloc5,tr15,28329,906528).
route(prodloc17,prodloc6,tr0,25722,668772).
route(prodloc17,prodloc6,tr13,25722,154332).
route(prodloc17,prodloc7,tr0,18794,488644).
route(prodloc17,prodloc7,tr13,18794,112764).
route(prodloc17,prodloc8,tr0,24530,637780).
route(prodloc17,prodloc8,tr13,24530,147180).
route(prodloc17,prodloc9,tr13,5730,34380).
route(prodloc17,prodloc9,tr15,5730,183360).
route(prodloc17,prodloc10,tr0,14919,387894).
route(prodloc17,prodloc10,tr13,14919,89514).
route(prodloc17,prodloc11,tr0,9017,234442).
route(prodloc17,prodloc11,tr13,9017,54102).
route(prodloc17,prodloc12,tr0,3075,79950).
route(prodloc17,prodloc12,tr13,3075,18450).
route(prodloc17,prodloc13,tr0,1132,29432).
route(prodloc17,prodloc13,tr13,1132,6792).
route(prodloc17,prodloc14,tr0,12970,337220).
route(prodloc17,prodloc14,tr13,12970,77820).
route(prodloc17,prodloc15,tr0,19018,494468).
route(prodloc17,prodloc15,tr13,19018,114108).
route(prodloc17,prodloc16,tr0,5595,145470).
route(prodloc17,prodloc16,tr13,5595,33570).
route(prodloc17,prodloc18,tr0,18819,489294).
route(prodloc17,prodloc18,tr13,18819,112914).
route(prodloc17,prodloc19,tr0,18893,491218).
route(prodloc17,prodloc19,tr13,18893,113358).
route(prodloc17,prodloc20,tr0,11041,287066).
route(prodloc17,prodloc20,tr13,11041,66246).
route(prodloc17,prodloc21,tr0,28778,748228).
route(prodloc17,prodloc21,tr13,28778,172668).
route(prodloc17,prodloc22,tr0,11590,301340).
route(prodloc17,prodloc22,tr13,11590,69540).
route(prodloc17,prodloc23,tr0,540,14040).
route(prodloc17,prodloc23,tr13,540,3240).
route(prodloc17,prodloc24,tr0,8975,233350).
route(prodloc17,prodloc24,tr13,8975,53850).
route(prodloc17,prodloc25,tr0,18764,487864).
route(prodloc17,prodloc25,tr13,18764,112584).
route(prodloc17,prodloc26,tr0,3046,79196).
route(prodloc17,prodloc26,tr13,3046,18276).
route(prodloc17,prodloc27,tr0,4927,128102).
route(prodloc17,prodloc27,tr13,4927,29562).
route(prodloc17,prodloc28,tr0,15037,390962).
route(prodloc17,prodloc28,tr13,15037,90222).
route(prodloc17,prodloc29,tr0,21458,557908).
route(prodloc17,prodloc29,tr13,21458,128748).
route(prodloc17,prodloc30,tr0,17120,445120).
route(prodloc17,prodloc30,tr15,17120,547840).
route(prodloc17,prodloc31,tr0,204,5304).
route(prodloc17,prodloc31,tr13,204,1224).
route(prodloc17,prodloc32,tr13,14337,86022).
route(prodloc17,prodloc32,tr15,14337,458784).
route(prodloc17,prodloc33,tr0,7117,185042).
route(prodloc17,prodloc33,tr13,7117,42702).
route(prodloc18,harbor0,tr0,27695,720070).
route(prodloc18,harbor0,tr13,27695,166170).
route(prodloc18,harbor1,tr0,1449,37674).
route(prodloc18,harbor1,tr13,1449,8694).
route(prodloc18,harbor2,tr0,14291,371566).
route(prodloc18,harbor2,tr13,14291,85746).
route(prodloc18,harbor3,tr0,8002,208052).
route(prodloc18,harbor3,tr13,8002,48012).
route(prodloc18,harbor4,tr0,24697,642122).
route(prodloc18,harbor4,tr13,24697,148182).
route(prodloc18,harbor5,tr0,24727,642902).
route(prodloc18,harbor5,tr13,24727,148362).
route(prodloc18,harbor6,tr0,25350,659100).
route(prodloc18,harbor6,tr13,25350,152100).
route(prodloc18,harbor7,tr0,16589,431314).
route(prodloc18,harbor7,tr13,16589,99534).
route(prodloc18,harbor8,tr0,14991,389766).
route(prodloc18,harbor8,tr13,14991,89946).
route(prodloc18,harbor9,tr0,15239,396214).
route(prodloc18,harbor9,tr13,15239,91434).
route(prodloc18,harbor10,tr0,7678,199628).
route(prodloc18,harbor10,tr13,7678,46068).
route(prodloc18,harbor11,tr0,4326,112476).
route(prodloc18,harbor11,tr13,4326,25956).
route(prodloc18,harbor12,tr0,22484,584584).
route(prodloc18,harbor12,tr13,22484,134904).
route(prodloc18,harbor13,tr0,8081,210106).
route(prodloc18,harbor13,tr13,8081,48486).
route(prodloc18,harbor14,tr0,28413,738738).
route(prodloc18,harbor14,tr13,28413,170478).
route(prodloc18,harbor15,tr0,21647,562822).
route(prodloc18,harbor15,tr13,21647,129882).
route(prodloc18,harbor16,tr0,19838,515788).
route(prodloc18,harbor16,tr13,19838,119028).
route(prodloc18,prodloc0,tr0,26267,682942).
route(prodloc18,prodloc0,tr13,26267,157602).
route(prodloc18,prodloc1,tr0,25677,667602).
route(prodloc18,prodloc1,tr13,25677,154062).
route(prodloc18,prodloc2,tr0,19654,511004).
route(prodloc18,prodloc2,tr13,19654,117924).
route(prodloc18,prodloc3,tr0,19126,497276).
route(prodloc18,prodloc3,tr13,19126,114756).
route(prodloc18,prodloc4,tr0,22168,576368).
route(prodloc18,prodloc4,tr13,22168,133008).
route(prodloc18,prodloc5,tr0,14814,385164).
route(prodloc18,prodloc5,tr13,14814,88884).
route(prodloc18,prodloc6,tr0,11631,302406).
route(prodloc18,prodloc6,tr13,11631,69786).
route(prodloc18,prodloc7,tr0,15108,392808).
route(prodloc18,prodloc7,tr13,15108,90648).
route(prodloc18,prodloc8,tr0,22011,572286).
route(prodloc18,prodloc8,tr13,22011,132066).
route(prodloc18,prodloc9,tr0,7320,190320).
route(prodloc18,prodloc9,tr13,7320,43920).
route(prodloc18,prodloc10,tr0,2323,60398).
route(prodloc18,prodloc10,tr13,2323,13938).
route(prodloc18,prodloc11,tr0,5574,144924).
route(prodloc18,prodloc11,tr13,5574,33444).
route(prodloc18,prodloc12,tr0,27986,727636).
route(prodloc18,prodloc12,tr13,27986,167916).
route(prodloc18,prodloc13,tr0,25337,658762).
route(prodloc18,prodloc13,tr13,25337,152022).
route(prodloc18,prodloc14,tr0,19503,507078).
route(prodloc18,prodloc14,tr15,19503,624096).
route(prodloc18,prodloc15,tr0,11055,287430).
route(prodloc18,prodloc15,tr13,11055,66330).
route(prodloc18,prodloc16,tr0,28043,729118).
route(prodloc18,prodloc16,tr13,28043,168258).
route(prodloc18,prodloc17,tr0,13897,361322).
route(prodloc18,prodloc17,tr13,13897,83382).
route(prodloc18,prodloc19,tr0,13308,346008).
route(prodloc18,prodloc19,tr13,13308,79848).
route(prodloc18,prodloc20,tr0,28873,750698).
route(prodloc18,prodloc20,tr13,28873,173238).
route(prodloc18,prodloc21,tr0,20707,538382).
route(prodloc18,prodloc21,tr13,20707,124242).
route(prodloc18,prodloc22,tr0,16373,425698).
route(prodloc18,prodloc22,tr13,16373,98238).
route(prodloc18,prodloc23,tr0,19560,508560).
route(prodloc18,prodloc23,tr13,19560,117360).
route(prodloc18,prodloc24,tr0,13129,341354).
route(prodloc18,prodloc24,tr13,13129,78774).
route(prodloc18,prodloc25,tr0,20134,523484).
route(prodloc18,prodloc25,tr13,20134,120804).
route(prodloc18,prodloc26,tr0,16555,430430).
route(prodloc18,prodloc26,tr13,16555,99330).
route(prodloc18,prodloc27,tr0,28893,751218).
route(prodloc18,prodloc27,tr13,28893,173358).
route(prodloc18,prodloc28,tr0,13279,345254).
route(prodloc18,prodloc28,tr13,13279,79674).
route(prodloc18,prodloc29,tr0,12932,336232).
route(prodloc18,prodloc29,tr13,12932,77592).
route(prodloc18,prodloc30,tr0,14708,382408).
route(prodloc18,prodloc30,tr13,14708,88248).
route(prodloc18,prodloc31,tr0,22069,573794).
route(prodloc18,prodloc31,tr13,22069,132414).
route(prodloc18,prodloc32,tr0,20976,545376).
route(prodloc18,prodloc32,tr13,20976,125856).
route(prodloc18,prodloc33,tr0,19756,513656).
route(prodloc18,prodloc33,tr13,19756,118536).
route(prodloc19,harbor0,tr0,2904,75504).
route(prodloc19,harbor0,tr13,2904,17424).
route(prodloc19,harbor1,tr0,18295,475670).
route(prodloc19,harbor1,tr13,18295,109770).
route(prodloc19,harbor2,tr0,28060,729560).
route(prodloc19,harbor2,tr13,28060,168360).
route(prodloc19,harbor3,tr0,9470,246220).
route(prodloc19,harbor3,tr13,9470,56820).
route(prodloc19,harbor4,tr0,22637,588562).
route(prodloc19,harbor4,tr13,22637,135822).
route(prodloc19,harbor5,tr0,16807,436982).
route(prodloc19,harbor5,tr13,16807,100842).
route(prodloc19,harbor6,tr0,14427,375102).
route(prodloc19,harbor6,tr13,14427,86562).
route(prodloc19,harbor7,tr0,6010,156260).
route(prodloc19,harbor7,tr13,6010,36060).
route(prodloc19,harbor8,tr0,1259,32734).
route(prodloc19,harbor8,tr13,1259,7554).
route(prodloc19,harbor9,tr0,2182,56732).
route(prodloc19,harbor9,tr13,2182,13092).
route(prodloc19,harbor10,tr0,16198,421148).
route(prodloc19,harbor10,tr13,16198,97188).
route(prodloc19,harbor11,tr0,21509,559234).
route(prodloc19,harbor11,tr13,21509,129054).
route(prodloc19,harbor12,tr0,5421,140946).
route(prodloc19,harbor12,tr13,5421,32526).
route(prodloc19,harbor13,tr0,28908,751608).
route(prodloc19,harbor13,tr13,28908,173448).
route(prodloc19,harbor14,tr0,6384,165984).
route(prodloc19,harbor14,tr13,6384,38304).
route(prodloc19,harbor15,tr0,14318,372268).
route(prodloc19,harbor15,tr13,14318,85908).
route(prodloc19,harbor16,tr0,16546,430196).
route(prodloc19,harbor16,tr13,16546,99276).
route(prodloc19,prodloc0,tr0,22092,574392).
route(prodloc19,prodloc0,tr13,22092,132552).
route(prodloc19,prodloc1,tr0,20541,534066).
route(prodloc19,prodloc1,tr13,20541,123246).
route(prodloc19,prodloc2,tr0,23244,604344).
route(prodloc19,prodloc2,tr13,23244,139464).
route(prodloc19,prodloc3,tr0,27834,723684).
route(prodloc19,prodloc3,tr13,27834,167004).
route(prodloc19,prodloc4,tr0,20663,537238).
route(prodloc19,prodloc4,tr13,20663,123978).
route(prodloc19,prodloc5,tr0,17704,460304).
route(prodloc19,prodloc5,tr13,17704,106224).
route(prodloc19,prodloc6,tr0,25154,654004).
route(prodloc19,prodloc6,tr13,25154,150924).
route(prodloc19,prodloc7,tr0,28929,752154).
route(prodloc19,prodloc7,tr13,28929,173574).
route(prodloc19,prodloc8,tr0,17893,465218).
route(prodloc19,prodloc8,tr13,17893,107358).
route(prodloc19,prodloc9,tr0,11911,309686).
route(prodloc19,prodloc9,tr13,11911,71466).
route(prodloc19,prodloc10,tr0,835,21710).
route(prodloc19,prodloc10,tr13,835,5010).
route(prodloc19,prodloc11,tr0,10801,280826).
route(prodloc19,prodloc11,tr13,10801,64806).
route(prodloc19,prodloc12,tr0,6146,159796).
route(prodloc19,prodloc12,tr13,6146,36876).
route(prodloc19,prodloc13,tr0,3875,100750).
route(prodloc19,prodloc13,tr13,3875,23250).
route(prodloc19,prodloc14,tr0,12870,334620).
route(prodloc19,prodloc14,tr13,12870,77220).
route(prodloc19,prodloc15,tr0,19840,515840).
route(prodloc19,prodloc15,tr13,19840,119040).
route(prodloc19,prodloc16,tr0,7721,200746).
route(prodloc19,prodloc16,tr13,7721,46326).
route(prodloc19,prodloc17,tr0,9967,259142).
route(prodloc19,prodloc17,tr13,9967,59802).
route(prodloc19,prodloc18,tr0,24823,645398).
route(prodloc19,prodloc18,tr13,24823,148938).
route(prodloc19,prodloc20,tr0,20016,520416).
route(prodloc19,prodloc20,tr13,20016,120096).
route(prodloc19,prodloc21,tr0,3408,88608).
route(prodloc19,prodloc21,tr13,3408,20448).
route(prodloc19,prodloc22,tr0,11041,287066).
route(prodloc19,prodloc22,tr13,11041,66246).
route(prodloc19,prodloc23,tr0,1477,38402).
route(prodloc19,prodloc23,tr13,1477,8862).
route(prodloc19,prodloc24,tr0,21864,568464).
route(prodloc19,prodloc24,tr13,21864,131184).
route(prodloc19,prodloc25,tr0,7449,193674).
route(prodloc19,prodloc25,tr13,7449,44694).
route(prodloc19,prodloc26,tr0,27887,725062).
route(prodloc19,prodloc26,tr13,27887,167322).
route(prodloc19,prodloc27,tr0,3393,88218).
route(prodloc19,prodloc27,tr13,3393,20358).
route(prodloc19,prodloc28,tr0,14739,383214).
route(prodloc19,prodloc28,tr13,14739,88434).
route(prodloc19,prodloc29,tr0,21731,565006).
route(prodloc19,prodloc29,tr13,21731,130386).
route(prodloc19,prodloc30,tr0,24469,636194).
route(prodloc19,prodloc30,tr13,24469,146814).
route(prodloc19,prodloc31,tr0,17692,459992).
route(prodloc19,prodloc31,tr13,17692,106152).
route(prodloc19,prodloc32,tr0,27048,703248).
route(prodloc19,prodloc32,tr13,27048,162288).
route(prodloc19,prodloc33,tr0,15130,393380).
route(prodloc19,prodloc33,tr13,15130,90780).
route(prodloc20,harbor0,tr0,13072,339872).
route(prodloc20,harbor0,tr13,13072,78432).
route(prodloc20,harbor1,tr0,22380,581880).
route(prodloc20,harbor1,tr13,22380,134280).
route(prodloc20,harbor2,tr0,14141,367666).
route(prodloc20,harbor2,tr13,14141,84846).
route(prodloc20,harbor3,tr0,18734,487084).
route(prodloc20,harbor3,tr13,18734,112404).
route(prodloc20,harbor4,tr0,20697,538122).
route(prodloc20,harbor4,tr13,20697,124182).
route(prodloc20,harbor5,tr0,25842,671892).
route(prodloc20,harbor5,tr13,25842,155052).
route(prodloc20,harbor6,tr0,6687,173862).
route(prodloc20,harbor6,tr13,6687,40122).
route(prodloc20,harbor7,tr0,11445,297570).
route(prodloc20,harbor7,tr13,11445,68670).
route(prodloc20,harbor8,tr0,27941,726466).
route(prodloc20,harbor8,tr13,27941,167646).
route(prodloc20,harbor9,tr0,9064,235664).
route(prodloc20,harbor9,tr13,9064,54384).
route(prodloc20,harbor10,tr0,21129,549354).
route(prodloc20,harbor10,tr13,21129,126774).
route(prodloc20,harbor11,tr0,345,8970).
route(prodloc20,harbor11,tr13,345,2070).
route(prodloc20,harbor12,tr0,21017,546442).
route(prodloc20,harbor12,tr13,21017,126102).
route(prodloc20,harbor13,tr0,17501,455026).
route(prodloc20,harbor13,tr13,17501,105006).
route(prodloc20,harbor14,tr0,14702,382252).
route(prodloc20,harbor14,tr13,14702,88212).
route(prodloc20,harbor15,tr0,2053,53378).
route(prodloc20,harbor15,tr13,2053,12318).
route(prodloc20,harbor16,tr0,3711,96486).
route(prodloc20,harbor16,tr13,3711,22266).
route(prodloc20,prodloc0,tr0,8799,228774).
route(prodloc20,prodloc0,tr13,8799,52794).
route(prodloc20,prodloc1,tr0,25658,667108).
route(prodloc20,prodloc1,tr13,25658,153948).
route(prodloc20,prodloc2,tr0,15149,393874).
route(prodloc20,prodloc2,tr13,15149,90894).
route(prodloc20,prodloc3,tr0,5956,154856).
route(prodloc20,prodloc3,tr13,5956,35736).
route(prodloc20,prodloc4,tr0,12228,317928).
route(prodloc20,prodloc4,tr13,12228,73368).
route(prodloc20,prodloc5,tr0,8397,218322).
route(prodloc20,prodloc5,tr15,8397,268704).
route(prodloc20,prodloc6,tr0,6816,177216).
route(prodloc20,prodloc6,tr13,6816,40896).
route(prodloc20,prodloc7,tr0,7244,188344).
route(prodloc20,prodloc7,tr13,7244,43464).
route(prodloc20,prodloc8,tr0,13771,358046).
route(prodloc20,prodloc8,tr13,13771,82626).
route(prodloc20,prodloc9,tr0,3489,90714).
route(prodloc20,prodloc9,tr13,3489,20934).
route(prodloc20,prodloc10,tr0,18420,478920).
route(prodloc20,prodloc10,tr13,18420,110520).
route(prodloc20,prodloc11,tr0,17248,448448).
route(prodloc20,prodloc11,tr13,17248,103488).
route(prodloc20,prodloc12,tr0,21702,564252).
route(prodloc20,prodloc12,tr13,21702,130212).
route(prodloc20,prodloc13,tr0,16821,437346).
route(prodloc20,prodloc13,tr13,16821,100926).
route(prodloc20,prodloc14,tr0,6424,167024).
route(prodloc20,prodloc14,tr13,6424,38544).
route(prodloc20,prodloc15,tr0,20986,545636).
route(prodloc20,prodloc15,tr13,20986,125916).
route(prodloc20,prodloc16,tr0,8279,215254).
route(prodloc20,prodloc16,tr13,8279,49674).
route(prodloc20,prodloc17,tr0,14266,370916).
route(prodloc20,prodloc17,tr13,14266,85596).
route(prodloc20,prodloc18,tr0,22786,592436).
route(prodloc20,prodloc18,tr13,22786,136716).
route(prodloc20,prodloc19,tr0,1318,34268).
route(prodloc20,prodloc19,tr13,1318,7908).
route(prodloc20,prodloc21,tr0,26514,689364).
route(prodloc20,prodloc21,tr13,26514,159084).
route(prodloc20,prodloc22,tr0,10449,271674).
route(prodloc20,prodloc22,tr13,10449,62694).
route(prodloc20,prodloc23,tr0,19926,518076).
route(prodloc20,prodloc23,tr13,19926,119556).
route(prodloc20,prodloc24,tr0,1643,42718).
route(prodloc20,prodloc24,tr13,1643,9858).
route(prodloc20,prodloc25,tr0,15976,415376).
route(prodloc20,prodloc25,tr13,15976,95856).
route(prodloc20,prodloc26,tr0,18005,468130).
route(prodloc20,prodloc26,tr13,18005,108030).
route(prodloc20,prodloc27,tr0,22473,584298).
route(prodloc20,prodloc27,tr13,22473,134838).
route(prodloc20,prodloc28,tr0,11035,286910).
route(prodloc20,prodloc28,tr13,11035,66210).
route(prodloc20,prodloc29,tr0,10875,282750).
route(prodloc20,prodloc29,tr13,10875,65250).
route(prodloc20,prodloc30,tr0,21456,557856).
route(prodloc20,prodloc30,tr13,21456,128736).
route(prodloc20,prodloc31,tr0,2101,54626).
route(prodloc20,prodloc31,tr13,2101,12606).
route(prodloc20,prodloc32,tr0,3062,79612).
route(prodloc20,prodloc32,tr13,3062,18372).
route(prodloc20,prodloc33,tr0,13921,361946).
route(prodloc20,prodloc33,tr13,13921,83526).
route(prodloc21,harbor0,tr0,27240,708240).
route(prodloc21,harbor0,tr13,27240,163440).
route(prodloc21,harbor1,tr0,27367,711542).
route(prodloc21,harbor1,tr13,27367,164202).
route(prodloc21,harbor2,tr0,4761,123786).
route(prodloc21,harbor2,tr13,4761,28566).
route(prodloc21,harbor3,tr0,1168,30368).
route(prodloc21,harbor3,tr13,1168,7008).
route(prodloc21,harbor4,tr0,13394,348244).
route(prodloc21,harbor4,tr13,13394,80364).
route(prodloc21,harbor5,tr0,28182,732732).
route(prodloc21,harbor5,tr13,28182,169092).
route(prodloc21,harbor6,tr0,9947,258622).
route(prodloc21,harbor6,tr13,9947,59682).
route(prodloc21,harbor7,tr0,20036,520936).
route(prodloc21,harbor7,tr13,20036,120216).
route(prodloc21,harbor8,tr0,20246,526396).
route(prodloc21,harbor8,tr13,20246,121476).
route(prodloc21,harbor9,tr0,24658,641108).
route(prodloc21,harbor9,tr13,24658,147948).
route(prodloc21,harbor10,tr0,27993,727818).
route(prodloc21,harbor10,tr13,27993,167958).
route(prodloc21,harbor11,tr0,3759,97734).
route(prodloc21,harbor11,tr13,3759,22554).
route(prodloc21,harbor12,tr0,10520,273520).
route(prodloc21,harbor12,tr13,10520,63120).
route(prodloc21,harbor13,tr0,24250,630500).
route(prodloc21,harbor13,tr13,24250,145500).
route(prodloc21,harbor14,tr0,18637,484562).
route(prodloc21,harbor14,tr13,18637,111822).
route(prodloc21,harbor15,tr0,13739,357214).
route(prodloc21,harbor15,tr13,13739,82434).
route(prodloc21,harbor16,tr0,1016,26416).
route(prodloc21,harbor16,tr13,1016,6096).
route(prodloc21,prodloc0,tr0,6293,163618).
route(prodloc21,prodloc0,tr15,6293,201376).
route(prodloc21,prodloc1,tr0,7829,203554).
route(prodloc21,prodloc1,tr13,7829,46974).
route(prodloc21,prodloc2,tr0,13265,344890).
route(prodloc21,prodloc2,tr13,13265,79590).
route(prodloc21,prodloc3,tr0,13749,357474).
route(prodloc21,prodloc3,tr13,13749,82494).
route(prodloc21,prodloc4,tr0,22063,573638).
route(prodloc21,prodloc4,tr13,22063,132378).
route(prodloc21,prodloc5,tr0,20964,545064).
route(prodloc21,prodloc5,tr13,20964,125784).
route(prodloc21,prodloc6,tr0,2122,55172).
route(prodloc21,prodloc6,tr13,2122,12732).
route(prodloc21,prodloc7,tr0,28797,748722).
route(prodloc21,prodloc7,tr13,28797,172782).
route(prodloc21,prodloc8,tr0,13073,339898).
route(prodloc21,prodloc8,tr13,13073,78438).
route(prodloc21,prodloc9,tr0,25490,662740).
route(prodloc21,prodloc9,tr13,25490,152940).
route(prodloc21,prodloc10,tr0,16678,433628).
route(prodloc21,prodloc10,tr13,16678,100068).
route(prodloc21,prodloc11,tr0,12780,332280).
route(prodloc21,prodloc11,tr13,12780,76680).
route(prodloc21,prodloc12,tr13,8544,51264).
route(prodloc21,prodloc12,tr15,8544,273408).
route(prodloc21,prodloc13,tr0,17557,456482).
route(prodloc21,prodloc13,tr13,17557,105342).
route(prodloc21,prodloc14,tr0,26945,700570).
route(prodloc21,prodloc14,tr13,26945,161670).
route(prodloc21,prodloc15,tr0,2178,56628).
route(prodloc21,prodloc15,tr13,2178,13068).
route(prodloc21,prodloc16,tr0,27731,721006).
route(prodloc21,prodloc16,tr13,27731,166386).
route(prodloc21,prodloc17,tr0,20491,532766).
route(prodloc21,prodloc17,tr13,20491,122946).
route(prodloc21,prodloc18,tr0,25969,675194).
route(prodloc21,prodloc18,tr13,25969,155814).
route(prodloc21,prodloc19,tr0,7943,206518).
route(prodloc21,prodloc19,tr13,7943,47658).
route(prodloc21,prodloc20,tr0,21874,568724).
route(prodloc21,prodloc20,tr13,21874,131244).
route(prodloc21,prodloc22,tr0,22106,574756).
route(prodloc21,prodloc22,tr13,22106,132636).
route(prodloc21,prodloc23,tr0,20671,537446).
route(prodloc21,prodloc23,tr13,20671,124026).
route(prodloc21,prodloc24,tr0,22828,593528).
route(prodloc21,prodloc24,tr13,22828,136968).
route(prodloc21,prodloc25,tr0,12898,335348).
route(prodloc21,prodloc25,tr13,12898,77388).
route(prodloc21,prodloc26,tr0,21619,562094).
route(prodloc21,prodloc26,tr13,21619,129714).
route(prodloc21,prodloc27,tr0,18722,486772).
route(prodloc21,prodloc27,tr13,18722,112332).
route(prodloc21,prodloc28,tr0,7886,205036).
route(prodloc21,prodloc28,tr13,7886,47316).
route(prodloc21,prodloc29,tr0,12052,313352).
route(prodloc21,prodloc29,tr13,12052,72312).
route(prodloc21,prodloc30,tr0,24509,637234).
route(prodloc21,prodloc30,tr13,24509,147054).
route(prodloc21,prodloc31,tr0,23082,600132).
route(prodloc21,prodloc31,tr13,23082,138492).
route(prodloc21,prodloc32,tr0,16420,426920).
route(prodloc21,prodloc32,tr13,16420,98520).
route(prodloc21,prodloc33,tr0,28784,748384).
route(prodloc21,prodloc33,tr13,28784,172704).
route(prodloc22,harbor0,tr0,23120,601120).
route(prodloc22,harbor0,tr13,23120,138720).
route(prodloc22,harbor1,tr0,9918,257868).
route(prodloc22,harbor1,tr13,9918,59508).
route(prodloc22,harbor2,tr0,14015,364390).
route(prodloc22,harbor2,tr13,14015,84090).
route(prodloc22,harbor3,tr0,24102,626652).
route(prodloc22,harbor3,tr13,24102,144612).
route(prodloc22,harbor4,tr0,26620,692120).
route(prodloc22,harbor4,tr13,26620,159720).
route(prodloc22,harbor5,tr0,3337,86762).
route(prodloc22,harbor5,tr13,3337,20022).
route(prodloc22,harbor6,tr0,21654,563004).
route(prodloc22,harbor6,tr13,21654,129924).
route(prodloc22,harbor7,tr0,2898,75348).
route(prodloc22,harbor7,tr13,2898,17388).
route(prodloc22,harbor8,tr0,22093,574418).
route(prodloc22,harbor8,tr13,22093,132558).
route(prodloc22,harbor9,tr0,6194,161044).
route(prodloc22,harbor9,tr13,6194,37164).
route(prodloc22,harbor10,tr0,9506,247156).
route(prodloc22,harbor10,tr13,9506,57036).
route(prodloc22,harbor11,tr0,28123,731198).
route(prodloc22,harbor11,tr13,28123,168738).
route(prodloc22,harbor12,tr0,14222,369772).
route(prodloc22,harbor12,tr13,14222,85332).
route(prodloc22,harbor13,tr0,16495,428870).
route(prodloc22,harbor13,tr13,16495,98970).
route(prodloc22,harbor14,tr0,12742,331292).
route(prodloc22,harbor14,tr13,12742,76452).
route(prodloc22,harbor15,tr0,12900,335400).
route(prodloc22,harbor15,tr13,12900,77400).
route(prodloc22,harbor16,tr0,19140,497640).
route(prodloc22,harbor16,tr13,19140,114840).
route(prodloc22,prodloc0,tr0,1773,46098).
route(prodloc22,prodloc0,tr13,1773,10638).
route(prodloc22,prodloc1,tr0,5248,136448).
route(prodloc22,prodloc1,tr13,5248,31488).
route(prodloc22,prodloc2,tr0,28382,737932).
route(prodloc22,prodloc2,tr13,28382,170292).
route(prodloc22,prodloc3,tr0,23733,617058).
route(prodloc22,prodloc3,tr13,23733,142398).
route(prodloc22,prodloc4,tr0,7873,204698).
route(prodloc22,prodloc4,tr13,7873,47238).
route(prodloc22,prodloc5,tr0,3405,88530).
route(prodloc22,prodloc5,tr13,3405,20430).
route(prodloc22,prodloc6,tr0,9876,256776).
route(prodloc22,prodloc6,tr13,9876,59256).
route(prodloc22,prodloc7,tr0,12801,332826).
route(prodloc22,prodloc7,tr13,12801,76806).
route(prodloc22,prodloc8,tr0,15325,398450).
route(prodloc22,prodloc8,tr13,15325,91950).
route(prodloc22,prodloc9,tr0,23390,608140).
route(prodloc22,prodloc9,tr13,23390,140340).
route(prodloc22,prodloc10,tr0,14584,379184).
route(prodloc22,prodloc10,tr13,14584,87504).
route(prodloc22,prodloc11,tr0,15467,402142).
route(prodloc22,prodloc11,tr13,15467,92802).
route(prodloc22,prodloc12,tr0,18695,486070).
route(prodloc22,prodloc12,tr13,18695,112170).
route(prodloc22,prodloc13,tr0,19195,499070).
route(prodloc22,prodloc13,tr13,19195,115170).
route(prodloc22,prodloc14,tr0,1067,27742).
route(prodloc22,prodloc14,tr13,1067,6402).
route(prodloc22,prodloc15,tr0,19485,506610).
route(prodloc22,prodloc15,tr13,19485,116910).
route(prodloc22,prodloc16,tr0,19764,513864).
route(prodloc22,prodloc16,tr13,19764,118584).
route(prodloc22,prodloc17,tr0,1380,35880).
route(prodloc22,prodloc17,tr13,1380,8280).
route(prodloc22,prodloc18,tr0,12520,325520).
route(prodloc22,prodloc18,tr13,12520,75120).
route(prodloc22,prodloc19,tr0,5327,138502).
route(prodloc22,prodloc19,tr13,5327,31962).
route(prodloc22,prodloc20,tr0,4972,129272).
route(prodloc22,prodloc20,tr13,4972,29832).
route(prodloc22,prodloc21,tr0,9231,240006).
route(prodloc22,prodloc21,tr13,9231,55386).
route(prodloc22,prodloc23,tr0,18834,489684).
route(prodloc22,prodloc23,tr13,18834,113004).
route(prodloc22,prodloc24,tr0,16783,436358).
route(prodloc22,prodloc24,tr13,16783,100698).
route(prodloc22,prodloc25,tr0,16899,439374).
route(prodloc22,prodloc25,tr13,16899,101394).
route(prodloc22,prodloc26,tr0,23889,621114).
route(prodloc22,prodloc26,tr13,23889,143334).
route(prodloc22,prodloc27,tr0,2898,75348).
route(prodloc22,prodloc27,tr13,2898,17388).
route(prodloc22,prodloc28,tr0,1099,28574).
route(prodloc22,prodloc28,tr13,1099,6594).
route(prodloc22,prodloc29,tr0,14275,371150).
route(prodloc22,prodloc29,tr13,14275,85650).
route(prodloc22,prodloc30,tr0,993,25818).
route(prodloc22,prodloc30,tr13,993,5958).
route(prodloc22,prodloc31,tr0,13508,351208).
route(prodloc22,prodloc31,tr13,13508,81048).
route(prodloc22,prodloc32,tr0,15492,402792).
route(prodloc22,prodloc32,tr13,15492,92952).
route(prodloc22,prodloc33,tr0,7518,195468).
route(prodloc22,prodloc33,tr13,7518,45108).
route(prodloc23,harbor0,tr0,20605,535730).
route(prodloc23,harbor0,tr13,20605,123630).
route(prodloc23,harbor1,tr0,23467,610142).
route(prodloc23,harbor1,tr13,23467,140802).
route(prodloc23,harbor2,tr0,3794,98644).
route(prodloc23,harbor2,tr13,3794,22764).
route(prodloc23,harbor3,tr0,26649,692874).
route(prodloc23,harbor3,tr13,26649,159894).
route(prodloc23,harbor4,tr0,1604,41704).
route(prodloc23,harbor4,tr13,1604,9624).
route(prodloc23,harbor5,tr0,23941,622466).
route(prodloc23,harbor5,tr13,23941,143646).
route(prodloc23,harbor6,tr0,8914,231764).
route(prodloc23,harbor6,tr13,8914,53484).
route(prodloc23,harbor7,tr0,10209,265434).
route(prodloc23,harbor7,tr13,10209,61254).
route(prodloc23,harbor8,tr0,7854,204204).
route(prodloc23,harbor8,tr13,7854,47124).
route(prodloc23,harbor9,tr0,1182,30732).
route(prodloc23,harbor9,tr13,1182,7092).
route(prodloc23,harbor10,tr0,18574,482924).
route(prodloc23,harbor10,tr13,18574,111444).
route(prodloc23,harbor11,tr0,18939,492414).
route(prodloc23,harbor11,tr13,18939,113634).
route(prodloc23,harbor12,tr0,4264,110864).
route(prodloc23,harbor12,tr13,4264,25584).
route(prodloc23,harbor13,tr0,25619,666094).
route(prodloc23,harbor13,tr13,25619,153714).
route(prodloc23,harbor14,tr0,17841,463866).
route(prodloc23,harbor14,tr13,17841,107046).
route(prodloc23,harbor15,tr0,26909,699634).
route(prodloc23,harbor15,tr13,26909,161454).
route(prodloc23,harbor16,tr0,22945,596570).
route(prodloc23,harbor16,tr13,22945,137670).
route(prodloc23,prodloc0,tr0,272,7072).
route(prodloc23,prodloc0,tr13,272,1632).
route(prodloc23,prodloc1,tr0,20733,539058).
route(prodloc23,prodloc1,tr13,20733,124398).
route(prodloc23,prodloc2,tr0,10023,260598).
route(prodloc23,prodloc2,tr13,10023,60138).
route(prodloc23,prodloc3,tr0,1471,38246).
route(prodloc23,prodloc3,tr13,1471,8826).
route(prodloc23,prodloc4,tr0,12310,320060).
route(prodloc23,prodloc4,tr13,12310,73860).
route(prodloc23,prodloc5,tr0,13903,361478).
route(prodloc23,prodloc5,tr13,13903,83418).
route(prodloc23,prodloc6,tr0,7273,189098).
route(prodloc23,prodloc6,tr13,7273,43638).
route(prodloc23,prodloc7,tr0,20231,526006).
route(prodloc23,prodloc7,tr13,20231,121386).
route(prodloc23,prodloc8,tr0,26171,680446).
route(prodloc23,prodloc8,tr13,26171,157026).
route(prodloc23,prodloc9,tr0,6081,158106).
route(prodloc23,prodloc9,tr13,6081,36486).
route(prodloc23,prodloc10,tr0,22114,574964).
route(prodloc23,prodloc10,tr13,22114,132684).
route(prodloc23,prodloc11,tr0,12948,336648).
route(prodloc23,prodloc11,tr13,12948,77688).
route(prodloc23,prodloc12,tr0,25382,659932).
route(prodloc23,prodloc12,tr13,25382,152292).
route(prodloc23,prodloc13,tr13,8671,52026).
route(prodloc23,prodloc13,tr15,8671,277472).
route(prodloc23,prodloc14,tr0,1954,50804).
route(prodloc23,prodloc14,tr13,1954,11724).
route(prodloc23,prodloc15,tr0,9288,241488).
route(prodloc23,prodloc15,tr13,9288,55728).
route(prodloc23,prodloc16,tr0,26730,694980).
route(prodloc23,prodloc16,tr13,26730,160380).
route(prodloc23,prodloc17,tr0,27576,716976).
route(prodloc23,prodloc17,tr13,27576,165456).
route(prodloc23,prodloc18,tr0,1576,40976).
route(prodloc23,prodloc18,tr13,1576,9456).
route(prodloc23,prodloc19,tr0,21231,552006).
route(prodloc23,prodloc19,tr13,21231,127386).
route(prodloc23,prodloc20,tr0,28210,733460).
route(prodloc23,prodloc20,tr13,28210,169260).
route(prodloc23,prodloc21,tr0,3892,101192).
route(prodloc23,prodloc21,tr13,3892,23352).
route(prodloc23,prodloc22,tr0,18092,470392).
route(prodloc23,prodloc22,tr13,18092,108552).
route(prodloc23,prodloc24,tr0,18253,474578).
route(prodloc23,prodloc24,tr13,18253,109518).
route(prodloc23,prodloc25,tr0,5048,131248).
route(prodloc23,prodloc25,tr15,5048,161536).
route(prodloc23,prodloc26,tr0,24323,632398).
route(prodloc23,prodloc26,tr13,24323,145938).
route(prodloc23,prodloc27,tr0,9956,258856).
route(prodloc23,prodloc27,tr13,9956,59736).
route(prodloc23,prodloc28,tr0,8193,213018).
route(prodloc23,prodloc28,tr13,8193,49158).
route(prodloc23,prodloc29,tr0,27795,722670).
route(prodloc23,prodloc29,tr13,27795,166770).
route(prodloc23,prodloc30,tr0,1670,43420).
route(prodloc23,prodloc30,tr13,1670,10020).
route(prodloc23,prodloc31,tr0,19700,512200).
route(prodloc23,prodloc31,tr13,19700,118200).
route(prodloc23,prodloc32,tr0,14778,384228).
route(prodloc23,prodloc32,tr13,14778,88668).
route(prodloc23,prodloc33,tr0,9176,238576).
route(prodloc23,prodloc33,tr13,9176,55056).
route(prodloc24,harbor0,tr0,7781,202306).
route(prodloc24,harbor0,tr13,7781,46686).
route(prodloc24,harbor1,tr0,28272,735072).
route(prodloc24,harbor1,tr13,28272,169632).
route(prodloc24,harbor2,tr0,5853,152178).
route(prodloc24,harbor2,tr13,5853,35118).
route(prodloc24,harbor3,tr0,24533,637858).
route(prodloc24,harbor3,tr13,24533,147198).
route(prodloc24,harbor4,tr0,3919,101894).
route(prodloc24,harbor4,tr13,3919,23514).
route(prodloc24,harbor5,tr0,12247,318422).
route(prodloc24,harbor5,tr13,12247,73482).
route(prodloc24,harbor6,tr0,20636,536536).
route(prodloc24,harbor6,tr13,20636,123816).
route(prodloc24,harbor7,tr0,14429,375154).
route(prodloc24,harbor7,tr13,14429,86574).
route(prodloc24,harbor8,tr0,16185,420810).
route(prodloc24,harbor8,tr13,16185,97110).
route(prodloc24,harbor9,tr0,17699,460174).
route(prodloc24,harbor9,tr13,17699,106194).
route(prodloc24,harbor10,tr0,24365,633490).
route(prodloc24,harbor10,tr13,24365,146190).
route(prodloc24,harbor11,tr0,16816,437216).
route(prodloc24,harbor11,tr13,16816,100896).
route(prodloc24,harbor12,tr0,13047,339222).
route(prodloc24,harbor12,tr13,13047,78282).
route(prodloc24,harbor13,tr0,1510,39260).
route(prodloc24,harbor13,tr13,1510,9060).
route(prodloc24,harbor14,tr0,28673,745498).
route(prodloc24,harbor14,tr13,28673,172038).
route(prodloc24,harbor15,tr0,3903,101478).
route(prodloc24,harbor15,tr13,3903,23418).
route(prodloc24,harbor16,tr0,4302,111852).
route(prodloc24,harbor16,tr13,4302,25812).
route(prodloc24,prodloc0,tr0,27686,719836).
route(prodloc24,prodloc0,tr13,27686,166116).
route(prodloc24,prodloc1,tr0,15780,410280).
route(prodloc24,prodloc1,tr15,15780,504960).
route(prodloc24,prodloc2,tr0,11610,301860).
route(prodloc24,prodloc2,tr13,11610,69660).
route(prodloc24,prodloc3,tr0,23698,616148).
route(prodloc24,prodloc3,tr13,23698,142188).
route(prodloc24,prodloc4,tr0,27380,711880).
route(prodloc24,prodloc4,tr13,27380,164280).
route(prodloc24,prodloc5,tr0,10549,274274).
route(prodloc24,prodloc5,tr13,10549,63294).
route(prodloc24,prodloc6,tr0,21031,546806).
route(prodloc24,prodloc6,tr13,21031,126186).
route(prodloc24,prodloc7,tr0,6590,171340).
route(prodloc24,prodloc7,tr13,6590,39540).
route(prodloc24,prodloc8,tr0,2883,74958).
route(prodloc24,prodloc8,tr15,2883,92256).
route(prodloc24,prodloc9,tr0,22927,596102).
route(prodloc24,prodloc9,tr13,22927,137562).
route(prodloc24,prodloc10,tr0,19711,512486).
route(prodloc24,prodloc10,tr13,19711,118266).
route(prodloc24,prodloc11,tr0,11793,306618).
route(prodloc24,prodloc11,tr13,11793,70758).
route(prodloc24,prodloc12,tr0,15635,406510).
route(prodloc24,prodloc12,tr13,15635,93810).
route(prodloc24,prodloc13,tr0,21776,566176).
route(prodloc24,prodloc13,tr13,21776,130656).
route(prodloc24,prodloc14,tr0,15328,398528).
route(prodloc24,prodloc14,tr13,15328,91968).
route(prodloc24,prodloc15,tr0,3259,84734).
route(prodloc24,prodloc15,tr13,3259,19554).
route(prodloc24,prodloc16,tr0,7754,201604).
route(prodloc24,prodloc16,tr13,7754,46524).
route(prodloc24,prodloc17,tr0,3230,83980).
route(prodloc24,prodloc17,tr13,3230,19380).
route(prodloc24,prodloc18,tr0,2548,66248).
route(prodloc24,prodloc18,tr13,2548,15288).
route(prodloc24,prodloc19,tr0,13578,353028).
route(prodloc24,prodloc19,tr13,13578,81468).
route(prodloc24,prodloc20,tr0,27488,714688).
route(prodloc24,prodloc20,tr13,27488,164928).
route(prodloc24,prodloc21,tr0,25902,673452).
route(prodloc24,prodloc21,tr13,25902,155412).
route(prodloc24,prodloc22,tr0,17472,454272).
route(prodloc24,prodloc22,tr13,17472,104832).
route(prodloc24,prodloc23,tr0,24755,643630).
route(prodloc24,prodloc23,tr13,24755,148530).
route(prodloc24,prodloc25,tr0,25286,657436).
route(prodloc24,prodloc25,tr13,25286,151716).
route(prodloc24,prodloc26,tr0,12664,329264).
route(prodloc24,prodloc26,tr13,12664,75984).
route(prodloc24,prodloc28,tr0,8378,217828).
route(prodloc24,prodloc28,tr13,8378,50268).
route(prodloc24,prodloc29,tr0,5670,147420).
route(prodloc24,prodloc29,tr13,5670,34020).
route(prodloc24,prodloc30,tr0,18865,490490).
route(prodloc24,prodloc30,tr13,18865,113190).
route(prodloc24,prodloc31,tr0,14555,378430).
route(prodloc24,prodloc31,tr13,14555,87330).
route(prodloc24,prodloc32,tr0,3956,102856).
route(prodloc24,prodloc32,tr13,3956,23736).
route(prodloc24,prodloc33,tr0,8156,212056).
route(prodloc24,prodloc33,tr13,8156,48936).
route(prodloc25,harbor0,tr0,25491,662766).
route(prodloc25,harbor0,tr13,25491,152946).
route(prodloc25,harbor1,tr0,4160,108160).
route(prodloc25,harbor1,tr13,4160,24960).
route(prodloc25,harbor2,tr0,15438,401388).
route(prodloc25,harbor2,tr13,15438,92628).
route(prodloc25,harbor3,tr0,1812,47112).
route(prodloc25,harbor3,tr13,1812,10872).
route(prodloc25,harbor4,tr0,18161,472186).
route(prodloc25,harbor4,tr13,18161,108966).
route(prodloc25,harbor5,tr0,2890,75140).
route(prodloc25,harbor5,tr13,2890,17340).
route(prodloc25,harbor6,tr0,19745,513370).
route(prodloc25,harbor6,tr13,19745,118470).
route(prodloc25,harbor7,tr0,25467,662142).
route(prodloc25,harbor7,tr13,25467,152802).
route(prodloc25,harbor8,tr0,10930,284180).
route(prodloc25,harbor8,tr13,10930,65580).
route(prodloc25,harbor9,tr0,27863,724438).
route(prodloc25,harbor9,tr13,27863,167178).
route(prodloc25,harbor10,tr0,26299,683774).
route(prodloc25,harbor10,tr13,26299,157794).
route(prodloc25,harbor11,tr0,24032,624832).
route(prodloc25,harbor11,tr13,24032,144192).
route(prodloc25,harbor12,tr0,21969,571194).
route(prodloc25,harbor12,tr13,21969,131814).
route(prodloc25,harbor13,tr0,25032,650832).
route(prodloc25,harbor13,tr13,25032,150192).
route(prodloc25,harbor14,tr0,14640,380640).
route(prodloc25,harbor14,tr13,14640,87840).
route(prodloc25,harbor15,tr0,9044,235144).
route(prodloc25,harbor15,tr13,9044,54264).
route(prodloc25,harbor16,tr0,25588,665288).
route(prodloc25,harbor16,tr13,25588,153528).
route(prodloc25,prodloc0,tr0,15680,407680).
route(prodloc25,prodloc0,tr13,15680,94080).
route(prodloc25,prodloc1,tr0,18016,468416).
route(prodloc25,prodloc1,tr13,18016,108096).
route(prodloc25,prodloc2,tr0,13172,342472).
route(prodloc25,prodloc2,tr13,13172,79032).
route(prodloc25,prodloc3,tr0,16932,440232).
route(prodloc25,prodloc3,tr13,16932,101592).
route(prodloc25,prodloc4,tr0,27217,707642).
route(prodloc25,prodloc4,tr13,27217,163302).
route(prodloc25,prodloc5,tr13,6070,36420).
route(prodloc25,prodloc5,tr15,6070,194240).
route(prodloc25,prodloc6,tr0,13201,343226).
route(prodloc25,prodloc6,tr13,13201,79206).
route(prodloc25,prodloc7,tr0,8063,209638).
route(prodloc25,prodloc7,tr13,8063,48378).
route(prodloc25,prodloc8,tr0,9046,235196).
route(prodloc25,prodloc8,tr13,9046,54276).
route(prodloc25,prodloc9,tr0,19140,497640).
route(prodloc25,prodloc9,tr13,19140,114840).
route(prodloc25,prodloc10,tr0,23913,621738).
route(prodloc25,prodloc10,tr13,23913,143478).
route(prodloc25,prodloc11,tr0,27570,716820).
route(prodloc25,prodloc11,tr13,27570,165420).
route(prodloc25,prodloc12,tr0,5706,148356).
route(prodloc25,prodloc12,tr13,5706,34236).
route(prodloc25,prodloc13,tr0,28604,743704).
route(prodloc25,prodloc13,tr13,28604,171624).
route(prodloc25,prodloc14,tr0,26030,676780).
route(prodloc25,prodloc14,tr13,26030,156180).
route(prodloc25,prodloc15,tr0,8067,209742).
route(prodloc25,prodloc15,tr13,8067,48402).
route(prodloc25,prodloc16,tr0,27183,706758).
route(prodloc25,prodloc16,tr13,27183,163098).
route(prodloc25,prodloc17,tr0,24289,631514).
route(prodloc25,prodloc17,tr13,24289,145734).
route(prodloc25,prodloc18,tr0,15463,402038).
route(prodloc25,prodloc18,tr13,15463,92778).
route(prodloc25,prodloc19,tr0,10153,263978).
route(prodloc25,prodloc19,tr13,10153,60918).
route(prodloc25,prodloc20,tr0,22736,591136).
route(prodloc25,prodloc20,tr13,22736,136416).
route(prodloc25,prodloc21,tr0,459,11934).
route(prodloc25,prodloc21,tr13,459,2754).
route(prodloc25,prodloc22,tr0,7027,182702).
route(prodloc25,prodloc22,tr13,7027,42162).
route(prodloc25,prodloc23,tr0,3222,83772).
route(prodloc25,prodloc23,tr13,3222,19332).
route(prodloc25,prodloc24,tr0,12245,318370).
route(prodloc25,prodloc24,tr13,12245,73470).
route(prodloc25,prodloc26,tr0,7709,200434).
route(prodloc25,prodloc26,tr13,7709,46254).
route(prodloc25,prodloc27,tr0,21115,548990).
route(prodloc25,prodloc27,tr13,21115,126690).
route(prodloc25,prodloc28,tr0,25093,652418).
route(prodloc25,prodloc28,tr13,25093,150558).
route(prodloc25,prodloc29,tr0,24752,643552).
route(prodloc25,prodloc29,tr13,24752,148512).
route(prodloc25,prodloc30,tr0,25776,670176).
route(prodloc25,prodloc30,tr13,25776,154656).
route(prodloc25,prodloc31,tr0,28777,748202).
route(prodloc25,prodloc31,tr13,28777,172662).
route(prodloc25,prodloc32,tr0,12104,314704).
route(prodloc25,prodloc32,tr13,12104,72624).
route(prodloc25,prodloc33,tr0,18818,489268).
route(prodloc25,prodloc33,tr13,18818,112908).
route(prodloc26,harbor0,tr0,15956,414856).
route(prodloc26,harbor0,tr13,15956,95736).
route(prodloc26,harbor1,tr0,22881,594906).
route(prodloc26,harbor1,tr13,22881,137286).
route(prodloc26,harbor2,tr0,547,14222).
route(prodloc26,harbor2,tr13,547,3282).
route(prodloc26,harbor3,tr0,27307,709982).
route(prodloc26,harbor3,tr13,27307,163842).
route(prodloc26,harbor4,tr0,28739,747214).
route(prodloc26,harbor4,tr13,28739,172434).
route(prodloc26,harbor5,tr0,5774,150124).
route(prodloc26,harbor5,tr13,5774,34644).
route(prodloc26,harbor6,tr0,18961,492986).
route(prodloc26,harbor6,tr13,18961,113766).
route(prodloc26,harbor7,tr0,4635,120510).
route(prodloc26,harbor7,tr13,4635,27810).
route(prodloc26,harbor8,tr0,15172,394472).
route(prodloc26,harbor8,tr13,15172,91032).
route(prodloc26,harbor9,tr0,11157,290082).
route(prodloc26,harbor9,tr13,11157,66942).
route(prodloc26,harbor10,tr0,28719,746694).
route(prodloc26,harbor10,tr13,28719,172314).
route(prodloc26,harbor11,tr0,12672,329472).
route(prodloc26,harbor11,tr13,12672,76032).
route(prodloc26,harbor12,tr0,5190,134940).
route(prodloc26,harbor12,tr13,5190,31140).
route(prodloc26,harbor13,tr0,15570,404820).
route(prodloc26,harbor13,tr13,15570,93420).
route(prodloc26,harbor14,tr0,25070,651820).
route(prodloc26,harbor14,tr13,25070,150420).
route(prodloc26,harbor15,tr0,9997,259922).
route(prodloc26,harbor15,tr13,9997,59982).
route(prodloc26,harbor16,tr0,27241,708266).
route(prodloc26,harbor16,tr13,27241,163446).
route(prodloc26,prodloc0,tr0,8707,226382).
route(prodloc26,prodloc0,tr13,8707,52242).
route(prodloc26,prodloc1,tr0,17128,445328).
route(prodloc26,prodloc1,tr13,17128,102768).
route(prodloc26,prodloc2,tr0,2559,66534).
route(prodloc26,prodloc2,tr13,2559,15354).
route(prodloc26,prodloc3,tr0,24735,643110).
route(prodloc26,prodloc3,tr13,24735,148410).
route(prodloc26,prodloc4,tr13,15409,92454).
route(prodloc26,prodloc4,tr15,15409,493088).
route(prodloc26,prodloc5,tr0,13768,357968).
route(prodloc26,prodloc5,tr13,13768,82608).
route(prodloc26,prodloc6,tr0,14597,379522).
route(prodloc26,prodloc6,tr13,14597,87582).
route(prodloc26,prodloc7,tr0,12295,319670).
route(prodloc26,prodloc7,tr13,12295,73770).
route(prodloc26,prodloc8,tr0,12550,326300).
route(prodloc26,prodloc8,tr13,12550,75300).
route(prodloc26,prodloc9,tr0,11359,295334).
route(prodloc26,prodloc9,tr13,11359,68154).
route(prodloc26,prodloc10,tr0,7301,189826).
route(prodloc26,prodloc10,tr13,7301,43806).
route(prodloc26,prodloc11,tr0,24929,648154).
route(prodloc26,prodloc11,tr13,24929,149574).
route(prodloc26,prodloc12,tr0,24652,640952).
route(prodloc26,prodloc12,tr13,24652,147912).
route(prodloc26,prodloc13,tr13,22652,135912).
route(prodloc26,prodloc13,tr15,22652,724864).
route(prodloc26,prodloc14,tr0,1915,49790).
route(prodloc26,prodloc14,tr13,1915,11490).
route(prodloc26,prodloc15,tr0,22439,583414).
route(prodloc26,prodloc15,tr13,22439,134634).
route(prodloc26,prodloc16,tr0,24970,649220).
route(prodloc26,prodloc16,tr13,24970,149820).
route(prodloc26,prodloc17,tr0,13018,338468).
route(prodloc26,prodloc17,tr13,13018,78108).
route(prodloc26,prodloc18,tr0,14206,369356).
route(prodloc26,prodloc18,tr13,14206,85236).
route(prodloc26,prodloc19,tr0,24981,649506).
route(prodloc26,prodloc19,tr13,24981,149886).
route(prodloc26,prodloc20,tr0,22746,591396).
route(prodloc26,prodloc20,tr13,22746,136476).
route(prodloc26,prodloc21,tr0,11849,308074).
route(prodloc26,prodloc21,tr13,11849,71094).
route(prodloc26,prodloc22,tr0,15381,399906).
route(prodloc26,prodloc22,tr13,15381,92286).
route(prodloc26,prodloc23,tr0,22181,576706).
route(prodloc26,prodloc23,tr13,22181,133086).
route(prodloc26,prodloc24,tr0,2676,69576).
route(prodloc26,prodloc24,tr13,2676,16056).
route(prodloc26,prodloc25,tr0,416,10816).
route(prodloc26,prodloc25,tr13,416,2496).
route(prodloc26,prodloc27,tr0,17910,465660).
route(prodloc26,prodloc27,tr13,17910,107460).
route(prodloc26,prodloc28,tr0,14864,386464).
route(prodloc26,prodloc28,tr13,14864,89184).
route(prodloc26,prodloc29,tr0,23827,619502).
route(prodloc26,prodloc29,tr13,23827,142962).
route(prodloc26,prodloc30,tr0,8841,229866).
route(prodloc26,prodloc30,tr13,8841,53046).
route(prodloc26,prodloc31,tr0,5569,144794).
route(prodloc26,prodloc31,tr13,5569,33414).
route(prodloc26,prodloc32,tr0,5044,131144).
route(prodloc26,prodloc32,tr13,5044,30264).
route(prodloc26,prodloc33,tr0,20118,523068).
route(prodloc26,prodloc33,tr13,20118,120708).
route(prodloc27,harbor0,tr0,21483,558558).
route(prodloc27,harbor0,tr13,21483,128898).
route(prodloc27,harbor1,tr0,8834,229684).
route(prodloc27,harbor1,tr13,8834,53004).
route(prodloc27,harbor2,tr0,366,9516).
route(prodloc27,harbor2,tr13,366,2196).
route(prodloc27,harbor3,tr0,4037,104962).
route(prodloc27,harbor3,tr13,4037,24222).
route(prodloc27,harbor4,tr0,1567,40742).
route(prodloc27,harbor4,tr13,1567,9402).
route(prodloc27,harbor5,tr0,25117,653042).
route(prodloc27,harbor5,tr13,25117,150702).
route(prodloc27,harbor6,tr0,12790,332540).
route(prodloc27,harbor6,tr13,12790,76740).
route(prodloc27,harbor7,tr0,2903,75478).
route(prodloc27,harbor7,tr13,2903,17418).
route(prodloc27,harbor8,tr0,8119,211094).
route(prodloc27,harbor8,tr13,8119,48714).
route(prodloc27,harbor9,tr0,20542,534092).
route(prodloc27,harbor9,tr13,20542,123252).
route(prodloc27,harbor10,tr0,5811,151086).
route(prodloc27,harbor10,tr13,5811,34866).
route(prodloc27,harbor11,tr0,6420,166920).
route(prodloc27,harbor11,tr13,6420,38520).
route(prodloc27,harbor12,tr0,10788,280488).
route(prodloc27,harbor12,tr13,10788,64728).
route(prodloc27,harbor13,tr0,10856,282256).
route(prodloc27,harbor13,tr13,10856,65136).
route(prodloc27,harbor14,tr0,25707,668382).
route(prodloc27,harbor14,tr13,25707,154242).
route(prodloc27,harbor15,tr0,6441,167466).
route(prodloc27,harbor15,tr13,6441,38646).
route(prodloc27,harbor16,tr0,16827,437502).
route(prodloc27,harbor16,tr13,16827,100962).
route(prodloc27,prodloc0,tr0,24711,642486).
route(prodloc27,prodloc0,tr13,24711,148266).
route(prodloc27,prodloc1,tr0,18788,488488).
route(prodloc27,prodloc1,tr13,18788,112728).
route(prodloc27,prodloc2,tr0,3297,85722).
route(prodloc27,prodloc2,tr13,3297,19782).
route(prodloc27,prodloc3,tr0,24260,630760).
route(prodloc27,prodloc3,tr13,24260,145560).
route(prodloc27,prodloc4,tr0,7811,203086).
route(prodloc27,prodloc4,tr13,7811,46866).
route(prodloc27,prodloc5,tr0,3830,99580).
route(prodloc27,prodloc5,tr13,3830,22980).
route(prodloc27,prodloc6,tr0,12351,321126).
route(prodloc27,prodloc6,tr13,12351,74106).
route(prodloc27,prodloc7,tr0,22206,577356).
route(prodloc27,prodloc7,tr13,22206,133236).
route(prodloc27,prodloc8,tr0,25650,666900).
route(prodloc27,prodloc8,tr13,25650,153900).
route(prodloc27,prodloc9,tr0,23620,614120).
route(prodloc27,prodloc9,tr13,23620,141720).
route(prodloc27,prodloc10,tr0,2921,75946).
route(prodloc27,prodloc10,tr13,2921,17526).
route(prodloc27,prodloc11,tr0,10593,275418).
route(prodloc27,prodloc11,tr13,10593,63558).
route(prodloc27,prodloc12,tr0,5217,135642).
route(prodloc27,prodloc12,tr15,5217,166944).
route(prodloc27,prodloc13,tr0,13163,342238).
route(prodloc27,prodloc13,tr13,13163,78978).
route(prodloc27,prodloc14,tr0,28648,744848).
route(prodloc27,prodloc14,tr13,28648,171888).
route(prodloc27,prodloc15,tr0,17639,458614).
route(prodloc27,prodloc15,tr13,17639,105834).
route(prodloc27,prodloc16,tr0,5765,149890).
route(prodloc27,prodloc16,tr13,5765,34590).
route(prodloc27,prodloc17,tr0,17385,452010).
route(prodloc27,prodloc17,tr13,17385,104310).
route(prodloc27,prodloc18,tr0,3348,87048).
route(prodloc27,prodloc18,tr13,3348,20088).
route(prodloc27,prodloc19,tr0,7296,189696).
route(prodloc27,prodloc19,tr13,7296,43776).
route(prodloc27,prodloc20,tr0,7743,201318).
route(prodloc27,prodloc20,tr13,7743,46458).
route(prodloc27,prodloc21,tr0,11539,300014).
route(prodloc27,prodloc21,tr13,11539,69234).
route(prodloc27,prodloc22,tr0,8872,230672).
route(prodloc27,prodloc22,tr13,8872,53232).
route(prodloc27,prodloc23,tr0,21090,548340).
route(prodloc27,prodloc23,tr13,21090,126540).
route(prodloc27,prodloc24,tr0,25465,662090).
route(prodloc27,prodloc24,tr13,25465,152790).
route(prodloc27,prodloc25,tr0,25743,669318).
route(prodloc27,prodloc25,tr13,25743,154458).
route(prodloc27,prodloc26,tr0,25999,675974).
route(prodloc27,prodloc26,tr13,25999,155994).
route(prodloc27,prodloc28,tr0,10542,274092).
route(prodloc27,prodloc28,tr13,10542,63252).
route(prodloc27,prodloc29,tr0,19089,496314).
route(prodloc27,prodloc29,tr13,19089,114534).
route(prodloc27,prodloc30,tr0,1744,45344).
route(prodloc27,prodloc30,tr13,1744,10464).
route(prodloc27,prodloc31,tr0,9172,238472).
route(prodloc27,prodloc31,tr13,9172,55032).
route(prodloc27,prodloc32,tr0,16309,424034).
route(prodloc27,prodloc32,tr13,16309,97854).
route(prodloc27,prodloc33,tr0,24843,645918).
route(prodloc27,prodloc33,tr13,24843,149058).
route(prodloc28,harbor0,tr0,18416,478816).
route(prodloc28,harbor0,tr13,18416,110496).
route(prodloc28,harbor1,tr0,9540,248040).
route(prodloc28,harbor1,tr13,9540,57240).
route(prodloc28,harbor2,tr0,28108,730808).
route(prodloc28,harbor2,tr13,28108,168648).
route(prodloc28,harbor3,tr0,19471,506246).
route(prodloc28,harbor3,tr13,19471,116826).
route(prodloc28,harbor4,tr0,18797,488722).
route(prodloc28,harbor4,tr13,18797,112782).
route(prodloc28,harbor5,tr0,4526,117676).
route(prodloc28,harbor5,tr13,4526,27156).
route(prodloc28,harbor6,tr0,17818,463268).
route(prodloc28,harbor6,tr13,17818,106908).
route(prodloc28,harbor7,tr0,20917,543842).
route(prodloc28,harbor7,tr13,20917,125502).
route(prodloc28,harbor8,tr0,25587,665262).
route(prodloc28,harbor8,tr13,25587,153522).
route(prodloc28,harbor9,tr0,16750,435500).
route(prodloc28,harbor9,tr13,16750,100500).
route(prodloc28,harbor10,tr0,21736,565136).
route(prodloc28,harbor10,tr13,21736,130416).
route(prodloc28,harbor11,tr0,11558,300508).
route(prodloc28,harbor11,tr13,11558,69348).
route(prodloc28,harbor12,tr0,20530,533780).
route(prodloc28,harbor12,tr13,20530,123180).
route(prodloc28,harbor13,tr0,13331,346606).
route(prodloc28,harbor13,tr13,13331,79986).
route(prodloc28,harbor14,tr0,579,15054).
route(prodloc28,harbor14,tr13,579,3474).
route(prodloc28,harbor15,tr0,4953,128778).
route(prodloc28,harbor15,tr13,4953,29718).
route(prodloc28,harbor16,tr0,23172,602472).
route(prodloc28,harbor16,tr13,23172,139032).
route(prodloc28,prodloc0,tr0,26708,694408).
route(prodloc28,prodloc0,tr13,26708,160248).
route(prodloc28,prodloc1,tr0,14404,374504).
route(prodloc28,prodloc1,tr13,14404,86424).
route(prodloc28,prodloc2,tr0,11282,293332).
route(prodloc28,prodloc2,tr13,11282,67692).
route(prodloc28,prodloc3,tr0,17767,461942).
route(prodloc28,prodloc3,tr13,17767,106602).
route(prodloc28,prodloc4,tr0,20093,522418).
route(prodloc28,prodloc4,tr13,20093,120558).
route(prodloc28,prodloc5,tr0,17731,461006).
route(prodloc28,prodloc5,tr13,17731,106386).
route(prodloc28,prodloc6,tr0,18575,482950).
route(prodloc28,prodloc6,tr13,18575,111450).
route(prodloc28,prodloc7,tr0,25601,665626).
route(prodloc28,prodloc7,tr13,25601,153606).
route(prodloc28,prodloc8,tr0,19108,496808).
route(prodloc28,prodloc8,tr13,19108,114648).
route(prodloc28,prodloc9,tr0,5349,139074).
route(prodloc28,prodloc9,tr13,5349,32094).
route(prodloc28,prodloc10,tr0,28664,745264).
route(prodloc28,prodloc10,tr13,28664,171984).
route(prodloc28,prodloc11,tr0,6510,169260).
route(prodloc28,prodloc11,tr13,6510,39060).
route(prodloc28,prodloc12,tr0,4640,120640).
route(prodloc28,prodloc12,tr13,4640,27840).
route(prodloc28,prodloc13,tr0,28324,736424).
route(prodloc28,prodloc13,tr15,28324,906368).
route(prodloc28,prodloc14,tr0,26889,699114).
route(prodloc28,prodloc14,tr13,26889,161334).
route(prodloc28,prodloc15,tr0,8732,227032).
route(prodloc28,prodloc15,tr13,8732,52392).
route(prodloc28,prodloc16,tr0,27702,720252).
route(prodloc28,prodloc16,tr13,27702,166212).
route(prodloc28,prodloc17,tr0,27128,705328).
route(prodloc28,prodloc17,tr13,27128,162768).
route(prodloc28,prodloc18,tr0,1163,30238).
route(prodloc28,prodloc18,tr13,1163,6978).
route(prodloc28,prodloc19,tr0,17051,443326).
route(prodloc28,prodloc19,tr13,17051,102306).
route(prodloc28,prodloc20,tr0,18049,469274).
route(prodloc28,prodloc20,tr13,18049,108294).
route(prodloc28,prodloc21,tr0,21670,563420).
route(prodloc28,prodloc21,tr13,21670,130020).
route(prodloc28,prodloc22,tr0,26928,700128).
route(prodloc28,prodloc22,tr13,26928,161568).
route(prodloc28,prodloc23,tr0,19280,501280).
route(prodloc28,prodloc23,tr13,19280,115680).
route(prodloc28,prodloc24,tr0,10354,269204).
route(prodloc28,prodloc24,tr13,10354,62124).
route(prodloc28,prodloc25,tr0,23570,612820).
route(prodloc28,prodloc25,tr13,23570,141420).
route(prodloc28,prodloc26,tr0,5032,130832).
route(prodloc28,prodloc26,tr13,5032,30192).
route(prodloc28,prodloc27,tr0,21236,552136).
route(prodloc28,prodloc27,tr13,21236,127416).
route(prodloc28,prodloc29,tr0,4945,128570).
route(prodloc28,prodloc29,tr13,4945,29670).
route(prodloc28,prodloc30,tr0,7229,187954).
route(prodloc28,prodloc30,tr13,7229,43374).
route(prodloc28,prodloc31,tr0,24921,647946).
route(prodloc28,prodloc31,tr13,24921,149526).
route(prodloc28,prodloc32,tr0,1202,31252).
route(prodloc28,prodloc32,tr13,1202,7212).
route(prodloc28,prodloc33,tr0,11185,290810).
route(prodloc28,prodloc33,tr13,11185,67110).
route(prodloc29,harbor0,tr0,25812,671112).
route(prodloc29,harbor0,tr13,25812,154872).
route(prodloc29,harbor1,tr0,2720,70720).
route(prodloc29,harbor1,tr13,2720,16320).
route(prodloc29,harbor2,tr0,18221,473746).
route(prodloc29,harbor2,tr13,18221,109326).
route(prodloc29,harbor3,tr0,1125,29250).
route(prodloc29,harbor3,tr13,1125,6750).
route(prodloc29,harbor4,tr0,2529,65754).
route(prodloc29,harbor4,tr13,2529,15174).
route(prodloc29,harbor5,tr0,21173,550498).
route(prodloc29,harbor5,tr13,21173,127038).
route(prodloc29,harbor6,tr0,7617,198042).
route(prodloc29,harbor6,tr13,7617,45702).
route(prodloc29,harbor7,tr0,6961,180986).
route(prodloc29,harbor7,tr13,6961,41766).
route(prodloc29,harbor8,tr0,19995,519870).
route(prodloc29,harbor8,tr13,19995,119970).
route(prodloc29,harbor9,tr0,3343,86918).
route(prodloc29,harbor9,tr13,3343,20058).
route(prodloc29,harbor10,tr0,364,9464).
route(prodloc29,harbor10,tr13,364,2184).
route(prodloc29,harbor11,tr0,8368,217568).
route(prodloc29,harbor11,tr13,8368,50208).
route(prodloc29,harbor12,tr0,7499,194974).
route(prodloc29,harbor12,tr13,7499,44994).
route(prodloc29,harbor13,tr0,12926,336076).
route(prodloc29,harbor13,tr13,12926,77556).
route(prodloc29,harbor14,tr0,12069,313794).
route(prodloc29,harbor14,tr13,12069,72414).
route(prodloc29,harbor15,tr0,3838,99788).
route(prodloc29,harbor15,tr13,3838,23028).
route(prodloc29,harbor16,tr0,3450,89700).
route(prodloc29,harbor16,tr13,3450,20700).
route(prodloc29,prodloc0,tr0,10064,261664).
route(prodloc29,prodloc0,tr13,10064,60384).
route(prodloc29,prodloc1,tr0,17006,442156).
route(prodloc29,prodloc1,tr13,17006,102036).
route(prodloc29,prodloc2,tr0,500,13000).
route(prodloc29,prodloc2,tr13,500,3000).
route(prodloc29,prodloc3,tr0,11911,309686).
route(prodloc29,prodloc3,tr13,11911,71466).
route(prodloc29,prodloc4,tr0,15488,402688).
route(prodloc29,prodloc4,tr13,15488,92928).
route(prodloc29,prodloc5,tr0,11942,310492).
route(prodloc29,prodloc5,tr13,11942,71652).
route(prodloc29,prodloc6,tr0,20808,541008).
route(prodloc29,prodloc6,tr13,20808,124848).
route(prodloc29,prodloc7,tr0,3612,93912).
route(prodloc29,prodloc7,tr13,3612,21672).
route(prodloc29,prodloc8,tr0,2920,75920).
route(prodloc29,prodloc8,tr13,2920,17520).
route(prodloc29,prodloc9,tr0,19753,513578).
route(prodloc29,prodloc9,tr13,19753,118518).
route(prodloc29,prodloc10,tr0,19690,511940).
route(prodloc29,prodloc10,tr13,19690,118140).
route(prodloc29,prodloc11,tr0,21875,568750).
route(prodloc29,prodloc11,tr13,21875,131250).
route(prodloc29,prodloc12,tr0,10294,267644).
route(prodloc29,prodloc12,tr13,10294,61764).
route(prodloc29,prodloc13,tr0,24467,636142).
route(prodloc29,prodloc13,tr13,24467,146802).
route(prodloc29,prodloc14,tr0,24712,642512).
route(prodloc29,prodloc14,tr13,24712,148272).
route(prodloc29,prodloc15,tr0,28271,735046).
route(prodloc29,prodloc15,tr13,28271,169626).
route(prodloc29,prodloc16,tr0,11351,295126).
route(prodloc29,prodloc16,tr13,11351,68106).
route(prodloc29,prodloc17,tr0,28324,736424).
route(prodloc29,prodloc17,tr13,28324,169944).
route(prodloc29,prodloc18,tr0,19498,506948).
route(prodloc29,prodloc18,tr13,19498,116988).
route(prodloc29,prodloc19,tr0,12219,317694).
route(prodloc29,prodloc19,tr13,12219,73314).
route(prodloc29,prodloc20,tr0,15678,407628).
route(prodloc29,prodloc20,tr13,15678,94068).
route(prodloc29,prodloc21,tr0,7550,196300).
route(prodloc29,prodloc21,tr13,7550,45300).
route(prodloc29,prodloc22,tr0,21183,550758).
route(prodloc29,prodloc22,tr13,21183,127098).
route(prodloc29,prodloc23,tr0,3003,78078).
route(prodloc29,prodloc23,tr13,3003,18018).
route(prodloc29,prodloc24,tr0,22744,591344).
route(prodloc29,prodloc24,tr13,22744,136464).
route(prodloc29,prodloc25,tr0,25765,669890).
route(prodloc29,prodloc25,tr13,25765,154590).
route(prodloc29,prodloc26,tr0,21084,548184).
route(prodloc29,prodloc26,tr13,21084,126504).
route(prodloc29,prodloc27,tr0,15898,413348).
route(prodloc29,prodloc27,tr13,15898,95388).
route(prodloc29,prodloc28,tr0,3634,94484).
route(prodloc29,prodloc28,tr13,3634,21804).
route(prodloc29,prodloc30,tr0,27053,703378).
route(prodloc29,prodloc30,tr13,27053,162318).
route(prodloc29,prodloc31,tr0,23594,613444).
route(prodloc29,prodloc31,tr13,23594,141564).
route(prodloc29,prodloc32,tr0,8778,228228).
route(prodloc29,prodloc32,tr13,8778,52668).
route(prodloc29,prodloc33,tr0,964,25064).
route(prodloc29,prodloc33,tr13,964,5784).
route(prodloc30,harbor0,tr0,20567,534742).
route(prodloc30,harbor0,tr13,20567,123402).
route(prodloc30,harbor1,tr0,25524,663624).
route(prodloc30,harbor1,tr13,25524,153144).
route(prodloc30,harbor2,tr0,24228,629928).
route(prodloc30,harbor2,tr13,24228,145368).
route(prodloc30,harbor3,tr0,27444,713544).
route(prodloc30,harbor3,tr13,27444,164664).
route(prodloc30,harbor4,tr0,8955,232830).
route(prodloc30,harbor4,tr13,8955,53730).
route(prodloc30,harbor5,tr0,23781,618306).
route(prodloc30,harbor5,tr13,23781,142686).
route(prodloc30,harbor6,tr0,12325,320450).
route(prodloc30,harbor6,tr13,12325,73950).
route(prodloc30,harbor7,tr0,15572,404872).
route(prodloc30,harbor7,tr13,15572,93432).
route(prodloc30,harbor8,tr0,2774,72124).
route(prodloc30,harbor8,tr13,2774,16644).
route(prodloc30,harbor9,tr0,24822,645372).
route(prodloc30,harbor9,tr13,24822,148932).
route(prodloc30,harbor10,tr0,7237,188162).
route(prodloc30,harbor10,tr13,7237,43422).
route(prodloc30,harbor11,tr0,24262,630812).
route(prodloc30,harbor11,tr13,24262,145572).
route(prodloc30,harbor12,tr0,18995,493870).
route(prodloc30,harbor12,tr13,18995,113970).
route(prodloc30,harbor13,tr0,11960,310960).
route(prodloc30,harbor13,tr13,11960,71760).
route(prodloc30,harbor14,tr0,23072,599872).
route(prodloc30,harbor14,tr13,23072,138432).
route(prodloc30,harbor15,tr0,11182,290732).
route(prodloc30,harbor15,tr13,11182,67092).
route(prodloc30,harbor16,tr0,24373,633698).
route(prodloc30,harbor16,tr13,24373,146238).
route(prodloc30,prodloc0,tr0,21764,565864).
route(prodloc30,prodloc0,tr13,21764,130584).
route(prodloc30,prodloc1,tr0,19219,499694).
route(prodloc30,prodloc1,tr13,19219,115314).
route(prodloc30,prodloc2,tr0,14309,372034).
route(prodloc30,prodloc2,tr13,14309,85854).
route(prodloc30,prodloc3,tr0,23388,608088).
route(prodloc30,prodloc3,tr13,23388,140328).
route(prodloc30,prodloc4,tr0,4482,116532).
route(prodloc30,prodloc4,tr13,4482,26892).
route(prodloc30,prodloc5,tr0,7042,183092).
route(prodloc30,prodloc5,tr13,7042,42252).
route(prodloc30,prodloc6,tr0,16237,422162).
route(prodloc30,prodloc6,tr13,16237,97422).
route(prodloc30,prodloc7,tr0,10881,282906).
route(prodloc30,prodloc7,tr13,10881,65286).
route(prodloc30,prodloc8,tr0,2771,72046).
route(prodloc30,prodloc8,tr13,2771,16626).
route(prodloc30,prodloc9,tr0,10114,262964).
route(prodloc30,prodloc9,tr13,10114,60684).
route(prodloc30,prodloc10,tr0,508,13208).
route(prodloc30,prodloc10,tr13,508,3048).
route(prodloc30,prodloc11,tr0,27626,718276).
route(prodloc30,prodloc11,tr13,27626,165756).
route(prodloc30,prodloc12,tr0,16145,419770).
route(prodloc30,prodloc12,tr13,16145,96870).
route(prodloc30,prodloc13,tr0,17437,453362).
route(prodloc30,prodloc13,tr13,17437,104622).
route(prodloc30,prodloc14,tr0,11957,310882).
route(prodloc30,prodloc14,tr13,11957,71742).
route(prodloc30,prodloc15,tr0,18679,485654).
route(prodloc30,prodloc15,tr13,18679,112074).
route(prodloc30,prodloc16,tr0,5797,150722).
route(prodloc30,prodloc16,tr13,5797,34782).
route(prodloc30,prodloc17,tr0,11894,309244).
route(prodloc30,prodloc17,tr13,11894,71364).
route(prodloc30,prodloc18,tr0,18395,478270).
route(prodloc30,prodloc18,tr13,18395,110370).
route(prodloc30,prodloc19,tr0,22632,588432).
route(prodloc30,prodloc19,tr13,22632,135792).
route(prodloc30,prodloc20,tr0,10280,267280).
route(prodloc30,prodloc20,tr13,10280,61680).
route(prodloc30,prodloc21,tr0,26015,676390).
route(prodloc30,prodloc21,tr13,26015,156090).
route(prodloc30,prodloc22,tr0,9009,234234).
route(prodloc30,prodloc22,tr13,9009,54054).
route(prodloc30,prodloc23,tr0,2173,56498).
route(prodloc30,prodloc23,tr13,2173,13038).
route(prodloc30,prodloc24,tr0,27068,703768).
route(prodloc30,prodloc24,tr13,27068,162408).
route(prodloc30,prodloc25,tr0,13299,345774).
route(prodloc30,prodloc25,tr13,13299,79794).
route(prodloc30,prodloc26,tr0,23004,598104).
route(prodloc30,prodloc26,tr13,23004,138024).
route(prodloc30,prodloc27,tr0,16869,438594).
route(prodloc30,prodloc27,tr13,16869,101214).
route(prodloc30,prodloc28,tr0,11234,292084).
route(prodloc30,prodloc28,tr13,11234,67404).
route(prodloc30,prodloc29,tr0,147,3822).
route(prodloc30,prodloc29,tr13,147,882).
route(prodloc30,prodloc31,tr0,27483,714558).
route(prodloc30,prodloc31,tr13,27483,164898).
route(prodloc30,prodloc32,tr0,26405,686530).
route(prodloc30,prodloc32,tr13,26405,158430).
route(prodloc30,prodloc33,tr0,24050,625300).
route(prodloc30,prodloc33,tr13,24050,144300).
route(prodloc31,harbor0,tr0,15491,402766).
route(prodloc31,harbor0,tr13,15491,92946).
route(prodloc31,harbor1,tr0,23498,610948).
route(prodloc31,harbor1,tr13,23498,140988).
route(prodloc31,harbor2,tr0,16487,428662).
route(prodloc31,harbor2,tr13,16487,98922).
route(prodloc31,harbor3,tr0,21292,553592).
route(prodloc31,harbor3,tr13,21292,127752).
route(prodloc31,harbor4,tr0,1184,30784).
route(prodloc31,harbor4,tr13,1184,7104).
route(prodloc31,harbor5,tr0,17144,445744).
route(prodloc31,harbor5,tr13,17144,102864).
route(prodloc31,harbor6,tr0,3107,80782).
route(prodloc31,harbor6,tr13,3107,18642).
route(prodloc31,harbor7,tr0,6246,162396).
route(prodloc31,harbor7,tr13,6246,37476).
route(prodloc31,harbor8,tr0,25979,675454).
route(prodloc31,harbor8,tr13,25979,155874).
route(prodloc31,harbor9,tr0,7516,195416).
route(prodloc31,harbor9,tr13,7516,45096).
route(prodloc31,harbor10,tr0,2310,60060).
route(prodloc31,harbor10,tr13,2310,13860).
route(prodloc31,harbor11,tr0,22217,577642).
route(prodloc31,harbor11,tr13,22217,133302).
route(prodloc31,harbor12,tr0,28448,739648).
route(prodloc31,harbor12,tr13,28448,170688).
route(prodloc31,harbor13,tr0,5182,134732).
route(prodloc31,harbor13,tr13,5182,31092).
route(prodloc31,harbor14,tr0,10134,263484).
route(prodloc31,harbor14,tr13,10134,60804).
route(prodloc31,harbor15,tr0,17642,458692).
route(prodloc31,harbor15,tr13,17642,105852).
route(prodloc31,harbor16,tr0,22960,596960).
route(prodloc31,harbor16,tr13,22960,137760).
route(prodloc31,prodloc0,tr0,16683,433758).
route(prodloc31,prodloc0,tr13,16683,100098).
route(prodloc31,prodloc1,tr0,24434,635284).
route(prodloc31,prodloc1,tr13,24434,146604).
route(prodloc31,prodloc2,tr0,20598,535548).
route(prodloc31,prodloc2,tr13,20598,123588).
route(prodloc31,prodloc3,tr0,28923,751998).
route(prodloc31,prodloc3,tr13,28923,173538).
route(prodloc31,prodloc4,tr0,2152,55952).
route(prodloc31,prodloc4,tr13,2152,12912).
route(prodloc31,prodloc5,tr0,6143,159718).
route(prodloc31,prodloc5,tr13,6143,36858).
route(prodloc31,prodloc6,tr0,17143,445718).
route(prodloc31,prodloc6,tr13,17143,102858).
route(prodloc31,prodloc7,tr0,21393,556218).
route(prodloc31,prodloc7,tr13,21393,128358).
route(prodloc31,prodloc8,tr0,21843,567918).
route(prodloc31,prodloc8,tr13,21843,131058).
route(prodloc31,prodloc9,tr0,18092,470392).
route(prodloc31,prodloc9,tr13,18092,108552).
route(prodloc31,prodloc10,tr0,9330,242580).
route(prodloc31,prodloc10,tr13,9330,55980).
route(prodloc31,prodloc11,tr0,25641,666666).
route(prodloc31,prodloc11,tr13,25641,153846).
route(prodloc31,prodloc12,tr0,25838,671788).
route(prodloc31,prodloc12,tr13,25838,155028).
route(prodloc31,prodloc13,tr0,27905,725530).
route(prodloc31,prodloc13,tr13,27905,167430).
route(prodloc31,prodloc14,tr0,16845,437970).
route(prodloc31,prodloc14,tr13,16845,101070).
route(prodloc31,prodloc15,tr0,10122,263172).
route(prodloc31,prodloc15,tr13,10122,60732).
route(prodloc31,prodloc16,tr0,14876,386776).
route(prodloc31,prodloc16,tr13,14876,89256).
route(prodloc31,prodloc17,tr0,18327,476502).
route(prodloc31,prodloc17,tr13,18327,109962).
route(prodloc31,prodloc18,tr0,6155,160030).
route(prodloc31,prodloc18,tr13,6155,36930).
route(prodloc31,prodloc19,tr0,5368,139568).
route(prodloc31,prodloc19,tr13,5368,32208).
route(prodloc31,prodloc20,tr0,14221,369746).
route(prodloc31,prodloc20,tr13,14221,85326).
route(prodloc31,prodloc21,tr0,11635,302510).
route(prodloc31,prodloc21,tr13,11635,69810).
route(prodloc31,prodloc22,tr0,6229,161954).
route(prodloc31,prodloc22,tr13,6229,37374).
route(prodloc31,prodloc23,tr0,15714,408564).
route(prodloc31,prodloc23,tr13,15714,94284).
route(prodloc31,prodloc24,tr0,21080,548080).
route(prodloc31,prodloc24,tr13,21080,126480).
route(prodloc31,prodloc25,tr0,15264,396864).
route(prodloc31,prodloc25,tr13,15264,91584).
route(prodloc31,prodloc26,tr0,22619,588094).
route(prodloc31,prodloc26,tr13,22619,135714).
route(prodloc31,prodloc27,tr0,25243,656318).
route(prodloc31,prodloc27,tr13,25243,151458).
route(prodloc31,prodloc28,tr0,5305,137930).
route(prodloc31,prodloc28,tr13,5305,31830).
route(prodloc31,prodloc29,tr0,17517,455442).
route(prodloc31,prodloc29,tr13,17517,105102).
route(prodloc31,prodloc30,tr0,7784,202384).
route(prodloc31,prodloc30,tr13,7784,46704).
route(prodloc31,prodloc32,tr0,8133,211458).
route(prodloc31,prodloc32,tr13,8133,48798).
route(prodloc31,prodloc33,tr0,16592,431392).
route(prodloc31,prodloc33,tr13,16592,99552).
route(prodloc32,harbor0,tr0,1029,26754).
route(prodloc32,harbor0,tr13,1029,6174).
route(prodloc32,harbor1,tr0,23160,602160).
route(prodloc32,harbor1,tr13,23160,138960).
route(prodloc32,harbor2,tr0,26369,685594).
route(prodloc32,harbor2,tr13,26369,158214).
route(prodloc32,harbor3,tr0,28237,734162).
route(prodloc32,harbor3,tr13,28237,169422).
route(prodloc32,harbor4,tr0,27271,709046).
route(prodloc32,harbor4,tr13,27271,163626).
route(prodloc32,harbor5,tr0,6148,159848).
route(prodloc32,harbor5,tr13,6148,36888).
route(prodloc32,harbor6,tr0,27714,720564).
route(prodloc32,harbor6,tr13,27714,166284).
route(prodloc32,harbor7,tr0,5196,135096).
route(prodloc32,harbor7,tr13,5196,31176).
route(prodloc32,harbor8,tr0,15953,414778).
route(prodloc32,harbor8,tr13,15953,95718).
route(prodloc32,harbor9,tr0,18804,488904).
route(prodloc32,harbor9,tr13,18804,112824).
route(prodloc32,harbor10,tr0,14352,373152).
route(prodloc32,harbor10,tr13,14352,86112).
route(prodloc32,harbor11,tr0,12594,327444).
route(prodloc32,harbor11,tr13,12594,75564).
route(prodloc32,harbor12,tr0,8828,229528).
route(prodloc32,harbor12,tr13,8828,52968).
route(prodloc32,harbor13,tr0,26912,699712).
route(prodloc32,harbor13,tr13,26912,161472).
route(prodloc32,harbor14,tr0,11127,289302).
route(prodloc32,harbor14,tr13,11127,66762).
route(prodloc32,harbor15,tr0,4813,125138).
route(prodloc32,harbor15,tr13,4813,28878).
route(prodloc32,harbor16,tr0,22530,585780).
route(prodloc32,harbor16,tr13,22530,135180).
route(prodloc32,prodloc0,tr0,7583,197158).
route(prodloc32,prodloc0,tr13,7583,45498).
route(prodloc32,prodloc1,tr0,9119,237094).
route(prodloc32,prodloc1,tr13,9119,54714).
route(prodloc32,prodloc2,tr0,24166,628316).
route(prodloc32,prodloc2,tr13,24166,144996).
route(prodloc32,prodloc3,tr0,850,22100).
route(prodloc32,prodloc3,tr13,850,5100).
route(prodloc32,prodloc4,tr0,25603,665678).
route(prodloc32,prodloc4,tr13,25603,153618).
route(prodloc32,prodloc5,tr0,27456,713856).
route(prodloc32,prodloc5,tr13,27456,164736).
route(prodloc32,prodloc6,tr0,3529,91754).
route(prodloc32,prodloc6,tr13,3529,21174).
route(prodloc32,prodloc7,tr0,22064,573664).
route(prodloc32,prodloc7,tr13,22064,132384).
route(prodloc32,prodloc8,tr0,2640,68640).
route(prodloc32,prodloc8,tr13,2640,15840).
route(prodloc32,prodloc9,tr0,23957,622882).
route(prodloc32,prodloc9,tr13,23957,143742).
route(prodloc32,prodloc10,tr0,15704,408304).
route(prodloc32,prodloc10,tr13,15704,94224).
route(prodloc32,prodloc11,tr0,8253,214578).
route(prodloc32,prodloc11,tr13,8253,49518).
route(prodloc32,prodloc12,tr0,17847,464022).
route(prodloc32,prodloc12,tr13,17847,107082).
route(prodloc32,prodloc13,tr0,4450,115700).
route(prodloc32,prodloc13,tr13,4450,26700).
route(prodloc32,prodloc14,tr0,23793,618618).
route(prodloc32,prodloc14,tr13,23793,142758).
route(prodloc32,prodloc15,tr0,3148,81848).
route(prodloc32,prodloc15,tr13,3148,18888).
route(prodloc32,prodloc16,tr0,1928,50128).
route(prodloc32,prodloc16,tr13,1928,11568).
route(prodloc32,prodloc17,tr0,20707,538382).
route(prodloc32,prodloc17,tr13,20707,124242).
route(prodloc32,prodloc18,tr0,541,14066).
route(prodloc32,prodloc18,tr13,541,3246).
route(prodloc32,prodloc19,tr0,17212,447512).
route(prodloc32,prodloc19,tr13,17212,103272).
route(prodloc32,prodloc20,tr0,11939,310414).
route(prodloc32,prodloc20,tr13,11939,71634).
route(prodloc32,prodloc21,tr0,13965,363090).
route(prodloc32,prodloc21,tr13,13965,83790).
route(prodloc32,prodloc22,tr0,17744,461344).
route(prodloc32,prodloc22,tr13,17744,106464).
route(prodloc32,prodloc23,tr0,27926,726076).
route(prodloc32,prodloc23,tr13,27926,167556).
route(prodloc32,prodloc24,tr0,8693,226018).
route(prodloc32,prodloc24,tr13,8693,52158).
route(prodloc32,prodloc25,tr0,4378,113828).
route(prodloc32,prodloc25,tr13,4378,26268).
route(prodloc32,prodloc26,tr0,21429,557154).
route(prodloc32,prodloc26,tr13,21429,128574).
route(prodloc32,prodloc27,tr0,6610,171860).
route(prodloc32,prodloc27,tr13,6610,39660).
route(prodloc32,prodloc28,tr0,19060,495560).
route(prodloc32,prodloc28,tr13,19060,114360).
route(prodloc32,prodloc29,tr0,23474,610324).
route(prodloc32,prodloc29,tr13,23474,140844).
route(prodloc32,prodloc30,tr0,17946,466596).
route(prodloc32,prodloc30,tr13,17946,107676).
route(prodloc32,prodloc31,tr0,15768,409968).
route(prodloc32,prodloc31,tr13,15768,94608).
route(prodloc32,prodloc33,tr0,26997,701922).
route(prodloc32,prodloc33,tr13,26997,161982).
route(prodloc33,harbor0,tr0,14535,377910).
route(prodloc33,harbor0,tr13,14535,87210).
route(prodloc33,harbor1,tr0,11107,288782).
route(prodloc33,harbor1,tr13,11107,66642).
route(prodloc33,harbor2,tr0,9187,238862).
route(prodloc33,harbor2,tr13,9187,55122).
route(prodloc33,harbor3,tr0,26775,696150).
route(prodloc33,harbor3,tr13,26775,160650).
route(prodloc33,harbor4,tr0,11994,311844).
route(prodloc33,harbor4,tr13,11994,71964).
route(prodloc33,harbor5,tr0,23714,616564).
route(prodloc33,harbor5,tr13,23714,142284).
route(prodloc33,harbor6,tr0,8050,209300).
route(prodloc33,harbor6,tr13,8050,48300).
route(prodloc33,harbor7,tr0,21902,569452).
route(prodloc33,harbor7,tr13,21902,131412).
route(prodloc33,harbor8,tr0,17037,442962).
route(prodloc33,harbor8,tr13,17037,102222).
route(prodloc33,harbor9,tr0,13049,339274).
route(prodloc33,harbor9,tr13,13049,78294).
route(prodloc33,harbor10,tr0,1130,29380).
route(prodloc33,harbor10,tr13,1130,6780).
route(prodloc33,harbor11,tr0,12629,328354).
route(prodloc33,harbor11,tr13,12629,75774).
route(prodloc33,harbor12,tr0,13012,338312).
route(prodloc33,harbor12,tr13,13012,78072).
route(prodloc33,harbor13,tr0,11069,287794).
route(prodloc33,harbor13,tr13,11069,66414).
route(prodloc33,harbor14,tr0,11046,287196).
route(prodloc33,harbor14,tr13,11046,66276).
route(prodloc33,harbor15,tr0,22265,578890).
route(prodloc33,harbor15,tr13,22265,133590).
route(prodloc33,harbor16,tr0,28031,728806).
route(prodloc33,harbor16,tr13,28031,168186).
route(prodloc33,prodloc0,tr0,28603,743678).
route(prodloc33,prodloc0,tr13,28603,171618).
route(prodloc33,prodloc1,tr0,11903,309478).
route(prodloc33,prodloc1,tr13,11903,71418).
route(prodloc33,prodloc2,tr0,6962,181012).
route(prodloc33,prodloc2,tr13,6962,41772).
route(prodloc33,prodloc3,tr0,11740,305240).
route(prodloc33,prodloc3,tr13,11740,70440).
route(prodloc33,prodloc4,tr0,16050,417300).
route(prodloc33,prodloc4,tr13,16050,96300).
route(prodloc33,prodloc5,tr0,9579,249054).
route(prodloc33,prodloc5,tr13,9579,57474).
route(prodloc33,prodloc6,tr0,6263,162838).
route(prodloc33,prodloc6,tr13,6263,37578).
route(prodloc33,prodloc7,tr0,9802,254852).
route(prodloc33,prodloc7,tr13,9802,58812).
route(prodloc33,prodloc8,tr0,926,24076).
route(prodloc33,prodloc8,tr13,926,5556).
route(prodloc33,prodloc9,tr0,6668,173368).
route(prodloc33,prodloc9,tr13,6668,40008).
route(prodloc33,prodloc10,tr0,27460,713960).
route(prodloc33,prodloc10,tr13,27460,164760).
route(prodloc33,prodloc11,tr0,28280,735280).
route(prodloc33,prodloc11,tr13,28280,169680).
route(prodloc33,prodloc12,tr0,26864,698464).
route(prodloc33,prodloc12,tr13,26864,161184).
route(prodloc33,prodloc13,tr0,14872,386672).
route(prodloc33,prodloc13,tr13,14872,89232).
route(prodloc33,prodloc14,tr0,28938,752388).
route(prodloc33,prodloc14,tr13,28938,173628).
route(prodloc33,prodloc15,tr0,26192,680992).
route(prodloc33,prodloc15,tr13,26192,157152).
route(prodloc33,prodloc16,tr0,5564,144664).
route(prodloc33,prodloc16,tr13,5564,33384).
route(prodloc33,prodloc17,tr0,7339,190814).
route(prodloc33,prodloc17,tr13,7339,44034).
route(prodloc33,prodloc18,tr0,24535,637910).
route(prodloc33,prodloc18,tr13,24535,147210).
route(prodloc33,prodloc19,tr0,20793,540618).
route(prodloc33,prodloc19,tr13,20793,124758).
route(prodloc33,prodloc20,tr0,18533,481858).
route(prodloc33,prodloc20,tr13,18533,111198).
route(prodloc33,prodloc21,tr0,19720,512720).
route(prodloc33,prodloc21,tr13,19720,118320).
route(prodloc33,prodloc22,tr0,14964,389064).
route(prodloc33,prodloc22,tr13,14964,89784).
route(prodloc33,prodloc23,tr0,13741,357266).
route(prodloc33,prodloc23,tr13,13741,82446).
route(prodloc33,prodloc24,tr0,1121,29146).
route(prodloc33,prodloc24,tr13,1121,6726).
route(prodloc33,prodloc25,tr0,10049,261274).
route(prodloc33,prodloc25,tr13,10049,60294).
route(prodloc33,prodloc26,tr0,13754,357604).
route(prodloc33,prodloc26,tr13,13754,82524).
route(prodloc33,prodloc27,tr0,2282,59332).
route(prodloc33,prodloc27,tr13,2282,13692).
route(prodloc33,prodloc28,tr0,24465,636090).
route(prodloc33,prodloc28,tr13,24465,146790).
route(prodloc33,prodloc29,tr0,25960,674960).
route(prodloc33,prodloc29,tr13,25960,155760).
route(prodloc33,prodloc30,tr0,27660,719160).
route(prodloc33,prodloc30,tr13,27660,165960).
route(prodloc33,prodloc31,tr0,25322,658372).
route(prodloc33,prodloc31,tr13,25322,151932).
route(prodloc33,prodloc32,tr0,553,14378).
route(prodloc33,prodloc32,tr13,553,3318).
hub(harbor0).
hub(harbor4).
hub(harbor14).
hub(prodloc2).
hub(prodloc7).
hub(prodloc13).
hub(prodloc15).
hub(prodloc16).
hub(prodloc17).
hub(prodloc30).
