% Multibatching benchmark instance
% Source: instances.lp
% seed=1  harbors=17  prodlocs=34  hubs=10  disruptions=2

% ---- locations ----
location(harbor0).
location(harbor1).
location(harbor2).
location(harbor3).
location(harbor4).
location(harbor5).
location(harbor6).
location(harbor7).
location(harbor8).
location(harbor9).
location(harbor10).
location(harbor11).
location(harbor12).
location(harbor13).
location(harbor14).
location(harbor15).
location(harbor16).
location(prodloc0).
location(prodloc1).
location(prodloc2).
location(prodloc3).
location(prodloc4).
location(prodloc5).
location(prodloc6).
location(prodloc7).
location(prodloc8).
location(prodloc9).
location(prodloc10).
location(prodloc11).
location(prodloc12).
location(prodloc13).
location(prodloc14).
location(prodloc15).
location(prodloc16).
location(prodloc17).
location(prodloc18).
location(prodloc19).
location(prodloc20).
location(prodloc21).
location(prodloc22).
location(prodloc23).
location(prodloc24).
location(prodloc25).
location(prodloc26).
location(prodloc27).
location(prodloc28).
location(prodloc29).
location(prodloc30).
location(prodloc31).
location(prodloc32).
location(prodloc33).

% ---- transport resources ----
transportCapacity(tr0,1800).
transportCO2(tr0,1680).
transportCost(tr0,26).
transportSpeed(tr0,12).
transportCapacity(tr1,65).
transportCO2(tr1,90).
transportCost(tr1,1).
transportSpeed(tr1,35).
transportCapacity(tr10,1).
transportCO2(tr10,700).
transportCost(tr10,4).
transportSpeed(tr10,40).
transportCapacity(tr11,65).
transportCO2(tr11,62).
transportCost(tr11,1).
transportSpeed(tr11,25).
transportCapacity(tr12,65).
transportCO2(tr12,709).
transportCost(tr12,3).
transportSpeed(tr12,55).
transportCapacity(tr13,68).
transportCO2(tr13,160).
transportCost(tr13,6).
transportSpeed(tr13,25).
transportCapacity(tr14,146).
transportCO2(tr14,780).
transportCost(tr14,4).
transportSpeed(tr14,50).
transportCapacity(tr15,2217).
transportCO2(tr15,49470).
transportCost(tr15,32).
transportSpeed(tr15,625).
transportCapacity(tr2,96).
transportCO2(tr2,709).
transportCost(tr2,3).
transportSpeed(tr2,55).
transportCapacity(tr3,1).
transportCO2(tr3,6250).
transportCost(tr3,108).
transportSpeed(tr3,25).
transportCapacity(tr4,148).
transportCO2(tr4,780).
transportCost(tr4,4).
transportSpeed(tr4,50).
transportCapacity(tr5,65).
transportCO2(tr5,780).
transportCost(tr5,3).
transportSpeed(tr5,50).
transportCapacity(tr6,1).
transportCO2(tr6,100).
transportCost(tr6,40).
transportSpeed(tr6,25).
transportCapacity(tr7,1).
transportCO2(tr7,18000).
transportCost(tr7,278).
transportSpeed(tr7,10).
transportCapacity(tr8,1).
transportCO2(tr8,14400).
transportCost(tr8,107).
transportSpeed(tr8,25).
transportCapacity(tr9,65).
transportCO2(tr9,708).
transportCost(tr9,2).
transportSpeed(tr9,60).

% ---- parts ----
part(part0).
partSize(part0,21).
valid_transport(part0,tr0).
valid_transport(part0,tr15).
valid_transport(part0,tr14).
valid_transport(part0,tr13).
valid_transport(part0,tr4).
part(part1).
partSize(part1,1).
valid_transport(part1,tr0).
valid_transport(part1,tr2).
valid_transport(part1,tr15).
valid_transport(part1,tr9).
valid_transport(part1,tr12).
valid_transport(part1,tr13).
valid_transport(part1,tr11).
part(part10).
partSize(part10,1).
valid_transport(part10,tr0).
valid_transport(part10,tr2).
valid_transport(part10,tr15).
valid_transport(part10,tr9).
valid_transport(part10,tr12).
valid_transport(part10,tr13).
valid_transport(part10,tr11).
part(part11).
partSize(part11,83).
valid_transport(part11,tr0).
valid_transport(part11,tr7).
valid_transport(part11,tr8).
valid_transport(part11,tr15).
valid_transport(part11,tr3).
valid_transport(part11,tr13).
part(part12).
partSize(part12,273).
valid_transport(part12,tr0).
valid_transport(part12,tr7).
valid_transport(part12,tr8).
valid_transport(part12,tr15).
valid_transport(part12,tr3).
valid_transport(part12,tr13).
part(part13).
partSize(part13,1).
valid_transport(part13,tr0).
valid_transport(part13,tr2).
valid_transport(part13,tr15).
valid_transport(part13,tr9).
valid_transport(part13,tr12).
valid_transport(part13,tr13).
valid_transport(part13,tr11).
part(part14).
partSize(part14,68).
valid_transport(part14,tr0).
valid_transport(part14,tr15).
valid_transport(part14,tr13).
part(part15).
partSize(part15,4).
valid_transport(part15,tr0).
valid_transport(part15,tr2).
valid_transport(part15,tr15).
valid_transport(part15,tr9).
valid_transport(part15,tr12).
valid_transport(part15,tr13).
valid_transport(part15,tr11).
part(part16).
partSize(part16,4).
valid_transport(part16,tr0).
valid_transport(part16,tr2).
valid_transport(part16,tr15).
valid_transport(part16,tr9).
valid_transport(part16,tr12).
valid_transport(part16,tr13).
valid_transport(part16,tr11).
part(part17).
partSize(part17,8).
valid_transport(part17,tr0).
valid_transport(part17,tr15).
valid_transport(part17,tr14).
valid_transport(part17,tr13).
valid_transport(part17,tr4).
part(part18).
partSize(part18,24).
valid_transport(part18,tr0).
valid_transport(part18,tr15).
valid_transport(part18,tr14).
valid_transport(part18,tr13).
valid_transport(part18,tr4).
part(part19).
partSize(part19,6).
valid_transport(part19,tr0).
valid_transport(part19,tr2).
valid_transport(part19,tr15).
valid_transport(part19,tr9).
valid_transport(part19,tr12).
valid_transport(part19,tr13).
valid_transport(part19,tr11).
part(part2).
partSize(part2,19).
valid_transport(part2,tr0).
valid_transport(part2,tr15).
valid_transport(part2,tr14).
valid_transport(part2,tr13).
valid_transport(part2,tr4).
part(part20).
partSize(part20,128).
valid_transport(part20,tr0).
valid_transport(part20,tr7).
valid_transport(part20,tr8).
valid_transport(part20,tr15).
valid_transport(part20,tr3).
valid_transport(part20,tr13).
part(part21).
partSize(part21,25).
valid_transport(part21,tr0).
valid_transport(part21,tr15).
valid_transport(part21,tr14).
valid_transport(part21,tr13).
valid_transport(part21,tr4).
part(part22).
partSize(part22,7).
valid_transport(part22,tr0).
valid_transport(part22,tr2).
valid_transport(part22,tr15).
valid_transport(part22,tr9).
valid_transport(part22,tr12).
valid_transport(part22,tr13).
valid_transport(part22,tr11).
part(part23).
partSize(part23,5).
valid_transport(part23,tr0).
valid_transport(part23,tr15).
valid_transport(part23,tr14).
valid_transport(part23,tr13).
valid_transport(part23,tr4).
part(part24).
partSize(part24,55).
valid_transport(part24,tr0).
valid_transport(part24,tr7).
valid_transport(part24,tr8).
valid_transport(part24,tr15).
valid_transport(part24,tr3).
valid_transport(part24,tr13).
part(part25).
partSize(part25,5).
valid_transport(part25,tr0).
valid_transport(part25,tr4).
valid_transport(part25,tr2).
valid_transport(part25,tr15).
valid_transport(part25,tr13).
part(part26).
partSize(part26,32).
valid_transport(part26,tr0).
valid_transport(part26,tr7).
valid_transport(part26,tr8).
valid_transport(part26,tr15).
valid_transport(part26,tr3).
valid_transport(part26,tr13).
part(part27).
partSize(part27,5).
valid_transport(part27,tr0).
valid_transport(part27,tr2).
valid_transport(part27,tr15).
valid_transport(part27,tr9).
valid_transport(part27,tr12).
valid_transport(part27,tr13).
valid_transport(part27,tr11).
part(part28).
partSize(part28,3).
valid_transport(part28,tr0).
valid_transport(part28,tr4).
valid_transport(part28,tr2).
valid_transport(part28,tr15).
valid_transport(part28,tr14).
valid_transport(part28,tr13).
part(part29).
partSize(part29,627).
part(part3).
partSize(part3,48).
valid_transport(part3,tr0).
valid_transport(part3,tr7).
valid_transport(part3,tr8).
valid_transport(part3,tr15).
valid_transport(part3,tr3).
valid_transport(part3,tr13).
part(part30).
partSize(part30,2).
valid_transport(part30,tr0).
valid_transport(part30,tr2).
valid_transport(part30,tr15).
valid_transport(part30,tr9).
valid_transport(part30,tr12).
valid_transport(part30,tr13).
valid_transport(part30,tr11).
part(part31).
partSize(part31,144).
valid_transport(part31,tr0).
valid_transport(part31,tr7).
valid_transport(part31,tr8).
valid_transport(part31,tr15).
valid_transport(part31,tr3).
valid_transport(part31,tr13).
part(part32).
partSize(part32,16).
valid_transport(part32,tr0).
valid_transport(part32,tr4).
valid_transport(part32,tr2).
valid_transport(part32,tr15).
valid_transport(part32,tr14).
valid_transport(part32,tr13).
part(part33).
partSize(part33,7).
valid_transport(part33,tr0).
valid_transport(part33,tr2).
valid_transport(part33,tr15).
valid_transport(part33,tr9).
valid_transport(part33,tr12).
valid_transport(part33,tr13).
valid_transport(part33,tr11).
part(part3345).
partSize(part3345,353).
valid_transport(part3345,tr0).
valid_transport(part3345,tr7).
valid_transport(part3345,tr8).
valid_transport(part3345,tr15).
valid_transport(part3345,tr3).
valid_transport(part3345,tr13).
part(part34).
partSize(part34,2).
valid_transport(part34,tr0).
valid_transport(part34,tr2).
valid_transport(part34,tr15).
valid_transport(part34,tr9).
valid_transport(part34,tr12).
valid_transport(part34,tr13).
valid_transport(part34,tr11).
part(part4).
partSize(part4,2).
valid_transport(part4,tr0).
valid_transport(part4,tr2).
valid_transport(part4,tr15).
valid_transport(part4,tr9).
valid_transport(part4,tr12).
valid_transport(part4,tr13).
valid_transport(part4,tr11).
part(part5).
partSize(part5,2).
valid_transport(part5,tr0).
valid_transport(part5,tr2).
valid_transport(part5,tr15).
valid_transport(part5,tr9).
valid_transport(part5,tr12).
valid_transport(part5,tr14).
valid_transport(part5,tr13).
valid_transport(part5,tr11).
part(part6).
partSize(part6,111).
valid_transport(part6,tr0).
valid_transport(part6,tr7).
valid_transport(part6,tr8).
valid_transport(part6,tr15).
valid_transport(part6,tr3).
valid_transport(part6,tr13).
part(part8).
partSize(part8,163).
valid_transport(part8,tr0).
valid_transport(part8,tr7).
valid_transport(part8,tr8).
valid_transport(part8,tr15).
valid_transport(part8,tr3).
valid_transport(part8,tr13).
part(part9).
partSize(part9,2).
valid_transport(part9,tr0).
valid_transport(part9,tr2).
valid_transport(part9,tr15).
valid_transport(part9,tr9).
valid_transport(part9,tr12).
valid_transport(part9,tr13).
valid_transport(part9,tr11).

% ---- demand ----
demandOffer(part0,prodloc8,40).
demandOffer(part0,prodloc4,40).
demandOffer(part0,prodloc16,-27).
demandOffer(part0,prodloc7,-53).
demandOffer(part1,prodloc31,20).
demandOffer(part1,prodloc28,20).
demandOffer(part1,prodloc30,-20).
demandOffer(part1,prodloc24,-20).
demandOffer(part10,prodloc13,20).
demandOffer(part10,prodloc6,20).
demandOffer(part10,prodloc31,-20).
demandOffer(part10,prodloc1,-20).
demandOffer(part12,prodloc24,10).
demandOffer(part12,prodloc27,20).
demandOffer(part12,prodloc0,-10).
demandOffer(part12,prodloc28,-10).
demandOffer(part12,prodloc17,-10).
demandOffer(part13,prodloc14,20).
demandOffer(part13,prodloc6,20).
demandOffer(part13,prodloc20,-20).
demandOffer(part13,prodloc1,-20).
demandOffer(part14,prodloc1,26).
demandOffer(part14,prodloc0,-26).
demandOffer(part15,prodloc24,53).
demandOffer(part15,prodloc13,27).
demandOffer(part15,prodloc27,-53).
demandOffer(part15,prodloc1,-27).
demandOffer(part16,prodloc33,53).
demandOffer(part16,prodloc14,27).
demandOffer(part16,prodloc28,-53).
demandOffer(part16,prodloc31,-27).
demandOffer(part17,prodloc14,20).
demandOffer(part17,prodloc22,-20).
demandOffer(part18,prodloc14,40).
demandOffer(part18,prodloc29,40).
demandOffer(part18,prodloc18,-27).
demandOffer(part18,prodloc1,-53).
demandOffer(part19,prodloc26,26).
demandOffer(part19,prodloc6,-26).
demandOffer(part2,prodloc11,40).
demandOffer(part2,prodloc18,40).
demandOffer(part2,prodloc7,-27).
demandOffer(part2,prodloc21,-53).
demandOffer(part20,prodloc32,53).
demandOffer(part20,prodloc27,27).
demandOffer(part20,prodloc12,-14).
demandOffer(part20,prodloc19,-46).
demandOffer(part20,prodloc18,-20).
demandOffer(part21,prodloc31,26).
demandOffer(part21,prodloc32,-26).
demandOffer(part22,prodloc25,53).
demandOffer(part22,prodloc2,27).
demandOffer(part22,prodloc30,-53).
demandOffer(part22,prodloc15,-27).
demandOffer(part23,prodloc25,20).
demandOffer(part23,prodloc26,20).
demandOffer(part23,prodloc11,-20).
demandOffer(part23,prodloc23,-20).
demandOffer(part25,prodloc23,20).
demandOffer(part25,prodloc5,-20).
demandOffer(part26,prodloc28,20).
demandOffer(part26,prodloc32,20).
demandOffer(part26,prodloc6,-14).
demandOffer(part26,prodloc10,-26).
demandOffer(part27,prodloc33,53).
demandOffer(part27,prodloc25,27).
demandOffer(part27,prodloc23,-53).
demandOffer(part27,prodloc31,-27).
demandOffer(part28,prodloc1,20).
demandOffer(part28,prodloc30,20).
demandOffer(part28,prodloc2,-20).
demandOffer(part28,prodloc19,-20).
demandOffer(part3,prodloc25,40).
demandOffer(part3,prodloc10,-14).
demandOffer(part3,prodloc32,-26).
demandOffer(part30,prodloc14,40).
demandOffer(part30,prodloc0,40).
demandOffer(part30,prodloc12,-27).
demandOffer(part30,prodloc25,-53).
demandOffer(part31,prodloc32,7).
demandOffer(part31,prodloc22,7).
demandOffer(part31,prodloc29,-14).
demandOffer(part32,prodloc17,53).
demandOffer(part32,prodloc0,27).
demandOffer(part32,prodloc24,-53).
demandOffer(part32,prodloc32,-27).
demandOffer(part33,prodloc8,53).
demandOffer(part33,prodloc33,27).
demandOffer(part33,prodloc13,-53).
demandOffer(part33,prodloc27,-27).
demandOffer(part34,prodloc3,20).
demandOffer(part34,prodloc30,-20).
demandOffer(part4,prodloc23,26).
demandOffer(part4,prodloc12,-26).
demandOffer(part5,prodloc32,20).
demandOffer(part5,prodloc26,-20).
demandOffer(part6,prodloc31,27).
demandOffer(part6,prodloc22,53).
demandOffer(part6,prodloc26,-24).
demandOffer(part6,prodloc11,-36).
demandOffer(part6,prodloc0,-10).
demandOffer(part6,prodloc17,-10).
demandOffer(part8,prodloc21,3).
demandOffer(part8,prodloc29,17).
demandOffer(part8,prodloc1,-10).
demandOffer(part8,prodloc14,-10).
demandOffer(part9,prodloc11,20).
demandOffer(part9,prodloc5,-20).

% ---- network (ASP-generated) ----
route(harbor0,harbor1,tr13,26193,157158).
route(harbor0,harbor1,tr2,26193,78579).
route(harbor0,harbor2,tr13,18086,108516).
route(harbor0,harbor2,tr2,18086,54258).
route(harbor0,harbor3,tr13,26149,156894).
route(harbor0,harbor3,tr2,26149,78447).
route(harbor0,harbor4,tr13,27924,167544).
route(harbor0,harbor4,tr2,27924,83772).
route(harbor0,harbor5,tr13,26783,160698).
route(harbor0,harbor5,tr2,26783,80349).
route(harbor0,harbor6,tr13,8395,50370).
route(harbor0,harbor6,tr2,8395,25185).
route(harbor0,harbor7,tr13,1093,6558).
route(harbor0,harbor7,tr2,1093,3279).
route(harbor0,harbor8,tr13,27612,165672).
route(harbor0,harbor8,tr2,27612,82836).
route(harbor0,harbor9,tr13,22086,132516).
route(harbor0,harbor9,tr2,22086,66258).
route(harbor0,harbor10,tr13,2338,14028).
route(harbor0,harbor10,tr2,2338,7014).
route(harbor0,harbor11,tr13,2757,16542).
route(harbor0,harbor11,tr2,2757,8271).
route(harbor0,harbor12,tr13,28475,170850).
route(harbor0,harbor12,tr2,28475,85425).
route(harbor0,harbor13,tr13,576,3456).
route(harbor0,harbor13,tr2,576,1728).
route(harbor0,harbor14,tr13,14873,89238).
route(harbor0,harbor14,tr2,14873,44619).
route(harbor0,harbor15,tr13,507,3042).
route(harbor0,harbor15,tr2,507,1521).
route(harbor0,harbor16,tr13,24741,148446).
route(harbor0,harbor16,tr2,24741,74223).
route(harbor0,prodloc0,tr0,24761,643786).
route(harbor0,prodloc0,tr13,24761,148566).
route(harbor0,prodloc1,tr0,9216,239616).
route(harbor0,prodloc1,tr13,9216,55296).
route(harbor0,prodloc2,tr0,8179,212654).
route(harbor0,prodloc2,tr13,8179,49074).
route(harbor0,prodloc3,tr0,8804,228904).
route(harbor0,prodloc3,tr13,8804,52824).
route(harbor0,prodloc4,tr0,3589,93314).
route(harbor0,prodloc4,tr13,3589,21534).
route(harbor0,prodloc5,tr0,26127,679302).
route(harbor0,prodloc5,tr13,26127,156762).
route(harbor0,prodloc6,tr0,20475,532350).
route(harbor0,prodloc6,tr13,20475,122850).
route(harbor0,prodloc7,tr0,6051,157326).
route(harbor0,prodloc7,tr13,6051,36306).
route(harbor0,prodloc8,tr0,11288,293488).
route(harbor0,prodloc8,tr13,11288,67728).
route(harbor0,prodloc9,tr0,9514,247364).
route(harbor0,prodloc9,tr13,9514,57084).
route(harbor0,prodloc10,tr0,2279,59254).
route(harbor0,prodloc10,tr13,2279,13674).
route(harbor0,prodloc11,tr0,5489,142714).
route(harbor0,prodloc11,tr13,5489,32934).
route(harbor0,prodloc12,tr0,5232,136032).
route(harbor0,prodloc12,tr13,5232,31392).
route(harbor0,prodloc13,tr0,8364,217464).
route(harbor0,prodloc13,tr13,8364,50184).
route(harbor0,prodloc14,tr0,17283,449358).
route(harbor0,prodloc14,tr13,17283,103698).
route(harbor0,prodloc15,tr0,5511,143286).
route(harbor0,prodloc15,tr13,5511,33066).
route(harbor0,prodloc16,tr0,21519,559494).
route(harbor0,prodloc16,tr13,21519,129114).
route(harbor0,prodloc17,tr0,8944,232544).
route(harbor0,prodloc17,tr13,8944,53664).
route(harbor0,prodloc18,tr0,21242,552292).
route(harbor0,prodloc18,tr13,21242,127452).
route(harbor0,prodloc19,tr0,23319,606294).
route(harbor0,prodloc19,tr13,23319,139914).
route(harbor0,prodloc20,tr0,9651,250926).
route(harbor0,prodloc20,tr13,9651,57906).
route(harbor0,prodloc21,tr0,14901,387426).
route(harbor0,prodloc21,tr13,14901,89406).
route(harbor0,prodloc22,tr0,23025,598650).
route(harbor0,prodloc22,tr13,23025,138150).
route(harbor0,prodloc23,tr0,10553,274378).
route(harbor0,prodloc23,tr13,10553,63318).
route(harbor0,prodloc24,tr0,16271,423046).
route(harbor0,prodloc24,tr13,16271,97626).
route(harbor0,prodloc25,tr0,15526,403676).
route(harbor0,prodloc25,tr13,15526,93156).
route(harbor0,prodloc26,tr0,3743,97318).
route(harbor0,prodloc26,tr13,3743,22458).
route(harbor0,prodloc27,tr0,776,20176).
route(harbor0,prodloc27,tr13,776,4656).
route(harbor0,prodloc28,tr0,10225,265850).
route(harbor0,prodloc28,tr13,10225,61350).
route(harbor0,prodloc29,tr0,12668,329368).
route(harbor0,prodloc29,tr13,12668,76008).
route(harbor0,prodloc30,tr0,11252,292552).
route(harbor0,prodloc30,tr13,11252,67512).
route(harbor0,prodloc31,tr0,13794,358644).
route(harbor0,prodloc31,tr13,13794,82764).
route(harbor0,prodloc32,tr0,26091,678366).
route(harbor0,prodloc32,tr13,26091,156546).
route(harbor0,prodloc33,tr0,6163,160238).
route(harbor0,prodloc33,tr13,6163,36978).
route(harbor1,harbor0,tr13,8497,50982).
route(harbor1,harbor0,tr2,8497,25491).
route(harbor1,harbor2,tr13,3593,21558).
route(harbor1,harbor2,tr2,3593,10779).
route(harbor1,harbor3,tr13,8335,50010).
route(harbor1,harbor3,tr2,8335,25005).
route(harbor1,harbor4,tr13,23955,143730).
route(harbor1,harbor4,tr2,23955,71865).
route(harbor1,harbor5,tr13,16745,100470).
route(harbor1,harbor5,tr2,16745,50235).
route(harbor1,harbor6,tr13,6881,41286).
route(harbor1,harbor6,tr2,6881,20643).
route(harbor1,harbor7,tr13,19875,119250).
route(harbor1,harbor7,tr2,19875,59625).
route(harbor1,harbor8,tr13,14174,85044).
route(harbor1,harbor8,tr2,14174,42522).
route(harbor1,harbor9,tr13,26802,160812).
route(harbor1,harbor9,tr2,26802,80406).
route(harbor1,harbor10,tr13,712,4272).
route(harbor1,harbor10,tr2,712,2136).
route(harbor1,harbor11,tr13,7415,44490).
route(harbor1,harbor11,tr2,7415,22245).
route(harbor1,harbor12,tr13,615,3690).
route(harbor1,harbor12,tr2,615,1845).
route(harbor1,harbor13,tr13,13049,78294).
route(harbor1,harbor13,tr2,13049,39147).
route(harbor1,harbor14,tr13,4829,28974).
route(harbor1,harbor14,tr2,4829,14487).
route(harbor1,harbor15,tr13,1187,7122).
route(harbor1,harbor15,tr2,1187,3561).
route(harbor1,harbor16,tr13,23584,141504).
route(harbor1,harbor16,tr2,23584,70752).
route(harbor1,prodloc0,tr0,5252,136552).
route(harbor1,prodloc0,tr13,5252,31512).
route(harbor1,prodloc1,tr0,14605,379730).
route(harbor1,prodloc1,tr13,14605,87630).
route(harbor1,prodloc2,tr0,23090,600340).
route(harbor1,prodloc2,tr13,23090,138540).
route(harbor1,prodloc3,tr0,16592,431392).
route(harbor1,prodloc3,tr13,16592,99552).
route(harbor1,prodloc4,tr0,22224,577824).
route(harbor1,prodloc4,tr13,22224,133344).
route(harbor1,prodloc5,tr0,13982,363532).
route(harbor1,prodloc5,tr13,13982,83892).
route(harbor1,prodloc6,tr0,17850,464100).
route(harbor1,prodloc6,tr13,17850,107100).
route(harbor1,prodloc7,tr0,27273,709098).
route(harbor1,prodloc7,tr13,27273,163638).
route(harbor1,prodloc8,tr0,7230,187980).
route(harbor1,prodloc8,tr13,7230,43380).
route(harbor1,prodloc9,tr0,20671,537446).
route(harbor1,prodloc9,tr13,20671,124026).
route(harbor1,prodloc10,tr0,26144,679744).
route(harbor1,prodloc10,tr13,26144,156864).
route(harbor1,prodloc11,tr0,22777,592202).
route(harbor1,prodloc11,tr13,22777,136662).
route(harbor1,prodloc12,tr0,16929,440154).
route(harbor1,prodloc12,tr13,16929,101574).
route(harbor1,prodloc13,tr0,14775,384150).
route(harbor1,prodloc13,tr13,14775,88650).
route(harbor1,prodloc14,tr0,7315,190190).
route(harbor1,prodloc14,tr13,7315,43890).
route(harbor1,prodloc15,tr0,17169,446394).
route(harbor1,prodloc15,tr13,17169,103014).
route(harbor1,prodloc16,tr0,21252,552552).
route(harbor1,prodloc16,tr13,21252,127512).
route(harbor1,prodloc17,tr0,1007,26182).
route(harbor1,prodloc17,tr13,1007,6042).
route(harbor1,prodloc18,tr0,12942,336492).
route(harbor1,prodloc18,tr13,12942,77652).
route(harbor1,prodloc19,tr0,22117,575042).
route(harbor1,prodloc19,tr13,22117,132702).
route(harbor1,prodloc20,tr0,18871,490646).
route(harbor1,prodloc20,tr13,18871,113226).
route(harbor1,prodloc21,tr0,26327,684502).
route(harbor1,prodloc21,tr13,26327,157962).
route(harbor1,prodloc22,tr0,10528,273728).
route(harbor1,prodloc22,tr13,10528,63168).
route(harbor1,prodloc23,tr0,21623,562198).
route(harbor1,prodloc23,tr13,21623,129738).
route(harbor1,prodloc24,tr0,20676,537576).
route(harbor1,prodloc24,tr13,20676,124056).
route(harbor1,prodloc25,tr0,13970,363220).
route(harbor1,prodloc25,tr13,13970,83820).
route(harbor1,prodloc26,tr0,1928,50128).
route(harbor1,prodloc26,tr13,1928,11568).
route(harbor1,prodloc27,tr0,24166,628316).
route(harbor1,prodloc27,tr13,24166,144996).
route(harbor1,prodloc28,tr0,9786,254436).
route(harbor1,prodloc28,tr13,9786,58716).
route(harbor1,prodloc29,tr0,4120,107120).
route(harbor1,prodloc29,tr13,4120,24720).
route(harbor1,prodloc30,tr0,6953,180778).
route(harbor1,prodloc30,tr13,6953,41718).
route(harbor1,prodloc31,tr0,28691,745966).
route(harbor1,prodloc31,tr13,28691,172146).
route(harbor1,prodloc32,tr0,1556,40456).
route(harbor1,prodloc32,tr13,1556,9336).
route(harbor1,prodloc33,tr0,10041,261066).
route(harbor1,prodloc33,tr13,10041,60246).
route(harbor2,harbor0,tr13,2347,14082).
route(harbor2,harbor0,tr2,2347,7041).
route(harbor2,harbor1,tr13,28161,168966).
route(harbor2,harbor1,tr2,28161,84483).
route(harbor2,harbor3,tr13,2534,15204).
route(harbor2,harbor3,tr2,2534,7602).
route(harbor2,harbor4,tr13,10199,61194).
route(harbor2,harbor4,tr2,10199,30597).
route(harbor2,harbor5,tr13,9790,58740).
route(harbor2,harbor5,tr2,9790,29370).
route(harbor2,harbor6,tr13,24404,146424).
route(harbor2,harbor6,tr2,24404,73212).
route(harbor2,harbor7,tr13,5214,31284).
route(harbor2,harbor7,tr2,5214,15642).
route(harbor2,harbor8,tr13,13667,82002).
route(harbor2,harbor8,tr2,13667,41001).
route(harbor2,harbor9,tr13,18541,111246).
route(harbor2,harbor9,tr2,18541,55623).
route(harbor2,harbor10,tr13,8299,49794).
route(harbor2,harbor10,tr2,8299,24897).
route(harbor2,harbor11,tr13,4302,25812).
route(harbor2,harbor11,tr2,4302,12906).
route(harbor2,harbor12,tr13,307,1842).
route(harbor2,harbor12,tr2,307,921).
route(harbor2,harbor13,tr13,18403,110418).
route(harbor2,harbor13,tr2,18403,55209).
route(harbor2,harbor14,tr13,28823,172938).
route(harbor2,harbor14,tr2,28823,86469).
route(harbor2,harbor15,tr13,27900,167400).
route(harbor2,harbor15,tr2,27900,83700).
route(harbor2,harbor16,tr13,1272,7632).
route(harbor2,harbor16,tr2,1272,3816).
route(harbor2,prodloc0,tr0,19354,503204).
route(harbor2,prodloc0,tr13,19354,116124).
route(harbor2,prodloc1,tr0,26852,698152).
route(harbor2,prodloc1,tr13,26852,161112).
route(harbor2,prodloc2,tr0,7132,185432).
route(harbor2,prodloc2,tr13,7132,42792).
route(harbor2,prodloc3,tr0,18688,485888).
route(harbor2,prodloc3,tr13,18688,112128).
route(harbor2,prodloc4,tr0,15103,392678).
route(harbor2,prodloc4,tr13,15103,90618).
route(harbor2,prodloc5,tr0,5622,146172).
route(harbor2,prodloc5,tr13,5622,33732).
route(harbor2,prodloc6,tr0,27131,705406).
route(harbor2,prodloc6,tr13,27131,162786).
route(harbor2,prodloc7,tr0,28437,739362).
route(harbor2,prodloc7,tr13,28437,170622).
route(harbor2,prodloc8,tr0,28506,741156).
route(harbor2,prodloc8,tr13,28506,171036).
route(harbor2,prodloc9,tr0,25561,664586).
route(harbor2,prodloc9,tr13,25561,153366).
route(harbor2,prodloc10,tr0,23071,599846).
route(harbor2,prodloc10,tr13,23071,138426).
route(harbor2,prodloc11,tr0,20415,530790).
route(harbor2,prodloc11,tr13,20415,122490).
route(harbor2,prodloc12,tr0,16676,433576).
route(harbor2,prodloc12,tr13,16676,100056).
route(harbor2,prodloc13,tr0,1228,31928).
route(harbor2,prodloc13,tr13,1228,7368).
route(harbor2,prodloc14,tr0,12387,322062).
route(harbor2,prodloc14,tr13,12387,74322).
route(harbor2,prodloc15,tr0,6568,170768).
route(harbor2,prodloc15,tr13,6568,39408).
route(harbor2,prodloc16,tr0,11370,295620).
route(harbor2,prodloc16,tr13,11370,68220).
route(harbor2,prodloc17,tr0,3246,84396).
route(harbor2,prodloc17,tr13,3246,19476).
route(harbor2,prodloc18,tr0,6744,175344).
route(harbor2,prodloc18,tr13,6744,40464).
route(harbor2,prodloc19,tr0,18790,488540).
route(harbor2,prodloc19,tr13,18790,112740).
route(harbor2,prodloc20,tr0,22092,574392).
route(harbor2,prodloc20,tr13,22092,132552).
route(harbor2,prodloc21,tr0,14188,368888).
route(harbor2,prodloc21,tr13,14188,85128).
route(harbor2,prodloc22,tr0,19381,503906).
route(harbor2,prodloc22,tr13,19381,116286).
route(harbor2,prodloc23,tr0,6362,165412).
route(harbor2,prodloc23,tr13,6362,38172).
route(harbor2,prodloc24,tr0,16135,419510).
route(harbor2,prodloc24,tr13,16135,96810).
route(harbor2,prodloc25,tr0,3423,88998).
route(harbor2,prodloc25,tr13,3423,20538).
route(harbor2,prodloc26,tr0,21824,567424).
route(harbor2,prodloc26,tr13,21824,130944).
route(harbor2,prodloc27,tr0,12783,332358).
route(harbor2,prodloc27,tr13,12783,76698).
route(harbor2,prodloc28,tr0,9703,252278).
route(harbor2,prodloc28,tr13,9703,58218).
route(harbor2,prodloc29,tr0,16520,429520).
route(harbor2,prodloc29,tr13,16520,99120).
route(harbor2,prodloc30,tr0,16379,425854).
route(harbor2,prodloc30,tr13,16379,98274).
route(harbor2,prodloc31,tr0,565,14690).
route(harbor2,prodloc31,tr13,565,3390).
route(harbor2,prodloc32,tr0,10662,277212).
route(harbor2,prodloc32,tr13,10662,63972).
route(harbor2,prodloc33,tr0,20060,521560).
route(harbor2,prodloc33,tr13,20060,120360).
route(harbor3,harbor0,tr13,28591,171546).
route(harbor3,harbor0,tr2,28591,85773).
route(harbor3,harbor1,tr13,13213,79278).
route(harbor3,harbor1,tr2,13213,39639).
route(harbor3,harbor2,tr13,9249,55494).
route(harbor3,harbor2,tr2,9249,27747).
route(harbor3,harbor4,tr13,622,3732).
route(harbor3,harbor4,tr2,622,1866).
route(harbor3,harbor5,tr13,5173,31038).
route(harbor3,harbor5,tr2,5173,15519).
route(harbor3,harbor6,tr13,6611,39666).
route(harbor3,harbor6,tr2,6611,19833).
route(harbor3,harbor7,tr13,28129,168774).
route(harbor3,harbor7,tr2,28129,84387).
route(harbor3,harbor8,tr13,10769,64614).
route(harbor3,harbor8,tr2,10769,32307).
route(harbor3,harbor9,tr13,26609,159654).
route(harbor3,harbor9,tr2,26609,79827).
route(harbor3,harbor10,tr13,18489,110934).
route(harbor3,harbor10,tr2,18489,55467).
route(harbor3,harbor11,tr13,25677,154062).
route(harbor3,harbor11,tr2,25677,77031).
route(harbor3,harbor12,tr13,4458,26748).
route(harbor3,harbor12,tr2,4458,13374).
route(harbor3,harbor13,tr13,11141,66846).
route(harbor3,harbor13,tr2,11141,33423).
route(harbor3,harbor14,tr13,14095,84570).
route(harbor3,harbor14,tr2,14095,42285).
route(harbor3,harbor15,tr13,7010,42060).
route(harbor3,harbor15,tr2,7010,21030).
route(harbor3,harbor16,tr13,8763,52578).
route(harbor3,harbor16,tr2,8763,26289).
route(harbor3,prodloc0,tr0,22102,574652).
route(harbor3,prodloc0,tr13,22102,132612).
route(harbor3,prodloc1,tr0,3161,82186).
route(harbor3,prodloc1,tr13,3161,18966).
route(harbor3,prodloc2,tr0,27451,713726).
route(harbor3,prodloc2,tr13,27451,164706).
route(harbor3,prodloc3,tr0,12428,323128).
route(harbor3,prodloc3,tr13,12428,74568).
route(harbor3,prodloc4,tr0,17946,466596).
route(harbor3,prodloc4,tr13,17946,107676).
route(harbor3,prodloc5,tr0,11269,292994).
route(harbor3,prodloc5,tr13,11269,67614).
route(harbor3,prodloc6,tr0,28916,751816).
route(harbor3,prodloc6,tr13,28916,173496).
route(harbor3,prodloc7,tr0,27451,713726).
route(harbor3,prodloc7,tr13,27451,164706).
route(harbor3,prodloc8,tr0,22517,585442).
route(harbor3,prodloc8,tr13,22517,135102).
route(harbor3,prodloc9,tr0,17510,455260).
route(harbor3,prodloc9,tr13,17510,105060).
route(harbor3,prodloc10,tr0,15878,412828).
route(harbor3,prodloc10,tr13,15878,95268).
route(harbor3,prodloc11,tr0,25166,654316).
route(harbor3,prodloc11,tr13,25166,150996).
route(harbor3,prodloc12,tr0,17451,453726).
route(harbor3,prodloc12,tr13,17451,104706).
route(harbor3,prodloc13,tr0,7690,199940).
route(harbor3,prodloc13,tr13,7690,46140).
route(harbor3,prodloc14,tr0,2142,55692).
route(harbor3,prodloc14,tr13,2142,12852).
route(harbor3,prodloc15,tr0,23774,618124).
route(harbor3,prodloc15,tr13,23774,142644).
route(harbor3,prodloc16,tr0,1325,34450).
route(harbor3,prodloc16,tr13,1325,7950).
route(harbor3,prodloc17,tr0,2776,72176).
route(harbor3,prodloc17,tr13,2776,16656).
route(harbor3,prodloc18,tr0,4360,113360).
route(harbor3,prodloc18,tr13,4360,26160).
route(harbor3,prodloc19,tr0,5562,144612).
route(harbor3,prodloc19,tr13,5562,33372).
route(harbor3,prodloc20,tr0,5459,141934).
route(harbor3,prodloc20,tr13,5459,32754).
route(harbor3,prodloc21,tr0,17638,458588).
route(harbor3,prodloc21,tr13,17638,105828).
route(harbor3,prodloc22,tr0,6980,181480).
route(harbor3,prodloc22,tr13,6980,41880).
route(harbor3,prodloc23,tr0,8784,228384).
route(harbor3,prodloc23,tr13,8784,52704).
route(harbor3,prodloc24,tr0,24876,646776).
route(harbor3,prodloc24,tr13,24876,149256).
route(harbor3,prodloc25,tr0,10888,283088).
route(harbor3,prodloc25,tr13,10888,65328).
route(harbor3,prodloc26,tr0,19669,511394).
route(harbor3,prodloc26,tr13,19669,118014).
route(harbor3,prodloc27,tr0,16578,431028).
route(harbor3,prodloc27,tr13,16578,99468).
route(harbor3,prodloc28,tr0,27564,716664).
route(harbor3,prodloc28,tr13,27564,165384).
route(harbor3,prodloc29,tr0,8367,217542).
route(harbor3,prodloc29,tr13,8367,50202).
route(harbor3,prodloc30,tr0,12064,313664).
route(harbor3,prodloc30,tr13,12064,72384).
route(harbor3,prodloc31,tr0,11105,288730).
route(harbor3,prodloc31,tr13,11105,66630).
route(harbor3,prodloc32,tr0,11152,289952).
route(harbor3,prodloc32,tr13,11152,66912).
route(harbor3,prodloc33,tr0,3734,97084).
route(harbor3,prodloc33,tr13,3734,22404).
route(harbor4,harbor0,tr13,9572,57432).
route(harbor4,harbor0,tr2,9572,28716).
route(harbor4,harbor1,tr13,7736,46416).
route(harbor4,harbor1,tr2,7736,23208).
route(harbor4,harbor2,tr13,28453,170718).
route(harbor4,harbor2,tr2,28453,85359).
route(harbor4,harbor3,tr13,19821,118926).
route(harbor4,harbor3,tr2,19821,59463).
route(harbor4,harbor5,tr13,25573,153438).
route(harbor4,harbor5,tr2,25573,76719).
route(harbor4,harbor6,tr13,23462,140772).
route(harbor4,harbor6,tr2,23462,70386).
route(harbor4,harbor7,tr13,29103,174618).
route(harbor4,harbor7,tr2,29103,87309).
route(harbor4,harbor8,tr13,16046,96276).
route(harbor4,harbor8,tr2,16046,48138).
route(harbor4,harbor9,tr13,4465,26790).
route(harbor4,harbor9,tr2,4465,13395).
route(harbor4,harbor10,tr13,19034,114204).
route(harbor4,harbor10,tr2,19034,57102).
route(harbor4,harbor11,tr13,18090,108540).
route(harbor4,harbor11,tr2,18090,54270).
route(harbor4,harbor12,tr13,25269,151614).
route(harbor4,harbor12,tr2,25269,75807).
route(harbor4,harbor13,tr13,3446,20676).
route(harbor4,harbor13,tr2,3446,10338).
route(harbor4,harbor14,tr13,10539,63234).
route(harbor4,harbor14,tr2,10539,31617).
route(harbor4,harbor15,tr13,1312,7872).
route(harbor4,harbor15,tr2,1312,3936).
route(harbor4,harbor16,tr13,13353,80118).
route(harbor4,harbor16,tr2,13353,40059).
route(harbor4,prodloc0,tr0,2400,62400).
route(harbor4,prodloc0,tr13,2400,14400).
route(harbor4,prodloc1,tr0,12461,323986).
route(harbor4,prodloc1,tr13,12461,74766).
route(harbor4,prodloc2,tr0,28384,737984).
route(harbor4,prodloc2,tr13,28384,170304).
route(harbor4,prodloc3,tr0,25826,671476).
route(harbor4,prodloc3,tr13,25826,154956).
route(harbor4,prodloc4,tr0,4829,125554).
route(harbor4,prodloc4,tr13,4829,28974).
route(harbor4,prodloc5,tr0,27150,705900).
route(harbor4,prodloc5,tr13,27150,162900).
route(harbor4,prodloc6,tr0,4098,106548).
route(harbor4,prodloc6,tr13,4098,24588).
route(harbor4,prodloc7,tr0,11172,290472).
route(harbor4,prodloc7,tr13,11172,67032).
route(harbor4,prodloc8,tr0,3760,97760).
route(harbor4,prodloc8,tr13,3760,22560).
route(harbor4,prodloc9,tr0,20160,524160).
route(harbor4,prodloc9,tr13,20160,120960).
route(harbor4,prodloc10,tr0,19250,500500).
route(harbor4,prodloc10,tr13,19250,115500).
route(harbor4,prodloc11,tr0,25623,666198).
route(harbor4,prodloc11,tr13,25623,153738).
route(harbor4,prodloc12,tr0,12389,322114).
route(harbor4,prodloc12,tr13,12389,74334).
route(harbor4,prodloc13,tr0,2513,65338).
route(harbor4,prodloc13,tr13,2513,15078).
route(harbor4,prodloc14,tr0,18705,486330).
route(harbor4,prodloc14,tr13,18705,112230).
route(harbor4,prodloc15,tr0,18033,468858).
route(harbor4,prodloc15,tr13,18033,108198).
route(harbor4,prodloc16,tr0,7332,190632).
route(harbor4,prodloc16,tr13,7332,43992).
route(harbor4,prodloc17,tr0,18547,482222).
route(harbor4,prodloc17,tr13,18547,111282).
route(harbor4,prodloc18,tr0,2680,69680).
route(harbor4,prodloc18,tr13,2680,16080).
route(harbor4,prodloc19,tr0,8742,227292).
route(harbor4,prodloc19,tr13,8742,52452).
route(harbor4,prodloc20,tr0,11958,310908).
route(harbor4,prodloc20,tr13,11958,71748).
route(harbor4,prodloc21,tr0,9686,251836).
route(harbor4,prodloc21,tr13,9686,58116).
route(harbor4,prodloc22,tr0,18497,480922).
route(harbor4,prodloc22,tr13,18497,110982).
route(harbor4,prodloc23,tr0,17509,455234).
route(harbor4,prodloc23,tr13,17509,105054).
route(harbor4,prodloc24,tr0,3747,97422).
route(harbor4,prodloc24,tr13,3747,22482).
route(harbor4,prodloc25,tr0,15002,390052).
route(harbor4,prodloc25,tr13,15002,90012).
route(harbor4,prodloc26,tr0,9084,236184).
route(harbor4,prodloc26,tr13,9084,54504).
route(harbor4,prodloc27,tr0,3532,91832).
route(harbor4,prodloc27,tr13,3532,21192).
route(harbor4,prodloc28,tr0,25790,670540).
route(harbor4,prodloc28,tr13,25790,154740).
route(harbor4,prodloc29,tr0,1501,39026).
route(harbor4,prodloc29,tr13,1501,9006).
route(harbor4,prodloc30,tr0,27126,705276).
route(harbor4,prodloc30,tr13,27126,162756).
route(harbor4,prodloc31,tr0,9692,251992).
route(harbor4,prodloc31,tr13,9692,58152).
route(harbor4,prodloc32,tr0,407,10582).
route(harbor4,prodloc32,tr13,407,2442).
route(harbor4,prodloc33,tr0,20110,522860).
route(harbor4,prodloc33,tr13,20110,120660).
route(harbor5,harbor0,tr13,21998,131988).
route(harbor5,harbor0,tr2,21998,65994).
route(harbor5,harbor1,tr13,506,3036).
route(harbor5,harbor1,tr2,506,1518).
route(harbor5,harbor2,tr13,3034,18204).
route(harbor5,harbor2,tr2,3034,9102).
route(harbor5,harbor3,tr13,13580,81480).
route(harbor5,harbor3,tr2,13580,40740).
route(harbor5,harbor4,tr13,3801,22806).
route(harbor5,harbor4,tr2,3801,11403).
route(harbor5,harbor6,tr13,27100,162600).
route(harbor5,harbor6,tr2,27100,81300).
route(harbor5,harbor7,tr13,29031,174186).
route(harbor5,harbor7,tr2,29031,87093).
route(harbor5,harbor8,tr13,25912,155472).
route(harbor5,harbor8,tr2,25912,77736).
route(harbor5,harbor9,tr13,1341,8046).
route(harbor5,harbor9,tr2,1341,4023).
route(harbor5,harbor10,tr13,6187,37122).
route(harbor5,harbor10,tr2,6187,18561).
route(harbor5,harbor11,tr13,7882,47292).
route(harbor5,harbor11,tr2,7882,23646).
route(harbor5,harbor12,tr13,25769,154614).
route(harbor5,harbor12,tr2,25769,77307).
route(harbor5,harbor13,tr13,19258,115548).
route(harbor5,harbor13,tr2,19258,57774).
route(harbor5,harbor14,tr13,13825,82950).
route(harbor5,harbor14,tr2,13825,41475).
route(harbor5,harbor15,tr13,5339,32034).
route(harbor5,harbor15,tr2,5339,16017).
route(harbor5,harbor16,tr13,3816,22896).
route(harbor5,harbor16,tr2,3816,11448).
route(harbor5,prodloc0,tr0,14777,384202).
route(harbor5,prodloc0,tr13,14777,88662).
route(harbor5,prodloc1,tr0,5486,142636).
route(harbor5,prodloc1,tr13,5486,32916).
route(harbor5,prodloc2,tr0,22313,580138).
route(harbor5,prodloc2,tr13,22313,133878).
route(harbor5,prodloc3,tr0,7912,205712).
route(harbor5,prodloc3,tr13,7912,47472).
route(harbor5,prodloc4,tr0,5210,135460).
route(harbor5,prodloc4,tr13,5210,31260).
route(harbor5,prodloc5,tr0,24381,633906).
route(harbor5,prodloc5,tr13,24381,146286).
route(harbor5,prodloc6,tr0,27691,719966).
route(harbor5,prodloc6,tr13,27691,166146).
route(harbor5,prodloc7,tr0,3371,87646).
route(harbor5,prodloc7,tr13,3371,20226).
route(harbor5,prodloc8,tr0,14259,370734).
route(harbor5,prodloc8,tr13,14259,85554).
route(harbor5,prodloc9,tr0,12397,322322).
route(harbor5,prodloc9,tr13,12397,74382).
route(harbor5,prodloc10,tr0,26428,687128).
route(harbor5,prodloc10,tr13,26428,158568).
route(harbor5,prodloc11,tr0,17792,462592).
route(harbor5,prodloc11,tr13,17792,106752).
route(harbor5,prodloc12,tr0,26817,697242).
route(harbor5,prodloc12,tr13,26817,160902).
route(harbor5,prodloc13,tr0,9636,250536).
route(harbor5,prodloc13,tr13,9636,57816).
route(harbor5,prodloc14,tr0,18031,468806).
route(harbor5,prodloc14,tr13,18031,108186).
route(harbor5,prodloc15,tr0,8305,215930).
route(harbor5,prodloc15,tr13,8305,49830).
route(harbor5,prodloc16,tr0,23320,606320).
route(harbor5,prodloc16,tr13,23320,139920).
route(harbor5,prodloc17,tr0,15632,406432).
route(harbor5,prodloc17,tr13,15632,93792).
route(harbor5,prodloc18,tr0,10306,267956).
route(harbor5,prodloc18,tr13,10306,61836).
route(harbor5,prodloc19,tr0,3283,85358).
route(harbor5,prodloc19,tr13,3283,19698).
route(harbor5,prodloc20,tr0,6805,176930).
route(harbor5,prodloc20,tr13,6805,40830).
route(harbor5,prodloc21,tr0,21368,555568).
route(harbor5,prodloc21,tr13,21368,128208).
route(harbor5,prodloc22,tr0,10403,270478).
route(harbor5,prodloc22,tr13,10403,62418).
route(harbor5,prodloc23,tr0,1300,33800).
route(harbor5,prodloc23,tr13,1300,7800).
route(harbor5,prodloc24,tr0,895,23270).
route(harbor5,prodloc24,tr13,895,5370).
route(harbor5,prodloc25,tr0,346,8996).
route(harbor5,prodloc25,tr13,346,2076).
route(harbor5,prodloc26,tr0,25785,670410).
route(harbor5,prodloc26,tr13,25785,154710).
route(harbor5,prodloc27,tr0,9686,251836).
route(harbor5,prodloc27,tr13,9686,58116).
route(harbor5,prodloc28,tr0,23807,618982).
route(harbor5,prodloc28,tr13,23807,142842).
route(harbor5,prodloc29,tr0,19550,508300).
route(harbor5,prodloc29,tr13,19550,117300).
route(harbor5,prodloc30,tr0,10495,272870).
route(harbor5,prodloc30,tr13,10495,62970).
route(harbor5,prodloc31,tr0,14742,383292).
route(harbor5,prodloc31,tr13,14742,88452).
route(harbor5,prodloc32,tr0,12823,333398).
route(harbor5,prodloc32,tr13,12823,76938).
route(harbor5,prodloc33,tr0,10267,266942).
route(harbor5,prodloc33,tr13,10267,61602).
route(harbor6,harbor0,tr13,13089,78534).
route(harbor6,harbor0,tr2,13089,39267).
route(harbor6,harbor1,tr13,2093,12558).
route(harbor6,harbor1,tr2,2093,6279).
route(harbor6,harbor2,tr13,2133,12798).
route(harbor6,harbor2,tr2,2133,6399).
route(harbor6,harbor3,tr13,10428,62568).
route(harbor6,harbor3,tr2,10428,31284).
route(harbor6,harbor4,tr13,19738,118428).
route(harbor6,harbor4,tr2,19738,59214).
route(harbor6,harbor5,tr13,14967,89802).
route(harbor6,harbor5,tr2,14967,44901).
route(harbor6,harbor7,tr13,3679,22074).
route(harbor6,harbor7,tr2,3679,11037).
route(harbor6,harbor8,tr13,8224,49344).
route(harbor6,harbor8,tr2,8224,24672).
route(harbor6,harbor9,tr13,7081,42486).
route(harbor6,harbor9,tr2,7081,21243).
route(harbor6,harbor10,tr13,25757,154542).
route(harbor6,harbor10,tr2,25757,77271).
route(harbor6,harbor11,tr13,20274,121644).
route(harbor6,harbor11,tr2,20274,60822).
route(harbor6,harbor12,tr13,25520,153120).
route(harbor6,harbor12,tr2,25520,76560).
route(harbor6,harbor13,tr13,29233,175398).
route(harbor6,harbor13,tr2,29233,87699).
route(harbor6,harbor14,tr13,17820,106920).
route(harbor6,harbor14,tr2,17820,53460).
route(harbor6,harbor15,tr13,28459,170754).
route(harbor6,harbor15,tr2,28459,85377).
route(harbor6,harbor16,tr13,22580,135480).
route(harbor6,harbor16,tr2,22580,67740).
route(harbor6,prodloc0,tr0,15367,399542).
route(harbor6,prodloc0,tr13,15367,92202).
route(harbor6,prodloc1,tr0,21688,563888).
route(harbor6,prodloc1,tr13,21688,130128).
route(harbor6,prodloc2,tr0,11661,303186).
route(harbor6,prodloc2,tr13,11661,69966).
route(harbor6,prodloc3,tr0,8491,220766).
route(harbor6,prodloc3,tr13,8491,50946).
route(harbor6,prodloc4,tr0,6005,156130).
route(harbor6,prodloc4,tr13,6005,36030).
route(harbor6,prodloc5,tr0,17749,461474).
route(harbor6,prodloc5,tr13,17749,106494).
route(harbor6,prodloc6,tr0,6812,177112).
route(harbor6,prodloc6,tr13,6812,40872).
route(harbor6,prodloc7,tr0,10072,261872).
route(harbor6,prodloc7,tr13,10072,60432).
route(harbor6,prodloc8,tr0,6529,169754).
route(harbor6,prodloc8,tr13,6529,39174).
route(harbor6,prodloc9,tr0,8075,209950).
route(harbor6,prodloc9,tr13,8075,48450).
route(harbor6,prodloc10,tr0,11813,307138).
route(harbor6,prodloc10,tr13,11813,70878).
route(harbor6,prodloc11,tr0,2668,69368).
route(harbor6,prodloc11,tr13,2668,16008).
route(harbor6,prodloc12,tr0,26871,698646).
route(harbor6,prodloc12,tr13,26871,161226).
route(harbor6,prodloc13,tr0,9202,239252).
route(harbor6,prodloc13,tr13,9202,55212).
route(harbor6,prodloc14,tr0,2931,76206).
route(harbor6,prodloc14,tr13,2931,17586).
route(harbor6,prodloc15,tr0,24685,641810).
route(harbor6,prodloc15,tr13,24685,148110).
route(harbor6,prodloc16,tr0,14678,381628).
route(harbor6,prodloc16,tr13,14678,88068).
route(harbor6,prodloc17,tr0,2967,77142).
route(harbor6,prodloc17,tr13,2967,17802).
route(harbor6,prodloc18,tr0,21367,555542).
route(harbor6,prodloc18,tr13,21367,128202).
route(harbor6,prodloc19,tr0,18822,489372).
route(harbor6,prodloc19,tr13,18822,112932).
route(harbor6,prodloc20,tr0,21087,548262).
route(harbor6,prodloc20,tr13,21087,126522).
route(harbor6,prodloc21,tr0,11106,288756).
route(harbor6,prodloc21,tr13,11106,66636).
route(harbor6,prodloc22,tr0,7454,193804).
route(harbor6,prodloc22,tr13,7454,44724).
route(harbor6,prodloc23,tr0,12797,332722).
route(harbor6,prodloc23,tr13,12797,76782).
route(harbor6,prodloc24,tr0,10054,261404).
route(harbor6,prodloc24,tr13,10054,60324).
route(harbor6,prodloc25,tr0,1347,35022).
route(harbor6,prodloc25,tr13,1347,8082).
route(harbor6,prodloc26,tr0,10725,278850).
route(harbor6,prodloc26,tr13,10725,64350).
route(harbor6,prodloc27,tr0,6123,159198).
route(harbor6,prodloc27,tr13,6123,36738).
route(harbor6,prodloc28,tr0,10380,269880).
route(harbor6,prodloc28,tr13,10380,62280).
route(harbor6,prodloc29,tr0,25978,675428).
route(harbor6,prodloc29,tr13,25978,155868).
route(harbor6,prodloc30,tr0,27760,721760).
route(harbor6,prodloc30,tr13,27760,166560).
route(harbor6,prodloc31,tr0,18974,493324).
route(harbor6,prodloc31,tr13,18974,113844).
route(harbor6,prodloc32,tr0,9924,258024).
route(harbor6,prodloc32,tr13,9924,59544).
route(harbor6,prodloc33,tr0,8057,209482).
route(harbor6,prodloc33,tr13,8057,48342).
route(harbor7,harbor0,tr13,10985,65910).
route(harbor7,harbor0,tr2,10985,32955).
route(harbor7,harbor1,tr13,3337,20022).
route(harbor7,harbor1,tr2,3337,10011).
route(harbor7,harbor2,tr13,17863,107178).
route(harbor7,harbor2,tr2,17863,53589).
route(harbor7,harbor3,tr13,20064,120384).
route(harbor7,harbor3,tr2,20064,60192).
route(harbor7,harbor4,tr13,19002,114012).
route(harbor7,harbor4,tr2,19002,57006).
route(harbor7,harbor5,tr13,26492,158952).
route(harbor7,harbor5,tr2,26492,79476).
route(harbor7,harbor6,tr13,19558,117348).
route(harbor7,harbor6,tr2,19558,58674).
route(harbor7,harbor8,tr13,3046,18276).
route(harbor7,harbor8,tr2,3046,9138).
route(harbor7,harbor9,tr13,8061,48366).
route(harbor7,harbor9,tr2,8061,24183).
route(harbor7,harbor10,tr13,7244,43464).
route(harbor7,harbor10,tr2,7244,21732).
route(harbor7,harbor11,tr13,697,4182).
route(harbor7,harbor11,tr2,697,2091).
route(harbor7,harbor12,tr13,26515,159090).
route(harbor7,harbor12,tr2,26515,79545).
route(harbor7,harbor13,tr13,8017,48102).
route(harbor7,harbor13,tr2,8017,24051).
route(harbor7,harbor14,tr13,13195,79170).
route(harbor7,harbor14,tr2,13195,39585).
route(harbor7,harbor15,tr13,2400,14400).
route(harbor7,harbor15,tr2,2400,7200).
route(harbor7,harbor16,tr13,8813,52878).
route(harbor7,harbor16,tr2,8813,26439).
route(harbor7,prodloc0,tr0,18063,469638).
route(harbor7,prodloc0,tr13,18063,108378).
route(harbor7,prodloc1,tr0,28430,739180).
route(harbor7,prodloc1,tr13,28430,170580).
route(harbor7,prodloc2,tr0,2325,60450).
route(harbor7,prodloc2,tr13,2325,13950).
route(harbor7,prodloc3,tr0,23895,621270).
route(harbor7,prodloc3,tr13,23895,143370).
route(harbor7,prodloc4,tr0,2463,64038).
route(harbor7,prodloc4,tr13,2463,14778).
route(harbor7,prodloc5,tr0,706,18356).
route(harbor7,prodloc5,tr13,706,4236).
route(harbor7,prodloc6,tr0,20822,541372).
route(harbor7,prodloc6,tr13,20822,124932).
route(harbor7,prodloc7,tr0,326,8476).
route(harbor7,prodloc7,tr13,326,1956).
route(harbor7,prodloc8,tr0,9531,247806).
route(harbor7,prodloc8,tr13,9531,57186).
route(harbor7,prodloc9,tr0,24601,639626).
route(harbor7,prodloc9,tr13,24601,147606).
route(harbor7,prodloc10,tr0,25960,674960).
route(harbor7,prodloc10,tr13,25960,155760).
route(harbor7,prodloc11,tr0,11771,306046).
route(harbor7,prodloc11,tr13,11771,70626).
route(harbor7,prodloc12,tr0,16165,420290).
route(harbor7,prodloc12,tr13,16165,96990).
route(harbor7,prodloc13,tr0,15364,399464).
route(harbor7,prodloc13,tr13,15364,92184).
route(harbor7,prodloc14,tr0,28269,734994).
route(harbor7,prodloc14,tr13,28269,169614).
route(harbor7,prodloc15,tr0,28153,731978).
route(harbor7,prodloc15,tr13,28153,168918).
route(harbor7,prodloc16,tr0,5054,131404).
route(harbor7,prodloc16,tr13,5054,30324).
route(harbor7,prodloc17,tr0,3309,86034).
route(harbor7,prodloc17,tr13,3309,19854).
route(harbor7,prodloc18,tr0,16432,427232).
route(harbor7,prodloc18,tr13,16432,98592).
route(harbor7,prodloc19,tr0,25487,662662).
route(harbor7,prodloc19,tr13,25487,152922).
route(harbor7,prodloc20,tr0,26052,677352).
route(harbor7,prodloc20,tr13,26052,156312).
route(harbor7,prodloc21,tr0,10752,279552).
route(harbor7,prodloc21,tr13,10752,64512).
route(harbor7,prodloc22,tr0,2528,65728).
route(harbor7,prodloc22,tr13,2528,15168).
route(harbor7,prodloc23,tr0,16689,433914).
route(harbor7,prodloc23,tr13,16689,100134).
route(harbor7,prodloc24,tr0,21800,566800).
route(harbor7,prodloc24,tr13,21800,130800).
route(harbor7,prodloc25,tr0,5678,147628).
route(harbor7,prodloc25,tr13,5678,34068).
route(harbor7,prodloc26,tr0,5886,153036).
route(harbor7,prodloc26,tr13,5886,35316).
route(harbor7,prodloc27,tr0,25436,661336).
route(harbor7,prodloc27,tr13,25436,152616).
route(harbor7,prodloc28,tr0,4902,127452).
route(harbor7,prodloc28,tr13,4902,29412).
route(harbor7,prodloc29,tr0,4639,120614).
route(harbor7,prodloc29,tr13,4639,27834).
route(harbor7,prodloc30,tr0,26922,699972).
route(harbor7,prodloc30,tr13,26922,161532).
route(harbor7,prodloc31,tr0,28364,737464).
route(harbor7,prodloc31,tr13,28364,170184).
route(harbor7,prodloc32,tr0,10480,272480).
route(harbor7,prodloc32,tr13,10480,62880).
route(harbor7,prodloc33,tr0,10016,260416).
route(harbor7,prodloc33,tr13,10016,60096).
route(harbor8,harbor0,tr13,3532,21192).
route(harbor8,harbor0,tr2,3532,10596).
route(harbor8,harbor1,tr13,23273,139638).
route(harbor8,harbor1,tr2,23273,69819).
route(harbor8,harbor2,tr13,16884,101304).
route(harbor8,harbor2,tr2,16884,50652).
route(harbor8,harbor3,tr13,27381,164286).
route(harbor8,harbor3,tr2,27381,82143).
route(harbor8,harbor4,tr13,19752,118512).
route(harbor8,harbor4,tr2,19752,59256).
route(harbor8,harbor5,tr13,9647,57882).
route(harbor8,harbor5,tr2,9647,28941).
route(harbor8,harbor6,tr13,4168,25008).
route(harbor8,harbor6,tr2,4168,12504).
route(harbor8,harbor7,tr13,6804,40824).
route(harbor8,harbor7,tr2,6804,20412).
route(harbor8,harbor9,tr13,4672,28032).
route(harbor8,harbor9,tr2,4672,14016).
route(harbor8,harbor10,tr13,17904,107424).
route(harbor8,harbor10,tr2,17904,53712).
route(harbor8,harbor11,tr13,23709,142254).
route(harbor8,harbor11,tr2,23709,71127).
route(harbor8,harbor12,tr13,1070,6420).
route(harbor8,harbor12,tr2,1070,3210).
route(harbor8,harbor13,tr13,25580,153480).
route(harbor8,harbor13,tr2,25580,76740).
route(harbor8,harbor14,tr13,10386,62316).
route(harbor8,harbor14,tr2,10386,31158).
route(harbor8,harbor15,tr13,26933,161598).
route(harbor8,harbor15,tr2,26933,80799).
route(harbor8,harbor16,tr13,20461,122766).
route(harbor8,harbor16,tr2,20461,61383).
route(harbor8,prodloc0,tr0,26342,684892).
route(harbor8,prodloc0,tr13,26342,158052).
route(harbor8,prodloc1,tr0,22028,572728).
route(harbor8,prodloc1,tr13,22028,132168).
route(harbor8,prodloc2,tr0,18121,471146).
route(harbor8,prodloc2,tr13,18121,108726).
route(harbor8,prodloc3,tr0,27550,716300).
route(harbor8,prodloc3,tr13,27550,165300).
route(harbor8,prodloc4,tr0,24452,635752).
route(harbor8,prodloc4,tr13,24452,146712).
route(harbor8,prodloc5,tr0,22598,587548).
route(harbor8,prodloc5,tr13,22598,135588).
route(harbor8,prodloc6,tr0,6733,175058).
route(harbor8,prodloc6,tr13,6733,40398).
route(harbor8,prodloc7,tr0,5839,151814).
route(harbor8,prodloc7,tr13,5839,35034).
route(harbor8,prodloc8,tr0,9797,254722).
route(harbor8,prodloc8,tr13,9797,58782).
route(harbor8,prodloc9,tr0,14178,368628).
route(harbor8,prodloc9,tr13,14178,85068).
route(harbor8,prodloc10,tr0,17614,457964).
route(harbor8,prodloc10,tr13,17614,105684).
route(harbor8,prodloc11,tr0,5175,134550).
route(harbor8,prodloc11,tr13,5175,31050).
route(harbor8,prodloc12,tr0,1593,41418).
route(harbor8,prodloc12,tr13,1593,9558).
route(harbor8,prodloc13,tr0,23425,609050).
route(harbor8,prodloc13,tr13,23425,140550).
route(harbor8,prodloc14,tr0,28251,734526).
route(harbor8,prodloc14,tr13,28251,169506).
route(harbor8,prodloc15,tr0,21883,568958).
route(harbor8,prodloc15,tr13,21883,131298).
route(harbor8,prodloc16,tr0,8105,210730).
route(harbor8,prodloc16,tr13,8105,48630).
route(harbor8,prodloc17,tr0,8278,215228).
route(harbor8,prodloc17,tr13,8278,49668).
route(harbor8,prodloc18,tr0,25488,662688).
route(harbor8,prodloc18,tr13,25488,152928).
route(harbor8,prodloc19,tr0,2112,54912).
route(harbor8,prodloc19,tr13,2112,12672).
route(harbor8,prodloc20,tr0,22352,581152).
route(harbor8,prodloc20,tr13,22352,134112).
route(harbor8,prodloc21,tr0,14639,380614).
route(harbor8,prodloc21,tr13,14639,87834).
route(harbor8,prodloc22,tr0,26486,688636).
route(harbor8,prodloc22,tr13,26486,158916).
route(harbor8,prodloc23,tr0,14097,366522).
route(harbor8,prodloc23,tr13,14097,84582).
route(harbor8,prodloc24,tr0,18000,468000).
route(harbor8,prodloc24,tr13,18000,108000).
route(harbor8,prodloc25,tr0,8201,213226).
route(harbor8,prodloc25,tr13,8201,49206).
route(harbor8,prodloc26,tr0,17741,461266).
route(harbor8,prodloc26,tr13,17741,106446).
route(harbor8,prodloc27,tr0,14400,374400).
route(harbor8,prodloc27,tr13,14400,86400).
route(harbor8,prodloc28,tr0,27897,725322).
route(harbor8,prodloc28,tr13,27897,167382).
route(harbor8,prodloc29,tr0,17633,458458).
route(harbor8,prodloc29,tr13,17633,105798).
route(harbor8,prodloc30,tr0,14856,386256).
route(harbor8,prodloc30,tr13,14856,89136).
route(harbor8,prodloc31,tr0,358,9308).
route(harbor8,prodloc31,tr13,358,2148).
route(harbor8,prodloc32,tr0,12968,337168).
route(harbor8,prodloc32,tr13,12968,77808).
route(harbor8,prodloc33,tr0,27405,712530).
route(harbor8,prodloc33,tr13,27405,164430).
route(harbor9,harbor0,tr13,11127,66762).
route(harbor9,harbor0,tr2,11127,33381).
route(harbor9,harbor1,tr13,5650,33900).
route(harbor9,harbor1,tr2,5650,16950).
route(harbor9,harbor2,tr13,8483,50898).
route(harbor9,harbor2,tr2,8483,25449).
route(harbor9,harbor3,tr13,15948,95688).
route(harbor9,harbor3,tr2,15948,47844).
route(harbor9,harbor4,tr13,829,4974).
route(harbor9,harbor4,tr2,829,2487).
route(harbor9,harbor5,tr13,26017,156102).
route(harbor9,harbor5,tr2,26017,78051).
route(harbor9,harbor6,tr13,21212,127272).
route(harbor9,harbor6,tr2,21212,63636).
route(harbor9,harbor7,tr13,13683,82098).
route(harbor9,harbor7,tr2,13683,41049).
route(harbor9,harbor8,tr13,18727,112362).
route(harbor9,harbor8,tr2,18727,56181).
route(harbor9,harbor10,tr13,649,3894).
route(harbor9,harbor10,tr2,649,1947).
route(harbor9,harbor11,tr13,2072,12432).
route(harbor9,harbor11,tr2,2072,6216).
route(harbor9,harbor12,tr13,22695,136170).
route(harbor9,harbor12,tr2,22695,68085).
route(harbor9,harbor13,tr13,11660,69960).
route(harbor9,harbor13,tr2,11660,34980).
route(harbor9,harbor14,tr13,19037,114222).
route(harbor9,harbor14,tr2,19037,57111).
route(harbor9,harbor15,tr13,4561,27366).
route(harbor9,harbor15,tr2,4561,13683).
route(harbor9,harbor16,tr13,19479,116874).
route(harbor9,harbor16,tr2,19479,58437).
route(harbor9,prodloc0,tr0,4102,106652).
route(harbor9,prodloc0,tr13,4102,24612).
route(harbor9,prodloc1,tr0,4540,118040).
route(harbor9,prodloc1,tr13,4540,27240).
route(harbor9,prodloc2,tr0,8492,220792).
route(harbor9,prodloc2,tr13,8492,50952).
route(harbor9,prodloc3,tr0,27164,706264).
route(harbor9,prodloc3,tr13,27164,162984).
route(harbor9,prodloc4,tr0,9075,235950).
route(harbor9,prodloc4,tr13,9075,54450).
route(harbor9,prodloc5,tr0,13037,338962).
route(harbor9,prodloc5,tr13,13037,78222).
route(harbor9,prodloc6,tr0,18485,480610).
route(harbor9,prodloc6,tr13,18485,110910).
route(harbor9,prodloc7,tr0,13144,341744).
route(harbor9,prodloc7,tr13,13144,78864).
route(harbor9,prodloc8,tr0,5643,146718).
route(harbor9,prodloc8,tr13,5643,33858).
route(harbor9,prodloc9,tr0,20070,521820).
route(harbor9,prodloc9,tr13,20070,120420).
route(harbor9,prodloc10,tr0,2926,76076).
route(harbor9,prodloc10,tr13,2926,17556).
route(harbor9,prodloc11,tr0,7654,199004).
route(harbor9,prodloc11,tr13,7654,45924).
route(harbor9,prodloc12,tr0,15927,414102).
route(harbor9,prodloc12,tr13,15927,95562).
route(harbor9,prodloc13,tr0,247,6422).
route(harbor9,prodloc13,tr13,247,1482).
route(harbor9,prodloc14,tr0,5820,151320).
route(harbor9,prodloc14,tr13,5820,34920).
route(harbor9,prodloc15,tr0,17326,450476).
route(harbor9,prodloc15,tr13,17326,103956).
route(harbor9,prodloc16,tr0,10397,270322).
route(harbor9,prodloc16,tr13,10397,62382).
route(harbor9,prodloc17,tr0,16415,426790).
route(harbor9,prodloc17,tr13,16415,98490).
route(harbor9,prodloc18,tr0,21263,552838).
route(harbor9,prodloc18,tr13,21263,127578).
route(harbor9,prodloc19,tr0,14364,373464).
route(harbor9,prodloc19,tr13,14364,86184).
route(harbor9,prodloc20,tr0,22497,584922).
route(harbor9,prodloc20,tr13,22497,134982).
route(harbor9,prodloc21,tr0,20944,544544).
route(harbor9,prodloc21,tr13,20944,125664).
route(harbor9,prodloc22,tr0,23969,623194).
route(harbor9,prodloc22,tr13,23969,143814).
route(harbor9,prodloc23,tr0,7398,192348).
route(harbor9,prodloc23,tr13,7398,44388).
route(harbor9,prodloc24,tr0,7813,203138).
route(harbor9,prodloc24,tr13,7813,46878).
route(harbor9,prodloc25,tr0,10257,266682).
route(harbor9,prodloc25,tr13,10257,61542).
route(harbor9,prodloc26,tr0,16224,421824).
route(harbor9,prodloc26,tr13,16224,97344).
route(harbor9,prodloc27,tr0,22511,585286).
route(harbor9,prodloc27,tr13,22511,135066).
route(harbor9,prodloc28,tr0,15692,407992).
route(harbor9,prodloc28,tr13,15692,94152).
route(harbor9,prodloc29,tr0,7376,191776).
route(harbor9,prodloc29,tr13,7376,44256).
route(harbor9,prodloc30,tr0,23360,607360).
route(harbor9,prodloc30,tr13,23360,140160).
route(harbor9,prodloc31,tr0,13510,351260).
route(harbor9,prodloc31,tr13,13510,81060).
route(harbor9,prodloc32,tr0,11043,287118).
route(harbor9,prodloc32,tr13,11043,66258).
route(harbor9,prodloc33,tr0,18365,477490).
route(harbor9,prodloc33,tr13,18365,110190).
route(harbor10,harbor0,tr13,20060,120360).
route(harbor10,harbor0,tr2,20060,60180).
route(harbor10,harbor1,tr13,23892,143352).
route(harbor10,harbor1,tr2,23892,71676).
route(harbor10,harbor2,tr13,21440,128640).
route(harbor10,harbor2,tr2,21440,64320).
route(harbor10,harbor3,tr13,9048,54288).
route(harbor10,harbor3,tr2,9048,27144).
route(harbor10,harbor4,tr13,21211,127266).
route(harbor10,harbor4,tr2,21211,63633).
route(harbor10,harbor5,tr13,7221,43326).
route(harbor10,harbor5,tr2,7221,21663).
route(harbor10,harbor6,tr13,1609,9654).
route(harbor10,harbor6,tr2,1609,4827).
route(harbor10,harbor7,tr13,2374,14244).
route(harbor10,harbor7,tr2,2374,7122).
route(harbor10,harbor8,tr13,25038,150228).
route(harbor10,harbor8,tr2,25038,75114).
route(harbor10,harbor9,tr13,16797,100782).
route(harbor10,harbor9,tr2,16797,50391).
route(harbor10,harbor11,tr13,21174,127044).
route(harbor10,harbor11,tr2,21174,63522).
route(harbor10,harbor12,tr13,28781,172686).
route(harbor10,harbor12,tr2,28781,86343).
route(harbor10,harbor13,tr13,12111,72666).
route(harbor10,harbor13,tr2,12111,36333).
route(harbor10,harbor14,tr13,5255,31530).
route(harbor10,harbor14,tr2,5255,15765).
route(harbor10,harbor15,tr13,16795,100770).
route(harbor10,harbor15,tr2,16795,50385).
route(harbor10,harbor16,tr13,25131,150786).
route(harbor10,harbor16,tr2,25131,75393).
route(harbor10,prodloc0,tr0,25969,675194).
route(harbor10,prodloc0,tr13,25969,155814).
route(harbor10,prodloc1,tr0,28936,752336).
route(harbor10,prodloc1,tr13,28936,173616).
route(harbor10,prodloc2,tr0,6681,173706).
route(harbor10,prodloc2,tr13,6681,40086).
route(harbor10,prodloc3,tr0,10219,265694).
route(harbor10,prodloc3,tr13,10219,61314).
route(harbor10,prodloc4,tr0,9790,254540).
route(harbor10,prodloc4,tr13,9790,58740).
route(harbor10,prodloc5,tr0,22695,590070).
route(harbor10,prodloc5,tr13,22695,136170).
route(harbor10,prodloc6,tr0,9818,255268).
route(harbor10,prodloc6,tr13,9818,58908).
route(harbor10,prodloc7,tr0,27821,723346).
route(harbor10,prodloc7,tr13,27821,166926).
route(harbor10,prodloc8,tr0,18100,470600).
route(harbor10,prodloc8,tr13,18100,108600).
route(harbor10,prodloc9,tr0,12179,316654).
route(harbor10,prodloc9,tr13,12179,73074).
route(harbor10,prodloc10,tr0,5414,140764).
route(harbor10,prodloc10,tr13,5414,32484).
route(harbor10,prodloc11,tr0,22981,597506).
route(harbor10,prodloc11,tr13,22981,137886).
route(harbor10,prodloc12,tr0,22981,597506).
route(harbor10,prodloc12,tr13,22981,137886).
route(harbor10,prodloc13,tr0,24132,627432).
route(harbor10,prodloc13,tr13,24132,144792).
route(harbor10,prodloc14,tr0,15231,396006).
route(harbor10,prodloc14,tr13,15231,91386).
route(harbor10,prodloc15,tr0,19485,506610).
route(harbor10,prodloc15,tr13,19485,116910).
route(harbor10,prodloc16,tr0,2786,72436).
route(harbor10,prodloc16,tr13,2786,16716).
route(harbor10,prodloc17,tr0,28060,729560).
route(harbor10,prodloc17,tr13,28060,168360).
route(harbor10,prodloc18,tr0,4040,105040).
route(harbor10,prodloc18,tr13,4040,24240).
route(harbor10,prodloc19,tr0,19862,516412).
route(harbor10,prodloc19,tr13,19862,119172).
route(harbor10,prodloc20,tr0,16843,437918).
route(harbor10,prodloc20,tr13,16843,101058).
route(harbor10,prodloc21,tr0,18720,486720).
route(harbor10,prodloc21,tr13,18720,112320).
route(harbor10,prodloc22,tr0,12362,321412).
route(harbor10,prodloc22,tr13,12362,74172).
route(harbor10,prodloc23,tr0,5778,150228).
route(harbor10,prodloc23,tr13,5778,34668).
route(harbor10,prodloc24,tr0,5106,132756).
route(harbor10,prodloc24,tr13,5106,30636).
route(harbor10,prodloc25,tr0,8213,213538).
route(harbor10,prodloc25,tr13,8213,49278).
route(harbor10,prodloc26,tr0,13985,363610).
route(harbor10,prodloc26,tr13,13985,83910).
route(harbor10,prodloc27,tr0,7132,185432).
route(harbor10,prodloc27,tr13,7132,42792).
route(harbor10,prodloc28,tr0,18663,485238).
route(harbor10,prodloc28,tr13,18663,111978).
route(harbor10,prodloc29,tr0,23581,613106).
route(harbor10,prodloc29,tr13,23581,141486).
route(harbor10,prodloc30,tr0,24831,645606).
route(harbor10,prodloc30,tr13,24831,148986).
route(harbor10,prodloc31,tr0,25635,666510).
route(harbor10,prodloc31,tr13,25635,153810).
route(harbor10,prodloc32,tr0,1710,44460).
route(harbor10,prodloc32,tr13,1710,10260).
route(harbor10,prodloc33,tr0,16223,421798).
route(harbor10,prodloc33,tr13,16223,97338).
route(harbor11,harbor0,tr13,22365,134190).
route(harbor11,harbor0,tr2,22365,67095).
route(harbor11,harbor1,tr13,12927,77562).
route(harbor11,harbor1,tr2,12927,38781).
route(harbor11,harbor2,tr13,23529,141174).
route(harbor11,harbor2,tr2,23529,70587).
route(harbor11,harbor3,tr13,20902,125412).
route(harbor11,harbor3,tr2,20902,62706).
route(harbor11,harbor4,tr13,11432,68592).
route(harbor11,harbor4,tr2,11432,34296).
route(harbor11,harbor5,tr13,12612,75672).
route(harbor11,harbor5,tr2,12612,37836).
route(harbor11,harbor6,tr13,16907,101442).
route(harbor11,harbor6,tr2,16907,50721).
route(harbor11,harbor7,tr13,27734,166404).
route(harbor11,harbor7,tr2,27734,83202).
route(harbor11,harbor8,tr13,5430,32580).
route(harbor11,harbor8,tr2,5430,16290).
route(harbor11,harbor9,tr13,17863,107178).
route(harbor11,harbor9,tr2,17863,53589).
route(harbor11,harbor10,tr13,23947,143682).
route(harbor11,harbor10,tr2,23947,71841).
route(harbor11,harbor12,tr13,1363,8178).
route(harbor11,harbor12,tr2,1363,4089).
route(harbor11,harbor13,tr13,17206,103236).
route(harbor11,harbor13,tr2,17206,51618).
route(harbor11,harbor14,tr13,2992,17952).
route(harbor11,harbor14,tr2,2992,8976).
route(harbor11,harbor15,tr13,26504,159024).
route(harbor11,harbor15,tr2,26504,79512).
route(harbor11,harbor16,tr13,8391,50346).
route(harbor11,harbor16,tr2,8391,25173).
route(harbor11,prodloc0,tr0,20595,535470).
route(harbor11,prodloc0,tr13,20595,123570).
route(harbor11,prodloc1,tr0,3313,86138).
route(harbor11,prodloc1,tr13,3313,19878).
route(harbor11,prodloc2,tr0,8768,227968).
route(harbor11,prodloc2,tr13,8768,52608).
route(harbor11,prodloc3,tr0,24148,627848).
route(harbor11,prodloc3,tr13,24148,144888).
route(harbor11,prodloc4,tr0,2745,71370).
route(harbor11,prodloc4,tr13,2745,16470).
route(harbor11,prodloc5,tr0,4560,118560).
route(harbor11,prodloc5,tr13,4560,27360).
route(harbor11,prodloc6,tr0,25422,660972).
route(harbor11,prodloc6,tr13,25422,152532).
route(harbor11,prodloc7,tr0,20216,525616).
route(harbor11,prodloc7,tr13,20216,121296).
route(harbor11,prodloc8,tr0,27590,717340).
route(harbor11,prodloc8,tr13,27590,165540).
route(harbor11,prodloc9,tr0,21619,562094).
route(harbor11,prodloc9,tr13,21619,129714).
route(harbor11,prodloc10,tr0,22501,585026).
route(harbor11,prodloc10,tr13,22501,135006).
route(harbor11,prodloc11,tr0,22952,596752).
route(harbor11,prodloc11,tr13,22952,137712).
route(harbor11,prodloc12,tr0,2689,69914).
route(harbor11,prodloc12,tr13,2689,16134).
route(harbor11,prodloc13,tr0,14585,379210).
route(harbor11,prodloc13,tr13,14585,87510).
route(harbor11,prodloc14,tr0,27886,725036).
route(harbor11,prodloc14,tr13,27886,167316).
route(harbor11,prodloc15,tr0,7898,205348).
route(harbor11,prodloc15,tr13,7898,47388).
route(harbor11,prodloc16,tr0,27887,725062).
route(harbor11,prodloc16,tr13,27887,167322).
route(harbor11,prodloc17,tr0,12530,325780).
route(harbor11,prodloc17,tr13,12530,75180).
route(harbor11,prodloc18,tr0,26305,683930).
route(harbor11,prodloc18,tr13,26305,157830).
route(harbor11,prodloc19,tr0,14187,368862).
route(harbor11,prodloc19,tr13,14187,85122).
route(harbor11,prodloc20,tr0,13018,338468).
route(harbor11,prodloc20,tr13,13018,78108).
route(harbor11,prodloc21,tr0,5400,140400).
route(harbor11,prodloc21,tr13,5400,32400).
route(harbor11,prodloc22,tr0,10666,277316).
route(harbor11,prodloc22,tr13,10666,63996).
route(harbor11,prodloc23,tr0,14358,373308).
route(harbor11,prodloc23,tr13,14358,86148).
route(harbor11,prodloc24,tr0,4141,107666).
route(harbor11,prodloc24,tr13,4141,24846).
route(harbor11,prodloc25,tr0,20396,530296).
route(harbor11,prodloc25,tr13,20396,122376).
route(harbor11,prodloc26,tr0,15991,415766).
route(harbor11,prodloc26,tr13,15991,95946).
route(harbor11,prodloc27,tr0,6949,180674).
route(harbor11,prodloc27,tr13,6949,41694).
route(harbor11,prodloc28,tr0,3907,101582).
route(harbor11,prodloc28,tr13,3907,23442).
route(harbor11,prodloc29,tr0,14133,367458).
route(harbor11,prodloc29,tr13,14133,84798).
route(harbor11,prodloc30,tr0,19685,511810).
route(harbor11,prodloc30,tr13,19685,118110).
route(harbor11,prodloc31,tr0,17501,455026).
route(harbor11,prodloc31,tr13,17501,105006).
route(harbor11,prodloc32,tr0,13378,347828).
route(harbor11,prodloc32,tr13,13378,80268).
route(harbor11,prodloc33,tr0,3871,100646).
route(harbor11,prodloc33,tr13,3871,23226).
route(harbor12,harbor0,tr13,21673,130038).
route(harbor12,harbor0,tr2,21673,65019).
route(harbor12,harbor1,tr13,9712,58272).
route(harbor12,harbor1,tr2,9712,29136).
route(harbor12,harbor2,tr13,9128,54768).
route(harbor12,harbor2,tr2,9128,27384).
route(harbor12,harbor3,tr13,8163,48978).
route(harbor12,harbor3,tr2,8163,24489).
route(harbor12,harbor4,tr13,12444,74664).
route(harbor12,harbor4,tr2,12444,37332).
route(harbor12,harbor5,tr13,24592,147552).
route(harbor12,harbor5,tr2,24592,73776).
route(harbor12,harbor6,tr13,18359,110154).
route(harbor12,harbor6,tr2,18359,55077).
route(harbor12,harbor7,tr13,161,966).
route(harbor12,harbor7,tr2,161,483).
route(harbor12,harbor8,tr13,6250,37500).
route(harbor12,harbor8,tr2,6250,18750).
route(harbor12,harbor9,tr13,17343,104058).
route(harbor12,harbor9,tr2,17343,52029).
route(harbor12,harbor10,tr13,14407,86442).
route(harbor12,harbor10,tr2,14407,43221).
route(harbor12,harbor11,tr13,19005,114030).
route(harbor12,harbor11,tr2,19005,57015).
route(harbor12,harbor13,tr13,719,4314).
route(harbor12,harbor13,tr2,719,2157).
route(harbor12,harbor14,tr13,1039,6234).
route(harbor12,harbor14,tr2,1039,3117).
route(harbor12,harbor15,tr13,20592,123552).
route(harbor12,harbor15,tr2,20592,61776).
route(harbor12,harbor16,tr13,19875,119250).
route(harbor12,harbor16,tr2,19875,59625).
route(harbor12,prodloc0,tr0,7939,206414).
route(harbor12,prodloc0,tr13,7939,47634).
route(harbor12,prodloc1,tr0,27374,711724).
route(harbor12,prodloc1,tr13,27374,164244).
route(harbor12,prodloc2,tr0,8534,221884).
route(harbor12,prodloc2,tr13,8534,51204).
route(harbor12,prodloc3,tr0,6772,176072).
route(harbor12,prodloc3,tr13,6772,40632).
route(harbor12,prodloc4,tr0,5666,147316).
route(harbor12,prodloc4,tr13,5666,33996).
route(harbor12,prodloc5,tr0,9333,242658).
route(harbor12,prodloc5,tr13,9333,55998).
route(harbor12,prodloc6,tr0,4865,126490).
route(harbor12,prodloc6,tr13,4865,29190).
route(harbor12,prodloc7,tr0,17773,462098).
route(harbor12,prodloc7,tr13,17773,106638).
route(harbor12,prodloc8,tr0,6570,170820).
route(harbor12,prodloc8,tr13,6570,39420).
route(harbor12,prodloc9,tr0,8955,232830).
route(harbor12,prodloc9,tr13,8955,53730).
route(harbor12,prodloc10,tr0,10197,265122).
route(harbor12,prodloc10,tr13,10197,61182).
route(harbor12,prodloc11,tr0,19195,499070).
route(harbor12,prodloc11,tr13,19195,115170).
route(harbor12,prodloc12,tr0,24821,645346).
route(harbor12,prodloc12,tr13,24821,148926).
route(harbor12,prodloc13,tr0,8222,213772).
route(harbor12,prodloc13,tr13,8222,49332).
route(harbor12,prodloc14,tr0,27276,709176).
route(harbor12,prodloc14,tr13,27276,163656).
route(harbor12,prodloc15,tr0,22399,582374).
route(harbor12,prodloc15,tr13,22399,134394).
route(harbor12,prodloc16,tr0,14629,380354).
route(harbor12,prodloc16,tr13,14629,87774).
route(harbor12,prodloc17,tr0,25924,674024).
route(harbor12,prodloc17,tr13,25924,155544).
route(harbor12,prodloc18,tr0,28223,733798).
route(harbor12,prodloc18,tr13,28223,169338).
route(harbor12,prodloc19,tr0,26499,688974).
route(harbor12,prodloc19,tr13,26499,158994).
route(harbor12,prodloc20,tr0,28021,728546).
route(harbor12,prodloc20,tr13,28021,168126).
route(harbor12,prodloc21,tr0,5506,143156).
route(harbor12,prodloc21,tr13,5506,33036).
route(harbor12,prodloc22,tr0,17872,464672).
route(harbor12,prodloc22,tr13,17872,107232).
route(harbor12,prodloc23,tr0,11698,304148).
route(harbor12,prodloc23,tr13,11698,70188).
route(harbor12,prodloc24,tr0,16084,418184).
route(harbor12,prodloc24,tr13,16084,96504).
route(harbor12,prodloc25,tr0,13763,357838).
route(harbor12,prodloc25,tr13,13763,82578).
route(harbor12,prodloc26,tr0,28041,729066).
route(harbor12,prodloc26,tr13,28041,168246).
route(harbor12,prodloc27,tr0,3993,103818).
route(harbor12,prodloc27,tr13,3993,23958).
route(harbor12,prodloc28,tr0,25202,655252).
route(harbor12,prodloc28,tr13,25202,151212).
route(harbor12,prodloc29,tr0,6848,178048).
route(harbor12,prodloc29,tr13,6848,41088).
route(harbor12,prodloc30,tr0,18697,486122).
route(harbor12,prodloc30,tr13,18697,112182).
route(harbor12,prodloc31,tr0,28802,748852).
route(harbor12,prodloc31,tr13,28802,172812).
route(harbor12,prodloc32,tr0,12560,326560).
route(harbor12,prodloc32,tr13,12560,75360).
route(harbor12,prodloc33,tr0,6713,174538).
route(harbor12,prodloc33,tr13,6713,40278).
route(harbor13,harbor0,tr13,9337,56022).
route(harbor13,harbor0,tr2,9337,28011).
route(harbor13,harbor1,tr13,26590,159540).
route(harbor13,harbor1,tr2,26590,79770).
route(harbor13,harbor2,tr13,3573,21438).
route(harbor13,harbor2,tr2,3573,10719).
route(harbor13,harbor3,tr13,26491,158946).
route(harbor13,harbor3,tr2,26491,79473).
route(harbor13,harbor4,tr13,821,4926).
route(harbor13,harbor4,tr2,821,2463).
route(harbor13,harbor5,tr13,3898,23388).
route(harbor13,harbor5,tr2,3898,11694).
route(harbor13,harbor6,tr13,18685,112110).
route(harbor13,harbor6,tr2,18685,56055).
route(harbor13,harbor7,tr13,24516,147096).
route(harbor13,harbor7,tr2,24516,73548).
route(harbor13,harbor8,tr13,463,2778).
route(harbor13,harbor8,tr2,463,1389).
route(harbor13,harbor9,tr13,17897,107382).
route(harbor13,harbor9,tr2,17897,53691).
route(harbor13,harbor10,tr13,9742,58452).
route(harbor13,harbor10,tr2,9742,29226).
route(harbor13,harbor11,tr13,22112,132672).
route(harbor13,harbor11,tr2,22112,66336).
route(harbor13,harbor12,tr13,24968,149808).
route(harbor13,harbor12,tr2,24968,74904).
route(harbor13,harbor14,tr13,23764,142584).
route(harbor13,harbor14,tr2,23764,71292).
route(harbor13,harbor15,tr13,21309,127854).
route(harbor13,harbor15,tr2,21309,63927).
route(harbor13,harbor16,tr13,4505,27030).
route(harbor13,harbor16,tr2,4505,13515).
route(harbor13,prodloc0,tr0,2465,64090).
route(harbor13,prodloc0,tr13,2465,14790).
route(harbor13,prodloc1,tr0,16398,426348).
route(harbor13,prodloc1,tr13,16398,98388).
route(harbor13,prodloc2,tr0,12248,318448).
route(harbor13,prodloc2,tr13,12248,73488).
route(harbor13,prodloc3,tr0,18764,487864).
route(harbor13,prodloc3,tr13,18764,112584).
route(harbor13,prodloc4,tr0,26395,686270).
route(harbor13,prodloc4,tr13,26395,158370).
route(harbor13,prodloc5,tr0,10201,265226).
route(harbor13,prodloc5,tr13,10201,61206).
route(harbor13,prodloc6,tr0,14327,372502).
route(harbor13,prodloc6,tr13,14327,85962).
route(harbor13,prodloc7,tr0,16485,428610).
route(harbor13,prodloc7,tr13,16485,98910).
route(harbor13,prodloc8,tr0,22194,577044).
route(harbor13,prodloc8,tr13,22194,133164).
route(harbor13,prodloc9,tr0,11694,304044).
route(harbor13,prodloc9,tr13,11694,70164).
route(harbor13,prodloc10,tr0,24860,646360).
route(harbor13,prodloc10,tr13,24860,149160).
route(harbor13,prodloc11,tr0,17316,450216).
route(harbor13,prodloc11,tr13,17316,103896).
route(harbor13,prodloc12,tr0,10608,275808).
route(harbor13,prodloc12,tr13,10608,63648).
route(harbor13,prodloc13,tr0,29,754).
route(harbor13,prodloc13,tr13,29,174).
route(harbor13,prodloc14,tr0,4061,105586).
route(harbor13,prodloc14,tr13,4061,24366).
route(harbor13,prodloc15,tr0,14495,376870).
route(harbor13,prodloc15,tr13,14495,86970).
route(harbor13,prodloc16,tr0,23528,611728).
route(harbor13,prodloc16,tr13,23528,141168).
route(harbor13,prodloc17,tr0,14732,383032).
route(harbor13,prodloc17,tr13,14732,88392).
route(harbor13,prodloc18,tr0,11477,298402).
route(harbor13,prodloc18,tr13,11477,68862).
route(harbor13,prodloc19,tr0,9989,259714).
route(harbor13,prodloc19,tr13,9989,59934).
route(harbor13,prodloc20,tr0,17673,459498).
route(harbor13,prodloc20,tr13,17673,106038).
route(harbor13,prodloc21,tr0,13089,340314).
route(harbor13,prodloc21,tr13,13089,78534).
route(harbor13,prodloc22,tr0,11122,289172).
route(harbor13,prodloc22,tr13,11122,66732).
route(harbor13,prodloc23,tr0,25662,667212).
route(harbor13,prodloc23,tr13,25662,153972).
route(harbor13,prodloc24,tr0,23959,622934).
route(harbor13,prodloc24,tr13,23959,143754).
route(harbor13,prodloc25,tr0,22396,582296).
route(harbor13,prodloc25,tr13,22396,134376).
route(harbor13,prodloc26,tr0,18726,486876).
route(harbor13,prodloc26,tr13,18726,112356).
route(harbor13,prodloc27,tr0,16133,419458).
route(harbor13,prodloc27,tr13,16133,96798).
route(harbor13,prodloc28,tr0,3707,96382).
route(harbor13,prodloc28,tr13,3707,22242).
route(harbor13,prodloc29,tr0,21224,551824).
route(harbor13,prodloc29,tr13,21224,127344).
route(harbor13,prodloc30,tr0,12373,321698).
route(harbor13,prodloc30,tr13,12373,74238).
route(harbor13,prodloc31,tr0,12532,325832).
route(harbor13,prodloc31,tr13,12532,75192).
route(harbor13,prodloc32,tr0,6683,173758).
route(harbor13,prodloc32,tr13,6683,40098).
route(harbor13,prodloc33,tr0,18250,474500).
route(harbor13,prodloc33,tr13,18250,109500).
route(harbor14,harbor0,tr13,156,936).
route(harbor14,harbor0,tr2,156,468).
route(harbor14,harbor1,tr13,9127,54762).
route(harbor14,harbor1,tr2,9127,27381).
route(harbor14,harbor2,tr13,20855,125130).
route(harbor14,harbor2,tr2,20855,62565).
route(harbor14,harbor3,tr13,19630,117780).
route(harbor14,harbor3,tr2,19630,58890).
route(harbor14,harbor4,tr13,23697,142182).
route(harbor14,harbor4,tr2,23697,71091).
route(harbor14,harbor5,tr13,28920,173520).
route(harbor14,harbor5,tr2,28920,86760).
route(harbor14,harbor6,tr13,24231,145386).
route(harbor14,harbor6,tr2,24231,72693).
route(harbor14,harbor7,tr13,27208,163248).
route(harbor14,harbor7,tr2,27208,81624).
route(harbor14,harbor8,tr13,23897,143382).
route(harbor14,harbor8,tr2,23897,71691).
route(harbor14,harbor9,tr13,16773,100638).
route(harbor14,harbor9,tr2,16773,50319).
route(harbor14,harbor10,tr13,6546,39276).
route(harbor14,harbor10,tr2,6546,19638).
route(harbor14,harbor11,tr13,15155,90930).
route(harbor14,harbor11,tr2,15155,45465).
route(harbor14,harbor12,tr13,19718,118308).
route(harbor14,harbor12,tr2,19718,59154).
route(harbor14,harbor13,tr13,27377,164262).
route(harbor14,harbor13,tr2,27377,82131).
route(harbor14,harbor15,tr13,16968,101808).
route(harbor14,harbor15,tr2,16968,50904).
route(harbor14,harbor16,tr13,13430,80580).
route(harbor14,harbor16,tr2,13430,40290).
route(harbor14,prodloc0,tr0,24402,634452).
route(harbor14,prodloc0,tr13,24402,146412).
route(harbor14,prodloc1,tr0,23337,606762).
route(harbor14,prodloc1,tr13,23337,140022).
route(harbor14,prodloc2,tr0,10007,260182).
route(harbor14,prodloc2,tr13,10007,60042).
route(harbor14,prodloc3,tr0,23034,598884).
route(harbor14,prodloc3,tr13,23034,138204).
route(harbor14,prodloc4,tr0,5582,145132).
route(harbor14,prodloc4,tr13,5582,33492).
route(harbor14,prodloc5,tr0,14727,382902).
route(harbor14,prodloc5,tr13,14727,88362).
route(harbor14,prodloc6,tr0,20319,528294).
route(harbor14,prodloc6,tr13,20319,121914).
route(harbor14,prodloc7,tr0,21918,569868).
route(harbor14,prodloc7,tr13,21918,131508).
route(harbor14,prodloc8,tr0,17400,452400).
route(harbor14,prodloc8,tr13,17400,104400).
route(harbor14,prodloc9,tr0,6469,168194).
route(harbor14,prodloc9,tr13,6469,38814).
route(harbor14,prodloc10,tr0,11779,306254).
route(harbor14,prodloc10,tr13,11779,70674).
route(harbor14,prodloc11,tr0,17244,448344).
route(harbor14,prodloc11,tr13,17244,103464).
route(harbor14,prodloc12,tr0,117,3042).
route(harbor14,prodloc12,tr13,117,702).
route(harbor14,prodloc13,tr0,22236,578136).
route(harbor14,prodloc13,tr13,22236,133416).
route(harbor14,prodloc14,tr0,12754,331604).
route(harbor14,prodloc14,tr13,12754,76524).
route(harbor14,prodloc15,tr0,18986,493636).
route(harbor14,prodloc15,tr13,18986,113916).
route(harbor14,prodloc16,tr0,13956,362856).
route(harbor14,prodloc16,tr13,13956,83736).
route(harbor14,prodloc17,tr0,13281,345306).
route(harbor14,prodloc17,tr13,13281,79686).
route(harbor14,prodloc18,tr0,11012,286312).
route(harbor14,prodloc18,tr13,11012,66072).
route(harbor14,prodloc19,tr0,28223,733798).
route(harbor14,prodloc19,tr13,28223,169338).
route(harbor14,prodloc20,tr0,20371,529646).
route(harbor14,prodloc20,tr13,20371,122226).
route(harbor14,prodloc21,tr0,19152,497952).
route(harbor14,prodloc21,tr13,19152,114912).
route(harbor14,prodloc22,tr0,24048,625248).
route(harbor14,prodloc22,tr13,24048,144288).
route(harbor14,prodloc23,tr0,22923,595998).
route(harbor14,prodloc23,tr13,22923,137538).
route(harbor14,prodloc24,tr0,24537,637962).
route(harbor14,prodloc24,tr13,24537,147222).
route(harbor14,prodloc25,tr0,2221,57746).
route(harbor14,prodloc25,tr13,2221,13326).
route(harbor14,prodloc26,tr0,16146,419796).
route(harbor14,prodloc26,tr13,16146,96876).
route(harbor14,prodloc27,tr0,24439,635414).
route(harbor14,prodloc27,tr13,24439,146634).
route(harbor14,prodloc28,tr0,8116,211016).
route(harbor14,prodloc28,tr13,8116,48696).
route(harbor14,prodloc29,tr0,20985,545610).
route(harbor14,prodloc29,tr13,20985,125910).
route(harbor14,prodloc30,tr0,21260,552760).
route(harbor14,prodloc30,tr13,21260,127560).
route(harbor14,prodloc31,tr0,9533,247858).
route(harbor14,prodloc31,tr13,9533,57198).
route(harbor14,prodloc32,tr0,20635,536510).
route(harbor14,prodloc32,tr13,20635,123810).
route(harbor14,prodloc33,tr0,682,17732).
route(harbor14,prodloc33,tr13,682,4092).
route(harbor15,harbor0,tr13,13366,80196).
route(harbor15,harbor0,tr2,13366,40098).
route(harbor15,harbor1,tr13,23665,141990).
route(harbor15,harbor1,tr2,23665,70995).
route(harbor15,harbor2,tr13,20649,123894).
route(harbor15,harbor2,tr2,20649,61947).
route(harbor15,harbor3,tr13,5144,30864).
route(harbor15,harbor3,tr2,5144,15432).
route(harbor15,harbor4,tr13,20796,124776).
route(harbor15,harbor4,tr2,20796,62388).
route(harbor15,harbor5,tr13,25551,153306).
route(harbor15,harbor5,tr2,25551,76653).
route(harbor15,harbor6,tr13,13049,78294).
route(harbor15,harbor6,tr2,13049,39147).
route(harbor15,harbor7,tr13,25670,154020).
route(harbor15,harbor7,tr2,25670,77010).
route(harbor15,harbor8,tr13,8885,53310).
route(harbor15,harbor8,tr2,8885,26655).
route(harbor15,harbor9,tr13,27760,166560).
route(harbor15,harbor9,tr2,27760,83280).
route(harbor15,harbor10,tr13,5867,35202).
route(harbor15,harbor10,tr2,5867,17601).
route(harbor15,harbor11,tr13,25179,151074).
route(harbor15,harbor11,tr2,25179,75537).
route(harbor15,harbor12,tr13,2435,14610).
route(harbor15,harbor12,tr2,2435,7305).
route(harbor15,harbor13,tr13,26746,160476).
route(harbor15,harbor13,tr2,26746,80238).
route(harbor15,harbor14,tr13,25460,152760).
route(harbor15,harbor14,tr2,25460,76380).
route(harbor15,harbor16,tr13,19869,119214).
route(harbor15,harbor16,tr2,19869,59607).
route(harbor15,prodloc0,tr0,333,8658).
route(harbor15,prodloc0,tr13,333,1998).
route(harbor15,prodloc1,tr0,11452,297752).
route(harbor15,prodloc1,tr13,11452,68712).
route(harbor15,prodloc2,tr0,8671,225446).
route(harbor15,prodloc2,tr13,8671,52026).
route(harbor15,prodloc3,tr0,26160,680160).
route(harbor15,prodloc3,tr13,26160,156960).
route(harbor15,prodloc4,tr0,23202,603252).
route(harbor15,prodloc4,tr13,23202,139212).
route(harbor15,prodloc5,tr0,13474,350324).
route(harbor15,prodloc5,tr13,13474,80844).
route(harbor15,prodloc6,tr0,28639,744614).
route(harbor15,prodloc6,tr13,28639,171834).
route(harbor15,prodloc7,tr0,22449,583674).
route(harbor15,prodloc7,tr13,22449,134694).
route(harbor15,prodloc8,tr0,17835,463710).
route(harbor15,prodloc8,tr13,17835,107010).
route(harbor15,prodloc9,tr0,9952,258752).
route(harbor15,prodloc9,tr13,9952,59712).
route(harbor15,prodloc10,tr0,4985,129610).
route(harbor15,prodloc10,tr13,4985,29910).
route(harbor15,prodloc11,tr0,15143,393718).
route(harbor15,prodloc11,tr13,15143,90858).
route(harbor15,prodloc12,tr0,27296,709696).
route(harbor15,prodloc12,tr13,27296,163776).
route(harbor15,prodloc13,tr0,8500,221000).
route(harbor15,prodloc13,tr13,8500,51000).
route(harbor15,prodloc14,tr0,15879,412854).
route(harbor15,prodloc14,tr13,15879,95274).
route(harbor15,prodloc15,tr0,5560,144560).
route(harbor15,prodloc15,tr13,5560,33360).
route(harbor15,prodloc16,tr0,15308,398008).
route(harbor15,prodloc16,tr13,15308,91848).
route(harbor15,prodloc17,tr0,16724,434824).
route(harbor15,prodloc17,tr13,16724,100344).
route(harbor15,prodloc18,tr0,1489,38714).
route(harbor15,prodloc18,tr13,1489,8934).
route(harbor15,prodloc19,tr0,8876,230776).
route(harbor15,prodloc19,tr13,8876,53256).
route(harbor15,prodloc20,tr0,16722,434772).
route(harbor15,prodloc20,tr13,16722,100332).
route(harbor15,prodloc21,tr0,3233,84058).
route(harbor15,prodloc21,tr13,3233,19398).
route(harbor15,prodloc22,tr0,24405,634530).
route(harbor15,prodloc22,tr13,24405,146430).
route(harbor15,prodloc23,tr0,19355,503230).
route(harbor15,prodloc23,tr13,19355,116130).
route(harbor15,prodloc24,tr0,13849,360074).
route(harbor15,prodloc24,tr13,13849,83094).
route(harbor15,prodloc25,tr0,2287,59462).
route(harbor15,prodloc25,tr13,2287,13722).
route(harbor15,prodloc26,tr0,11640,302640).
route(harbor15,prodloc26,tr13,11640,69840).
route(harbor15,prodloc27,tr0,2197,57122).
route(harbor15,prodloc27,tr13,2197,13182).
route(harbor15,prodloc28,tr0,21525,559650).
route(harbor15,prodloc28,tr13,21525,129150).
route(harbor15,prodloc29,tr0,14501,377026).
route(harbor15,prodloc29,tr13,14501,87006).
route(harbor15,prodloc30,tr0,648,16848).
route(harbor15,prodloc30,tr13,648,3888).
route(harbor15,prodloc31,tr0,5380,139880).
route(harbor15,prodloc31,tr13,5380,32280).
route(harbor15,prodloc32,tr0,16620,432120).
route(harbor15,prodloc32,tr13,16620,99720).
route(harbor15,prodloc33,tr0,23275,605150).
route(harbor15,prodloc33,tr13,23275,139650).
route(harbor16,harbor0,tr13,5326,31956).
route(harbor16,harbor0,tr2,5326,15978).
route(harbor16,harbor1,tr13,22654,135924).
route(harbor16,harbor1,tr2,22654,67962).
route(harbor16,harbor2,tr13,3079,18474).
route(harbor16,harbor2,tr2,3079,9237).
route(harbor16,harbor3,tr13,13200,79200).
route(harbor16,harbor3,tr2,13200,39600).
route(harbor16,harbor4,tr13,20869,125214).
route(harbor16,harbor4,tr2,20869,62607).
route(harbor16,harbor5,tr13,22604,135624).
route(harbor16,harbor5,tr2,22604,67812).
route(harbor16,harbor6,tr13,9067,54402).
route(harbor16,harbor6,tr2,9067,27201).
route(harbor16,harbor7,tr13,19854,119124).
route(harbor16,harbor7,tr2,19854,59562).
route(harbor16,harbor8,tr13,10004,60024).
route(harbor16,harbor8,tr2,10004,30012).
route(harbor16,harbor9,tr13,6874,41244).
route(harbor16,harbor9,tr2,6874,20622).
route(harbor16,harbor10,tr13,17334,104004).
route(harbor16,harbor10,tr2,17334,52002).
route(harbor16,harbor11,tr13,6836,41016).
route(harbor16,harbor11,tr2,6836,20508).
route(harbor16,harbor12,tr13,7803,46818).
route(harbor16,harbor12,tr2,7803,23409).
route(harbor16,harbor13,tr13,29063,174378).
route(harbor16,harbor13,tr2,29063,87189).
route(harbor16,harbor14,tr13,10972,65832).
route(harbor16,harbor14,tr2,10972,32916).
route(harbor16,harbor15,tr13,8846,53076).
route(harbor16,harbor15,tr2,8846,26538).
route(harbor16,prodloc0,tr0,2248,58448).
route(harbor16,prodloc0,tr13,2248,13488).
route(harbor16,prodloc1,tr0,2455,63830).
route(harbor16,prodloc1,tr13,2455,14730).
route(harbor16,prodloc2,tr0,22913,595738).
route(harbor16,prodloc2,tr13,22913,137478).
route(harbor16,prodloc3,tr0,27221,707746).
route(harbor16,prodloc3,tr13,27221,163326).
route(harbor16,prodloc4,tr0,17146,445796).
route(harbor16,prodloc4,tr13,17146,102876).
route(harbor16,prodloc5,tr0,21589,561314).
route(harbor16,prodloc5,tr13,21589,129534).
route(harbor16,prodloc6,tr0,12067,313742).
route(harbor16,prodloc6,tr13,12067,72402).
route(harbor16,prodloc7,tr0,15335,398710).
route(harbor16,prodloc7,tr13,15335,92010).
route(harbor16,prodloc8,tr0,16763,435838).
route(harbor16,prodloc8,tr13,16763,100578).
route(harbor16,prodloc9,tr0,18275,475150).
route(harbor16,prodloc9,tr13,18275,109650).
route(harbor16,prodloc10,tr0,24143,627718).
route(harbor16,prodloc10,tr13,24143,144858).
route(harbor16,prodloc11,tr0,1631,42406).
route(harbor16,prodloc11,tr13,1631,9786).
route(harbor16,prodloc12,tr0,5525,143650).
route(harbor16,prodloc12,tr13,5525,33150).
route(harbor16,prodloc13,tr0,9730,252980).
route(harbor16,prodloc13,tr13,9730,58380).
route(harbor16,prodloc14,tr0,21401,556426).
route(harbor16,prodloc14,tr13,21401,128406).
route(harbor16,prodloc15,tr0,24089,626314).
route(harbor16,prodloc15,tr13,24089,144534).
route(harbor16,prodloc16,tr0,23379,607854).
route(harbor16,prodloc16,tr13,23379,140274).
route(harbor16,prodloc17,tr0,26708,694408).
route(harbor16,prodloc17,tr13,26708,160248).
route(harbor16,prodloc18,tr0,18228,473928).
route(harbor16,prodloc18,tr13,18228,109368).
route(harbor16,prodloc19,tr0,8841,229866).
route(harbor16,prodloc19,tr13,8841,53046).
route(harbor16,prodloc20,tr0,11662,303212).
route(harbor16,prodloc20,tr13,11662,69972).
route(harbor16,prodloc21,tr0,19979,519454).
route(harbor16,prodloc21,tr13,19979,119874).
route(harbor16,prodloc22,tr0,24245,630370).
route(harbor16,prodloc22,tr13,24245,145470).
route(harbor16,prodloc23,tr0,7607,197782).
route(harbor16,prodloc23,tr13,7607,45642).
route(harbor16,prodloc24,tr0,12865,334490).
route(harbor16,prodloc24,tr13,12865,77190).
route(harbor16,prodloc25,tr0,18386,478036).
route(harbor16,prodloc25,tr13,18386,110316).
route(harbor16,prodloc26,tr0,13099,340574).
route(harbor16,prodloc26,tr13,13099,78594).
route(harbor16,prodloc27,tr0,5649,146874).
route(harbor16,prodloc27,tr13,5649,33894).
route(harbor16,prodloc28,tr0,15849,412074).
route(harbor16,prodloc28,tr13,15849,95094).
route(harbor16,prodloc29,tr0,25881,672906).
route(harbor16,prodloc29,tr13,25881,155286).
route(harbor16,prodloc30,tr0,8506,221156).
route(harbor16,prodloc30,tr13,8506,51036).
route(harbor16,prodloc31,tr0,28402,738452).
route(harbor16,prodloc31,tr13,28402,170412).
route(harbor16,prodloc32,tr0,20003,520078).
route(harbor16,prodloc32,tr13,20003,120018).
route(harbor16,prodloc33,tr0,10803,280878).
route(harbor16,prodloc33,tr13,10803,64818).
route(prodloc0,harbor0,tr0,23465,610090).
route(prodloc0,harbor0,tr13,23465,140790).
route(prodloc0,harbor1,tr0,7286,189436).
route(prodloc0,harbor1,tr13,7286,43716).
route(prodloc0,harbor2,tr0,8481,220506).
route(prodloc0,harbor2,tr13,8481,50886).
route(prodloc0,harbor3,tr0,19988,519688).
route(prodloc0,harbor3,tr13,19988,119928).
route(prodloc0,harbor4,tr0,23158,602108).
route(prodloc0,harbor4,tr13,23158,138948).
route(prodloc0,harbor5,tr0,8004,208104).
route(prodloc0,harbor5,tr13,8004,48024).
route(prodloc0,harbor6,tr0,27651,718926).
route(prodloc0,harbor6,tr13,27651,165906).
route(prodloc0,harbor7,tr0,21656,563056).
route(prodloc0,harbor7,tr13,21656,129936).
route(prodloc0,harbor8,tr0,1002,26052).
route(prodloc0,harbor8,tr13,1002,6012).
route(prodloc0,harbor9,tr0,27912,725712).
route(prodloc0,harbor9,tr13,27912,167472).
route(prodloc0,harbor10,tr0,28458,739908).
route(prodloc0,harbor10,tr13,28458,170748).
route(prodloc0,harbor11,tr0,20398,530348).
route(prodloc0,harbor11,tr13,20398,122388).
route(prodloc0,harbor12,tr0,13194,343044).
route(prodloc0,harbor12,tr13,13194,79164).
route(prodloc0,harbor13,tr0,10374,269724).
route(prodloc0,harbor13,tr13,10374,62244).
route(prodloc0,harbor14,tr0,14150,367900).
route(prodloc0,harbor14,tr13,14150,84900).
route(prodloc0,harbor15,tr0,24957,648882).
route(prodloc0,harbor15,tr13,24957,149742).
route(prodloc0,harbor16,tr0,8142,211692).
route(prodloc0,harbor16,tr13,8142,48852).
route(prodloc0,prodloc1,tr0,25738,669188).
route(prodloc0,prodloc1,tr13,25738,154428).
route(prodloc0,prodloc2,tr0,8819,229294).
route(prodloc0,prodloc2,tr13,8819,52914).
route(prodloc0,prodloc3,tr0,6224,161824).
route(prodloc0,prodloc3,tr13,6224,37344).
route(prodloc0,prodloc4,tr0,2378,61828).
route(prodloc0,prodloc4,tr13,2378,14268).
route(prodloc0,prodloc5,tr0,20511,533286).
route(prodloc0,prodloc5,tr13,20511,123066).
route(prodloc0,prodloc6,tr0,23998,623948).
route(prodloc0,prodloc6,tr13,23998,143988).
route(prodloc0,prodloc7,tr0,5429,141154).
route(prodloc0,prodloc7,tr13,5429,32574).
route(prodloc0,prodloc8,tr0,28544,742144).
route(prodloc0,prodloc8,tr13,28544,171264).
route(prodloc0,prodloc9,tr0,18979,493454).
route(prodloc0,prodloc9,tr13,18979,113874).
route(prodloc0,prodloc10,tr0,14537,377962).
route(prodloc0,prodloc10,tr13,14537,87222).
route(prodloc0,prodloc11,tr0,19054,495404).
route(prodloc0,prodloc11,tr13,19054,114324).
route(prodloc0,prodloc12,tr0,23865,620490).
route(prodloc0,prodloc12,tr15,23865,763680).
route(prodloc0,prodloc13,tr0,4857,126282).
route(prodloc0,prodloc13,tr13,4857,29142).
route(prodloc0,prodloc14,tr0,19867,516542).
route(prodloc0,prodloc14,tr13,19867,119202).
route(prodloc0,prodloc15,tr0,8586,223236).
route(prodloc0,prodloc15,tr13,8586,51516).
route(prodloc0,prodloc16,tr0,15055,391430).
route(prodloc0,prodloc16,tr13,15055,90330).
route(prodloc0,prodloc17,tr0,17257,448682).
route(prodloc0,prodloc17,tr13,17257,103542).
route(prodloc0,prodloc18,tr0,5327,138502).
route(prodloc0,prodloc18,tr13,5327,31962).
route(prodloc0,prodloc19,tr0,4544,118144).
route(prodloc0,prodloc19,tr13,4544,27264).
route(prodloc0,prodloc20,tr0,25510,663260).
route(prodloc0,prodloc20,tr13,25510,153060).
route(prodloc0,prodloc21,tr0,4527,117702).
route(prodloc0,prodloc21,tr13,4527,27162).
route(prodloc0,prodloc22,tr0,23455,609830).
route(prodloc0,prodloc22,tr13,23455,140730).
route(prodloc0,prodloc23,tr0,14442,375492).
route(prodloc0,prodloc23,tr13,14442,86652).
route(prodloc0,prodloc24,tr0,11834,307684).
route(prodloc0,prodloc24,tr13,11834,71004).
route(prodloc0,prodloc25,tr0,10152,263952).
route(prodloc0,prodloc25,tr13,10152,60912).
route(prodloc0,prodloc26,tr0,24623,640198).
route(prodloc0,prodloc26,tr13,24623,147738).
route(prodloc0,prodloc27,tr0,13133,341458).
route(prodloc0,prodloc27,tr13,13133,78798).
route(prodloc0,prodloc28,tr0,7882,204932).
route(prodloc0,prodloc28,tr13,7882,47292).
route(prodloc0,prodloc29,tr0,3797,98722).
route(prodloc0,prodloc29,tr13,3797,22782).
route(prodloc0,prodloc30,tr0,23534,611884).
route(prodloc0,prodloc30,tr13,23534,141204).
route(prodloc0,prodloc31,tr0,6758,175708).
route(prodloc0,prodloc31,tr13,6758,40548).
route(prodloc0,prodloc32,tr0,23545,612170).
route(prodloc0,prodloc32,tr13,23545,141270).
route(prodloc0,prodloc33,tr0,22330,580580).
route(prodloc0,prodloc33,tr13,22330,133980).
route(prodloc1,harbor0,tr0,10012,260312).
route(prodloc1,harbor0,tr13,10012,60072).
route(prodloc1,harbor1,tr0,2237,58162).
route(prodloc1,harbor1,tr13,2237,13422).
route(prodloc1,harbor2,tr0,3488,90688).
route(prodloc1,harbor2,tr13,3488,20928).
route(prodloc1,harbor3,tr0,7460,193960).
route(prodloc1,harbor3,tr13,7460,44760).
route(prodloc1,harbor4,tr0,13011,338286).
route(prodloc1,harbor4,tr13,13011,78066).
route(prodloc1,harbor5,tr0,10532,273832).
route(prodloc1,harbor5,tr13,10532,63192).
route(prodloc1,harbor6,tr0,16135,419510).
route(prodloc1,harbor6,tr13,16135,96810).
route(prodloc1,harbor7,tr0,3277,85202).
route(prodloc1,harbor7,tr13,3277,19662).
route(prodloc1,harbor8,tr0,6121,159146).
route(prodloc1,harbor8,tr13,6121,36726).
route(prodloc1,harbor9,tr0,1475,38350).
route(prodloc1,harbor9,tr13,1475,8850).
route(prodloc1,harbor10,tr0,1815,47190).
route(prodloc1,harbor10,tr13,1815,10890).
route(prodloc1,harbor11,tr0,26526,689676).
route(prodloc1,harbor11,tr13,26526,159156).
route(prodloc1,harbor12,tr0,19581,509106).
route(prodloc1,harbor12,tr13,19581,117486).
route(prodloc1,harbor13,tr0,764,19864).
route(prodloc1,harbor13,tr13,764,4584).
route(prodloc1,harbor14,tr0,24657,641082).
route(prodloc1,harbor14,tr13,24657,147942).
route(prodloc1,harbor15,tr0,7098,184548).
route(prodloc1,harbor15,tr13,7098,42588).
route(prodloc1,harbor16,tr0,22392,582192).
route(prodloc1,harbor16,tr13,22392,134352).
route(prodloc1,prodloc0,tr0,1139,29614).
route(prodloc1,prodloc0,tr13,1139,6834).
route(prodloc1,prodloc2,tr0,16204,421304).
route(prodloc1,prodloc2,tr13,16204,97224).
route(prodloc1,prodloc3,tr0,23068,599768).
route(prodloc1,prodloc3,tr13,23068,138408).
route(prodloc1,prodloc4,tr0,17321,450346).
route(prodloc1,prodloc4,tr13,17321,103926).
route(prodloc1,prodloc5,tr0,26704,694304).
route(prodloc1,prodloc5,tr13,26704,160224).
route(prodloc1,prodloc6,tr0,23724,616824).
route(prodloc1,prodloc6,tr13,23724,142344).
route(prodloc1,prodloc7,tr0,20094,522444).
route(prodloc1,prodloc7,tr13,20094,120564).
route(prodloc1,prodloc8,tr0,14494,376844).
route(prodloc1,prodloc8,tr13,14494,86964).
route(prodloc1,prodloc9,tr0,11223,291798).
route(prodloc1,prodloc9,tr13,11223,67338).
route(prodloc1,prodloc10,tr0,21724,564824).
route(prodloc1,prodloc10,tr13,21724,130344).
route(prodloc1,prodloc11,tr0,27457,713882).
route(prodloc1,prodloc11,tr13,27457,164742).
route(prodloc1,prodloc12,tr0,8999,233974).
route(prodloc1,prodloc12,tr13,8999,53994).
route(prodloc1,prodloc13,tr0,3870,100620).
route(prodloc1,prodloc13,tr13,3870,23220).
route(prodloc1,prodloc14,tr0,20096,522496).
route(prodloc1,prodloc14,tr13,20096,120576).
route(prodloc1,prodloc15,tr0,22698,590148).
route(prodloc1,prodloc15,tr13,22698,136188).
route(prodloc1,prodloc16,tr0,5660,147160).
route(prodloc1,prodloc16,tr13,5660,33960).
route(prodloc1,prodloc17,tr0,3122,81172).
route(prodloc1,prodloc17,tr13,3122,18732).
route(prodloc1,prodloc18,tr0,7278,189228).
route(prodloc1,prodloc18,tr13,7278,43668).
route(prodloc1,prodloc19,tr0,13099,340574).
route(prodloc1,prodloc19,tr13,13099,78594).
route(prodloc1,prodloc20,tr0,7644,198744).
route(prodloc1,prodloc20,tr13,7644,45864).
route(prodloc1,prodloc21,tr0,16222,421772).
route(prodloc1,prodloc21,tr13,16222,97332).
route(prodloc1,prodloc22,tr0,14741,383266).
route(prodloc1,prodloc22,tr13,14741,88446).
route(prodloc1,prodloc23,tr0,12384,321984).
route(prodloc1,prodloc23,tr13,12384,74304).
route(prodloc1,prodloc24,tr0,24598,639548).
route(prodloc1,prodloc24,tr13,24598,147588).
route(prodloc1,prodloc25,tr0,5526,143676).
route(prodloc1,prodloc25,tr13,5526,33156).
route(prodloc1,prodloc26,tr0,7594,197444).
route(prodloc1,prodloc26,tr13,7594,45564).
route(prodloc1,prodloc27,tr0,7726,200876).
route(prodloc1,prodloc27,tr13,7726,46356).
route(prodloc1,prodloc28,tr0,26876,698776).
route(prodloc1,prodloc28,tr13,26876,161256).
route(prodloc1,prodloc29,tr0,9296,241696).
route(prodloc1,prodloc29,tr13,9296,55776).
route(prodloc1,prodloc30,tr0,15159,394134).
route(prodloc1,prodloc30,tr13,15159,90954).
route(prodloc1,prodloc31,tr0,17926,466076).
route(prodloc1,prodloc31,tr13,17926,107556).
route(prodloc1,prodloc32,tr0,19005,494130).
route(prodloc1,prodloc32,tr13,19005,114030).
route(prodloc1,prodloc33,tr0,12768,331968).
route(prodloc1,prodloc33,tr13,12768,76608).
route(prodloc2,harbor0,tr0,6945,180570).
route(prodloc2,harbor0,tr13,6945,41670).
route(prodloc2,harbor1,tr0,14803,384878).
route(prodloc2,harbor1,tr13,14803,88818).
route(prodloc2,harbor2,tr0,23428,609128).
route(prodloc2,harbor2,tr13,23428,140568).
route(prodloc2,harbor3,tr0,8452,219752).
route(prodloc2,harbor3,tr13,8452,50712).
route(prodloc2,harbor4,tr0,10819,281294).
route(prodloc2,harbor4,tr13,10819,64914).
route(prodloc2,harbor5,tr0,16265,422890).
route(prodloc2,harbor5,tr13,16265,97590).
route(prodloc2,harbor6,tr0,19453,505778).
route(prodloc2,harbor6,tr13,19453,116718).
route(prodloc2,harbor7,tr0,3637,94562).
route(prodloc2,harbor7,tr13,3637,21822).
route(prodloc2,harbor8,tr0,7009,182234).
route(prodloc2,harbor8,tr13,7009,42054).
route(prodloc2,harbor9,tr0,2585,67210).
route(prodloc2,harbor9,tr13,2585,15510).
route(prodloc2,harbor10,tr0,1516,39416).
route(prodloc2,harbor10,tr13,1516,9096).
route(prodloc2,harbor11,tr0,507,13182).
route(prodloc2,harbor11,tr13,507,3042).
route(prodloc2,harbor12,tr0,26132,679432).
route(prodloc2,harbor12,tr13,26132,156792).
route(prodloc2,harbor13,tr0,173,4498).
route(prodloc2,harbor13,tr13,173,1038).
route(prodloc2,harbor14,tr0,28103,730678).
route(prodloc2,harbor14,tr13,28103,168618).
route(prodloc2,harbor15,tr0,15743,409318).
route(prodloc2,harbor15,tr13,15743,94458).
route(prodloc2,harbor16,tr0,10473,272298).
route(prodloc2,harbor16,tr13,10473,62838).
route(prodloc2,prodloc0,tr0,12556,326456).
route(prodloc2,prodloc0,tr13,12556,75336).
route(prodloc2,prodloc1,tr0,27786,722436).
route(prodloc2,prodloc1,tr13,27786,166716).
route(prodloc2,prodloc3,tr0,19015,494390).
route(prodloc2,prodloc3,tr13,19015,114090).
route(prodloc2,prodloc4,tr0,9413,244738).
route(prodloc2,prodloc4,tr13,9413,56478).
route(prodloc2,prodloc5,tr0,6420,166920).
route(prodloc2,prodloc5,tr13,6420,38520).
route(prodloc2,prodloc6,tr0,13106,340756).
route(prodloc2,prodloc6,tr13,13106,78636).
route(prodloc2,prodloc7,tr0,5247,136422).
route(prodloc2,prodloc7,tr13,5247,31482).
route(prodloc2,prodloc8,tr0,28838,749788).
route(prodloc2,prodloc8,tr13,28838,173028).
route(prodloc2,prodloc9,tr0,27010,702260).
route(prodloc2,prodloc9,tr13,27010,162060).
route(prodloc2,prodloc10,tr0,24858,646308).
route(prodloc2,prodloc10,tr13,24858,149148).
route(prodloc2,prodloc11,tr0,21171,550446).
route(prodloc2,prodloc11,tr13,21171,127026).
route(prodloc2,prodloc12,tr0,4991,129766).
route(prodloc2,prodloc12,tr13,4991,29946).
route(prodloc2,prodloc13,tr0,26011,676286).
route(prodloc2,prodloc13,tr13,26011,156066).
route(prodloc2,prodloc14,tr0,1000,26000).
route(prodloc2,prodloc14,tr13,1000,6000).
route(prodloc2,prodloc15,tr0,499,12974).
route(prodloc2,prodloc15,tr15,499,15968).
route(prodloc2,prodloc16,tr0,12692,329992).
route(prodloc2,prodloc16,tr13,12692,76152).
route(prodloc2,prodloc17,tr0,4759,123734).
route(prodloc2,prodloc17,tr13,4759,28554).
route(prodloc2,prodloc18,tr0,28716,746616).
route(prodloc2,prodloc18,tr13,28716,172296).
route(prodloc2,prodloc19,tr0,21786,566436).
route(prodloc2,prodloc19,tr13,21786,130716).
route(prodloc2,prodloc20,tr0,17781,462306).
route(prodloc2,prodloc20,tr13,17781,106686).
route(prodloc2,prodloc21,tr0,1873,48698).
route(prodloc2,prodloc21,tr13,1873,11238).
route(prodloc2,prodloc22,tr0,18507,481182).
route(prodloc2,prodloc22,tr13,18507,111042).
route(prodloc2,prodloc23,tr0,12437,323362).
route(prodloc2,prodloc23,tr13,12437,74622).
route(prodloc2,prodloc24,tr0,8330,216580).
route(prodloc2,prodloc24,tr13,8330,49980).
route(prodloc2,prodloc25,tr0,4261,110786).
route(prodloc2,prodloc25,tr13,4261,25566).
route(prodloc2,prodloc26,tr0,2607,67782).
route(prodloc2,prodloc26,tr13,2607,15642).
route(prodloc2,prodloc27,tr0,15169,394394).
route(prodloc2,prodloc27,tr13,15169,91014).
route(prodloc2,prodloc28,tr0,21371,555646).
route(prodloc2,prodloc28,tr13,21371,128226).
route(prodloc2,prodloc29,tr0,27526,715676).
route(prodloc2,prodloc29,tr13,27526,165156).
route(prodloc2,prodloc30,tr13,9943,59658).
route(prodloc2,prodloc30,tr15,9943,318176).
route(prodloc2,prodloc31,tr0,475,12350).
route(prodloc2,prodloc31,tr13,475,2850).
route(prodloc2,prodloc32,tr0,1164,30264).
route(prodloc2,prodloc32,tr13,1164,6984).
route(prodloc2,prodloc33,tr0,17597,457522).
route(prodloc2,prodloc33,tr13,17597,105582).
route(prodloc3,harbor0,tr0,1995,51870).
route(prodloc3,harbor0,tr13,1995,11970).
route(prodloc3,harbor1,tr0,17202,447252).
route(prodloc3,harbor1,tr13,17202,103212).
route(prodloc3,harbor2,tr0,27547,716222).
route(prodloc3,harbor2,tr13,27547,165282).
route(prodloc3,harbor3,tr0,4226,109876).
route(prodloc3,harbor3,tr13,4226,25356).
route(prodloc3,harbor4,tr0,1404,36504).
route(prodloc3,harbor4,tr13,1404,8424).
route(prodloc3,harbor5,tr0,8967,233142).
route(prodloc3,harbor5,tr13,8967,53802).
route(prodloc3,harbor6,tr0,25587,665262).
route(prodloc3,harbor6,tr13,25587,153522).
route(prodloc3,harbor7,tr0,3850,100100).
route(prodloc3,harbor7,tr13,3850,23100).
route(prodloc3,harbor8,tr0,14174,368524).
route(prodloc3,harbor8,tr13,14174,85044).
route(prodloc3,harbor9,tr0,2985,77610).
route(prodloc3,harbor9,tr13,2985,17910).
route(prodloc3,harbor10,tr0,6231,162006).
route(prodloc3,harbor10,tr13,6231,37386).
route(prodloc3,harbor11,tr0,907,23582).
route(prodloc3,harbor11,tr13,907,5442).
route(prodloc3,harbor12,tr0,16374,425724).
route(prodloc3,harbor12,tr13,16374,98244).
route(prodloc3,harbor13,tr0,20892,543192).
route(prodloc3,harbor13,tr13,20892,125352).
route(prodloc3,harbor14,tr0,4272,111072).
route(prodloc3,harbor14,tr13,4272,25632).
route(prodloc3,harbor15,tr0,24401,634426).
route(prodloc3,harbor15,tr13,24401,146406).
route(prodloc3,harbor16,tr0,9153,237978).
route(prodloc3,harbor16,tr13,9153,54918).
route(prodloc3,prodloc0,tr0,22506,585156).
route(prodloc3,prodloc0,tr13,22506,135036).
route(prodloc3,prodloc1,tr0,26777,696202).
route(prodloc3,prodloc1,tr13,26777,160662).
route(prodloc3,prodloc2,tr0,27711,720486).
route(prodloc3,prodloc2,tr13,27711,166266).
route(prodloc3,prodloc4,tr0,6291,163566).
route(prodloc3,prodloc4,tr13,6291,37746).
route(prodloc3,prodloc5,tr0,21727,564902).
route(prodloc3,prodloc5,tr13,21727,130362).
route(prodloc3,prodloc6,tr0,14666,381316).
route(prodloc3,prodloc6,tr13,14666,87996).
route(prodloc3,prodloc7,tr0,12771,332046).
route(prodloc3,prodloc7,tr13,12771,76626).
route(prodloc3,prodloc8,tr0,10809,281034).
route(prodloc3,prodloc8,tr13,10809,64854).
route(prodloc3,prodloc9,tr0,20680,537680).
route(prodloc3,prodloc9,tr13,20680,124080).
route(prodloc3,prodloc10,tr0,8782,228332).
route(prodloc3,prodloc10,tr13,8782,52692).
route(prodloc3,prodloc11,tr0,8516,221416).
route(prodloc3,prodloc11,tr13,8516,51096).
route(prodloc3,prodloc12,tr0,21026,546676).
route(prodloc3,prodloc12,tr13,21026,126156).
route(prodloc3,prodloc13,tr0,20829,541554).
route(prodloc3,prodloc13,tr13,20829,124974).
route(prodloc3,prodloc14,tr0,7967,207142).
route(prodloc3,prodloc14,tr13,7967,47802).
route(prodloc3,prodloc15,tr0,8044,209144).
route(prodloc3,prodloc15,tr13,8044,48264).
route(prodloc3,prodloc16,tr0,1974,51324).
route(prodloc3,prodloc16,tr13,1974,11844).
route(prodloc3,prodloc17,tr0,19267,500942).
route(prodloc3,prodloc17,tr13,19267,115602).
route(prodloc3,prodloc18,tr0,25822,671372).
route(prodloc3,prodloc18,tr13,25822,154932).
route(prodloc3,prodloc19,tr0,19351,503126).
route(prodloc3,prodloc19,tr13,19351,116106).
route(prodloc3,prodloc20,tr0,5745,149370).
route(prodloc3,prodloc20,tr13,5745,34470).
route(prodloc3,prodloc21,tr0,11458,297908).
route(prodloc3,prodloc21,tr13,11458,68748).
route(prodloc3,prodloc22,tr0,14042,365092).
route(prodloc3,prodloc22,tr13,14042,84252).
route(prodloc3,prodloc23,tr0,19838,515788).
route(prodloc3,prodloc23,tr13,19838,119028).
route(prodloc3,prodloc24,tr0,22875,594750).
route(prodloc3,prodloc24,tr13,22875,137250).
route(prodloc3,prodloc25,tr0,18360,477360).
route(prodloc3,prodloc25,tr13,18360,110160).
route(prodloc3,prodloc26,tr0,20920,543920).
route(prodloc3,prodloc26,tr13,20920,125520).
route(prodloc3,prodloc27,tr0,17112,444912).
route(prodloc3,prodloc27,tr13,17112,102672).
route(prodloc3,prodloc28,tr0,1994,51844).
route(prodloc3,prodloc28,tr13,1994,11964).
route(prodloc3,prodloc29,tr0,11576,300976).
route(prodloc3,prodloc29,tr13,11576,69456).
route(prodloc3,prodloc30,tr0,17923,465998).
route(prodloc3,prodloc30,tr15,17923,573536).
route(prodloc3,prodloc31,tr0,13523,351598).
route(prodloc3,prodloc31,tr13,13523,81138).
route(prodloc3,prodloc32,tr0,17634,458484).
route(prodloc3,prodloc32,tr13,17634,105804).
route(prodloc3,prodloc33,tr0,6534,169884).
route(prodloc3,prodloc33,tr13,6534,39204).
route(prodloc4,harbor0,tr0,23321,606346).
route(prodloc4,harbor0,tr13,23321,139926).
route(prodloc4,harbor1,tr0,28841,749866).
route(prodloc4,harbor1,tr13,28841,173046).
route(prodloc4,harbor2,tr0,17578,457028).
route(prodloc4,harbor2,tr13,17578,105468).
route(prodloc4,harbor3,tr0,13899,361374).
route(prodloc4,harbor3,tr13,13899,83394).
route(prodloc4,harbor4,tr0,21707,564382).
route(prodloc4,harbor4,tr13,21707,130242).
route(prodloc4,harbor5,tr0,2298,59748).
route(prodloc4,harbor5,tr13,2298,13788).
route(prodloc4,harbor6,tr0,23383,607958).
route(prodloc4,harbor6,tr13,23383,140298).
route(prodloc4,harbor7,tr0,8754,227604).
route(prodloc4,harbor7,tr13,8754,52524).
route(prodloc4,harbor8,tr0,24357,633282).
route(prodloc4,harbor8,tr13,24357,146142).
route(prodloc4,harbor9,tr0,20012,520312).
route(prodloc4,harbor9,tr13,20012,120072).
route(prodloc4,harbor10,tr0,23631,614406).
route(prodloc4,harbor10,tr13,23631,141786).
route(prodloc4,harbor11,tr0,24650,640900).
route(prodloc4,harbor11,tr13,24650,147900).
route(prodloc4,harbor12,tr0,2370,61620).
route(prodloc4,harbor12,tr13,2370,14220).
route(prodloc4,harbor13,tr0,8245,214370).
route(prodloc4,harbor13,tr13,8245,49470).
route(prodloc4,harbor14,tr0,5820,151320).
route(prodloc4,harbor14,tr13,5820,34920).
route(prodloc4,harbor15,tr0,3166,82316).
route(prodloc4,harbor15,tr13,3166,18996).
route(prodloc4,harbor16,tr0,4950,128700).
route(prodloc4,harbor16,tr13,4950,29700).
route(prodloc4,prodloc0,tr0,1925,50050).
route(prodloc4,prodloc0,tr13,1925,11550).
route(prodloc4,prodloc1,tr0,6665,173290).
route(prodloc4,prodloc1,tr13,6665,39990).
route(prodloc4,prodloc2,tr0,28004,728104).
route(prodloc4,prodloc2,tr13,28004,168024).
route(prodloc4,prodloc3,tr0,14030,364780).
route(prodloc4,prodloc3,tr13,14030,84180).
route(prodloc4,prodloc5,tr0,27925,726050).
route(prodloc4,prodloc5,tr13,27925,167550).
route(prodloc4,prodloc6,tr0,1473,38298).
route(prodloc4,prodloc6,tr13,1473,8838).
route(prodloc4,prodloc7,tr0,1732,45032).
route(prodloc4,prodloc7,tr13,1732,10392).
route(prodloc4,prodloc8,tr0,20879,542854).
route(prodloc4,prodloc8,tr13,20879,125274).
route(prodloc4,prodloc9,tr0,2991,77766).
route(prodloc4,prodloc9,tr13,2991,17946).
route(prodloc4,prodloc10,tr0,26644,692744).
route(prodloc4,prodloc10,tr13,26644,159864).
route(prodloc4,prodloc11,tr0,16806,436956).
route(prodloc4,prodloc11,tr13,16806,100836).
route(prodloc4,prodloc12,tr0,15375,399750).
route(prodloc4,prodloc12,tr13,15375,92250).
route(prodloc4,prodloc13,tr0,16422,426972).
route(prodloc4,prodloc13,tr13,16422,98532).
route(prodloc4,prodloc14,tr0,12134,315484).
route(prodloc4,prodloc14,tr13,12134,72804).
route(prodloc4,prodloc15,tr0,3255,84630).
route(prodloc4,prodloc15,tr13,3255,19530).
route(prodloc4,prodloc16,tr0,10248,266448).
route(prodloc4,prodloc16,tr13,10248,61488).
route(prodloc4,prodloc17,tr0,1316,34216).
route(prodloc4,prodloc17,tr13,1316,7896).
route(prodloc4,prodloc18,tr0,4151,107926).
route(prodloc4,prodloc18,tr13,4151,24906).
route(prodloc4,prodloc19,tr0,17417,452842).
route(prodloc4,prodloc19,tr13,17417,104502).
route(prodloc4,prodloc20,tr0,1089,28314).
route(prodloc4,prodloc20,tr13,1089,6534).
route(prodloc4,prodloc21,tr0,14529,377754).
route(prodloc4,prodloc21,tr13,14529,87174).
route(prodloc4,prodloc22,tr0,21768,565968).
route(prodloc4,prodloc22,tr13,21768,130608).
route(prodloc4,prodloc23,tr0,4202,109252).
route(prodloc4,prodloc23,tr13,4202,25212).
route(prodloc4,prodloc24,tr0,12951,336726).
route(prodloc4,prodloc24,tr13,12951,77706).
route(prodloc4,prodloc25,tr0,25017,650442).
route(prodloc4,prodloc25,tr13,25017,150102).
route(prodloc4,prodloc26,tr0,23190,602940).
route(prodloc4,prodloc26,tr13,23190,139140).
route(prodloc4,prodloc27,tr0,28913,751738).
route(prodloc4,prodloc27,tr13,28913,173478).
route(prodloc4,prodloc28,tr0,14619,380094).
route(prodloc4,prodloc28,tr13,14619,87714).
route(prodloc4,prodloc29,tr0,808,21008).
route(prodloc4,prodloc29,tr13,808,4848).
route(prodloc4,prodloc30,tr0,24139,627614).
route(prodloc4,prodloc30,tr13,24139,144834).
route(prodloc4,prodloc31,tr0,17189,446914).
route(prodloc4,prodloc31,tr13,17189,103134).
route(prodloc4,prodloc32,tr0,8849,230074).
route(prodloc4,prodloc32,tr13,8849,53094).
route(prodloc4,prodloc33,tr0,2963,77038).
route(prodloc4,prodloc33,tr13,2963,17778).
route(prodloc5,harbor0,tr0,8194,213044).
route(prodloc5,harbor0,tr13,8194,49164).
route(prodloc5,harbor1,tr0,26229,681954).
route(prodloc5,harbor1,tr13,26229,157374).
route(prodloc5,harbor2,tr0,10665,277290).
route(prodloc5,harbor2,tr13,10665,63990).
route(prodloc5,harbor3,tr0,2813,73138).
route(prodloc5,harbor3,tr13,2813,16878).
route(prodloc5,harbor4,tr0,9892,257192).
route(prodloc5,harbor4,tr13,9892,59352).
route(prodloc5,harbor5,tr0,1122,29172).
route(prodloc5,harbor5,tr13,1122,6732).
route(prodloc5,harbor6,tr0,28172,732472).
route(prodloc5,harbor6,tr13,28172,169032).
route(prodloc5,harbor7,tr0,12592,327392).
route(prodloc5,harbor7,tr13,12592,75552).
route(prodloc5,harbor8,tr0,1907,49582).
route(prodloc5,harbor8,tr13,1907,11442).
route(prodloc5,harbor9,tr0,24008,624208).
route(prodloc5,harbor9,tr13,24008,144048).
route(prodloc5,harbor10,tr0,8554,222404).
route(prodloc5,harbor10,tr13,8554,51324).
route(prodloc5,harbor11,tr0,10265,266890).
route(prodloc5,harbor11,tr13,10265,61590).
route(prodloc5,harbor12,tr0,24093,626418).
route(prodloc5,harbor12,tr13,24093,144558).
route(prodloc5,harbor13,tr0,4262,110812).
route(prodloc5,harbor13,tr13,4262,25572).
route(prodloc5,harbor14,tr0,8531,221806).
route(prodloc5,harbor14,tr13,8531,51186).
route(prodloc5,harbor15,tr0,26038,676988).
route(prodloc5,harbor15,tr13,26038,156228).
route(prodloc5,harbor16,tr0,12459,323934).
route(prodloc5,harbor16,tr13,12459,74754).
route(prodloc5,prodloc0,tr0,26443,687518).
route(prodloc5,prodloc0,tr13,26443,158658).
route(prodloc5,prodloc1,tr0,3840,99840).
route(prodloc5,prodloc1,tr13,3840,23040).
route(prodloc5,prodloc2,tr0,28046,729196).
route(prodloc5,prodloc2,tr13,28046,168276).
route(prodloc5,prodloc3,tr0,22211,577486).
route(prodloc5,prodloc3,tr13,22211,133266).
route(prodloc5,prodloc4,tr0,9955,258830).
route(prodloc5,prodloc4,tr13,9955,59730).
route(prodloc5,prodloc6,tr0,3084,80184).
route(prodloc5,prodloc6,tr13,3084,18504).
route(prodloc5,prodloc7,tr0,13922,361972).
route(prodloc5,prodloc7,tr13,13922,83532).
route(prodloc5,prodloc8,tr0,27572,716872).
route(prodloc5,prodloc8,tr13,27572,165432).
route(prodloc5,prodloc9,tr0,8042,209092).
route(prodloc5,prodloc9,tr13,8042,48252).
route(prodloc5,prodloc10,tr0,16475,428350).
route(prodloc5,prodloc10,tr13,16475,98850).
route(prodloc5,prodloc11,tr0,18259,474734).
route(prodloc5,prodloc11,tr13,18259,109554).
route(prodloc5,prodloc12,tr0,6732,175032).
route(prodloc5,prodloc12,tr13,6732,40392).
route(prodloc5,prodloc13,tr0,10818,281268).
route(prodloc5,prodloc13,tr13,10818,64908).
route(prodloc5,prodloc14,tr0,11099,288574).
route(prodloc5,prodloc14,tr13,11099,66594).
route(prodloc5,prodloc15,tr0,16691,433966).
route(prodloc5,prodloc15,tr13,16691,100146).
route(prodloc5,prodloc16,tr0,25679,667654).
route(prodloc5,prodloc16,tr13,25679,154074).
route(prodloc5,prodloc17,tr0,12817,333242).
route(prodloc5,prodloc17,tr13,12817,76902).
route(prodloc5,prodloc18,tr0,19143,497718).
route(prodloc5,prodloc18,tr13,19143,114858).
route(prodloc5,prodloc19,tr0,15768,409968).
route(prodloc5,prodloc19,tr13,15768,94608).
route(prodloc5,prodloc20,tr0,3432,89232).
route(prodloc5,prodloc20,tr13,3432,20592).
route(prodloc5,prodloc21,tr0,4252,110552).
route(prodloc5,prodloc21,tr13,4252,25512).
route(prodloc5,prodloc22,tr0,21385,556010).
route(prodloc5,prodloc22,tr13,21385,128310).
route(prodloc5,prodloc23,tr0,26697,694122).
route(prodloc5,prodloc23,tr13,26697,160182).
route(prodloc5,prodloc24,tr0,14702,382252).
route(prodloc5,prodloc24,tr13,14702,88212).
route(prodloc5,prodloc25,tr0,17164,446264).
route(prodloc5,prodloc25,tr13,17164,102984).
route(prodloc5,prodloc26,tr0,18307,475982).
route(prodloc5,prodloc26,tr13,18307,109842).
route(prodloc5,prodloc27,tr0,23574,612924).
route(prodloc5,prodloc27,tr13,23574,141444).
route(prodloc5,prodloc28,tr0,27658,719108).
route(prodloc5,prodloc28,tr13,27658,165948).
route(prodloc5,prodloc29,tr0,27356,711256).
route(prodloc5,prodloc29,tr13,27356,164136).
route(prodloc5,prodloc30,tr0,19052,495352).
route(prodloc5,prodloc30,tr13,19052,114312).
route(prodloc5,prodloc31,tr0,22981,597506).
route(prodloc5,prodloc31,tr13,22981,137886).
route(prodloc5,prodloc32,tr0,17043,443118).
route(prodloc5,prodloc32,tr13,17043,102258).
route(prodloc5,prodloc33,tr0,17553,456378).
route(prodloc5,prodloc33,tr13,17553,105318).
route(prodloc6,harbor0,tr0,993,25818).
route(prodloc6,harbor0,tr13,993,5958).
route(prodloc6,harbor1,tr0,27252,708552).
route(prodloc6,harbor1,tr13,27252,163512).
route(prodloc6,harbor2,tr0,9548,248248).
route(prodloc6,harbor2,tr13,9548,57288).
route(prodloc6,harbor3,tr0,24354,633204).
route(prodloc6,harbor3,tr13,24354,146124).
route(prodloc6,harbor4,tr0,5147,133822).
route(prodloc6,harbor4,tr13,5147,30882).
route(prodloc6,harbor5,tr0,6554,170404).
route(prodloc6,harbor5,tr13,6554,39324).
route(prodloc6,harbor6,tr0,12137,315562).
route(prodloc6,harbor6,tr13,12137,72822).
route(prodloc6,harbor7,tr0,12756,331656).
route(prodloc6,harbor7,tr13,12756,76536).
route(prodloc6,harbor8,tr0,17076,443976).
route(prodloc6,harbor8,tr13,17076,102456).
route(prodloc6,harbor9,tr0,10626,276276).
route(prodloc6,harbor9,tr13,10626,63756).
route(prodloc6,harbor10,tr0,3192,82992).
route(prodloc6,harbor10,tr13,3192,19152).
route(prodloc6,harbor11,tr0,13420,348920).
route(prodloc6,harbor11,tr13,13420,80520).
route(prodloc6,harbor12,tr0,11319,294294).
route(prodloc6,harbor12,tr13,11319,67914).
route(prodloc6,harbor13,tr0,4142,107692).
route(prodloc6,harbor13,tr13,4142,24852).
route(prodloc6,harbor14,tr0,18840,489840).
route(prodloc6,harbor14,tr13,18840,113040).
route(prodloc6,harbor15,tr0,2127,55302).
route(prodloc6,harbor15,tr13,2127,12762).
route(prodloc6,harbor16,tr0,1429,37154).
route(prodloc6,harbor16,tr13,1429,8574).
route(prodloc6,prodloc0,tr0,9848,256048).
route(prodloc6,prodloc0,tr13,9848,59088).
route(prodloc6,prodloc1,tr13,26706,160236).
route(prodloc6,prodloc1,tr15,26706,854592).
route(prodloc6,prodloc2,tr0,26182,680732).
route(prodloc6,prodloc2,tr13,26182,157092).
route(prodloc6,prodloc3,tr0,21337,554762).
route(prodloc6,prodloc3,tr13,21337,128022).
route(prodloc6,prodloc4,tr0,17489,454714).
route(prodloc6,prodloc4,tr13,17489,104934).
route(prodloc6,prodloc5,tr0,10279,267254).
route(prodloc6,prodloc5,tr13,10279,61674).
route(prodloc6,prodloc7,tr0,13685,355810).
route(prodloc6,prodloc7,tr13,13685,82110).
route(prodloc6,prodloc8,tr0,9777,254202).
route(prodloc6,prodloc8,tr13,9777,58662).
route(prodloc6,prodloc9,tr0,10448,271648).
route(prodloc6,prodloc9,tr13,10448,62688).
route(prodloc6,prodloc10,tr0,11556,300456).
route(prodloc6,prodloc10,tr13,11556,69336).
route(prodloc6,prodloc11,tr0,8936,232336).
route(prodloc6,prodloc11,tr13,8936,53616).
route(prodloc6,prodloc12,tr0,10661,277186).
route(prodloc6,prodloc12,tr13,10661,63966).
route(prodloc6,prodloc13,tr0,24536,637936).
route(prodloc6,prodloc13,tr13,24536,147216).
route(prodloc6,prodloc14,tr0,24529,637754).
route(prodloc6,prodloc14,tr13,24529,147174).
route(prodloc6,prodloc15,tr0,17044,443144).
route(prodloc6,prodloc15,tr13,17044,102264).
route(prodloc6,prodloc16,tr0,16420,426920).
route(prodloc6,prodloc16,tr13,16420,98520).
route(prodloc6,prodloc17,tr0,284,7384).
route(prodloc6,prodloc17,tr13,284,1704).
route(prodloc6,prodloc18,tr0,17242,448292).
route(prodloc6,prodloc18,tr13,17242,103452).
route(prodloc6,prodloc19,tr0,3995,103870).
route(prodloc6,prodloc19,tr13,3995,23970).
route(prodloc6,prodloc20,tr0,4876,126776).
route(prodloc6,prodloc20,tr13,4876,29256).
route(prodloc6,prodloc21,tr0,10393,270218).
route(prodloc6,prodloc21,tr13,10393,62358).
route(prodloc6,prodloc22,tr0,23817,619242).
route(prodloc6,prodloc22,tr13,23817,142902).
route(prodloc6,prodloc23,tr0,10670,277420).
route(prodloc6,prodloc23,tr13,10670,64020).
route(prodloc6,prodloc24,tr0,25715,668590).
route(prodloc6,prodloc24,tr13,25715,154290).
route(prodloc6,prodloc25,tr0,10735,279110).
route(prodloc6,prodloc25,tr13,10735,64410).
route(prodloc6,prodloc26,tr0,18781,488306).
route(prodloc6,prodloc26,tr13,18781,112686).
route(prodloc6,prodloc27,tr0,2257,58682).
route(prodloc6,prodloc27,tr13,2257,13542).
route(prodloc6,prodloc28,tr0,14807,384982).
route(prodloc6,prodloc28,tr13,14807,88842).
route(prodloc6,prodloc29,tr0,9164,238264).
route(prodloc6,prodloc29,tr13,9164,54984).
route(prodloc6,prodloc30,tr0,15720,408720).
route(prodloc6,prodloc30,tr13,15720,94320).
route(prodloc6,prodloc31,tr13,14883,89298).
route(prodloc6,prodloc31,tr15,14883,476256).
route(prodloc6,prodloc32,tr0,11934,310284).
route(prodloc6,prodloc32,tr13,11934,71604).
route(prodloc6,prodloc33,tr0,24303,631878).
route(prodloc6,prodloc33,tr13,24303,145818).
route(prodloc7,harbor0,tr0,12471,324246).
route(prodloc7,harbor0,tr13,12471,74826).
route(prodloc7,harbor1,tr0,26728,694928).
route(prodloc7,harbor1,tr13,26728,160368).
route(prodloc7,harbor2,tr0,2563,66638).
route(prodloc7,harbor2,tr13,2563,15378).
route(prodloc7,harbor3,tr0,18973,493298).
route(prodloc7,harbor3,tr13,18973,113838).
route(prodloc7,harbor4,tr0,26261,682786).
route(prodloc7,harbor4,tr13,26261,157566).
route(prodloc7,harbor5,tr0,1840,47840).
route(prodloc7,harbor5,tr13,1840,11040).
route(prodloc7,harbor6,tr0,4411,114686).
route(prodloc7,harbor6,tr13,4411,26466).
route(prodloc7,harbor7,tr0,1598,41548).
route(prodloc7,harbor7,tr13,1598,9588).
route(prodloc7,harbor8,tr0,17162,446212).
route(prodloc7,harbor8,tr13,17162,102972).
route(prodloc7,harbor9,tr0,16129,419354).
route(prodloc7,harbor9,tr13,16129,96774).
route(prodloc7,harbor10,tr0,18863,490438).
route(prodloc7,harbor10,tr13,18863,113178).
route(prodloc7,harbor11,tr0,27956,726856).
route(prodloc7,harbor11,tr13,27956,167736).
route(prodloc7,harbor12,tr0,8256,214656).
route(prodloc7,harbor12,tr13,8256,49536).
route(prodloc7,harbor13,tr0,25690,667940).
route(prodloc7,harbor13,tr13,25690,154140).
route(prodloc7,harbor14,tr0,8042,209092).
route(prodloc7,harbor14,tr13,8042,48252).
route(prodloc7,harbor15,tr0,23035,598910).
route(prodloc7,harbor15,tr13,23035,138210).
route(prodloc7,harbor16,tr0,18803,488878).
route(prodloc7,harbor16,tr13,18803,112818).
route(prodloc7,prodloc0,tr0,24468,636168).
route(prodloc7,prodloc0,tr13,24468,146808).
route(prodloc7,prodloc1,tr0,11098,288548).
route(prodloc7,prodloc1,tr13,11098,66588).
route(prodloc7,prodloc2,tr0,11850,308100).
route(prodloc7,prodloc2,tr13,11850,71100).
route(prodloc7,prodloc3,tr0,26115,678990).
route(prodloc7,prodloc3,tr13,26115,156690).
route(prodloc7,prodloc4,tr0,21088,548288).
route(prodloc7,prodloc4,tr13,21088,126528).
route(prodloc7,prodloc5,tr0,12130,315380).
route(prodloc7,prodloc5,tr13,12130,72780).
route(prodloc7,prodloc6,tr0,13193,343018).
route(prodloc7,prodloc6,tr13,13193,79158).
route(prodloc7,prodloc8,tr0,10074,261924).
route(prodloc7,prodloc8,tr13,10074,60444).
route(prodloc7,prodloc9,tr0,15225,395850).
route(prodloc7,prodloc9,tr13,15225,91350).
route(prodloc7,prodloc10,tr0,19605,509730).
route(prodloc7,prodloc10,tr13,19605,117630).
route(prodloc7,prodloc11,tr0,11157,290082).
route(prodloc7,prodloc11,tr13,11157,66942).
route(prodloc7,prodloc12,tr0,17438,453388).
route(prodloc7,prodloc12,tr13,17438,104628).
route(prodloc7,prodloc13,tr0,16633,432458).
route(prodloc7,prodloc13,tr13,16633,99798).
route(prodloc7,prodloc14,tr0,5500,143000).
route(prodloc7,prodloc14,tr13,5500,33000).
route(prodloc7,prodloc15,tr0,954,24804).
route(prodloc7,prodloc15,tr13,954,5724).
route(prodloc7,prodloc16,tr0,4863,126438).
route(prodloc7,prodloc16,tr13,4863,29178).
route(prodloc7,prodloc17,tr0,8198,213148).
route(prodloc7,prodloc17,tr13,8198,49188).
route(prodloc7,prodloc18,tr0,22521,585546).
route(prodloc7,prodloc18,tr13,22521,135126).
route(prodloc7,prodloc19,tr0,7248,188448).
route(prodloc7,prodloc19,tr13,7248,43488).
route(prodloc7,prodloc20,tr0,18443,479518).
route(prodloc7,prodloc20,tr13,18443,110658).
route(prodloc7,prodloc21,tr0,4373,113698).
route(prodloc7,prodloc21,tr13,4373,26238).
route(prodloc7,prodloc22,tr0,3696,96096).
route(prodloc7,prodloc22,tr13,3696,22176).
route(prodloc7,prodloc23,tr0,6050,157300).
route(prodloc7,prodloc23,tr13,6050,36300).
route(prodloc7,prodloc24,tr0,25112,652912).
route(prodloc7,prodloc24,tr13,25112,150672).
route(prodloc7,prodloc25,tr0,13473,350298).
route(prodloc7,prodloc25,tr13,13473,80838).
route(prodloc7,prodloc26,tr0,23855,620230).
route(prodloc7,prodloc26,tr13,23855,143130).
route(prodloc7,prodloc27,tr0,20308,528008).
route(prodloc7,prodloc27,tr13,20308,121848).
route(prodloc7,prodloc28,tr0,1643,42718).
route(prodloc7,prodloc28,tr13,1643,9858).
route(prodloc7,prodloc29,tr0,26600,691600).
route(prodloc7,prodloc29,tr13,26600,159600).
route(prodloc7,prodloc30,tr0,3253,84578).
route(prodloc7,prodloc30,tr13,3253,19518).
route(prodloc7,prodloc31,tr0,17883,464958).
route(prodloc7,prodloc31,tr13,17883,107298).
route(prodloc7,prodloc32,tr0,22327,580502).
route(prodloc7,prodloc32,tr13,22327,133962).
route(prodloc7,prodloc33,tr0,8709,226434).
route(prodloc7,prodloc33,tr13,8709,52254).
route(prodloc8,harbor0,tr0,23419,608894).
route(prodloc8,harbor0,tr13,23419,140514).
route(prodloc8,harbor1,tr0,3506,91156).
route(prodloc8,harbor1,tr13,3506,21036).
route(prodloc8,harbor2,tr0,6697,174122).
route(prodloc8,harbor2,tr13,6697,40182).
route(prodloc8,harbor3,tr0,8577,223002).
route(prodloc8,harbor3,tr13,8577,51462).
route(prodloc8,harbor4,tr0,2190,56940).
route(prodloc8,harbor4,tr13,2190,13140).
route(prodloc8,harbor5,tr0,20715,538590).
route(prodloc8,harbor5,tr13,20715,124290).
route(prodloc8,harbor6,tr0,18719,486694).
route(prodloc8,harbor6,tr13,18719,112314).
route(prodloc8,harbor7,tr0,17250,448500).
route(prodloc8,harbor7,tr13,17250,103500).
route(prodloc8,harbor8,tr0,21007,546182).
route(prodloc8,harbor8,tr13,21007,126042).
route(prodloc8,harbor9,tr0,2574,66924).
route(prodloc8,harbor9,tr13,2574,15444).
route(prodloc8,harbor10,tr0,28023,728598).
route(prodloc8,harbor10,tr13,28023,168138).
route(prodloc8,harbor11,tr0,2387,62062).
route(prodloc8,harbor11,tr13,2387,14322).
route(prodloc8,harbor12,tr0,26026,676676).
route(prodloc8,harbor12,tr13,26026,156156).
route(prodloc8,harbor13,tr0,27875,724750).
route(prodloc8,harbor13,tr13,27875,167250).
route(prodloc8,harbor14,tr0,7125,185250).
route(prodloc8,harbor14,tr13,7125,42750).
route(prodloc8,harbor15,tr0,21079,548054).
route(prodloc8,harbor15,tr13,21079,126474).
route(prodloc8,harbor16,tr0,27470,714220).
route(prodloc8,harbor16,tr13,27470,164820).
route(prodloc8,prodloc0,tr0,5682,147732).
route(prodloc8,prodloc0,tr13,5682,34092).
route(prodloc8,prodloc1,tr0,16762,435812).
route(prodloc8,prodloc1,tr13,16762,100572).
route(prodloc8,prodloc2,tr0,28242,734292).
route(prodloc8,prodloc2,tr13,28242,169452).
route(prodloc8,prodloc3,tr0,14160,368160).
route(prodloc8,prodloc3,tr13,14160,84960).
route(prodloc8,prodloc4,tr0,717,18642).
route(prodloc8,prodloc4,tr13,717,4302).
route(prodloc8,prodloc5,tr0,19346,502996).
route(prodloc8,prodloc5,tr13,19346,116076).
route(prodloc8,prodloc6,tr0,12064,313664).
route(prodloc8,prodloc6,tr13,12064,72384).
route(prodloc8,prodloc7,tr0,27777,722202).
route(prodloc8,prodloc7,tr13,27777,166662).
route(prodloc8,prodloc9,tr0,15949,414674).
route(prodloc8,prodloc9,tr13,15949,95694).
route(prodloc8,prodloc10,tr0,23276,605176).
route(prodloc8,prodloc10,tr13,23276,139656).
route(prodloc8,prodloc11,tr0,26460,687960).
route(prodloc8,prodloc11,tr13,26460,158760).
route(prodloc8,prodloc12,tr0,9299,241774).
route(prodloc8,prodloc12,tr13,9299,55794).
route(prodloc8,prodloc13,tr0,7208,187408).
route(prodloc8,prodloc13,tr13,7208,43248).
route(prodloc8,prodloc14,tr0,6568,170768).
route(prodloc8,prodloc14,tr13,6568,39408).
route(prodloc8,prodloc15,tr0,19599,509574).
route(prodloc8,prodloc15,tr13,19599,117594).
route(prodloc8,prodloc16,tr0,16176,420576).
route(prodloc8,prodloc16,tr13,16176,97056).
route(prodloc8,prodloc17,tr0,28362,737412).
route(prodloc8,prodloc17,tr13,28362,170172).
route(prodloc8,prodloc18,tr0,7709,200434).
route(prodloc8,prodloc18,tr13,7709,46254).
route(prodloc8,prodloc19,tr0,13942,362492).
route(prodloc8,prodloc19,tr13,13942,83652).
route(prodloc8,prodloc20,tr0,14819,385294).
route(prodloc8,prodloc20,tr13,14819,88914).
route(prodloc8,prodloc21,tr0,22140,575640).
route(prodloc8,prodloc21,tr13,22140,132840).
route(prodloc8,prodloc22,tr0,12033,312858).
route(prodloc8,prodloc22,tr13,12033,72198).
route(prodloc8,prodloc23,tr0,17843,463918).
route(prodloc8,prodloc23,tr13,17843,107058).
route(prodloc8,prodloc24,tr0,6189,160914).
route(prodloc8,prodloc24,tr13,6189,37134).
route(prodloc8,prodloc25,tr0,26156,680056).
route(prodloc8,prodloc25,tr13,26156,156936).
route(prodloc8,prodloc26,tr0,15801,410826).
route(prodloc8,prodloc26,tr13,15801,94806).
route(prodloc8,prodloc27,tr0,23785,618410).
route(prodloc8,prodloc27,tr13,23785,142710).
route(prodloc8,prodloc28,tr0,2384,61984).
route(prodloc8,prodloc28,tr13,2384,14304).
route(prodloc8,prodloc29,tr0,26676,693576).
route(prodloc8,prodloc29,tr13,26676,160056).
route(prodloc8,prodloc30,tr0,27553,716378).
route(prodloc8,prodloc30,tr13,27553,165318).
route(prodloc8,prodloc31,tr0,8408,218608).
route(prodloc8,prodloc31,tr13,8408,50448).
route(prodloc8,prodloc32,tr0,13348,347048).
route(prodloc8,prodloc32,tr13,13348,80088).
route(prodloc8,prodloc33,tr0,6600,171600).
route(prodloc8,prodloc33,tr13,6600,39600).
route(prodloc9,harbor0,tr0,273,7098).
route(prodloc9,harbor0,tr13,273,1638).
route(prodloc9,harbor1,tr0,24472,636272).
route(prodloc9,harbor1,tr13,24472,146832).
route(prodloc9,harbor2,tr0,17434,453284).
route(prodloc9,harbor2,tr13,17434,104604).
route(prodloc9,harbor3,tr0,25244,656344).
route(prodloc9,harbor3,tr13,25244,151464).
route(prodloc9,harbor4,tr0,12477,324402).
route(prodloc9,harbor4,tr13,12477,74862).
route(prodloc9,harbor5,tr0,16854,438204).
route(prodloc9,harbor5,tr13,16854,101124).
route(prodloc9,harbor6,tr0,28709,746434).
route(prodloc9,harbor6,tr13,28709,172254).
route(prodloc9,harbor7,tr0,15962,415012).
route(prodloc9,harbor7,tr13,15962,95772).
route(prodloc9,harbor8,tr0,2505,65130).
route(prodloc9,harbor8,tr13,2505,15030).
route(prodloc9,harbor9,tr0,13231,344006).
route(prodloc9,harbor9,tr13,13231,79386).
route(prodloc9,harbor10,tr0,20181,524706).
route(prodloc9,harbor10,tr13,20181,121086).
route(prodloc9,harbor11,tr0,28926,752076).
route(prodloc9,harbor11,tr13,28926,173556).
route(prodloc9,harbor12,tr0,16715,434590).
route(prodloc9,harbor12,tr13,16715,100290).
route(prodloc9,harbor13,tr0,26092,678392).
route(prodloc9,harbor13,tr13,26092,156552).
route(prodloc9,harbor14,tr0,18951,492726).
route(prodloc9,harbor14,tr13,18951,113706).
route(prodloc9,harbor15,tr0,19158,498108).
route(prodloc9,harbor15,tr13,19158,114948).
route(prodloc9,harbor16,tr0,13947,362622).
route(prodloc9,harbor16,tr13,13947,83682).
route(prodloc9,prodloc0,tr0,1316,34216).
route(prodloc9,prodloc0,tr13,1316,7896).
route(prodloc9,prodloc1,tr0,11530,299780).
route(prodloc9,prodloc1,tr13,11530,69180).
route(prodloc9,prodloc2,tr0,27892,725192).
route(prodloc9,prodloc2,tr13,27892,167352).
route(prodloc9,prodloc3,tr0,15024,390624).
route(prodloc9,prodloc3,tr13,15024,90144).
route(prodloc9,prodloc4,tr0,211,5486).
route(prodloc9,prodloc4,tr13,211,1266).
route(prodloc9,prodloc5,tr0,6220,161720).
route(prodloc9,prodloc5,tr13,6220,37320).
route(prodloc9,prodloc6,tr0,9811,255086).
route(prodloc9,prodloc6,tr13,9811,58866).
route(prodloc9,prodloc7,tr0,22808,593008).
route(prodloc9,prodloc7,tr13,22808,136848).
route(prodloc9,prodloc8,tr0,22655,589030).
route(prodloc9,prodloc8,tr13,22655,135930).
route(prodloc9,prodloc10,tr0,21041,547066).
route(prodloc9,prodloc10,tr13,21041,126246).
route(prodloc9,prodloc11,tr0,182,4732).
route(prodloc9,prodloc11,tr13,182,1092).
route(prodloc9,prodloc12,tr0,17722,460772).
route(prodloc9,prodloc12,tr13,17722,106332).
route(prodloc9,prodloc13,tr0,3935,102310).
route(prodloc9,prodloc13,tr13,3935,23610).
route(prodloc9,prodloc14,tr0,26932,700232).
route(prodloc9,prodloc14,tr13,26932,161592).
route(prodloc9,prodloc15,tr0,9919,257894).
route(prodloc9,prodloc15,tr13,9919,59514).
route(prodloc9,prodloc16,tr0,16795,436670).
route(prodloc9,prodloc16,tr13,16795,100770).
route(prodloc9,prodloc17,tr0,24475,636350).
route(prodloc9,prodloc17,tr13,24475,146850).
route(prodloc9,prodloc18,tr0,10342,268892).
route(prodloc9,prodloc18,tr13,10342,62052).
route(prodloc9,prodloc19,tr0,25448,661648).
route(prodloc9,prodloc19,tr13,25448,152688).
route(prodloc9,prodloc20,tr0,17795,462670).
route(prodloc9,prodloc20,tr13,17795,106770).
route(prodloc9,prodloc21,tr0,21138,549588).
route(prodloc9,prodloc21,tr13,21138,126828).
route(prodloc9,prodloc22,tr0,18744,487344).
route(prodloc9,prodloc22,tr13,18744,112464).
route(prodloc9,prodloc23,tr0,18069,469794).
route(prodloc9,prodloc23,tr13,18069,108414).
route(prodloc9,prodloc24,tr0,9259,240734).
route(prodloc9,prodloc24,tr13,9259,55554).
route(prodloc9,prodloc25,tr0,17225,447850).
route(prodloc9,prodloc25,tr13,17225,103350).
route(prodloc9,prodloc26,tr0,13483,350558).
route(prodloc9,prodloc26,tr13,13483,80898).
route(prodloc9,prodloc27,tr0,17763,461838).
route(prodloc9,prodloc27,tr13,17763,106578).
route(prodloc9,prodloc28,tr0,26824,697424).
route(prodloc9,prodloc28,tr13,26824,160944).
route(prodloc9,prodloc29,tr0,16971,441246).
route(prodloc9,prodloc29,tr13,16971,101826).
route(prodloc9,prodloc30,tr0,13381,347906).
route(prodloc9,prodloc30,tr13,13381,80286).
route(prodloc9,prodloc31,tr0,19753,513578).
route(prodloc9,prodloc31,tr13,19753,118518).
route(prodloc9,prodloc32,tr0,20644,536744).
route(prodloc9,prodloc32,tr13,20644,123864).
route(prodloc9,prodloc33,tr0,19042,495092).
route(prodloc9,prodloc33,tr13,19042,114252).
route(prodloc10,harbor0,tr0,10086,262236).
route(prodloc10,harbor0,tr13,10086,60516).
route(prodloc10,harbor1,tr0,14830,385580).
route(prodloc10,harbor1,tr13,14830,88980).
route(prodloc10,harbor2,tr0,9894,257244).
route(prodloc10,harbor2,tr13,9894,59364).
route(prodloc10,harbor3,tr0,4292,111592).
route(prodloc10,harbor3,tr13,4292,25752).
route(prodloc10,harbor4,tr0,16593,431418).
route(prodloc10,harbor4,tr13,16593,99558).
route(prodloc10,harbor5,tr0,14556,378456).
route(prodloc10,harbor5,tr13,14556,87336).
route(prodloc10,harbor6,tr0,19212,499512).
route(prodloc10,harbor6,tr13,19212,115272).
route(prodloc10,harbor7,tr0,4600,119600).
route(prodloc10,harbor7,tr13,4600,27600).
route(prodloc10,harbor8,tr0,18024,468624).
route(prodloc10,harbor8,tr13,18024,108144).
route(prodloc10,harbor9,tr0,25315,658190).
route(prodloc10,harbor9,tr13,25315,151890).
route(prodloc10,harbor10,tr0,5342,138892).
route(prodloc10,harbor10,tr13,5342,32052).
route(prodloc10,harbor11,tr0,8283,215358).
route(prodloc10,harbor11,tr13,8283,49698).
route(prodloc10,harbor12,tr0,20864,542464).
route(prodloc10,harbor12,tr13,20864,125184).
route(prodloc10,harbor13,tr0,316,8216).
route(prodloc10,harbor13,tr13,316,1896).
route(prodloc10,harbor14,tr0,13901,361426).
route(prodloc10,harbor14,tr13,13901,83406).
route(prodloc10,harbor15,tr0,24123,627198).
route(prodloc10,harbor15,tr13,24123,144738).
route(prodloc10,harbor16,tr0,21679,563654).
route(prodloc10,harbor16,tr13,21679,130074).
route(prodloc10,prodloc0,tr0,18545,482170).
route(prodloc10,prodloc0,tr13,18545,111270).
route(prodloc10,prodloc1,tr0,1189,30914).
route(prodloc10,prodloc1,tr13,1189,7134).
route(prodloc10,prodloc2,tr0,12072,313872).
route(prodloc10,prodloc2,tr13,12072,72432).
route(prodloc10,prodloc3,tr0,13793,358618).
route(prodloc10,prodloc3,tr13,13793,82758).
route(prodloc10,prodloc4,tr0,13179,342654).
route(prodloc10,prodloc4,tr13,13179,79074).
route(prodloc10,prodloc5,tr0,9227,239902).
route(prodloc10,prodloc5,tr13,9227,55362).
route(prodloc10,prodloc6,tr0,21595,561470).
route(prodloc10,prodloc6,tr13,21595,129570).
route(prodloc10,prodloc7,tr0,24611,639886).
route(prodloc10,prodloc7,tr13,24611,147666).
route(prodloc10,prodloc8,tr0,21945,570570).
route(prodloc10,prodloc8,tr13,21945,131670).
route(prodloc10,prodloc9,tr0,602,15652).
route(prodloc10,prodloc9,tr13,602,3612).
route(prodloc10,prodloc11,tr0,2966,77116).
route(prodloc10,prodloc11,tr13,2966,17796).
route(prodloc10,prodloc12,tr0,2952,76752).
route(prodloc10,prodloc12,tr13,2952,17712).
route(prodloc10,prodloc13,tr0,27734,721084).
route(prodloc10,prodloc13,tr13,27734,166404).
route(prodloc10,prodloc14,tr0,159,4134).
route(prodloc10,prodloc14,tr13,159,954).
route(prodloc10,prodloc15,tr0,12565,326690).
route(prodloc10,prodloc15,tr13,12565,75390).
route(prodloc10,prodloc16,tr0,8812,229112).
route(prodloc10,prodloc16,tr13,8812,52872).
route(prodloc10,prodloc17,tr0,15218,395668).
route(prodloc10,prodloc17,tr13,15218,91308).
route(prodloc10,prodloc18,tr0,8913,231738).
route(prodloc10,prodloc18,tr13,8913,53478).
route(prodloc10,prodloc19,tr0,26082,678132).
route(prodloc10,prodloc19,tr13,26082,156492).
route(prodloc10,prodloc20,tr0,25611,665886).
route(prodloc10,prodloc20,tr13,25611,153666).
route(prodloc10,prodloc21,tr0,12212,317512).
route(prodloc10,prodloc21,tr13,12212,73272).
route(prodloc10,prodloc22,tr0,20837,541762).
route(prodloc10,prodloc22,tr13,20837,125022).
route(prodloc10,prodloc23,tr0,24557,638482).
route(prodloc10,prodloc23,tr13,24557,147342).
route(prodloc10,prodloc24,tr0,27928,726128).
route(prodloc10,prodloc24,tr13,27928,167568).
route(prodloc10,prodloc25,tr0,15777,410202).
route(prodloc10,prodloc25,tr13,15777,94662).
route(prodloc10,prodloc26,tr0,25188,654888).
route(prodloc10,prodloc26,tr13,25188,151128).
route(prodloc10,prodloc27,tr0,11029,286754).
route(prodloc10,prodloc27,tr13,11029,66174).
route(prodloc10,prodloc28,tr0,12731,331006).
route(prodloc10,prodloc28,tr13,12731,76386).
route(prodloc10,prodloc29,tr0,14949,388674).
route(prodloc10,prodloc29,tr13,14949,89694).
route(prodloc10,prodloc30,tr0,26332,684632).
route(prodloc10,prodloc30,tr13,26332,157992).
route(prodloc10,prodloc31,tr0,3819,99294).
route(prodloc10,prodloc31,tr13,3819,22914).
route(prodloc10,prodloc32,tr0,15852,412152).
route(prodloc10,prodloc32,tr13,15852,95112).
route(prodloc10,prodloc33,tr0,11618,302068).
route(prodloc10,prodloc33,tr13,11618,69708).
route(prodloc11,harbor0,tr0,4743,123318).
route(prodloc11,harbor0,tr13,4743,28458).
route(prodloc11,harbor1,tr0,13607,353782).
route(prodloc11,harbor1,tr13,13607,81642).
route(prodloc11,harbor2,tr0,4860,126360).
route(prodloc11,harbor2,tr13,4860,29160).
route(prodloc11,harbor3,tr0,597,15522).
route(prodloc11,harbor3,tr13,597,3582).
route(prodloc11,harbor4,tr0,5640,146640).
route(prodloc11,harbor4,tr13,5640,33840).
route(prodloc11,harbor5,tr0,26676,693576).
route(prodloc11,harbor5,tr13,26676,160056).
route(prodloc11,harbor6,tr0,8529,221754).
route(prodloc11,harbor6,tr13,8529,51174).
route(prodloc11,harbor7,tr0,12052,313352).
route(prodloc11,harbor7,tr13,12052,72312).
route(prodloc11,harbor8,tr0,28113,730938).
route(prodloc11,harbor8,tr13,28113,168678).
route(prodloc11,harbor9,tr0,4167,108342).
route(prodloc11,harbor9,tr13,4167,25002).
route(prodloc11,harbor10,tr0,19321,502346).
route(prodloc11,harbor10,tr13,19321,115926).
route(prodloc11,harbor11,tr0,25762,669812).
route(prodloc11,harbor11,tr13,25762,154572).
route(prodloc11,harbor12,tr0,9411,244686).
route(prodloc11,harbor12,tr13,9411,56466).
route(prodloc11,harbor13,tr0,13532,351832).
route(prodloc11,harbor13,tr13,13532,81192).
route(prodloc11,harbor14,tr0,8453,219778).
route(prodloc11,harbor14,tr13,8453,50718).
route(prodloc11,harbor15,tr0,16837,437762).
route(prodloc11,harbor15,tr13,16837,101022).
route(prodloc11,harbor16,tr0,9415,244790).
route(prodloc11,harbor16,tr13,9415,56490).
route(prodloc11,prodloc0,tr0,24234,630084).
route(prodloc11,prodloc0,tr13,24234,145404).
route(prodloc11,prodloc1,tr0,13789,358514).
route(prodloc11,prodloc1,tr13,13789,82734).
route(prodloc11,prodloc2,tr0,22655,589030).
route(prodloc11,prodloc2,tr13,22655,135930).
route(prodloc11,prodloc3,tr0,8969,233194).
route(prodloc11,prodloc3,tr13,8969,53814).
route(prodloc11,prodloc4,tr0,14207,369382).
route(prodloc11,prodloc4,tr13,14207,85242).
route(prodloc11,prodloc5,tr0,11008,286208).
route(prodloc11,prodloc5,tr13,11008,66048).
route(prodloc11,prodloc6,tr0,25462,662012).
route(prodloc11,prodloc6,tr13,25462,152772).
route(prodloc11,prodloc7,tr0,15920,413920).
route(prodloc11,prodloc7,tr13,15920,95520).
route(prodloc11,prodloc8,tr0,7062,183612).
route(prodloc11,prodloc8,tr13,7062,42372).
route(prodloc11,prodloc9,tr0,23446,609596).
route(prodloc11,prodloc9,tr13,23446,140676).
route(prodloc11,prodloc10,tr0,27187,706862).
route(prodloc11,prodloc10,tr13,27187,163122).
route(prodloc11,prodloc12,tr0,16103,418678).
route(prodloc11,prodloc12,tr13,16103,96618).
route(prodloc11,prodloc13,tr0,13171,342446).
route(prodloc11,prodloc13,tr13,13171,79026).
route(prodloc11,prodloc14,tr0,23469,610194).
route(prodloc11,prodloc14,tr13,23469,140814).
route(prodloc11,prodloc15,tr0,13932,362232).
route(prodloc11,prodloc15,tr13,13932,83592).
route(prodloc11,prodloc16,tr0,2996,77896).
route(prodloc11,prodloc16,tr13,2996,17976).
route(prodloc11,prodloc17,tr0,2113,54938).
route(prodloc11,prodloc17,tr13,2113,12678).
route(prodloc11,prodloc18,tr0,4244,110344).
route(prodloc11,prodloc18,tr13,4244,25464).
route(prodloc11,prodloc19,tr0,6756,175656).
route(prodloc11,prodloc19,tr13,6756,40536).
route(prodloc11,prodloc20,tr0,4904,127504).
route(prodloc11,prodloc20,tr13,4904,29424).
route(prodloc11,prodloc21,tr0,7513,195338).
route(prodloc11,prodloc21,tr13,7513,45078).
route(prodloc11,prodloc22,tr0,23928,622128).
route(prodloc11,prodloc22,tr13,23928,143568).
route(prodloc11,prodloc23,tr0,858,22308).
route(prodloc11,prodloc23,tr13,858,5148).
route(prodloc11,prodloc24,tr0,3385,88010).
route(prodloc11,prodloc24,tr13,3385,20310).
route(prodloc11,prodloc25,tr0,8299,215774).
route(prodloc11,prodloc25,tr13,8299,49794).
route(prodloc11,prodloc26,tr0,5104,132704).
route(prodloc11,prodloc26,tr13,5104,30624).
route(prodloc11,prodloc27,tr0,15723,408798).
route(prodloc11,prodloc27,tr13,15723,94338).
route(prodloc11,prodloc28,tr0,25387,660062).
route(prodloc11,prodloc28,tr13,25387,152322).
route(prodloc11,prodloc29,tr0,3244,84344).
route(prodloc11,prodloc29,tr13,3244,19464).
route(prodloc11,prodloc30,tr0,13080,340080).
route(prodloc11,prodloc30,tr13,13080,78480).
route(prodloc11,prodloc31,tr0,21290,553540).
route(prodloc11,prodloc31,tr13,21290,127740).
route(prodloc11,prodloc32,tr0,23709,616434).
route(prodloc11,prodloc32,tr13,23709,142254).
route(prodloc11,prodloc33,tr0,6143,159718).
route(prodloc11,prodloc33,tr13,6143,36858).
route(prodloc12,harbor0,tr0,27342,710892).
route(prodloc12,harbor0,tr13,27342,164052).
route(prodloc12,harbor1,tr0,100,2600).
route(prodloc12,harbor1,tr13,100,600).
route(prodloc12,harbor2,tr0,2923,75998).
route(prodloc12,harbor2,tr13,2923,17538).
route(prodloc12,harbor3,tr0,14016,364416).
route(prodloc12,harbor3,tr13,14016,84096).
route(prodloc12,harbor4,tr0,20052,521352).
route(prodloc12,harbor4,tr13,20052,120312).
route(prodloc12,harbor5,tr0,1668,43368).
route(prodloc12,harbor5,tr13,1668,10008).
route(prodloc12,harbor6,tr0,18011,468286).
route(prodloc12,harbor6,tr13,18011,108066).
route(prodloc12,harbor7,tr0,7154,186004).
route(prodloc12,harbor7,tr13,7154,42924).
route(prodloc12,harbor8,tr0,17516,455416).
route(prodloc12,harbor8,tr13,17516,105096).
route(prodloc12,harbor9,tr0,13826,359476).
route(prodloc12,harbor9,tr13,13826,82956).
route(prodloc12,harbor10,tr0,11362,295412).
route(prodloc12,harbor10,tr13,11362,68172).
route(prodloc12,harbor11,tr0,1543,40118).
route(prodloc12,harbor11,tr13,1543,9258).
route(prodloc12,harbor12,tr0,21353,555178).
route(prodloc12,harbor12,tr13,21353,128118).
route(prodloc12,harbor13,tr0,3382,87932).
route(prodloc12,harbor13,tr13,3382,20292).
route(prodloc12,harbor14,tr0,24070,625820).
route(prodloc12,harbor14,tr13,24070,144420).
route(prodloc12,harbor15,tr0,18117,471042).
route(prodloc12,harbor15,tr13,18117,108702).
route(prodloc12,harbor16,tr0,22253,578578).
route(prodloc12,harbor16,tr13,22253,133518).
route(prodloc12,prodloc0,tr0,13752,357552).
route(prodloc12,prodloc0,tr13,13752,82512).
route(prodloc12,prodloc1,tr0,27360,711360).
route(prodloc12,prodloc1,tr13,27360,164160).
route(prodloc12,prodloc2,tr0,22010,572260).
route(prodloc12,prodloc2,tr13,22010,132060).
route(prodloc12,prodloc3,tr0,24287,631462).
route(prodloc12,prodloc3,tr13,24287,145722).
route(prodloc12,prodloc4,tr0,3889,101114).
route(prodloc12,prodloc4,tr13,3889,23334).
route(prodloc12,prodloc5,tr0,8696,226096).
route(prodloc12,prodloc5,tr13,8696,52176).
route(prodloc12,prodloc6,tr0,22433,583258).
route(prodloc12,prodloc6,tr13,22433,134598).
route(prodloc12,prodloc7,tr0,9136,237536).
route(prodloc12,prodloc7,tr13,9136,54816).
route(prodloc12,prodloc8,tr0,5868,152568).
route(prodloc12,prodloc8,tr13,5868,35208).
route(prodloc12,prodloc9,tr0,15721,408746).
route(prodloc12,prodloc9,tr13,15721,94326).
route(prodloc12,prodloc10,tr0,26384,685984).
route(prodloc12,prodloc10,tr13,26384,158304).
route(prodloc12,prodloc11,tr0,25996,675896).
route(prodloc12,prodloc11,tr13,25996,155976).
route(prodloc12,prodloc13,tr0,23076,599976).
route(prodloc12,prodloc13,tr13,23076,138456).
route(prodloc12,prodloc14,tr0,28111,730886).
route(prodloc12,prodloc14,tr13,28111,168666).
route(prodloc12,prodloc15,tr0,1564,40664).
route(prodloc12,prodloc15,tr13,1564,9384).
route(prodloc12,prodloc16,tr0,25771,670046).
route(prodloc12,prodloc16,tr13,25771,154626).
route(prodloc12,prodloc17,tr0,7021,182546).
route(prodloc12,prodloc17,tr13,7021,42126).
route(prodloc12,prodloc18,tr0,22179,576654).
route(prodloc12,prodloc18,tr13,22179,133074).
route(prodloc12,prodloc19,tr0,21113,548938).
route(prodloc12,prodloc19,tr13,21113,126678).
route(prodloc12,prodloc20,tr0,2859,74334).
route(prodloc12,prodloc20,tr13,2859,17154).
route(prodloc12,prodloc21,tr0,28392,738192).
route(prodloc12,prodloc21,tr13,28392,170352).
route(prodloc12,prodloc22,tr0,12772,332072).
route(prodloc12,prodloc22,tr13,12772,76632).
route(prodloc12,prodloc23,tr0,4058,105508).
route(prodloc12,prodloc23,tr13,4058,24348).
route(prodloc12,prodloc24,tr0,21914,569764).
route(prodloc12,prodloc24,tr13,21914,131484).
route(prodloc12,prodloc25,tr0,14658,381108).
route(prodloc12,prodloc25,tr13,14658,87948).
route(prodloc12,prodloc26,tr0,9643,250718).
route(prodloc12,prodloc26,tr13,9643,57858).
route(prodloc12,prodloc27,tr0,22348,581048).
route(prodloc12,prodloc27,tr13,22348,134088).
route(prodloc12,prodloc28,tr0,16642,432692).
route(prodloc12,prodloc28,tr13,16642,99852).
route(prodloc12,prodloc29,tr0,16319,424294).
route(prodloc12,prodloc29,tr13,16319,97914).
route(prodloc12,prodloc30,tr0,12882,334932).
route(prodloc12,prodloc30,tr13,12882,77292).
route(prodloc12,prodloc31,tr0,3808,99008).
route(prodloc12,prodloc31,tr13,3808,22848).
route(prodloc12,prodloc32,tr0,19863,516438).
route(prodloc12,prodloc32,tr13,19863,119178).
route(prodloc12,prodloc33,tr0,27981,727506).
route(prodloc12,prodloc33,tr13,27981,167886).
route(prodloc13,harbor0,tr0,15704,408304).
route(prodloc13,harbor0,tr13,15704,94224).
route(prodloc13,harbor1,tr0,3469,90194).
route(prodloc13,harbor1,tr13,3469,20814).
route(prodloc13,harbor2,tr0,4888,127088).
route(prodloc13,harbor2,tr13,4888,29328).
route(prodloc13,harbor3,tr0,12662,329212).
route(prodloc13,harbor3,tr13,12662,75972).
route(prodloc13,harbor4,tr0,20109,522834).
route(prodloc13,harbor4,tr13,20109,120654).
route(prodloc13,harbor5,tr0,23017,598442).
route(prodloc13,harbor5,tr13,23017,138102).
route(prodloc13,harbor6,tr0,6594,171444).
route(prodloc13,harbor6,tr13,6594,39564).
route(prodloc13,harbor7,tr0,5478,142428).
route(prodloc13,harbor7,tr13,5478,32868).
route(prodloc13,harbor8,tr0,17065,443690).
route(prodloc13,harbor8,tr13,17065,102390).
route(prodloc13,harbor9,tr0,8443,219518).
route(prodloc13,harbor9,tr13,8443,50658).
route(prodloc13,harbor10,tr0,13653,354978).
route(prodloc13,harbor10,tr13,13653,81918).
route(prodloc13,harbor11,tr0,24354,633204).
route(prodloc13,harbor11,tr13,24354,146124).
route(prodloc13,harbor12,tr0,17589,457314).
route(prodloc13,harbor12,tr13,17589,105534).
route(prodloc13,harbor13,tr0,9458,245908).
route(prodloc13,harbor13,tr13,9458,56748).
route(prodloc13,harbor14,tr0,28475,740350).
route(prodloc13,harbor14,tr13,28475,170850).
route(prodloc13,harbor15,tr0,16139,419614).
route(prodloc13,harbor15,tr13,16139,96834).
route(prodloc13,harbor16,tr0,20765,539890).
route(prodloc13,harbor16,tr13,20765,124590).
route(prodloc13,prodloc0,tr0,26550,690300).
route(prodloc13,prodloc0,tr13,26550,159300).
route(prodloc13,prodloc1,tr0,17853,464178).
route(prodloc13,prodloc1,tr13,17853,107118).
route(prodloc13,prodloc2,tr0,7034,182884).
route(prodloc13,prodloc2,tr13,7034,42204).
route(prodloc13,prodloc3,tr0,25846,671996).
route(prodloc13,prodloc3,tr13,25846,155076).
route(prodloc13,prodloc4,tr0,24894,647244).
route(prodloc13,prodloc4,tr13,24894,149364).
route(prodloc13,prodloc5,tr0,20434,531284).
route(prodloc13,prodloc5,tr13,20434,122604).
route(prodloc13,prodloc6,tr0,11047,287222).
route(prodloc13,prodloc6,tr13,11047,66282).
route(prodloc13,prodloc7,tr0,28216,733616).
route(prodloc13,prodloc7,tr13,28216,169296).
route(prodloc13,prodloc8,tr0,15926,414076).
route(prodloc13,prodloc8,tr13,15926,95556).
route(prodloc13,prodloc9,tr0,3372,87672).
route(prodloc13,prodloc9,tr13,3372,20232).
route(prodloc13,prodloc10,tr0,282,7332).
route(prodloc13,prodloc10,tr13,282,1692).
route(prodloc13,prodloc11,tr0,24832,645632).
route(prodloc13,prodloc11,tr13,24832,148992).
route(prodloc13,prodloc12,tr0,23899,621374).
route(prodloc13,prodloc12,tr13,23899,143394).
route(prodloc13,prodloc14,tr0,21539,560014).
route(prodloc13,prodloc14,tr13,21539,129234).
route(prodloc13,prodloc15,tr0,11368,295568).
route(prodloc13,prodloc15,tr13,11368,68208).
route(prodloc13,prodloc16,tr0,23227,603902).
route(prodloc13,prodloc16,tr13,23227,139362).
route(prodloc13,prodloc17,tr0,8768,227968).
route(prodloc13,prodloc17,tr13,8768,52608).
route(prodloc13,prodloc18,tr0,1851,48126).
route(prodloc13,prodloc18,tr13,1851,11106).
route(prodloc13,prodloc19,tr0,17714,460564).
route(prodloc13,prodloc19,tr13,17714,106284).
route(prodloc13,prodloc20,tr0,20496,532896).
route(prodloc13,prodloc20,tr13,20496,122976).
route(prodloc13,prodloc21,tr0,14428,375128).
route(prodloc13,prodloc21,tr13,14428,86568).
route(prodloc13,prodloc22,tr0,9827,255502).
route(prodloc13,prodloc22,tr13,9827,58962).
route(prodloc13,prodloc23,tr0,24900,647400).
route(prodloc13,prodloc23,tr13,24900,149400).
route(prodloc13,prodloc24,tr0,27605,717730).
route(prodloc13,prodloc24,tr13,27605,165630).
route(prodloc13,prodloc25,tr0,3303,85878).
route(prodloc13,prodloc25,tr13,3303,19818).
route(prodloc13,prodloc26,tr0,7491,194766).
route(prodloc13,prodloc26,tr13,7491,44946).
route(prodloc13,prodloc27,tr0,16648,432848).
route(prodloc13,prodloc27,tr13,16648,99888).
route(prodloc13,prodloc28,tr0,8998,233948).
route(prodloc13,prodloc28,tr13,8998,53988).
route(prodloc13,prodloc29,tr0,8860,230360).
route(prodloc13,prodloc29,tr13,8860,53160).
route(prodloc13,prodloc30,tr0,23144,601744).
route(prodloc13,prodloc30,tr13,23144,138864).
route(prodloc13,prodloc31,tr0,8074,209924).
route(prodloc13,prodloc31,tr13,8074,48444).
route(prodloc13,prodloc32,tr0,13490,350740).
route(prodloc13,prodloc32,tr13,13490,80940).
route(prodloc13,prodloc33,tr0,4862,126412).
route(prodloc13,prodloc33,tr13,4862,29172).
route(prodloc14,harbor0,tr0,4268,110968).
route(prodloc14,harbor0,tr13,4268,25608).
route(prodloc14,harbor1,tr0,8400,218400).
route(prodloc14,harbor1,tr13,8400,50400).
route(prodloc14,harbor2,tr0,6401,166426).
route(prodloc14,harbor2,tr13,6401,38406).
route(prodloc14,harbor3,tr0,13362,347412).
route(prodloc14,harbor3,tr13,13362,80172).
route(prodloc14,harbor4,tr0,18379,477854).
route(prodloc14,harbor4,tr13,18379,110274).
route(prodloc14,harbor5,tr0,20646,536796).
route(prodloc14,harbor5,tr13,20646,123876).
route(prodloc14,harbor6,tr0,19613,509938).
route(prodloc14,harbor6,tr13,19613,117678).
route(prodloc14,harbor7,tr0,1916,49816).
route(prodloc14,harbor7,tr13,1916,11496).
route(prodloc14,harbor8,tr0,17460,453960).
route(prodloc14,harbor8,tr13,17460,104760).
route(prodloc14,harbor9,tr0,27345,710970).
route(prodloc14,harbor9,tr13,27345,164070).
route(prodloc14,harbor10,tr0,19957,518882).
route(prodloc14,harbor10,tr13,19957,119742).
route(prodloc14,harbor11,tr0,16692,433992).
route(prodloc14,harbor11,tr13,16692,100152).
route(prodloc14,harbor12,tr0,4879,126854).
route(prodloc14,harbor12,tr13,4879,29274).
route(prodloc14,harbor13,tr0,13561,352586).
route(prodloc14,harbor13,tr13,13561,81366).
route(prodloc14,harbor14,tr0,8854,230204).
route(prodloc14,harbor14,tr13,8854,53124).
route(prodloc14,harbor15,tr0,9170,238420).
route(prodloc14,harbor15,tr13,9170,55020).
route(prodloc14,harbor16,tr0,15735,409110).
route(prodloc14,harbor16,tr13,15735,94410).
route(prodloc14,prodloc0,tr0,22789,592514).
route(prodloc14,prodloc0,tr13,22789,136734).
route(prodloc14,prodloc1,tr13,10022,60132).
route(prodloc14,prodloc1,tr15,10022,320704).
route(prodloc14,prodloc2,tr0,8752,227552).
route(prodloc14,prodloc2,tr13,8752,52512).
route(prodloc14,prodloc3,tr0,16101,418626).
route(prodloc14,prodloc3,tr13,16101,96606).
route(prodloc14,prodloc4,tr0,7027,182702).
route(prodloc14,prodloc4,tr13,7027,42162).
route(prodloc14,prodloc5,tr0,16345,424970).
route(prodloc14,prodloc5,tr13,16345,98070).
route(prodloc14,prodloc6,tr0,12050,313300).
route(prodloc14,prodloc6,tr13,12050,72300).
route(prodloc14,prodloc7,tr0,19630,510380).
route(prodloc14,prodloc7,tr13,19630,117780).
route(prodloc14,prodloc8,tr0,15420,400920).
route(prodloc14,prodloc8,tr13,15420,92520).
route(prodloc14,prodloc9,tr0,7920,205920).
route(prodloc14,prodloc9,tr13,7920,47520).
route(prodloc14,prodloc10,tr0,11090,288340).
route(prodloc14,prodloc10,tr13,11090,66540).
route(prodloc14,prodloc11,tr0,5774,150124).
route(prodloc14,prodloc11,tr13,5774,34644).
route(prodloc14,prodloc12,tr0,19850,516100).
route(prodloc14,prodloc12,tr13,19850,119100).
route(prodloc14,prodloc13,tr0,24870,646620).
route(prodloc14,prodloc13,tr13,24870,149220).
route(prodloc14,prodloc15,tr0,5939,154414).
route(prodloc14,prodloc15,tr13,5939,35634).
route(prodloc14,prodloc16,tr0,24224,629824).
route(prodloc14,prodloc16,tr13,24224,145344).
route(prodloc14,prodloc17,tr0,28834,749684).
route(prodloc14,prodloc17,tr13,28834,173004).
route(prodloc14,prodloc18,tr0,19025,494650).
route(prodloc14,prodloc18,tr15,19025,608800).
route(prodloc14,prodloc19,tr0,22748,591448).
route(prodloc14,prodloc19,tr13,22748,136488).
route(prodloc14,prodloc20,tr0,14784,384384).
route(prodloc14,prodloc20,tr13,14784,88704).
route(prodloc14,prodloc21,tr0,17525,455650).
route(prodloc14,prodloc21,tr13,17525,105150).
route(prodloc14,prodloc22,tr0,4898,127348).
route(prodloc14,prodloc22,tr15,4898,156736).
route(prodloc14,prodloc23,tr0,1907,49582).
route(prodloc14,prodloc23,tr13,1907,11442).
route(prodloc14,prodloc24,tr0,16515,429390).
route(prodloc14,prodloc24,tr13,16515,99090).
route(prodloc14,prodloc25,tr0,10684,277784).
route(prodloc14,prodloc25,tr15,10684,341888).
route(prodloc14,prodloc26,tr0,17319,450294).
route(prodloc14,prodloc26,tr13,17319,103914).
route(prodloc14,prodloc27,tr0,22615,587990).
route(prodloc14,prodloc27,tr13,22615,135690).
route(prodloc14,prodloc28,tr0,4427,115102).
route(prodloc14,prodloc28,tr15,4427,141664).
route(prodloc14,prodloc29,tr0,21139,549614).
route(prodloc14,prodloc29,tr13,21139,126834).
route(prodloc14,prodloc30,tr0,24951,648726).
route(prodloc14,prodloc30,tr13,24951,149706).
route(prodloc14,prodloc31,tr13,26608,159648).
route(prodloc14,prodloc31,tr15,26608,851456).
route(prodloc14,prodloc32,tr0,6987,181662).
route(prodloc14,prodloc32,tr13,6987,41922).
route(prodloc14,prodloc33,tr0,10335,268710).
route(prodloc14,prodloc33,tr13,10335,62010).
route(prodloc15,harbor0,tr0,20401,530426).
route(prodloc15,harbor0,tr13,20401,122406).
route(prodloc15,harbor1,tr0,16180,420680).
route(prodloc15,harbor1,tr13,16180,97080).
route(prodloc15,harbor2,tr0,15743,409318).
route(prodloc15,harbor2,tr13,15743,94458).
route(prodloc15,harbor3,tr0,10816,281216).
route(prodloc15,harbor3,tr13,10816,64896).
route(prodloc15,harbor4,tr0,3881,100906).
route(prodloc15,harbor4,tr13,3881,23286).
route(prodloc15,harbor5,tr0,4193,109018).
route(prodloc15,harbor5,tr13,4193,25158).
route(prodloc15,harbor6,tr0,4593,119418).
route(prodloc15,harbor6,tr13,4593,27558).
route(prodloc15,harbor7,tr0,22885,595010).
route(prodloc15,harbor7,tr13,22885,137310).
route(prodloc15,harbor8,tr0,8405,218530).
route(prodloc15,harbor8,tr13,8405,50430).
route(prodloc15,harbor9,tr0,7375,191750).
route(prodloc15,harbor9,tr13,7375,44250).
route(prodloc15,harbor10,tr0,2886,75036).
route(prodloc15,harbor10,tr13,2886,17316).
route(prodloc15,harbor11,tr0,20818,541268).
route(prodloc15,harbor11,tr13,20818,124908).
route(prodloc15,harbor12,tr0,17658,459108).
route(prodloc15,harbor12,tr13,17658,105948).
route(prodloc15,harbor13,tr0,27167,706342).
route(prodloc15,harbor13,tr13,27167,163002).
route(prodloc15,harbor14,tr0,23035,598910).
route(prodloc15,harbor14,tr13,23035,138210).
route(prodloc15,harbor15,tr0,1641,42666).
route(prodloc15,harbor15,tr13,1641,9846).
route(prodloc15,harbor16,tr0,18452,479752).
route(prodloc15,harbor16,tr13,18452,110712).
route(prodloc15,prodloc0,tr0,5640,146640).
route(prodloc15,prodloc0,tr13,5640,33840).
route(prodloc15,prodloc1,tr0,22440,583440).
route(prodloc15,prodloc1,tr13,22440,134640).
route(prodloc15,prodloc2,tr0,3807,98982).
route(prodloc15,prodloc2,tr13,3807,22842).
route(prodloc15,prodloc3,tr0,7415,192790).
route(prodloc15,prodloc3,tr13,7415,44490).
route(prodloc15,prodloc4,tr0,18458,479908).
route(prodloc15,prodloc4,tr13,18458,110748).
route(prodloc15,prodloc5,tr0,6536,169936).
route(prodloc15,prodloc5,tr13,6536,39216).
route(prodloc15,prodloc6,tr0,16484,428584).
route(prodloc15,prodloc6,tr13,16484,98904).
route(prodloc15,prodloc7,tr0,18600,483600).
route(prodloc15,prodloc7,tr13,18600,111600).
route(prodloc15,prodloc8,tr0,21625,562250).
route(prodloc15,prodloc8,tr13,21625,129750).
route(prodloc15,prodloc9,tr0,10090,262340).
route(prodloc15,prodloc9,tr13,10090,60540).
route(prodloc15,prodloc10,tr0,13838,359788).
route(prodloc15,prodloc10,tr13,13838,83028).
route(prodloc15,prodloc11,tr0,10738,279188).
route(prodloc15,prodloc11,tr13,10738,64428).
route(prodloc15,prodloc12,tr0,140,3640).
route(prodloc15,prodloc12,tr13,140,840).
route(prodloc15,prodloc13,tr0,25357,659282).
route(prodloc15,prodloc13,tr13,25357,152142).
route(prodloc15,prodloc14,tr0,659,17134).
route(prodloc15,prodloc14,tr13,659,3954).
route(prodloc15,prodloc16,tr0,26928,700128).
route(prodloc15,prodloc16,tr13,26928,161568).
route(prodloc15,prodloc17,tr0,10006,260156).
route(prodloc15,prodloc17,tr13,10006,60036).
route(prodloc15,prodloc18,tr0,26944,700544).
route(prodloc15,prodloc18,tr13,26944,161664).
route(prodloc15,prodloc19,tr0,20166,524316).
route(prodloc15,prodloc19,tr13,20166,120996).
route(prodloc15,prodloc20,tr0,7219,187694).
route(prodloc15,prodloc20,tr13,7219,43314).
route(prodloc15,prodloc21,tr0,2773,72098).
route(prodloc15,prodloc21,tr13,2773,16638).
route(prodloc15,prodloc22,tr0,24350,633100).
route(prodloc15,prodloc22,tr13,24350,146100).
route(prodloc15,prodloc23,tr0,7358,191308).
route(prodloc15,prodloc23,tr13,7358,44148).
route(prodloc15,prodloc24,tr0,9182,238732).
route(prodloc15,prodloc24,tr13,9182,55092).
route(prodloc15,prodloc25,tr0,22306,579956).
route(prodloc15,prodloc25,tr13,22306,133836).
route(prodloc15,prodloc26,tr0,20503,533078).
route(prodloc15,prodloc26,tr13,20503,123018).
route(prodloc15,prodloc27,tr0,28222,733772).
route(prodloc15,prodloc27,tr13,28222,169332).
route(prodloc15,prodloc28,tr0,11178,290628).
route(prodloc15,prodloc28,tr13,11178,67068).
route(prodloc15,prodloc29,tr0,8819,229294).
route(prodloc15,prodloc29,tr13,8819,52914).
route(prodloc15,prodloc30,tr0,19700,512200).
route(prodloc15,prodloc30,tr13,19700,118200).
route(prodloc15,prodloc31,tr0,23554,612404).
route(prodloc15,prodloc31,tr13,23554,141324).
route(prodloc15,prodloc32,tr0,16989,441714).
route(prodloc15,prodloc32,tr13,16989,101934).
route(prodloc15,prodloc33,tr0,12430,323180).
route(prodloc15,prodloc33,tr13,12430,74580).
route(prodloc16,harbor0,tr0,759,19734).
route(prodloc16,harbor0,tr13,759,4554).
route(prodloc16,harbor1,tr0,3988,103688).
route(prodloc16,harbor1,tr13,3988,23928).
route(prodloc16,harbor2,tr0,10810,281060).
route(prodloc16,harbor2,tr13,10810,64860).
route(prodloc16,harbor3,tr0,11373,295698).
route(prodloc16,harbor3,tr13,11373,68238).
route(prodloc16,harbor4,tr0,4571,118846).
route(prodloc16,harbor4,tr13,4571,27426).
route(prodloc16,harbor5,tr0,3717,96642).
route(prodloc16,harbor5,tr13,3717,22302).
route(prodloc16,harbor6,tr0,8220,213720).
route(prodloc16,harbor6,tr13,8220,49320).
route(prodloc16,harbor7,tr0,25232,656032).
route(prodloc16,harbor7,tr13,25232,151392).
route(prodloc16,harbor8,tr0,4696,122096).
route(prodloc16,harbor8,tr13,4696,28176).
route(prodloc16,harbor9,tr0,22323,580398).
route(prodloc16,harbor9,tr13,22323,133938).
route(prodloc16,harbor10,tr0,18811,489086).
route(prodloc16,harbor10,tr13,18811,112866).
route(prodloc16,harbor11,tr0,1346,34996).
route(prodloc16,harbor11,tr13,1346,8076).
route(prodloc16,harbor12,tr0,11372,295672).
route(prodloc16,harbor12,tr13,11372,68232).
route(prodloc16,harbor13,tr0,2537,65962).
route(prodloc16,harbor13,tr13,2537,15222).
route(prodloc16,harbor14,tr0,3010,78260).
route(prodloc16,harbor14,tr13,3010,18060).
route(prodloc16,harbor15,tr0,23756,617656).
route(prodloc16,harbor15,tr13,23756,142536).
route(prodloc16,harbor16,tr0,3383,87958).
route(prodloc16,harbor16,tr13,3383,20298).
route(prodloc16,prodloc0,tr0,9831,255606).
route(prodloc16,prodloc0,tr13,9831,58986).
route(prodloc16,prodloc1,tr0,10390,270140).
route(prodloc16,prodloc1,tr13,10390,62340).
route(prodloc16,prodloc2,tr0,8159,212134).
route(prodloc16,prodloc2,tr13,8159,48954).
route(prodloc16,prodloc3,tr0,8827,229502).
route(prodloc16,prodloc3,tr13,8827,52962).
route(prodloc16,prodloc4,tr0,17356,451256).
route(prodloc16,prodloc4,tr13,17356,104136).
route(prodloc16,prodloc5,tr0,1632,42432).
route(prodloc16,prodloc5,tr13,1632,9792).
route(prodloc16,prodloc6,tr0,11856,308256).
route(prodloc16,prodloc6,tr13,11856,71136).
route(prodloc16,prodloc7,tr0,1023,26598).
route(prodloc16,prodloc7,tr13,1023,6138).
route(prodloc16,prodloc8,tr0,2568,66768).
route(prodloc16,prodloc8,tr13,2568,15408).
route(prodloc16,prodloc9,tr0,4557,118482).
route(prodloc16,prodloc9,tr13,4557,27342).
route(prodloc16,prodloc10,tr0,13087,340262).
route(prodloc16,prodloc10,tr13,13087,78522).
route(prodloc16,prodloc11,tr0,12193,317018).
route(prodloc16,prodloc11,tr13,12193,73158).
route(prodloc16,prodloc12,tr0,23596,613496).
route(prodloc16,prodloc12,tr13,23596,141576).
route(prodloc16,prodloc13,tr0,20920,543920).
route(prodloc16,prodloc13,tr13,20920,125520).
route(prodloc16,prodloc14,tr0,22654,589004).
route(prodloc16,prodloc14,tr13,22654,135924).
route(prodloc16,prodloc15,tr0,7933,206258).
route(prodloc16,prodloc15,tr13,7933,47598).
route(prodloc16,prodloc17,tr0,3077,80002).
route(prodloc16,prodloc17,tr13,3077,18462).
route(prodloc16,prodloc18,tr0,22272,579072).
route(prodloc16,prodloc18,tr13,22272,133632).
route(prodloc16,prodloc19,tr0,10776,280176).
route(prodloc16,prodloc19,tr13,10776,64656).
route(prodloc16,prodloc20,tr0,8968,233168).
route(prodloc16,prodloc20,tr13,8968,53808).
route(prodloc16,prodloc21,tr0,262,6812).
route(prodloc16,prodloc21,tr13,262,1572).
route(prodloc16,prodloc22,tr0,16885,439010).
route(prodloc16,prodloc22,tr13,16885,101310).
route(prodloc16,prodloc23,tr0,10547,274222).
route(prodloc16,prodloc23,tr13,10547,63282).
route(prodloc16,prodloc24,tr0,3678,95628).
route(prodloc16,prodloc24,tr13,3678,22068).
route(prodloc16,prodloc25,tr0,11548,300248).
route(prodloc16,prodloc25,tr13,11548,69288).
route(prodloc16,prodloc26,tr0,26333,684658).
route(prodloc16,prodloc26,tr13,26333,157998).
route(prodloc16,prodloc27,tr0,25921,673946).
route(prodloc16,prodloc27,tr13,25921,155526).
route(prodloc16,prodloc28,tr0,21012,546312).
route(prodloc16,prodloc28,tr13,21012,126072).
route(prodloc16,prodloc29,tr0,23731,617006).
route(prodloc16,prodloc29,tr13,23731,142386).
route(prodloc16,prodloc30,tr0,27636,718536).
route(prodloc16,prodloc30,tr13,27636,165816).
route(prodloc16,prodloc31,tr0,4127,107302).
route(prodloc16,prodloc31,tr13,4127,24762).
route(prodloc16,prodloc32,tr0,19864,516464).
route(prodloc16,prodloc32,tr13,19864,119184).
route(prodloc16,prodloc33,tr0,28522,741572).
route(prodloc16,prodloc33,tr13,28522,171132).
route(prodloc17,harbor0,tr0,8884,230984).
route(prodloc17,harbor0,tr13,8884,53304).
route(prodloc17,harbor1,tr0,13278,345228).
route(prodloc17,harbor1,tr13,13278,79668).
route(prodloc17,harbor2,tr0,2986,77636).
route(prodloc17,harbor2,tr13,2986,17916).
route(prodloc17,harbor3,tr0,22251,578526).
route(prodloc17,harbor3,tr13,22251,133506).
route(prodloc17,harbor4,tr0,18897,491322).
route(prodloc17,harbor4,tr13,18897,113382).
route(prodloc17,harbor5,tr0,20339,528814).
route(prodloc17,harbor5,tr13,20339,122034).
route(prodloc17,harbor6,tr0,23771,618046).
route(prodloc17,harbor6,tr13,23771,142626).
route(prodloc17,harbor7,tr0,17294,449644).
route(prodloc17,harbor7,tr13,17294,103764).
route(prodloc17,harbor8,tr0,15585,405210).
route(prodloc17,harbor8,tr13,15585,93510).
route(prodloc17,harbor9,tr0,18497,480922).
route(prodloc17,harbor9,tr13,18497,110982).
route(prodloc17,harbor10,tr0,13722,356772).
route(prodloc17,harbor10,tr13,13722,82332).
route(prodloc17,harbor11,tr0,17557,456482).
route(prodloc17,harbor11,tr13,17557,105342).
route(prodloc17,harbor12,tr0,12905,335530).
route(prodloc17,harbor12,tr13,12905,77430).
route(prodloc17,harbor13,tr0,9868,256568).
route(prodloc17,harbor13,tr13,9868,59208).
route(prodloc17,harbor14,tr0,7191,186966).
route(prodloc17,harbor14,tr13,7191,43146).
route(prodloc17,harbor15,tr0,20735,539110).
route(prodloc17,harbor15,tr13,20735,124410).
route(prodloc17,harbor16,tr0,9919,257894).
route(prodloc17,harbor16,tr13,9919,59514).
route(prodloc17,prodloc0,tr0,17995,467870).
route(prodloc17,prodloc0,tr13,17995,107970).
route(prodloc17,prodloc1,tr0,4364,113464).
route(prodloc17,prodloc1,tr13,4364,26184).
route(prodloc17,prodloc2,tr0,1769,45994).
route(prodloc17,prodloc2,tr13,1769,10614).
route(prodloc17,prodloc3,tr0,19665,511290).
route(prodloc17,prodloc3,tr13,19665,117990).
route(prodloc17,prodloc4,tr0,16665,433290).
route(prodloc17,prodloc4,tr13,16665,99990).
route(prodloc17,prodloc5,tr0,3602,93652).
route(prodloc17,prodloc5,tr13,3602,21612).
route(prodloc17,prodloc6,tr0,5741,149266).
route(prodloc17,prodloc6,tr13,5741,34446).
route(prodloc17,prodloc7,tr0,7885,205010).
route(prodloc17,prodloc7,tr13,7885,47310).
route(prodloc17,prodloc8,tr0,7047,183222).
route(prodloc17,prodloc8,tr13,7047,42282).
route(prodloc17,prodloc9,tr0,14243,370318).
route(prodloc17,prodloc9,tr13,14243,85458).
route(prodloc17,prodloc10,tr0,8996,233896).
route(prodloc17,prodloc10,tr13,8996,53976).
route(prodloc17,prodloc11,tr0,17891,465166).
route(prodloc17,prodloc11,tr13,17891,107346).
route(prodloc17,prodloc12,tr0,656,17056).
route(prodloc17,prodloc12,tr13,656,3936).
route(prodloc17,prodloc13,tr0,8207,213382).
route(prodloc17,prodloc13,tr13,8207,49242).
route(prodloc17,prodloc14,tr0,17658,459108).
route(prodloc17,prodloc14,tr13,17658,105948).
route(prodloc17,prodloc15,tr0,8879,230854).
route(prodloc17,prodloc15,tr13,8879,53274).
route(prodloc17,prodloc16,tr0,17373,451698).
route(prodloc17,prodloc16,tr13,17373,104238).
route(prodloc17,prodloc18,tr0,8578,223028).
route(prodloc17,prodloc18,tr13,8578,51468).
route(prodloc17,prodloc19,tr0,15508,403208).
route(prodloc17,prodloc19,tr13,15508,93048).
route(prodloc17,prodloc20,tr0,4133,107458).
route(prodloc17,prodloc20,tr13,4133,24798).
route(prodloc17,prodloc21,tr0,13216,343616).
route(prodloc17,prodloc21,tr13,13216,79296).
route(prodloc17,prodloc22,tr0,23230,603980).
route(prodloc17,prodloc22,tr13,23230,139380).
route(prodloc17,prodloc23,tr0,3401,88426).
route(prodloc17,prodloc23,tr13,3401,20406).
route(prodloc17,prodloc24,tr0,24411,634686).
route(prodloc17,prodloc24,tr13,24411,146466).
route(prodloc17,prodloc25,tr0,12240,318240).
route(prodloc17,prodloc25,tr13,12240,73440).
route(prodloc17,prodloc26,tr0,2265,58890).
route(prodloc17,prodloc26,tr13,2265,13590).
route(prodloc17,prodloc27,tr0,21446,557596).
route(prodloc17,prodloc27,tr13,21446,128676).
route(prodloc17,prodloc28,tr0,17834,463684).
route(prodloc17,prodloc28,tr13,17834,107004).
route(prodloc17,prodloc29,tr0,11901,309426).
route(prodloc17,prodloc29,tr13,11901,71406).
route(prodloc17,prodloc30,tr0,17852,464152).
route(prodloc17,prodloc30,tr13,17852,107112).
route(prodloc17,prodloc31,tr0,18204,473304).
route(prodloc17,prodloc31,tr13,18204,109224).
route(prodloc17,prodloc32,tr13,27652,165912).
route(prodloc17,prodloc32,tr15,27652,884864).
route(prodloc17,prodloc33,tr0,26362,685412).
route(prodloc17,prodloc33,tr13,26362,158172).
route(prodloc18,harbor0,tr0,23698,616148).
route(prodloc18,harbor0,tr13,23698,142188).
route(prodloc18,harbor1,tr0,16627,432302).
route(prodloc18,harbor1,tr13,16627,99762).
route(prodloc18,harbor2,tr0,22434,583284).
route(prodloc18,harbor2,tr13,22434,134604).
route(prodloc18,harbor3,tr0,19034,494884).
route(prodloc18,harbor3,tr13,19034,114204).
route(prodloc18,harbor4,tr0,998,25948).
route(prodloc18,harbor4,tr13,998,5988).
route(prodloc18,harbor5,tr0,20286,527436).
route(prodloc18,harbor5,tr13,20286,121716).
route(prodloc18,harbor6,tr0,10098,262548).
route(prodloc18,harbor6,tr13,10098,60588).
route(prodloc18,harbor7,tr0,14599,379574).
route(prodloc18,harbor7,tr13,14599,87594).
route(prodloc18,harbor8,tr0,22363,581438).
route(prodloc18,harbor8,tr13,22363,134178).
route(prodloc18,harbor9,tr0,4334,112684).
route(prodloc18,harbor9,tr13,4334,26004).
route(prodloc18,harbor10,tr0,5106,132756).
route(prodloc18,harbor10,tr13,5106,30636).
route(prodloc18,harbor11,tr0,2438,63388).
route(prodloc18,harbor11,tr13,2438,14628).
route(prodloc18,harbor12,tr0,18983,493558).
route(prodloc18,harbor12,tr13,18983,113898).
route(prodloc18,harbor13,tr0,4652,120952).
route(prodloc18,harbor13,tr13,4652,27912).
route(prodloc18,harbor14,tr0,22173,576498).
route(prodloc18,harbor14,tr13,22173,133038).
route(prodloc18,harbor15,tr0,28809,749034).
route(prodloc18,harbor15,tr13,28809,172854).
route(prodloc18,harbor16,tr0,27096,704496).
route(prodloc18,harbor16,tr13,27096,162576).
route(prodloc18,prodloc0,tr0,7088,184288).
route(prodloc18,prodloc0,tr13,7088,42528).
route(prodloc18,prodloc1,tr0,15864,412464).
route(prodloc18,prodloc1,tr13,15864,95184).
route(prodloc18,prodloc2,tr0,27579,717054).
route(prodloc18,prodloc2,tr13,27579,165474).
route(prodloc18,prodloc3,tr0,26248,682448).
route(prodloc18,prodloc3,tr13,26248,157488).
route(prodloc18,prodloc4,tr0,27796,722696).
route(prodloc18,prodloc4,tr13,27796,166776).
route(prodloc18,prodloc5,tr0,25147,653822).
route(prodloc18,prodloc5,tr13,25147,150882).
route(prodloc18,prodloc6,tr0,10994,285844).
route(prodloc18,prodloc6,tr13,10994,65964).
route(prodloc18,prodloc7,tr0,11965,311090).
route(prodloc18,prodloc7,tr13,11965,71790).
route(prodloc18,prodloc8,tr0,9581,249106).
route(prodloc18,prodloc8,tr13,9581,57486).
route(prodloc18,prodloc9,tr0,5237,136162).
route(prodloc18,prodloc9,tr13,5237,31422).
route(prodloc18,prodloc10,tr0,5100,132600).
route(prodloc18,prodloc10,tr13,5100,30600).
route(prodloc18,prodloc11,tr0,27825,723450).
route(prodloc18,prodloc11,tr13,27825,166950).
route(prodloc18,prodloc12,tr0,26056,677456).
route(prodloc18,prodloc12,tr13,26056,156336).
route(prodloc18,prodloc13,tr0,12510,325260).
route(prodloc18,prodloc13,tr13,12510,75060).
route(prodloc18,prodloc14,tr0,27302,709852).
route(prodloc18,prodloc14,tr13,27302,163812).
route(prodloc18,prodloc15,tr0,14410,374660).
route(prodloc18,prodloc15,tr13,14410,86460).
route(prodloc18,prodloc16,tr0,13294,345644).
route(prodloc18,prodloc16,tr13,13294,79764).
route(prodloc18,prodloc17,tr0,3864,100464).
route(prodloc18,prodloc17,tr13,3864,23184).
route(prodloc18,prodloc19,tr0,19695,512070).
route(prodloc18,prodloc19,tr13,19695,118170).
route(prodloc18,prodloc20,tr0,4758,123708).
route(prodloc18,prodloc20,tr13,4758,28548).
route(prodloc18,prodloc21,tr0,8841,229866).
route(prodloc18,prodloc21,tr15,8841,282912).
route(prodloc18,prodloc22,tr0,9678,251628).
route(prodloc18,prodloc22,tr13,9678,58068).
route(prodloc18,prodloc23,tr0,21854,568204).
route(prodloc18,prodloc23,tr13,21854,131124).
route(prodloc18,prodloc24,tr0,22512,585312).
route(prodloc18,prodloc24,tr13,22512,135072).
route(prodloc18,prodloc25,tr0,26196,681096).
route(prodloc18,prodloc25,tr13,26196,157176).
route(prodloc18,prodloc26,tr0,20936,544336).
route(prodloc18,prodloc26,tr13,20936,125616).
route(prodloc18,prodloc27,tr0,19783,514358).
route(prodloc18,prodloc27,tr13,19783,118698).
route(prodloc18,prodloc28,tr0,270,7020).
route(prodloc18,prodloc28,tr13,270,1620).
route(prodloc18,prodloc29,tr0,17607,457782).
route(prodloc18,prodloc29,tr13,17607,105642).
route(prodloc18,prodloc30,tr0,319,8294).
route(prodloc18,prodloc30,tr13,319,1914).
route(prodloc18,prodloc31,tr0,26715,694590).
route(prodloc18,prodloc31,tr13,26715,160290).
route(prodloc18,prodloc32,tr0,21069,547794).
route(prodloc18,prodloc32,tr13,21069,126414).
route(prodloc18,prodloc33,tr0,4346,112996).
route(prodloc18,prodloc33,tr13,4346,26076).
route(prodloc19,harbor0,tr0,12437,323362).
route(prodloc19,harbor0,tr13,12437,74622).
route(prodloc19,harbor1,tr0,24479,636454).
route(prodloc19,harbor1,tr13,24479,146874).
route(prodloc19,harbor2,tr0,18414,478764).
route(prodloc19,harbor2,tr13,18414,110484).
route(prodloc19,harbor3,tr0,28929,752154).
route(prodloc19,harbor3,tr13,28929,173574).
route(prodloc19,harbor4,tr0,3316,86216).
route(prodloc19,harbor4,tr13,3316,19896).
route(prodloc19,harbor5,tr0,15059,391534).
route(prodloc19,harbor5,tr13,15059,90354).
route(prodloc19,harbor6,tr0,997,25922).
route(prodloc19,harbor6,tr13,997,5982).
route(prodloc19,harbor7,tr0,25535,663910).
route(prodloc19,harbor7,tr13,25535,153210).
route(prodloc19,harbor8,tr0,14156,368056).
route(prodloc19,harbor8,tr13,14156,84936).
route(prodloc19,harbor9,tr0,19615,509990).
route(prodloc19,harbor9,tr13,19615,117690).
route(prodloc19,harbor10,tr0,22259,578734).
route(prodloc19,harbor10,tr13,22259,133554).
route(prodloc19,harbor11,tr0,13839,359814).
route(prodloc19,harbor11,tr13,13839,83034).
route(prodloc19,harbor12,tr0,9048,235248).
route(prodloc19,harbor12,tr13,9048,54288).
route(prodloc19,harbor13,tr0,12130,315380).
route(prodloc19,harbor13,tr13,12130,72780).
route(prodloc19,harbor14,tr0,13385,348010).
route(prodloc19,harbor14,tr13,13385,80310).
route(prodloc19,harbor15,tr0,13310,346060).
route(prodloc19,harbor15,tr13,13310,79860).
route(prodloc19,harbor16,tr0,19852,516152).
route(prodloc19,harbor16,tr13,19852,119112).
route(prodloc19,prodloc0,tr0,15140,393640).
route(prodloc19,prodloc0,tr13,15140,90840).
route(prodloc19,prodloc1,tr0,1747,45422).
route(prodloc19,prodloc1,tr13,1747,10482).
route(prodloc19,prodloc2,tr0,3252,84552).
route(prodloc19,prodloc2,tr13,3252,19512).
route(prodloc19,prodloc3,tr0,15427,401102).
route(prodloc19,prodloc3,tr13,15427,92562).
route(prodloc19,prodloc4,tr0,25532,663832).
route(prodloc19,prodloc4,tr13,25532,153192).
route(prodloc19,prodloc5,tr0,1227,31902).
route(prodloc19,prodloc5,tr13,1227,7362).
route(prodloc19,prodloc6,tr0,21172,550472).
route(prodloc19,prodloc6,tr13,21172,127032).
route(prodloc19,prodloc7,tr0,23075,599950).
route(prodloc19,prodloc7,tr13,23075,138450).
route(prodloc19,prodloc8,tr0,22853,594178).
route(prodloc19,prodloc8,tr13,22853,137118).
route(prodloc19,prodloc9,tr0,21,546).
route(prodloc19,prodloc9,tr13,21,126).
route(prodloc19,prodloc10,tr0,26615,691990).
route(prodloc19,prodloc10,tr13,26615,159690).
route(prodloc19,prodloc11,tr0,1380,35880).
route(prodloc19,prodloc11,tr13,1380,8280).
route(prodloc19,prodloc12,tr0,27257,708682).
route(prodloc19,prodloc12,tr13,27257,163542).
route(prodloc19,prodloc13,tr0,3643,94718).
route(prodloc19,prodloc13,tr13,3643,21858).
route(prodloc19,prodloc14,tr0,19249,500474).
route(prodloc19,prodloc14,tr13,19249,115494).
route(prodloc19,prodloc15,tr0,4575,118950).
route(prodloc19,prodloc15,tr13,4575,27450).
route(prodloc19,prodloc16,tr0,17383,451958).
route(prodloc19,prodloc16,tr13,17383,104298).
route(prodloc19,prodloc17,tr0,16650,432900).
route(prodloc19,prodloc17,tr13,16650,99900).
route(prodloc19,prodloc18,tr0,25010,650260).
route(prodloc19,prodloc18,tr13,25010,150060).
route(prodloc19,prodloc20,tr0,11676,303576).
route(prodloc19,prodloc20,tr13,11676,70056).
route(prodloc19,prodloc21,tr0,18058,469508).
route(prodloc19,prodloc21,tr13,18058,108348).
route(prodloc19,prodloc22,tr0,8878,230828).
route(prodloc19,prodloc22,tr13,8878,53268).
route(prodloc19,prodloc23,tr0,25656,667056).
route(prodloc19,prodloc23,tr13,25656,153936).
route(prodloc19,prodloc24,tr0,18621,484146).
route(prodloc19,prodloc24,tr13,18621,111726).
route(prodloc19,prodloc25,tr0,21460,557960).
route(prodloc19,prodloc25,tr13,21460,128760).
route(prodloc19,prodloc26,tr0,11681,303706).
route(prodloc19,prodloc26,tr13,11681,70086).
route(prodloc19,prodloc27,tr0,26284,683384).
route(prodloc19,prodloc27,tr13,26284,157704).
route(prodloc19,prodloc28,tr0,15531,403806).
route(prodloc19,prodloc28,tr13,15531,93186).
route(prodloc19,prodloc29,tr0,26862,698412).
route(prodloc19,prodloc29,tr13,26862,161172).
route(prodloc19,prodloc30,tr0,22856,594256).
route(prodloc19,prodloc30,tr13,22856,137136).
route(prodloc19,prodloc31,tr0,8035,208910).
route(prodloc19,prodloc31,tr13,8035,48210).
route(prodloc19,prodloc32,tr0,26487,688662).
route(prodloc19,prodloc32,tr13,26487,158922).
route(prodloc19,prodloc33,tr0,20376,529776).
route(prodloc19,prodloc33,tr13,20376,122256).
route(prodloc20,harbor0,tr0,7860,204360).
route(prodloc20,harbor0,tr13,7860,47160).
route(prodloc20,harbor1,tr0,3460,89960).
route(prodloc20,harbor1,tr13,3460,20760).
route(prodloc20,harbor2,tr0,18429,479154).
route(prodloc20,harbor2,tr13,18429,110574).
route(prodloc20,harbor3,tr0,11723,304798).
route(prodloc20,harbor3,tr13,11723,70338).
route(prodloc20,harbor4,tr0,28575,742950).
route(prodloc20,harbor4,tr13,28575,171450).
route(prodloc20,harbor5,tr0,5200,135200).
route(prodloc20,harbor5,tr13,5200,31200).
route(prodloc20,harbor6,tr0,3816,99216).
route(prodloc20,harbor6,tr13,3816,22896).
route(prodloc20,harbor7,tr0,25457,661882).
route(prodloc20,harbor7,tr13,25457,152742).
route(prodloc20,harbor8,tr0,1331,34606).
route(prodloc20,harbor8,tr13,1331,7986).
route(prodloc20,harbor9,tr0,23072,599872).
route(prodloc20,harbor9,tr13,23072,138432).
route(prodloc20,harbor10,tr0,10281,267306).
route(prodloc20,harbor10,tr13,10281,61686).
route(prodloc20,harbor11,tr0,13843,359918).
route(prodloc20,harbor11,tr13,13843,83058).
route(prodloc20,harbor12,tr0,28830,749580).
route(prodloc20,harbor12,tr13,28830,172980).
route(prodloc20,harbor13,tr0,23833,619658).
route(prodloc20,harbor13,tr13,23833,142998).
route(prodloc20,harbor14,tr0,11348,295048).
route(prodloc20,harbor14,tr13,11348,68088).
route(prodloc20,harbor15,tr0,8308,216008).
route(prodloc20,harbor15,tr13,8308,49848).
route(prodloc20,harbor16,tr0,21548,560248).
route(prodloc20,harbor16,tr13,21548,129288).
route(prodloc20,prodloc0,tr0,20507,533182).
route(prodloc20,prodloc0,tr13,20507,123042).
route(prodloc20,prodloc1,tr0,25301,657826).
route(prodloc20,prodloc1,tr13,25301,151806).
route(prodloc20,prodloc2,tr0,1826,47476).
route(prodloc20,prodloc2,tr13,1826,10956).
route(prodloc20,prodloc3,tr0,20218,525668).
route(prodloc20,prodloc3,tr13,20218,121308).
route(prodloc20,prodloc4,tr0,14251,370526).
route(prodloc20,prodloc4,tr13,14251,85506).
route(prodloc20,prodloc5,tr0,13598,353548).
route(prodloc20,prodloc5,tr13,13598,81588).
route(prodloc20,prodloc6,tr0,12332,320632).
route(prodloc20,prodloc6,tr13,12332,73992).
route(prodloc20,prodloc7,tr0,11757,305682).
route(prodloc20,prodloc7,tr13,11757,70542).
route(prodloc20,prodloc8,tr0,9633,250458).
route(prodloc20,prodloc8,tr13,9633,57798).
route(prodloc20,prodloc9,tr0,24706,642356).
route(prodloc20,prodloc9,tr13,24706,148236).
route(prodloc20,prodloc10,tr0,26745,695370).
route(prodloc20,prodloc10,tr13,26745,160470).
route(prodloc20,prodloc11,tr0,11183,290758).
route(prodloc20,prodloc11,tr13,11183,67098).
route(prodloc20,prodloc12,tr0,14453,375778).
route(prodloc20,prodloc12,tr13,14453,86718).
route(prodloc20,prodloc13,tr0,26157,680082).
route(prodloc20,prodloc13,tr13,26157,156942).
route(prodloc20,prodloc14,tr0,22914,595764).
route(prodloc20,prodloc14,tr13,22914,137484).
route(prodloc20,prodloc15,tr0,7802,202852).
route(prodloc20,prodloc15,tr13,7802,46812).
route(prodloc20,prodloc16,tr0,20807,540982).
route(prodloc20,prodloc16,tr13,20807,124842).
route(prodloc20,prodloc17,tr0,19978,519428).
route(prodloc20,prodloc17,tr13,19978,119868).
route(prodloc20,prodloc18,tr0,17008,442208).
route(prodloc20,prodloc18,tr13,17008,102048).
route(prodloc20,prodloc19,tr0,4732,123032).
route(prodloc20,prodloc19,tr13,4732,28392).
route(prodloc20,prodloc21,tr0,1838,47788).
route(prodloc20,prodloc21,tr13,1838,11028).
route(prodloc20,prodloc22,tr0,11192,290992).
route(prodloc20,prodloc22,tr13,11192,67152).
route(prodloc20,prodloc23,tr0,22056,573456).
route(prodloc20,prodloc23,tr13,22056,132336).
route(prodloc20,prodloc24,tr0,3721,96746).
route(prodloc20,prodloc24,tr13,3721,22326).
route(prodloc20,prodloc25,tr0,16813,437138).
route(prodloc20,prodloc25,tr13,16813,100878).
route(prodloc20,prodloc26,tr0,5644,146744).
route(prodloc20,prodloc26,tr13,5644,33864).
route(prodloc20,prodloc27,tr0,17796,462696).
route(prodloc20,prodloc27,tr13,17796,106776).
route(prodloc20,prodloc28,tr0,21063,547638).
route(prodloc20,prodloc28,tr13,21063,126378).
route(prodloc20,prodloc29,tr0,20511,533286).
route(prodloc20,prodloc29,tr13,20511,123066).
route(prodloc20,prodloc30,tr0,15974,415324).
route(prodloc20,prodloc30,tr13,15974,95844).
route(prodloc20,prodloc31,tr0,11175,290550).
route(prodloc20,prodloc31,tr13,11175,67050).
route(prodloc20,prodloc32,tr0,24822,645372).
route(prodloc20,prodloc32,tr13,24822,148932).
route(prodloc20,prodloc33,tr0,23281,605306).
route(prodloc20,prodloc33,tr13,23281,139686).
route(prodloc21,harbor0,tr0,3982,103532).
route(prodloc21,harbor0,tr13,3982,23892).
route(prodloc21,harbor1,tr0,19098,496548).
route(prodloc21,harbor1,tr13,19098,114588).
route(prodloc21,harbor2,tr0,711,18486).
route(prodloc21,harbor2,tr13,711,4266).
route(prodloc21,harbor3,tr0,15739,409214).
route(prodloc21,harbor3,tr13,15739,94434).
route(prodloc21,harbor4,tr0,6857,178282).
route(prodloc21,harbor4,tr13,6857,41142).
route(prodloc21,harbor5,tr0,12559,326534).
route(prodloc21,harbor5,tr13,12559,75354).
route(prodloc21,harbor6,tr0,20698,538148).
route(prodloc21,harbor6,tr13,20698,124188).
route(prodloc21,harbor7,tr0,27325,710450).
route(prodloc21,harbor7,tr13,27325,163950).
route(prodloc21,harbor8,tr0,5726,148876).
route(prodloc21,harbor8,tr13,5726,34356).
route(prodloc21,harbor9,tr0,13018,338468).
route(prodloc21,harbor9,tr13,13018,78108).
route(prodloc21,harbor10,tr0,23483,610558).
route(prodloc21,harbor10,tr13,23483,140898).
route(prodloc21,harbor11,tr0,7466,194116).
route(prodloc21,harbor11,tr13,7466,44796).
route(prodloc21,harbor12,tr0,3268,84968).
route(prodloc21,harbor12,tr13,3268,19608).
route(prodloc21,harbor13,tr0,8140,211640).
route(prodloc21,harbor13,tr13,8140,48840).
route(prodloc21,harbor14,tr0,10999,285974).
route(prodloc21,harbor14,tr13,10999,65994).
route(prodloc21,harbor15,tr0,10784,280384).
route(prodloc21,harbor15,tr13,10784,64704).
route(prodloc21,harbor16,tr0,21517,559442).
route(prodloc21,harbor16,tr13,21517,129102).
route(prodloc21,prodloc0,tr0,8035,208910).
route(prodloc21,prodloc0,tr13,8035,48210).
route(prodloc21,prodloc1,tr0,25709,668434).
route(prodloc21,prodloc1,tr13,25709,154254).
route(prodloc21,prodloc2,tr0,22179,576654).
route(prodloc21,prodloc2,tr13,22179,133074).
route(prodloc21,prodloc3,tr0,15118,393068).
route(prodloc21,prodloc3,tr13,15118,90708).
route(prodloc21,prodloc4,tr0,24348,633048).
route(prodloc21,prodloc4,tr13,24348,146088).
route(prodloc21,prodloc5,tr0,15441,401466).
route(prodloc21,prodloc5,tr13,15441,92646).
route(prodloc21,prodloc6,tr0,12111,314886).
route(prodloc21,prodloc6,tr13,12111,72666).
route(prodloc21,prodloc7,tr0,16144,419744).
route(prodloc21,prodloc7,tr13,16144,96864).
route(prodloc21,prodloc8,tr0,21348,555048).
route(prodloc21,prodloc8,tr13,21348,128088).
route(prodloc21,prodloc9,tr0,25336,658736).
route(prodloc21,prodloc9,tr13,25336,152016).
route(prodloc21,prodloc10,tr0,21733,565058).
route(prodloc21,prodloc10,tr13,21733,130398).
route(prodloc21,prodloc11,tr0,23701,616226).
route(prodloc21,prodloc11,tr13,23701,142206).
route(prodloc21,prodloc12,tr0,6351,165126).
route(prodloc21,prodloc12,tr13,6351,38106).
route(prodloc21,prodloc13,tr0,14157,368082).
route(prodloc21,prodloc13,tr13,14157,84942).
route(prodloc21,prodloc14,tr0,14439,375414).
route(prodloc21,prodloc14,tr13,14439,86634).
route(prodloc21,prodloc15,tr0,13071,339846).
route(prodloc21,prodloc15,tr13,13071,78426).
route(prodloc21,prodloc16,tr0,17763,461838).
route(prodloc21,prodloc16,tr13,17763,106578).
route(prodloc21,prodloc17,tr0,3947,102622).
route(prodloc21,prodloc17,tr13,3947,23682).
route(prodloc21,prodloc18,tr0,18726,486876).
route(prodloc21,prodloc18,tr13,18726,112356).
route(prodloc21,prodloc19,tr0,16001,416026).
route(prodloc21,prodloc19,tr13,16001,96006).
route(prodloc21,prodloc20,tr0,8733,227058).
route(prodloc21,prodloc20,tr13,8733,52398).
route(prodloc21,prodloc22,tr0,27518,715468).
route(prodloc21,prodloc22,tr13,27518,165108).
route(prodloc21,prodloc23,tr0,4105,106730).
route(prodloc21,prodloc23,tr13,4105,24630).
route(prodloc21,prodloc24,tr0,4913,127738).
route(prodloc21,prodloc24,tr13,4913,29478).
route(prodloc21,prodloc25,tr0,393,10218).
route(prodloc21,prodloc25,tr13,393,2358).
route(prodloc21,prodloc26,tr0,12326,320476).
route(prodloc21,prodloc26,tr13,12326,73956).
route(prodloc21,prodloc27,tr0,13588,353288).
route(prodloc21,prodloc27,tr13,13588,81528).
route(prodloc21,prodloc28,tr0,3572,92872).
route(prodloc21,prodloc28,tr13,3572,21432).
route(prodloc21,prodloc29,tr0,26183,680758).
route(prodloc21,prodloc29,tr13,26183,157098).
route(prodloc21,prodloc30,tr0,861,22386).
route(prodloc21,prodloc30,tr13,861,5166).
route(prodloc21,prodloc31,tr0,21379,555854).
route(prodloc21,prodloc31,tr13,21379,128274).
route(prodloc21,prodloc32,tr0,2446,63596).
route(prodloc21,prodloc32,tr13,2446,14676).
route(prodloc21,prodloc33,tr0,5997,155922).
route(prodloc21,prodloc33,tr13,5997,35982).
route(prodloc22,harbor0,tr0,15035,390910).
route(prodloc22,harbor0,tr13,15035,90210).
route(prodloc22,harbor1,tr0,25104,652704).
route(prodloc22,harbor1,tr13,25104,150624).
route(prodloc22,harbor2,tr0,12356,321256).
route(prodloc22,harbor2,tr13,12356,74136).
route(prodloc22,harbor3,tr0,21865,568490).
route(prodloc22,harbor3,tr13,21865,131190).
route(prodloc22,harbor4,tr0,16452,427752).
route(prodloc22,harbor4,tr13,16452,98712).
route(prodloc22,harbor5,tr0,26146,679796).
route(prodloc22,harbor5,tr13,26146,156876).
route(prodloc22,harbor6,tr0,26706,694356).
route(prodloc22,harbor6,tr13,26706,160236).
route(prodloc22,harbor7,tr0,9455,245830).
route(prodloc22,harbor7,tr13,9455,56730).
route(prodloc22,harbor8,tr0,5097,132522).
route(prodloc22,harbor8,tr13,5097,30582).
route(prodloc22,harbor9,tr0,5057,131482).
route(prodloc22,harbor9,tr13,5057,30342).
route(prodloc22,harbor10,tr0,17192,446992).
route(prodloc22,harbor10,tr13,17192,103152).
route(prodloc22,harbor11,tr0,27069,703794).
route(prodloc22,harbor11,tr13,27069,162414).
route(prodloc22,harbor12,tr0,3466,90116).
route(prodloc22,harbor12,tr13,3466,20796).
route(prodloc22,harbor13,tr0,8344,216944).
route(prodloc22,harbor13,tr13,8344,50064).
route(prodloc22,harbor14,tr0,617,16042).
route(prodloc22,harbor14,tr13,617,3702).
route(prodloc22,harbor15,tr0,15220,395720).
route(prodloc22,harbor15,tr13,15220,91320).
route(prodloc22,harbor16,tr0,12996,337896).
route(prodloc22,harbor16,tr13,12996,77976).
route(prodloc22,prodloc0,tr0,26572,690872).
route(prodloc22,prodloc0,tr13,26572,159432).
route(prodloc22,prodloc1,tr0,20770,540020).
route(prodloc22,prodloc1,tr13,20770,124620).
route(prodloc22,prodloc2,tr0,23093,600418).
route(prodloc22,prodloc2,tr13,23093,138558).
route(prodloc22,prodloc3,tr0,24121,627146).
route(prodloc22,prodloc3,tr13,24121,144726).
route(prodloc22,prodloc4,tr0,25984,675584).
route(prodloc22,prodloc4,tr13,25984,155904).
route(prodloc22,prodloc5,tr0,7485,194610).
route(prodloc22,prodloc5,tr13,7485,44910).
route(prodloc22,prodloc6,tr0,17622,458172).
route(prodloc22,prodloc6,tr13,17622,105732).
route(prodloc22,prodloc7,tr0,22792,592592).
route(prodloc22,prodloc7,tr13,22792,136752).
route(prodloc22,prodloc8,tr0,12807,332982).
route(prodloc22,prodloc8,tr13,12807,76842).
route(prodloc22,prodloc9,tr0,176,4576).
route(prodloc22,prodloc9,tr13,176,1056).
route(prodloc22,prodloc10,tr0,17831,463606).
route(prodloc22,prodloc10,tr13,17831,106986).
route(prodloc22,prodloc11,tr0,26342,684892).
route(prodloc22,prodloc11,tr13,26342,158052).
route(prodloc22,prodloc12,tr0,8176,212576).
route(prodloc22,prodloc12,tr13,8176,49056).
route(prodloc22,prodloc13,tr0,13861,360386).
route(prodloc22,prodloc13,tr13,13861,83166).
route(prodloc22,prodloc14,tr0,5208,135408).
route(prodloc22,prodloc14,tr13,5208,31248).
route(prodloc22,prodloc15,tr0,21703,564278).
route(prodloc22,prodloc15,tr13,21703,130218).
route(prodloc22,prodloc16,tr0,5869,152594).
route(prodloc22,prodloc16,tr13,5869,35214).
route(prodloc22,prodloc17,tr0,11224,291824).
route(prodloc22,prodloc17,tr15,11224,359168).
route(prodloc22,prodloc18,tr0,21707,564382).
route(prodloc22,prodloc18,tr13,21707,130242).
route(prodloc22,prodloc19,tr0,7838,203788).
route(prodloc22,prodloc19,tr13,7838,47028).
route(prodloc22,prodloc20,tr0,2494,64844).
route(prodloc22,prodloc20,tr13,2494,14964).
route(prodloc22,prodloc21,tr0,25397,660322).
route(prodloc22,prodloc21,tr13,25397,152382).
route(prodloc22,prodloc23,tr0,17577,457002).
route(prodloc22,prodloc23,tr13,17577,105462).
route(prodloc22,prodloc24,tr0,18281,475306).
route(prodloc22,prodloc24,tr13,18281,109686).
route(prodloc22,prodloc25,tr0,5275,137150).
route(prodloc22,prodloc25,tr13,5275,31650).
route(prodloc22,prodloc26,tr0,5756,149656).
route(prodloc22,prodloc26,tr13,5756,34536).
route(prodloc22,prodloc27,tr0,12312,320112).
route(prodloc22,prodloc27,tr13,12312,73872).
route(prodloc22,prodloc28,tr0,19182,498732).
route(prodloc22,prodloc28,tr13,19182,115092).
route(prodloc22,prodloc29,tr0,708,18408).
route(prodloc22,prodloc29,tr13,708,4248).
route(prodloc22,prodloc30,tr0,16815,437190).
route(prodloc22,prodloc30,tr13,16815,100890).
route(prodloc22,prodloc31,tr0,7108,184808).
route(prodloc22,prodloc31,tr13,7108,42648).
route(prodloc22,prodloc32,tr0,14007,364182).
route(prodloc22,prodloc32,tr13,14007,84042).
route(prodloc22,prodloc33,tr0,7724,200824).
route(prodloc22,prodloc33,tr13,7724,46344).
route(prodloc23,harbor0,tr0,26032,676832).
route(prodloc23,harbor0,tr13,26032,156192).
route(prodloc23,harbor1,tr0,1327,34502).
route(prodloc23,harbor1,tr13,1327,7962).
route(prodloc23,harbor2,tr0,16899,439374).
route(prodloc23,harbor2,tr13,16899,101394).
route(prodloc23,harbor3,tr0,23746,617396).
route(prodloc23,harbor3,tr13,23746,142476).
route(prodloc23,harbor4,tr0,6235,162110).
route(prodloc23,harbor4,tr13,6235,37410).
route(prodloc23,harbor5,tr0,22949,596674).
route(prodloc23,harbor5,tr13,22949,137694).
route(prodloc23,harbor6,tr0,16518,429468).
route(prodloc23,harbor6,tr13,16518,99108).
route(prodloc23,harbor7,tr0,22632,588432).
route(prodloc23,harbor7,tr13,22632,135792).
route(prodloc23,harbor8,tr0,20051,521326).
route(prodloc23,harbor8,tr13,20051,120306).
route(prodloc23,harbor9,tr0,21417,556842).
route(prodloc23,harbor9,tr13,21417,128502).
route(prodloc23,harbor10,tr0,17590,457340).
route(prodloc23,harbor10,tr13,17590,105540).
route(prodloc23,harbor11,tr0,2532,65832).
route(prodloc23,harbor11,tr13,2532,15192).
route(prodloc23,harbor12,tr0,8125,211250).
route(prodloc23,harbor12,tr13,8125,48750).
route(prodloc23,harbor13,tr0,13049,339274).
route(prodloc23,harbor13,tr13,13049,78294).
route(prodloc23,harbor14,tr0,25543,664118).
route(prodloc23,harbor14,tr13,25543,153258).
route(prodloc23,harbor15,tr0,15237,396162).
route(prodloc23,harbor15,tr13,15237,91422).
route(prodloc23,harbor16,tr0,3904,101504).
route(prodloc23,harbor16,tr13,3904,23424).
route(prodloc23,prodloc0,tr0,18581,483106).
route(prodloc23,prodloc0,tr13,18581,111486).
route(prodloc23,prodloc1,tr0,21100,548600).
route(prodloc23,prodloc1,tr13,21100,126600).
route(prodloc23,prodloc2,tr0,1586,41236).
route(prodloc23,prodloc2,tr13,1586,9516).
route(prodloc23,prodloc3,tr0,12682,329732).
route(prodloc23,prodloc3,tr13,12682,76092).
route(prodloc23,prodloc4,tr0,2940,76440).
route(prodloc23,prodloc4,tr13,2940,17640).
route(prodloc23,prodloc5,tr0,18350,477100).
route(prodloc23,prodloc5,tr13,18350,110100).
route(prodloc23,prodloc6,tr0,3101,80626).
route(prodloc23,prodloc6,tr13,3101,18606).
route(prodloc23,prodloc7,tr0,21020,546520).
route(prodloc23,prodloc7,tr13,21020,126120).
route(prodloc23,prodloc8,tr0,26708,694408).
route(prodloc23,prodloc8,tr13,26708,160248).
route(prodloc23,prodloc9,tr0,15695,408070).
route(prodloc23,prodloc9,tr13,15695,94170).
route(prodloc23,prodloc10,tr0,1475,38350).
route(prodloc23,prodloc10,tr13,1475,8850).
route(prodloc23,prodloc11,tr0,16991,441766).
route(prodloc23,prodloc11,tr13,16991,101946).
route(prodloc23,prodloc12,tr13,7839,47034).
route(prodloc23,prodloc12,tr15,7839,250848).
route(prodloc23,prodloc13,tr0,25474,662324).
route(prodloc23,prodloc13,tr13,25474,152844).
route(prodloc23,prodloc14,tr0,400,10400).
route(prodloc23,prodloc14,tr13,400,2400).
route(prodloc23,prodloc15,tr0,685,17810).
route(prodloc23,prodloc15,tr13,685,4110).
route(prodloc23,prodloc16,tr0,28158,732108).
route(prodloc23,prodloc16,tr13,28158,168948).
route(prodloc23,prodloc17,tr0,10225,265850).
route(prodloc23,prodloc17,tr13,10225,61350).
route(prodloc23,prodloc18,tr0,15285,397410).
route(prodloc23,prodloc18,tr13,15285,91710).
route(prodloc23,prodloc19,tr0,9113,236938).
route(prodloc23,prodloc19,tr13,9113,54678).
route(prodloc23,prodloc20,tr0,23691,615966).
route(prodloc23,prodloc20,tr13,23691,142146).
route(prodloc23,prodloc21,tr0,13619,354094).
route(prodloc23,prodloc21,tr13,13619,81714).
route(prodloc23,prodloc22,tr0,5464,142064).
route(prodloc23,prodloc22,tr13,5464,32784).
route(prodloc23,prodloc24,tr0,19497,506922).
route(prodloc23,prodloc24,tr13,19497,116982).
route(prodloc23,prodloc25,tr0,4366,113516).
route(prodloc23,prodloc25,tr13,4366,26196).
route(prodloc23,prodloc26,tr0,18406,478556).
route(prodloc23,prodloc26,tr13,18406,110436).
route(prodloc23,prodloc27,tr0,23186,602836).
route(prodloc23,prodloc27,tr13,23186,139116).
route(prodloc23,prodloc28,tr0,27092,704392).
route(prodloc23,prodloc28,tr13,27092,162552).
route(prodloc23,prodloc29,tr0,10432,271232).
route(prodloc23,prodloc29,tr13,10432,62592).
route(prodloc23,prodloc30,tr0,25252,656552).
route(prodloc23,prodloc30,tr13,25252,151512).
route(prodloc23,prodloc31,tr0,17522,455572).
route(prodloc23,prodloc31,tr13,17522,105132).
route(prodloc23,prodloc32,tr0,20858,542308).
route(prodloc23,prodloc32,tr13,20858,125148).
route(prodloc23,prodloc33,tr0,14704,382304).
route(prodloc23,prodloc33,tr13,14704,88224).
route(prodloc24,harbor0,tr0,16438,427388).
route(prodloc24,harbor0,tr13,16438,98628).
route(prodloc24,harbor1,tr0,26316,684216).
route(prodloc24,harbor1,tr13,26316,157896).
route(prodloc24,harbor2,tr0,13686,355836).
route(prodloc24,harbor2,tr13,13686,82116).
route(prodloc24,harbor3,tr0,18149,471874).
route(prodloc24,harbor3,tr13,18149,108894).
route(prodloc24,harbor4,tr0,5494,142844).
route(prodloc24,harbor4,tr13,5494,32964).
route(prodloc24,harbor5,tr0,22902,595452).
route(prodloc24,harbor5,tr13,22902,137412).
route(prodloc24,harbor6,tr0,12961,336986).
route(prodloc24,harbor6,tr13,12961,77766).
route(prodloc24,harbor7,tr0,22891,595166).
route(prodloc24,harbor7,tr13,22891,137346).
route(prodloc24,harbor8,tr0,12751,331526).
route(prodloc24,harbor8,tr13,12751,76506).
route(prodloc24,harbor9,tr0,26490,688740).
route(prodloc24,harbor9,tr13,26490,158940).
route(prodloc24,harbor10,tr0,6579,171054).
route(prodloc24,harbor10,tr13,6579,39474).
route(prodloc24,harbor11,tr0,16235,422110).
route(prodloc24,harbor11,tr13,16235,97410).
route(prodloc24,harbor12,tr0,26770,696020).
route(prodloc24,harbor12,tr13,26770,160620).
route(prodloc24,harbor13,tr0,9125,237250).
route(prodloc24,harbor13,tr13,9125,54750).
route(prodloc24,harbor14,tr0,11798,306748).
route(prodloc24,harbor14,tr13,11798,70788).
route(prodloc24,harbor15,tr0,4965,129090).
route(prodloc24,harbor15,tr13,4965,29790).
route(prodloc24,harbor16,tr0,8503,221078).
route(prodloc24,harbor16,tr13,8503,51018).
route(prodloc24,prodloc0,tr0,18577,483002).
route(prodloc24,prodloc0,tr13,18577,111462).
route(prodloc24,prodloc1,tr0,9160,238160).
route(prodloc24,prodloc1,tr15,9160,293120).
route(prodloc24,prodloc2,tr0,27685,719810).
route(prodloc24,prodloc2,tr13,27685,166110).
route(prodloc24,prodloc3,tr0,5741,149266).
route(prodloc24,prodloc3,tr13,5741,34446).
route(prodloc24,prodloc4,tr0,25579,665054).
route(prodloc24,prodloc4,tr13,25579,153474).
route(prodloc24,prodloc5,tr0,23626,614276).
route(prodloc24,prodloc5,tr13,23626,141756).
route(prodloc24,prodloc6,tr0,20385,530010).
route(prodloc24,prodloc6,tr13,20385,122310).
route(prodloc24,prodloc7,tr0,2743,71318).
route(prodloc24,prodloc7,tr13,2743,16458).
route(prodloc24,prodloc8,tr0,23956,622856).
route(prodloc24,prodloc8,tr13,23956,143736).
route(prodloc24,prodloc9,tr0,11815,307190).
route(prodloc24,prodloc9,tr13,11815,70890).
route(prodloc24,prodloc10,tr0,11015,286390).
route(prodloc24,prodloc10,tr13,11015,66090).
route(prodloc24,prodloc11,tr0,4678,121628).
route(prodloc24,prodloc11,tr13,4678,28068).
route(prodloc24,prodloc12,tr0,8471,220246).
route(prodloc24,prodloc12,tr13,8471,50826).
route(prodloc24,prodloc13,tr0,8358,217308).
route(prodloc24,prodloc13,tr13,8358,50148).
route(prodloc24,prodloc14,tr0,8268,214968).
route(prodloc24,prodloc14,tr13,8268,49608).
route(prodloc24,prodloc15,tr0,11449,297674).
route(prodloc24,prodloc15,tr13,11449,68694).
route(prodloc24,prodloc16,tr0,12593,327418).
route(prodloc24,prodloc16,tr13,12593,75558).
route(prodloc24,prodloc17,tr13,9148,54888).
route(prodloc24,prodloc17,tr15,9148,292736).
route(prodloc24,prodloc18,tr0,18531,481806).
route(prodloc24,prodloc18,tr13,18531,111186).
route(prodloc24,prodloc19,tr0,15329,398554).
route(prodloc24,prodloc19,tr13,15329,91974).
route(prodloc24,prodloc20,tr0,443,11518).
route(prodloc24,prodloc20,tr13,443,2658).
route(prodloc24,prodloc21,tr0,4885,127010).
route(prodloc24,prodloc21,tr13,4885,29310).
route(prodloc24,prodloc22,tr0,4270,111020).
route(prodloc24,prodloc22,tr13,4270,25620).
route(prodloc24,prodloc23,tr0,8283,215358).
route(prodloc24,prodloc23,tr13,8283,49698).
route(prodloc24,prodloc25,tr0,7404,192504).
route(prodloc24,prodloc25,tr13,7404,44424).
route(prodloc24,prodloc26,tr0,6441,167466).
route(prodloc24,prodloc26,tr13,6441,38646).
route(prodloc24,prodloc27,tr0,2310,60060).
route(prodloc24,prodloc27,tr13,2310,13860).
route(prodloc24,prodloc28,tr0,26272,683072).
route(prodloc24,prodloc28,tr13,26272,157632).
route(prodloc24,prodloc29,tr0,18986,493636).
route(prodloc24,prodloc29,tr13,18986,113916).
route(prodloc24,prodloc30,tr0,17616,458016).
route(prodloc24,prodloc30,tr13,17616,105696).
route(prodloc24,prodloc31,tr0,20266,526916).
route(prodloc24,prodloc31,tr13,20266,121596).
route(prodloc24,prodloc32,tr0,6503,169078).
route(prodloc24,prodloc32,tr13,6503,39018).
route(prodloc24,prodloc33,tr0,17795,462670).
route(prodloc24,prodloc33,tr13,17795,106770).
route(prodloc25,harbor0,tr0,14066,365716).
route(prodloc25,harbor0,tr13,14066,84396).
route(prodloc25,harbor1,tr0,23467,610142).
route(prodloc25,harbor1,tr13,23467,140802).
route(prodloc25,harbor2,tr0,28572,742872).
route(prodloc25,harbor2,tr13,28572,171432).
route(prodloc25,harbor3,tr0,7860,204360).
route(prodloc25,harbor3,tr13,7860,47160).
route(prodloc25,harbor4,tr0,18929,492154).
route(prodloc25,harbor4,tr13,18929,113574).
route(prodloc25,harbor5,tr0,4563,118638).
route(prodloc25,harbor5,tr13,4563,27378).
route(prodloc25,harbor6,tr0,18152,471952).
route(prodloc25,harbor6,tr13,18152,108912).
route(prodloc25,harbor7,tr0,15091,392366).
route(prodloc25,harbor7,tr13,15091,90546).
route(prodloc25,harbor8,tr0,12824,333424).
route(prodloc25,harbor8,tr13,12824,76944).
route(prodloc25,harbor9,tr0,23317,606242).
route(prodloc25,harbor9,tr13,23317,139902).
route(prodloc25,harbor10,tr0,6419,166894).
route(prodloc25,harbor10,tr13,6419,38514).
route(prodloc25,harbor11,tr0,2707,70382).
route(prodloc25,harbor11,tr13,2707,16242).
route(prodloc25,harbor12,tr0,20495,532870).
route(prodloc25,harbor12,tr13,20495,122970).
route(prodloc25,harbor13,tr0,2530,65780).
route(prodloc25,harbor13,tr13,2530,15180).
route(prodloc25,harbor14,tr0,5018,130468).
route(prodloc25,harbor14,tr13,5018,30108).
route(prodloc25,harbor15,tr0,25763,669838).
route(prodloc25,harbor15,tr13,25763,154578).
route(prodloc25,harbor16,tr0,21867,568542).
route(prodloc25,harbor16,tr13,21867,131202).
route(prodloc25,prodloc0,tr0,1886,49036).
route(prodloc25,prodloc0,tr13,1886,11316).
route(prodloc25,prodloc1,tr0,993,25818).
route(prodloc25,prodloc1,tr13,993,5958).
route(prodloc25,prodloc2,tr0,24458,635908).
route(prodloc25,prodloc2,tr13,24458,146748).
route(prodloc25,prodloc3,tr0,13285,345410).
route(prodloc25,prodloc3,tr13,13285,79710).
route(prodloc25,prodloc4,tr0,12539,326014).
route(prodloc25,prodloc4,tr13,12539,75234).
route(prodloc25,prodloc5,tr0,13674,355524).
route(prodloc25,prodloc5,tr13,13674,82044).
route(prodloc25,prodloc6,tr0,22363,581438).
route(prodloc25,prodloc6,tr13,22363,134178).
route(prodloc25,prodloc7,tr0,4506,117156).
route(prodloc25,prodloc7,tr13,4506,27036).
route(prodloc25,prodloc8,tr0,19368,503568).
route(prodloc25,prodloc8,tr13,19368,116208).
route(prodloc25,prodloc9,tr0,19561,508586).
route(prodloc25,prodloc9,tr13,19561,117366).
route(prodloc25,prodloc10,tr0,4234,110084).
route(prodloc25,prodloc10,tr13,4234,25404).
route(prodloc25,prodloc11,tr0,22044,573144).
route(prodloc25,prodloc11,tr13,22044,132264).
route(prodloc25,prodloc12,tr0,17647,458822).
route(prodloc25,prodloc12,tr13,17647,105882).
route(prodloc25,prodloc13,tr0,17904,465504).
route(prodloc25,prodloc13,tr13,17904,107424).
route(prodloc25,prodloc14,tr0,2432,63232).
route(prodloc25,prodloc14,tr13,2432,14592).
route(prodloc25,prodloc15,tr0,7906,205556).
route(prodloc25,prodloc15,tr13,7906,47436).
route(prodloc25,prodloc16,tr0,27852,724152).
route(prodloc25,prodloc16,tr13,27852,167112).
route(prodloc25,prodloc17,tr0,12508,325208).
route(prodloc25,prodloc17,tr13,12508,75048).
route(prodloc25,prodloc18,tr0,4570,118820).
route(prodloc25,prodloc18,tr13,4570,27420).
route(prodloc25,prodloc19,tr0,9362,243412).
route(prodloc25,prodloc19,tr13,9362,56172).
route(prodloc25,prodloc20,tr0,6634,172484).
route(prodloc25,prodloc20,tr13,6634,39804).
route(prodloc25,prodloc21,tr0,21686,563836).
route(prodloc25,prodloc21,tr13,21686,130116).
route(prodloc25,prodloc22,tr0,23559,612534).
route(prodloc25,prodloc22,tr13,23559,141354).
route(prodloc25,prodloc23,tr0,13016,338416).
route(prodloc25,prodloc23,tr13,13016,78096).
route(prodloc25,prodloc24,tr0,11695,304070).
route(prodloc25,prodloc24,tr13,11695,70170).
route(prodloc25,prodloc26,tr0,24547,638222).
route(prodloc25,prodloc26,tr13,24547,147282).
route(prodloc25,prodloc27,tr0,27481,714506).
route(prodloc25,prodloc27,tr13,27481,164886).
route(prodloc25,prodloc28,tr0,5844,151944).
route(prodloc25,prodloc28,tr13,5844,35064).
route(prodloc25,prodloc29,tr0,7378,191828).
route(prodloc25,prodloc29,tr13,7378,44268).
route(prodloc25,prodloc30,tr0,9761,253786).
route(prodloc25,prodloc30,tr13,9761,58566).
route(prodloc25,prodloc31,tr0,23245,604370).
route(prodloc25,prodloc31,tr13,23245,139470).
route(prodloc25,prodloc32,tr13,4714,28284).
route(prodloc25,prodloc32,tr15,4714,150848).
route(prodloc25,prodloc33,tr0,11396,296296).
route(prodloc25,prodloc33,tr13,11396,68376).
route(prodloc26,harbor0,tr0,16127,419302).
route(prodloc26,harbor0,tr13,16127,96762).
route(prodloc26,harbor1,tr0,17544,456144).
route(prodloc26,harbor1,tr13,17544,105264).
route(prodloc26,harbor2,tr0,9562,248612).
route(prodloc26,harbor2,tr13,9562,57372).
route(prodloc26,harbor3,tr0,2904,75504).
route(prodloc26,harbor3,tr13,2904,17424).
route(prodloc26,harbor4,tr0,16854,438204).
route(prodloc26,harbor4,tr13,16854,101124).
route(prodloc26,harbor5,tr0,27112,704912).
route(prodloc26,harbor5,tr13,27112,162672).
route(prodloc26,harbor6,tr0,9797,254722).
route(prodloc26,harbor6,tr13,9797,58782).
route(prodloc26,harbor7,tr0,6845,177970).
route(prodloc26,harbor7,tr13,6845,41070).
route(prodloc26,harbor8,tr0,23115,600990).
route(prodloc26,harbor8,tr13,23115,138690).
route(prodloc26,harbor9,tr0,15188,394888).
route(prodloc26,harbor9,tr13,15188,91128).
route(prodloc26,harbor10,tr0,719,18694).
route(prodloc26,harbor10,tr13,719,4314).
route(prodloc26,harbor11,tr0,9514,247364).
route(prodloc26,harbor11,tr13,9514,57084).
route(prodloc26,harbor12,tr0,26234,682084).
route(prodloc26,harbor12,tr13,26234,157404).
route(prodloc26,harbor13,tr0,26550,690300).
route(prodloc26,harbor13,tr13,26550,159300).
route(prodloc26,harbor14,tr0,20386,530036).
route(prodloc26,harbor14,tr13,20386,122316).
route(prodloc26,harbor15,tr0,19420,504920).
route(prodloc26,harbor15,tr13,19420,116520).
route(prodloc26,harbor16,tr0,3378,87828).
route(prodloc26,harbor16,tr13,3378,20268).
route(prodloc26,prodloc0,tr0,20160,524160).
route(prodloc26,prodloc0,tr13,20160,120960).
route(prodloc26,prodloc1,tr0,12212,317512).
route(prodloc26,prodloc1,tr13,12212,73272).
route(prodloc26,prodloc2,tr0,24733,643058).
route(prodloc26,prodloc2,tr13,24733,148398).
route(prodloc26,prodloc3,tr0,14537,377962).
route(prodloc26,prodloc3,tr13,14537,87222).
route(prodloc26,prodloc4,tr0,8354,217204).
route(prodloc26,prodloc4,tr13,8354,50124).
route(prodloc26,prodloc5,tr0,20264,526864).
route(prodloc26,prodloc5,tr13,20264,121584).
route(prodloc26,prodloc6,tr0,1910,49660).
route(prodloc26,prodloc6,tr13,1910,11460).
route(prodloc26,prodloc7,tr0,1708,44408).
route(prodloc26,prodloc7,tr13,1708,10248).
route(prodloc26,prodloc8,tr0,27152,705952).
route(prodloc26,prodloc8,tr13,27152,162912).
route(prodloc26,prodloc9,tr0,25602,665652).
route(prodloc26,prodloc9,tr13,25602,153612).
route(prodloc26,prodloc10,tr0,10343,268918).
route(prodloc26,prodloc10,tr13,10343,62058).
route(prodloc26,prodloc11,tr0,5241,136266).
route(prodloc26,prodloc11,tr13,5241,31446).
route(prodloc26,prodloc12,tr0,26618,692068).
route(prodloc26,prodloc12,tr13,26618,159708).
route(prodloc26,prodloc13,tr0,4339,112814).
route(prodloc26,prodloc13,tr13,4339,26034).
route(prodloc26,prodloc14,tr0,20619,536094).
route(prodloc26,prodloc14,tr13,20619,123714).
route(prodloc26,prodloc15,tr0,26933,700258).
route(prodloc26,prodloc15,tr13,26933,161598).
route(prodloc26,prodloc16,tr0,3386,88036).
route(prodloc26,prodloc16,tr13,3386,20316).
route(prodloc26,prodloc17,tr0,3688,95888).
route(prodloc26,prodloc17,tr13,3688,22128).
route(prodloc26,prodloc18,tr0,27985,727610).
route(prodloc26,prodloc18,tr13,27985,167910).
route(prodloc26,prodloc19,tr0,14265,370890).
route(prodloc26,prodloc19,tr13,14265,85590).
route(prodloc26,prodloc20,tr0,20758,539708).
route(prodloc26,prodloc20,tr13,20758,124548).
route(prodloc26,prodloc21,tr0,19220,499720).
route(prodloc26,prodloc21,tr13,19220,115320).
route(prodloc26,prodloc22,tr0,8059,209534).
route(prodloc26,prodloc22,tr13,8059,48354).
route(prodloc26,prodloc23,tr13,24403,146418).
route(prodloc26,prodloc23,tr15,24403,780896).
route(prodloc26,prodloc24,tr0,6813,177138).
route(prodloc26,prodloc24,tr13,6813,40878).
route(prodloc26,prodloc25,tr0,16524,429624).
route(prodloc26,prodloc25,tr13,16524,99144).
route(prodloc26,prodloc27,tr0,16639,432614).
route(prodloc26,prodloc27,tr13,16639,99834).
route(prodloc26,prodloc28,tr0,13005,338130).
route(prodloc26,prodloc28,tr13,13005,78030).
route(prodloc26,prodloc29,tr0,3985,103610).
route(prodloc26,prodloc29,tr13,3985,23910).
route(prodloc26,prodloc30,tr0,23197,603122).
route(prodloc26,prodloc30,tr13,23197,139182).
route(prodloc26,prodloc31,tr0,6954,180804).
route(prodloc26,prodloc31,tr13,6954,41724).
route(prodloc26,prodloc32,tr0,26848,698048).
route(prodloc26,prodloc32,tr13,26848,161088).
route(prodloc26,prodloc33,tr0,12579,327054).
route(prodloc26,prodloc33,tr13,12579,75474).
route(prodloc27,harbor0,tr0,21656,563056).
route(prodloc27,harbor0,tr13,21656,129936).
route(prodloc27,harbor1,tr0,16957,440882).
route(prodloc27,harbor1,tr13,16957,101742).
route(prodloc27,harbor2,tr0,4391,114166).
route(prodloc27,harbor2,tr13,4391,26346).
route(prodloc27,harbor3,tr0,26671,693446).
route(prodloc27,harbor3,tr13,26671,160026).
route(prodloc27,harbor4,tr0,23472,610272).
route(prodloc27,harbor4,tr13,23472,140832).
route(prodloc27,harbor5,tr0,18953,492778).
route(prodloc27,harbor5,tr13,18953,113718).
route(prodloc27,harbor6,tr0,8344,216944).
route(prodloc27,harbor6,tr13,8344,50064).
route(prodloc27,harbor7,tr0,23761,617786).
route(prodloc27,harbor7,tr13,23761,142566).
route(prodloc27,harbor8,tr0,121,3146).
route(prodloc27,harbor8,tr13,121,726).
route(prodloc27,harbor9,tr0,23519,611494).
route(prodloc27,harbor9,tr13,23519,141114).
route(prodloc27,harbor10,tr0,3963,103038).
route(prodloc27,harbor10,tr13,3963,23778).
route(prodloc27,harbor11,tr0,26498,688948).
route(prodloc27,harbor11,tr13,26498,158988).
route(prodloc27,harbor12,tr0,6606,171756).
route(prodloc27,harbor12,tr13,6606,39636).
route(prodloc27,harbor13,tr0,25015,650390).
route(prodloc27,harbor13,tr13,25015,150090).
route(prodloc27,harbor14,tr0,18440,479440).
route(prodloc27,harbor14,tr13,18440,110640).
route(prodloc27,harbor15,tr0,12389,322114).
route(prodloc27,harbor15,tr13,12389,74334).
route(prodloc27,harbor16,tr0,21728,564928).
route(prodloc27,harbor16,tr13,21728,130368).
route(prodloc27,prodloc0,tr0,15797,410722).
route(prodloc27,prodloc0,tr13,15797,94782).
route(prodloc27,prodloc1,tr0,17860,464360).
route(prodloc27,prodloc1,tr13,17860,107160).
route(prodloc27,prodloc2,tr0,20107,522782).
route(prodloc27,prodloc2,tr13,20107,120642).
route(prodloc27,prodloc3,tr0,7560,196560).
route(prodloc27,prodloc3,tr13,7560,45360).
route(prodloc27,prodloc4,tr0,8772,228072).
route(prodloc27,prodloc4,tr13,8772,52632).
route(prodloc27,prodloc5,tr0,1237,32162).
route(prodloc27,prodloc5,tr13,1237,7422).
route(prodloc27,prodloc6,tr0,20922,543972).
route(prodloc27,prodloc6,tr13,20922,125532).
route(prodloc27,prodloc7,tr0,5499,142974).
route(prodloc27,prodloc7,tr13,5499,32994).
route(prodloc27,prodloc8,tr0,22008,572208).
route(prodloc27,prodloc8,tr13,22008,132048).
route(prodloc27,prodloc9,tr0,21976,571376).
route(prodloc27,prodloc9,tr13,21976,131856).
route(prodloc27,prodloc10,tr0,18167,472342).
route(prodloc27,prodloc10,tr13,18167,109002).
route(prodloc27,prodloc11,tr0,16479,428454).
route(prodloc27,prodloc11,tr13,16479,98874).
route(prodloc27,prodloc12,tr0,7640,198640).
route(prodloc27,prodloc12,tr15,7640,244480).
route(prodloc27,prodloc13,tr0,28028,728728).
route(prodloc27,prodloc13,tr13,28028,168168).
route(prodloc27,prodloc14,tr0,13451,349726).
route(prodloc27,prodloc14,tr13,13451,80706).
route(prodloc27,prodloc15,tr0,8970,233220).
route(prodloc27,prodloc15,tr13,8970,53820).
route(prodloc27,prodloc16,tr0,25197,655122).
route(prodloc27,prodloc16,tr13,25197,151182).
route(prodloc27,prodloc17,tr0,21682,563732).
route(prodloc27,prodloc17,tr13,21682,130092).
route(prodloc27,prodloc18,tr13,13803,82818).
route(prodloc27,prodloc18,tr15,13803,441696).
route(prodloc27,prodloc19,tr0,13061,339586).
route(prodloc27,prodloc19,tr15,13061,417952).
route(prodloc27,prodloc20,tr0,8914,231764).
route(prodloc27,prodloc20,tr13,8914,53484).
route(prodloc27,prodloc21,tr0,16188,420888).
route(prodloc27,prodloc21,tr13,16188,97128).
route(prodloc27,prodloc22,tr0,3204,83304).
route(prodloc27,prodloc22,tr13,3204,19224).
route(prodloc27,prodloc23,tr0,21933,570258).
route(prodloc27,prodloc23,tr13,21933,131598).
route(prodloc27,prodloc24,tr0,27233,708058).
route(prodloc27,prodloc24,tr13,27233,163398).
route(prodloc27,prodloc25,tr0,27323,710398).
route(prodloc27,prodloc25,tr13,27323,163938).
route(prodloc27,prodloc26,tr0,4248,110448).
route(prodloc27,prodloc26,tr13,4248,25488).
route(prodloc27,prodloc28,tr13,6118,36708).
route(prodloc27,prodloc28,tr15,6118,195776).
route(prodloc27,prodloc29,tr0,18336,476736).
route(prodloc27,prodloc29,tr13,18336,110016).
route(prodloc27,prodloc30,tr0,522,13572).
route(prodloc27,prodloc30,tr13,522,3132).
route(prodloc27,prodloc31,tr0,14876,386776).
route(prodloc27,prodloc31,tr13,14876,89256).
route(prodloc27,prodloc32,tr0,24702,642252).
route(prodloc27,prodloc32,tr13,24702,148212).
route(prodloc27,prodloc33,tr0,1471,38246).
route(prodloc27,prodloc33,tr13,1471,8826).
route(prodloc28,harbor0,tr0,16007,416182).
route(prodloc28,harbor0,tr13,16007,96042).
route(prodloc28,harbor1,tr0,7025,182650).
route(prodloc28,harbor1,tr13,7025,42150).
route(prodloc28,harbor2,tr0,12910,335660).
route(prodloc28,harbor2,tr13,12910,77460).
route(prodloc28,harbor3,tr0,26966,701116).
route(prodloc28,harbor3,tr13,26966,161796).
route(prodloc28,harbor4,tr0,23926,622076).
route(prodloc28,harbor4,tr13,23926,143556).
route(prodloc28,harbor5,tr0,17652,458952).
route(prodloc28,harbor5,tr13,17652,105912).
route(prodloc28,harbor6,tr0,26948,700648).
route(prodloc28,harbor6,tr13,26948,161688).
route(prodloc28,harbor7,tr0,11020,286520).
route(prodloc28,harbor7,tr13,11020,66120).
route(prodloc28,harbor8,tr0,7980,207480).
route(prodloc28,harbor8,tr13,7980,47880).
route(prodloc28,harbor9,tr0,3083,80158).
route(prodloc28,harbor9,tr13,3083,18498).
route(prodloc28,harbor10,tr0,2528,65728).
route(prodloc28,harbor10,tr13,2528,15168).
route(prodloc28,harbor11,tr0,22222,577772).
route(prodloc28,harbor11,tr13,22222,133332).
route(prodloc28,harbor12,tr0,24450,635700).
route(prodloc28,harbor12,tr13,24450,146700).
route(prodloc28,harbor13,tr0,1399,36374).
route(prodloc28,harbor13,tr13,1399,8394).
route(prodloc28,harbor14,tr0,27736,721136).
route(prodloc28,harbor14,tr13,27736,166416).
route(prodloc28,harbor15,tr0,13851,360126).
route(prodloc28,harbor15,tr13,13851,83106).
route(prodloc28,harbor16,tr0,27322,710372).
route(prodloc28,harbor16,tr13,27322,163932).
route(prodloc28,prodloc0,tr0,14478,376428).
route(prodloc28,prodloc0,tr13,14478,86868).
route(prodloc28,prodloc1,tr0,6188,160888).
route(prodloc28,prodloc1,tr13,6188,37128).
route(prodloc28,prodloc2,tr0,5678,147628).
route(prodloc28,prodloc2,tr13,5678,34068).
route(prodloc28,prodloc3,tr0,19509,507234).
route(prodloc28,prodloc3,tr13,19509,117054).
route(prodloc28,prodloc4,tr0,16451,427726).
route(prodloc28,prodloc4,tr13,16451,98706).
route(prodloc28,prodloc5,tr0,6227,161902).
route(prodloc28,prodloc5,tr13,6227,37362).
route(prodloc28,prodloc6,tr0,27767,721942).
route(prodloc28,prodloc6,tr13,27767,166602).
route(prodloc28,prodloc7,tr0,16705,434330).
route(prodloc28,prodloc7,tr13,16705,100230).
route(prodloc28,prodloc8,tr0,12611,327886).
route(prodloc28,prodloc8,tr13,12611,75666).
route(prodloc28,prodloc9,tr0,17101,444626).
route(prodloc28,prodloc9,tr13,17101,102606).
route(prodloc28,prodloc10,tr0,11816,307216).
route(prodloc28,prodloc10,tr13,11816,70896).
route(prodloc28,prodloc11,tr0,6459,167934).
route(prodloc28,prodloc11,tr13,6459,38754).
route(prodloc28,prodloc12,tr0,7627,198302).
route(prodloc28,prodloc12,tr13,7627,45762).
route(prodloc28,prodloc13,tr0,11789,306514).
route(prodloc28,prodloc13,tr13,11789,70734).
route(prodloc28,prodloc14,tr0,21584,561184).
route(prodloc28,prodloc14,tr13,21584,129504).
route(prodloc28,prodloc15,tr0,28755,747630).
route(prodloc28,prodloc15,tr13,28755,172530).
route(prodloc28,prodloc16,tr0,19205,499330).
route(prodloc28,prodloc16,tr13,19205,115230).
route(prodloc28,prodloc17,tr0,24812,645112).
route(prodloc28,prodloc17,tr13,24812,148872).
route(prodloc28,prodloc18,tr0,25458,661908).
route(prodloc28,prodloc18,tr13,25458,152748).
route(prodloc28,prodloc19,tr0,2115,54990).
route(prodloc28,prodloc19,tr13,2115,12690).
route(prodloc28,prodloc20,tr0,11177,290602).
route(prodloc28,prodloc20,tr13,11177,67062).
route(prodloc28,prodloc21,tr0,1699,44174).
route(prodloc28,prodloc21,tr13,1699,10194).
route(prodloc28,prodloc22,tr0,15024,390624).
route(prodloc28,prodloc22,tr13,15024,90144).
route(prodloc28,prodloc23,tr0,1450,37700).
route(prodloc28,prodloc23,tr13,1450,8700).
route(prodloc28,prodloc24,tr0,27332,710632).
route(prodloc28,prodloc24,tr13,27332,163992).
route(prodloc28,prodloc25,tr0,20010,520260).
route(prodloc28,prodloc25,tr13,20010,120060).
route(prodloc28,prodloc26,tr0,5794,150644).
route(prodloc28,prodloc26,tr13,5794,34764).
route(prodloc28,prodloc27,tr0,4841,125866).
route(prodloc28,prodloc27,tr13,4841,29046).
route(prodloc28,prodloc29,tr0,27979,727454).
route(prodloc28,prodloc29,tr13,27979,167874).
route(prodloc28,prodloc30,tr0,9358,243308).
route(prodloc28,prodloc30,tr13,9358,56148).
route(prodloc28,prodloc31,tr0,15375,399750).
route(prodloc28,prodloc31,tr13,15375,92250).
route(prodloc28,prodloc32,tr0,1412,36712).
route(prodloc28,prodloc32,tr13,1412,8472).
route(prodloc28,prodloc33,tr0,19116,497016).
route(prodloc28,prodloc33,tr13,19116,114696).
route(prodloc29,harbor0,tr0,16420,426920).
route(prodloc29,harbor0,tr13,16420,98520).
route(prodloc29,harbor1,tr0,2127,55302).
route(prodloc29,harbor1,tr13,2127,12762).
route(prodloc29,harbor2,tr0,28378,737828).
route(prodloc29,harbor2,tr13,28378,170268).
route(prodloc29,harbor3,tr0,27379,711854).
route(prodloc29,harbor3,tr13,27379,164274).
route(prodloc29,harbor4,tr0,18530,481780).
route(prodloc29,harbor4,tr13,18530,111180).
route(prodloc29,harbor5,tr0,12987,337662).
route(prodloc29,harbor5,tr13,12987,77922).
route(prodloc29,harbor6,tr0,3016,78416).
route(prodloc29,harbor6,tr13,3016,18096).
route(prodloc29,harbor7,tr0,13107,340782).
route(prodloc29,harbor7,tr13,13107,78642).
route(prodloc29,harbor8,tr0,26107,678782).
route(prodloc29,harbor8,tr13,26107,156642).
route(prodloc29,harbor9,tr0,16770,436020).
route(prodloc29,harbor9,tr13,16770,100620).
route(prodloc29,harbor10,tr0,27594,717444).
route(prodloc29,harbor10,tr13,27594,165564).
route(prodloc29,harbor11,tr0,18759,487734).
route(prodloc29,harbor11,tr13,18759,112554).
route(prodloc29,harbor12,tr0,21173,550498).
route(prodloc29,harbor12,tr13,21173,127038).
route(prodloc29,harbor13,tr0,9874,256724).
route(prodloc29,harbor13,tr13,9874,59244).
route(prodloc29,harbor14,tr0,12925,336050).
route(prodloc29,harbor14,tr13,12925,77550).
route(prodloc29,harbor15,tr0,8781,228306).
route(prodloc29,harbor15,tr13,8781,52686).
route(prodloc29,harbor16,tr0,11542,300092).
route(prodloc29,harbor16,tr13,11542,69252).
route(prodloc29,prodloc0,tr0,15423,400998).
route(prodloc29,prodloc0,tr13,15423,92538).
route(prodloc29,prodloc2,tr0,18096,470496).
route(prodloc29,prodloc2,tr13,18096,108576).
route(prodloc29,prodloc3,tr0,28568,742768).
route(prodloc29,prodloc3,tr13,28568,171408).
route(prodloc29,prodloc4,tr0,15637,406562).
route(prodloc29,prodloc4,tr13,15637,93822).
route(prodloc29,prodloc5,tr0,573,14898).
route(prodloc29,prodloc5,tr13,573,3438).
route(prodloc29,prodloc6,tr0,13988,363688).
route(prodloc29,prodloc6,tr13,13988,83928).
route(prodloc29,prodloc7,tr0,9983,259558).
route(prodloc29,prodloc7,tr13,9983,59898).
route(prodloc29,prodloc8,tr0,19291,501566).
route(prodloc29,prodloc8,tr13,19291,115746).
route(prodloc29,prodloc9,tr0,24543,638118).
route(prodloc29,prodloc9,tr13,24543,147258).
route(prodloc29,prodloc10,tr0,10399,270374).
route(prodloc29,prodloc10,tr13,10399,62394).
route(prodloc29,prodloc11,tr0,26059,677534).
route(prodloc29,prodloc11,tr13,26059,156354).
route(prodloc29,prodloc12,tr0,4897,127322).
route(prodloc29,prodloc12,tr13,4897,29382).
route(prodloc29,prodloc13,tr0,19535,507910).
route(prodloc29,prodloc13,tr13,19535,117210).
route(prodloc29,prodloc14,tr0,19313,502138).
route(prodloc29,prodloc14,tr13,19313,115878).
route(prodloc29,prodloc15,tr0,18212,473512).
route(prodloc29,prodloc15,tr13,18212,109272).
route(prodloc29,prodloc16,tr0,27886,725036).
route(prodloc29,prodloc16,tr13,27886,167316).
route(prodloc29,prodloc17,tr0,9104,236704).
route(prodloc29,prodloc17,tr13,9104,54624).
route(prodloc29,prodloc18,tr0,2160,56160).
route(prodloc29,prodloc18,tr13,2160,12960).
route(prodloc29,prodloc19,tr0,28347,737022).
route(prodloc29,prodloc19,tr13,28347,170082).
route(prodloc29,prodloc20,tr0,19897,517322).
route(prodloc29,prodloc20,tr13,19897,119382).
route(prodloc29,prodloc21,tr0,25794,670644).
route(prodloc29,prodloc21,tr13,25794,154764).
route(prodloc29,prodloc22,tr0,25917,673842).
route(prodloc29,prodloc22,tr13,25917,155502).
route(prodloc29,prodloc23,tr0,25419,660894).
route(prodloc29,prodloc23,tr13,25419,152514).
route(prodloc29,prodloc24,tr0,11830,307580).
route(prodloc29,prodloc24,tr13,11830,70980).
route(prodloc29,prodloc25,tr0,13604,353704).
route(prodloc29,prodloc25,tr13,13604,81624).
route(prodloc29,prodloc26,tr0,12814,333164).
route(prodloc29,prodloc26,tr13,12814,76884).
route(prodloc29,prodloc27,tr0,17035,442910).
route(prodloc29,prodloc27,tr13,17035,102210).
route(prodloc29,prodloc28,tr0,25917,673842).
route(prodloc29,prodloc28,tr13,25917,155502).
route(prodloc29,prodloc30,tr0,776,20176).
route(prodloc29,prodloc30,tr13,776,4656).
route(prodloc29,prodloc31,tr0,18864,490464).
route(prodloc29,prodloc31,tr13,18864,113184).
route(prodloc29,prodloc32,tr0,19064,495664).
route(prodloc29,prodloc32,tr13,19064,114384).
route(prodloc29,prodloc33,tr0,3721,96746).
route(prodloc29,prodloc33,tr13,3721,22326).
route(prodloc30,harbor0,tr0,1212,31512).
route(prodloc30,harbor0,tr13,1212,7272).
route(prodloc30,harbor1,tr0,18804,488904).
route(prodloc30,harbor1,tr13,18804,112824).
route(prodloc30,harbor2,tr0,17354,451204).
route(prodloc30,harbor2,tr13,17354,104124).
route(prodloc30,harbor3,tr0,473,12298).
route(prodloc30,harbor3,tr13,473,2838).
route(prodloc30,harbor4,tr0,3309,86034).
route(prodloc30,harbor4,tr13,3309,19854).
route(prodloc30,harbor5,tr0,10882,282932).
route(prodloc30,harbor5,tr13,10882,65292).
route(prodloc30,harbor6,tr0,11034,286884).
route(prodloc30,harbor6,tr13,11034,66204).
route(prodloc30,harbor7,tr0,12071,313846).
route(prodloc30,harbor7,tr13,12071,72426).
route(prodloc30,harbor8,tr0,24587,639262).
route(prodloc30,harbor8,tr13,24587,147522).
route(prodloc30,harbor9,tr0,18053,469378).
route(prodloc30,harbor9,tr13,18053,108318).
route(prodloc30,harbor10,tr0,1131,29406).
route(prodloc30,harbor10,tr13,1131,6786).
route(prodloc30,harbor11,tr0,20890,543140).
route(prodloc30,harbor11,tr13,20890,125340).
route(prodloc30,harbor12,tr0,12131,315406).
route(prodloc30,harbor12,tr13,12131,72786).
route(prodloc30,harbor13,tr0,19096,496496).
route(prodloc30,harbor13,tr13,19096,114576).
route(prodloc30,harbor14,tr0,2432,63232).
route(prodloc30,harbor14,tr13,2432,14592).
route(prodloc30,harbor15,tr0,15892,413192).
route(prodloc30,harbor15,tr13,15892,95352).
route(prodloc30,harbor16,tr0,20788,540488).
route(prodloc30,harbor16,tr13,20788,124728).
route(prodloc30,prodloc0,tr0,2746,71396).
route(prodloc30,prodloc0,tr13,2746,16476).
route(prodloc30,prodloc1,tr0,27761,721786).
route(prodloc30,prodloc1,tr13,27761,166566).
route(prodloc30,prodloc2,tr0,17683,459758).
route(prodloc30,prodloc2,tr13,17683,106098).
route(prodloc30,prodloc3,tr0,14623,380198).
route(prodloc30,prodloc3,tr13,14623,87738).
route(prodloc30,prodloc4,tr0,10962,285012).
route(prodloc30,prodloc4,tr13,10962,65772).
route(prodloc30,prodloc5,tr0,16388,426088).
route(prodloc30,prodloc5,tr13,16388,98328).
route(prodloc30,prodloc6,tr0,26555,690430).
route(prodloc30,prodloc6,tr13,26555,159330).
route(prodloc30,prodloc7,tr0,17830,463580).
route(prodloc30,prodloc7,tr13,17830,106980).
route(prodloc30,prodloc8,tr0,113,2938).
route(prodloc30,prodloc8,tr13,113,678).
route(prodloc30,prodloc9,tr0,5268,136968).
route(prodloc30,prodloc9,tr13,5268,31608).
route(prodloc30,prodloc10,tr0,10652,276952).
route(prodloc30,prodloc10,tr13,10652,63912).
route(prodloc30,prodloc11,tr0,11826,307476).
route(prodloc30,prodloc11,tr13,11826,70956).
route(prodloc30,prodloc12,tr0,7012,182312).
route(prodloc30,prodloc12,tr13,7012,42072).
route(prodloc30,prodloc13,tr0,4790,124540).
route(prodloc30,prodloc13,tr13,4790,28740).
route(prodloc30,prodloc14,tr0,19014,494364).
route(prodloc30,prodloc14,tr13,19014,114084).
route(prodloc30,prodloc15,tr0,4858,126308).
route(prodloc30,prodloc15,tr13,4858,29148).
route(prodloc30,prodloc16,tr0,19321,502346).
route(prodloc30,prodloc16,tr13,19321,115926).
route(prodloc30,prodloc17,tr0,3537,91962).
route(prodloc30,prodloc17,tr13,3537,21222).
route(prodloc30,prodloc18,tr0,13239,344214).
route(prodloc30,prodloc18,tr13,13239,79434).
route(prodloc30,prodloc19,tr0,10396,270296).
route(prodloc30,prodloc19,tr13,10396,62376).
route(prodloc30,prodloc20,tr0,28405,738530).
route(prodloc30,prodloc20,tr13,28405,170430).
route(prodloc30,prodloc21,tr0,16669,433394).
route(prodloc30,prodloc21,tr13,16669,100014).
route(prodloc30,prodloc22,tr0,13792,358592).
route(prodloc30,prodloc22,tr13,13792,82752).
route(prodloc30,prodloc23,tr0,26920,699920).
route(prodloc30,prodloc23,tr13,26920,161520).
route(prodloc30,prodloc24,tr0,11799,306774).
route(prodloc30,prodloc24,tr13,11799,70794).
route(prodloc30,prodloc25,tr0,11189,290914).
route(prodloc30,prodloc25,tr13,11189,67134).
route(prodloc30,prodloc26,tr0,27916,725816).
route(prodloc30,prodloc26,tr13,27916,167496).
route(prodloc30,prodloc27,tr0,8514,221364).
route(prodloc30,prodloc27,tr13,8514,51084).
route(prodloc30,prodloc28,tr0,19952,518752).
route(prodloc30,prodloc28,tr13,19952,119712).
route(prodloc30,prodloc29,tr0,12076,313976).
route(prodloc30,prodloc29,tr13,12076,72456).
route(prodloc30,prodloc31,tr0,1234,32084).
route(prodloc30,prodloc31,tr13,1234,7404).
route(prodloc30,prodloc32,tr0,23298,605748).
route(prodloc30,prodloc32,tr13,23298,139788).
route(prodloc30,prodloc33,tr0,2081,54106).
route(prodloc30,prodloc33,tr13,2081,12486).
route(prodloc31,harbor0,tr0,25153,653978).
route(prodloc31,harbor0,tr13,25153,150918).
route(prodloc31,harbor1,tr0,20669,537394).
route(prodloc31,harbor1,tr13,20669,124014).
route(prodloc31,harbor2,tr0,8084,210184).
route(prodloc31,harbor2,tr13,8084,48504).
route(prodloc31,harbor3,tr0,26867,698542).
route(prodloc31,harbor3,tr13,26867,161202).
route(prodloc31,harbor4,tr0,25902,673452).
route(prodloc31,harbor4,tr13,25902,155412).
route(prodloc31,harbor5,tr0,8702,226252).
route(prodloc31,harbor5,tr13,8702,52212).
route(prodloc31,harbor6,tr0,24728,642928).
route(prodloc31,harbor6,tr13,24728,148368).
route(prodloc31,harbor7,tr0,13012,338312).
route(prodloc31,harbor7,tr13,13012,78072).
route(prodloc31,harbor8,tr0,18037,468962).
route(prodloc31,harbor8,tr13,18037,108222).
route(prodloc31,harbor9,tr0,9303,241878).
route(prodloc31,harbor9,tr13,9303,55818).
route(prodloc31,harbor10,tr0,18803,488878).
route(prodloc31,harbor10,tr13,18803,112818).
route(prodloc31,harbor11,tr0,25752,669552).
route(prodloc31,harbor11,tr13,25752,154512).
route(prodloc31,harbor12,tr0,20273,527098).
route(prodloc31,harbor12,tr13,20273,121638).
route(prodloc31,harbor13,tr0,2737,71162).
route(prodloc31,harbor13,tr13,2737,16422).
route(prodloc31,harbor14,tr0,2456,63856).
route(prodloc31,harbor14,tr13,2456,14736).
route(prodloc31,harbor15,tr0,23221,603746).
route(prodloc31,harbor15,tr13,23221,139326).
route(prodloc31,harbor16,tr0,5585,145210).
route(prodloc31,harbor16,tr13,5585,33510).
route(prodloc31,prodloc0,tr0,8760,227760).
route(prodloc31,prodloc0,tr13,8760,52560).
route(prodloc31,prodloc1,tr0,13561,352586).
route(prodloc31,prodloc1,tr13,13561,81366).
route(prodloc31,prodloc2,tr0,2731,71006).
route(prodloc31,prodloc2,tr13,2731,16386).
route(prodloc31,prodloc3,tr0,4139,107614).
route(prodloc31,prodloc3,tr13,4139,24834).
route(prodloc31,prodloc4,tr0,9256,240656).
route(prodloc31,prodloc4,tr13,9256,55536).
route(prodloc31,prodloc5,tr0,18051,469326).
route(prodloc31,prodloc5,tr13,18051,108306).
route(prodloc31,prodloc6,tr0,23796,618696).
route(prodloc31,prodloc6,tr13,23796,142776).
route(prodloc31,prodloc7,tr0,21009,546234).
route(prodloc31,prodloc7,tr13,21009,126054).
route(prodloc31,prodloc8,tr0,8613,223938).
route(prodloc31,prodloc8,tr13,8613,51678).
route(prodloc31,prodloc9,tr0,7697,200122).
route(prodloc31,prodloc9,tr13,7697,46182).
route(prodloc31,prodloc10,tr0,6902,179452).
route(prodloc31,prodloc10,tr13,6902,41412).
route(prodloc31,prodloc11,tr0,3240,84240).
route(prodloc31,prodloc11,tr13,3240,19440).
route(prodloc31,prodloc12,tr0,9082,236132).
route(prodloc31,prodloc12,tr13,9082,54492).
route(prodloc31,prodloc13,tr0,23650,614900).
route(prodloc31,prodloc13,tr13,23650,141900).
route(prodloc31,prodloc14,tr0,15744,409344).
route(prodloc31,prodloc14,tr13,15744,94464).
route(prodloc31,prodloc15,tr0,1545,40170).
route(prodloc31,prodloc15,tr13,1545,9270).
route(prodloc31,prodloc16,tr0,24170,628420).
route(prodloc31,prodloc16,tr13,24170,145020).
route(prodloc31,prodloc17,tr0,16784,436384).
route(prodloc31,prodloc17,tr13,16784,100704).
route(prodloc31,prodloc18,tr0,9875,256750).
route(prodloc31,prodloc18,tr13,9875,59250).
route(prodloc31,prodloc19,tr0,25803,670878).
route(prodloc31,prodloc19,tr13,25803,154818).
route(prodloc31,prodloc20,tr0,28625,744250).
route(prodloc31,prodloc20,tr13,28625,171750).
route(prodloc31,prodloc21,tr0,26570,690820).
route(prodloc31,prodloc21,tr13,26570,159420).
route(prodloc31,prodloc22,tr0,6683,173758).
route(prodloc31,prodloc22,tr13,6683,40098).
route(prodloc31,prodloc23,tr0,26937,700362).
route(prodloc31,prodloc23,tr13,26937,161622).
route(prodloc31,prodloc24,tr13,17816,106896).
route(prodloc31,prodloc24,tr15,17816,570112).
route(prodloc31,prodloc25,tr0,2463,64038).
route(prodloc31,prodloc25,tr13,2463,14778).
route(prodloc31,prodloc26,tr0,18047,469222).
route(prodloc31,prodloc26,tr13,18047,108282).
route(prodloc31,prodloc27,tr0,10338,268788).
route(prodloc31,prodloc27,tr13,10338,62028).
route(prodloc31,prodloc28,tr0,11132,289432).
route(prodloc31,prodloc28,tr13,11132,66792).
route(prodloc31,prodloc29,tr0,9702,252252).
route(prodloc31,prodloc29,tr13,9702,58212).
route(prodloc31,prodloc30,tr13,28162,168972).
route(prodloc31,prodloc30,tr15,28162,901184).
route(prodloc31,prodloc32,tr0,16915,439790).
route(prodloc31,prodloc32,tr13,16915,101490).
route(prodloc31,prodloc33,tr0,4368,113568).
route(prodloc31,prodloc33,tr13,4368,26208).
route(prodloc32,harbor0,tr0,1157,30082).
route(prodloc32,harbor0,tr13,1157,6942).
route(prodloc32,harbor1,tr0,14492,376792).
route(prodloc32,harbor1,tr13,14492,86952).
route(prodloc32,harbor2,tr0,26679,693654).
route(prodloc32,harbor2,tr13,26679,160074).
route(prodloc32,harbor3,tr0,11927,310102).
route(prodloc32,harbor3,tr13,11927,71562).
route(prodloc32,harbor4,tr0,26185,680810).
route(prodloc32,harbor4,tr13,26185,157110).
route(prodloc32,harbor5,tr0,24495,636870).
route(prodloc32,harbor5,tr13,24495,146970).
route(prodloc32,harbor6,tr0,1223,31798).
route(prodloc32,harbor6,tr13,1223,7338).
route(prodloc32,harbor7,tr0,942,24492).
route(prodloc32,harbor7,tr13,942,5652).
route(prodloc32,harbor8,tr0,10339,268814).
route(prodloc32,harbor8,tr13,10339,62034).
route(prodloc32,harbor9,tr0,13682,355732).
route(prodloc32,harbor9,tr13,13682,82092).
route(prodloc32,harbor10,tr0,24570,638820).
route(prodloc32,harbor10,tr13,24570,147420).
route(prodloc32,harbor11,tr0,5369,139594).
route(prodloc32,harbor11,tr13,5369,32214).
route(prodloc32,harbor12,tr0,18253,474578).
route(prodloc32,harbor12,tr13,18253,109518).
route(prodloc32,harbor13,tr0,1333,34658).
route(prodloc32,harbor13,tr13,1333,7998).
route(prodloc32,harbor14,tr0,23164,602264).
route(prodloc32,harbor14,tr13,23164,138984).
route(prodloc32,harbor15,tr0,19281,501306).
route(prodloc32,harbor15,tr13,19281,115686).
route(prodloc32,harbor16,tr0,23007,598182).
route(prodloc32,harbor16,tr13,23007,138042).
route(prodloc32,prodloc0,tr0,21747,565422).
route(prodloc32,prodloc0,tr13,21747,130482).
route(prodloc32,prodloc1,tr0,20627,536302).
route(prodloc32,prodloc1,tr13,20627,123762).
route(prodloc32,prodloc2,tr0,28605,743730).
route(prodloc32,prodloc2,tr13,28605,171630).
route(prodloc32,prodloc3,tr0,17233,448058).
route(prodloc32,prodloc3,tr13,17233,103398).
route(prodloc32,prodloc4,tr0,13914,361764).
route(prodloc32,prodloc4,tr13,13914,83484).
route(prodloc32,prodloc5,tr0,6043,157118).
route(prodloc32,prodloc5,tr13,6043,36258).
route(prodloc32,prodloc6,tr0,6471,168246).
route(prodloc32,prodloc6,tr13,6471,38826).
route(prodloc32,prodloc7,tr0,7631,198406).
route(prodloc32,prodloc7,tr13,7631,45786).
route(prodloc32,prodloc8,tr0,3762,97812).
route(prodloc32,prodloc8,tr13,3762,22572).
route(prodloc32,prodloc9,tr0,19251,500526).
route(prodloc32,prodloc9,tr13,19251,115506).
route(prodloc32,prodloc10,tr13,4263,25578).
route(prodloc32,prodloc10,tr15,4263,136416).
route(prodloc32,prodloc11,tr0,19227,499902).
route(prodloc32,prodloc11,tr13,19227,115362).
route(prodloc32,prodloc12,tr0,16590,431340).
route(prodloc32,prodloc12,tr13,16590,99540).
route(prodloc32,prodloc13,tr0,4014,104364).
route(prodloc32,prodloc13,tr13,4014,24084).
route(prodloc32,prodloc14,tr0,23645,614770).
route(prodloc32,prodloc14,tr13,23645,141870).
route(prodloc32,prodloc15,tr0,8737,227162).
route(prodloc32,prodloc15,tr13,8737,52422).
route(prodloc32,prodloc16,tr0,15020,390520).
route(prodloc32,prodloc16,tr13,15020,90120).
route(prodloc32,prodloc17,tr0,6434,167284).
route(prodloc32,prodloc17,tr13,6434,38604).
route(prodloc32,prodloc18,tr0,25607,665782).
route(prodloc32,prodloc18,tr13,25607,153642).
route(prodloc32,prodloc19,tr0,1813,47138).
route(prodloc32,prodloc19,tr13,1813,10878).
route(prodloc32,prodloc20,tr0,11841,307866).
route(prodloc32,prodloc20,tr13,11841,71046).
route(prodloc32,prodloc21,tr0,14948,388648).
route(prodloc32,prodloc21,tr13,14948,89688).
route(prodloc32,prodloc22,tr0,10976,285376).
route(prodloc32,prodloc22,tr13,10976,65856).
route(prodloc32,prodloc23,tr0,20137,523562).
route(prodloc32,prodloc23,tr13,20137,120822).
route(prodloc32,prodloc24,tr0,23700,616200).
route(prodloc32,prodloc24,tr13,23700,142200).
route(prodloc32,prodloc25,tr0,11624,302224).
route(prodloc32,prodloc25,tr13,11624,69744).
route(prodloc32,prodloc26,tr0,7203,187278).
route(prodloc32,prodloc26,tr13,7203,43218).
route(prodloc32,prodloc27,tr0,20822,541372).
route(prodloc32,prodloc27,tr13,20822,124932).
route(prodloc32,prodloc28,tr0,308,8008).
route(prodloc32,prodloc28,tr13,308,1848).
route(prodloc32,prodloc29,tr0,459,11934).
route(prodloc32,prodloc29,tr13,459,2754).
route(prodloc32,prodloc30,tr0,16017,416442).
route(prodloc32,prodloc30,tr13,16017,96102).
route(prodloc32,prodloc31,tr0,1059,27534).
route(prodloc32,prodloc31,tr13,1059,6354).
route(prodloc32,prodloc33,tr0,5388,140088).
route(prodloc32,prodloc33,tr13,5388,32328).
route(prodloc33,harbor0,tr0,8302,215852).
route(prodloc33,harbor0,tr13,8302,49812).
route(prodloc33,harbor1,tr0,18088,470288).
route(prodloc33,harbor1,tr13,18088,108528).
route(prodloc33,harbor2,tr0,1308,34008).
route(prodloc33,harbor2,tr13,1308,7848).
route(prodloc33,harbor3,tr0,302,7852).
route(prodloc33,harbor3,tr13,302,1812).
route(prodloc33,harbor4,tr0,7541,196066).
route(prodloc33,harbor4,tr13,7541,45246).
route(prodloc33,harbor5,tr0,25060,651560).
route(prodloc33,harbor5,tr13,25060,150360).
route(prodloc33,harbor6,tr0,2775,72150).
route(prodloc33,harbor6,tr13,2775,16650).
route(prodloc33,harbor7,tr0,17182,446732).
route(prodloc33,harbor7,tr13,17182,103092).
route(prodloc33,harbor8,tr0,26776,696176).
route(prodloc33,harbor8,tr13,26776,160656).
route(prodloc33,harbor9,tr0,5681,147706).
route(prodloc33,harbor9,tr13,5681,34086).
route(prodloc33,harbor10,tr0,1152,29952).
route(prodloc33,harbor10,tr13,1152,6912).
route(prodloc33,harbor11,tr0,17308,450008).
route(prodloc33,harbor11,tr13,17308,103848).
route(prodloc33,harbor12,tr0,6563,170638).
route(prodloc33,harbor12,tr13,6563,39378).
route(prodloc33,harbor13,tr0,6864,178464).
route(prodloc33,harbor13,tr13,6864,41184).
route(prodloc33,harbor14,tr0,14517,377442).
route(prodloc33,harbor14,tr13,14517,87102).
route(prodloc33,harbor15,tr0,9464,246064).
route(prodloc33,harbor15,tr13,9464,56784).
route(prodloc33,harbor16,tr0,7965,207090).
route(prodloc33,harbor16,tr13,7965,47790).
route(prodloc33,prodloc0,tr0,16074,417924).
route(prodloc33,prodloc0,tr13,16074,96444).
route(prodloc33,prodloc1,tr0,16579,431054).
route(prodloc33,prodloc1,tr13,16579,99474).
route(prodloc33,prodloc2,tr0,12171,316446).
route(prodloc33,prodloc2,tr13,12171,73026).
route(prodloc33,prodloc3,tr0,10648,276848).
route(prodloc33,prodloc3,tr13,10648,63888).
route(prodloc33,prodloc4,tr0,12846,333996).
route(prodloc33,prodloc4,tr13,12846,77076).
route(prodloc33,prodloc5,tr0,21413,556738).
route(prodloc33,prodloc5,tr13,21413,128478).
route(prodloc33,prodloc6,tr0,2409,62634).
route(prodloc33,prodloc6,tr13,2409,14454).
route(prodloc33,prodloc7,tr0,6399,166374).
route(prodloc33,prodloc7,tr13,6399,38394).
route(prodloc33,prodloc8,tr0,19476,506376).
route(prodloc33,prodloc8,tr13,19476,116856).
route(prodloc33,prodloc9,tr0,5949,154674).
route(prodloc33,prodloc9,tr13,5949,35694).
route(prodloc33,prodloc10,tr0,6146,159796).
route(prodloc33,prodloc10,tr13,6146,36876).
route(prodloc33,prodloc11,tr0,22428,583128).
route(prodloc33,prodloc11,tr13,22428,134568).
route(prodloc33,prodloc12,tr0,20418,530868).
route(prodloc33,prodloc12,tr13,20418,122508).
route(prodloc33,prodloc13,tr0,9732,253032).
route(prodloc33,prodloc13,tr13,9732,58392).
route(prodloc33,prodloc14,tr0,19048,495248).
route(prodloc33,prodloc14,tr13,19048,114288).
route(prodloc33,prodloc15,tr0,13969,363194).
route(prodloc33,prodloc15,tr13,13969,83814).
route(prodloc33,prodloc16,tr0,20110,522860).
route(prodloc33,prodloc16,tr13,20110,120660).
route(prodloc33,prodloc17,tr0,15534,403884).
route(prodloc33,prodloc17,tr13,15534,93204).
route(prodloc33,prodloc18,tr0,11912,309712).
route(prodloc33,prodloc18,tr13,11912,71472).
route(prodloc33,prodloc19,tr0,761,19786).
route(prodloc33,prodloc19,tr13,761,4566).
route(prodloc33,prodloc20,tr0,15971,415246).
route(prodloc33,prodloc20,tr13,15971,95826).
route(prodloc33,prodloc21,tr0,678,17628).
route(prodloc33,prodloc21,tr13,678,4068).
route(prodloc33,prodloc22,tr0,3435,89310).
route(prodloc33,prodloc22,tr13,3435,20610).
route(prodloc33,prodloc23,tr0,21601,561626).
route(prodloc33,prodloc23,tr13,21601,129606).
route(prodloc33,prodloc24,tr0,20502,533052).
route(prodloc33,prodloc24,tr13,20502,123012).
route(prodloc33,prodloc25,tr0,18940,492440).
route(prodloc33,prodloc25,tr13,18940,113640).
route(prodloc33,prodloc26,tr0,21777,566202).
route(prodloc33,prodloc26,tr13,21777,130662).
route(prodloc33,prodloc27,tr0,20310,528060).
route(prodloc33,prodloc27,tr13,20310,121860).
route(prodloc33,prodloc28,tr0,27721,720746).
route(prodloc33,prodloc28,tr15,27721,887072).
route(prodloc33,prodloc29,tr0,14173,368498).
route(prodloc33,prodloc29,tr13,14173,85038).
route(prodloc33,prodloc30,tr0,27111,704886).
route(prodloc33,prodloc30,tr13,27111,162666).
route(prodloc33,prodloc32,tr0,19079,496054).
route(prodloc33,prodloc32,tr13,19079,114474).
hub(harbor15).
hub(harbor16).
hub(prodloc10).
hub(prodloc12).
hub(prodloc13).
hub(prodloc17).
hub(prodloc21).
hub(prodloc28).
hub(prodloc29).
hub(prodloc31).
