% Multibatching benchmark instance
% Source: instances.lp
% seed=7  harbors=17  prodlocs=34  hubs=10  disruptions=2

% ---- locations ----
location(harbor0).
location(harbor1).
location(harbor2).
location(harbor3).
location(harbor4).
location(harbor5).
location(harbor6).
location(harbor7).
location(harbor8).
location(harbor9).
location(harbor10).
location(harbor11).
location(harbor12).
location(harbor13).
location(harbor14).
location(harbor15).
location(harbor16).
location(prodloc0).
location(prodloc1).
location(prodloc2).
location(prodloc3).
location(prodloc4).
location(prodloc5).
location(prodloc6).
location(prodloc7).
location(prodloc8).
location(prodloc9).
location(prodloc10).
location(prodloc11).
location(prodloc12).
location(prodloc13).
location(prodloc14).
location(prodloc15).
location(prodloc16).
location(prodloc17).
location(prodloc18).
location(prodloc19).
location(prodloc20).
location(prodloc21).
location(prodloc22).
location(prodloc23).
location(prodloc24).
location(prodloc25).
location(prodloc26).
location(prodloc27).
location(prodloc28).
location(prodloc29).
location(prodloc30).
location(prodloc31).
location(prodloc32).
location(prodloc33).

% ---- transport resources ----
transportCapacity(tr0,1800).
transportCO2(tr0,1680).
transportCost(tr0,26).
transportSpeed(tr0,12).
transportCapacity(tr1,65).
transportCO2(tr1,90).
transportCost(tr1,1).
transportSpeed(tr1,35).
transportCapacity(tr10,1).
transportCO2(tr10,700).
transportCost(tr10,4).
transportSpeed(tr10,40).
transportCapacity(tr11,65).
transportCO2(tr11,62).
transportCost(tr11,1).
transportSpeed(tr11,25).
transportCapacity(tr12,65).
transportCO2(tr12,709).
transportCost(tr12,3).
transportSpeed(tr12,55).
transportCapacity(tr13,68).
transportCO2(tr13,160).
transportCost(tr13,6).
transportSpeed(tr13,25).
transportCapacity(tr14,146).
transportCO2(tr14,780).
transportCost(tr14,4).
transportSpeed(tr14,50).
transportCapacity(tr15,2217).
transportCO2(tr15,49470).
transportCost(tr15,32).
transportSpeed(tr15,625).
transportCapacity(tr2,96).
transportCO2(tr2,709).
transportCost(tr2,3).
transportSpeed(tr2,55).
transportCapacity(tr3,1).
transportCO2(tr3,6250).
transportCost(tr3,108).
transportSpeed(tr3,25).
transportCapacity(tr4,148).
transportCO2(tr4,780).
transportCost(tr4,4).
transportSpeed(tr4,50).
transportCapacity(tr5,65).
transportCO2(tr5,780).
transportCost(tr5,3).
transportSpeed(tr5,50).
transportCapacity(tr6,1).
transportCO2(tr6,100).
transportCost(tr6,40).
transportSpeed(tr6,25).
transportCapacity(tr7,1).
transportCO2(tr7,18000).
transportCost(tr7,278).
transportSpeed(tr7,10).
transportCapacity(tr8,1).
transportCO2(tr8,14400).
transportCost(tr8,107).
transportSpeed(tr8,25).
transportCapacity(tr9,65).
transportCO2(tr9,708).
transportCost(tr9,2).
transportSpeed(tr9,60).

% ---- parts ----
part(part0).
partSize(part0,21).
valid_transport(part0,tr0).
valid_transport(part0,tr15).
valid_transport(part0,tr14).
valid_transport(part0,tr13).
valid_transport(part0,tr4).
part(part1).
partSize(part1,1).
valid_transport(part1,tr0).
valid_transport(part1,tr2).
valid_transport(part1,tr15).
valid_transport(part1,tr9).
valid_transport(part1,tr12).
valid_transport(part1,tr13).
valid_transport(part1,tr11).
part(part10).
partSize(part10,1).
valid_transport(part10,tr0).
valid_transport(part10,tr2).
valid_transport(part10,tr15).
valid_transport(part10,tr9).
valid_transport(part10,tr12).
valid_transport(part10,tr13).
valid_transport(part10,tr11).
part(part11).
partSize(part11,83).
valid_transport(part11,tr0).
valid_transport(part11,tr7).
valid_transport(part11,tr8).
valid_transport(part11,tr15).
valid_transport(part11,tr3).
valid_transport(part11,tr13).
part(part12).
partSize(part12,273).
valid_transport(part12,tr0).
valid_transport(part12,tr7).
valid_transport(part12,tr8).
valid_transport(part12,tr15).
valid_transport(part12,tr3).
valid_transport(part12,tr13).
part(part13).
partSize(part13,1).
valid_transport(part13,tr0).
valid_transport(part13,tr2).
valid_transport(part13,tr15).
valid_transport(part13,tr9).
valid_transport(part13,tr12).
valid_transport(part13,tr13).
valid_transport(part13,tr11).
part(part14).
partSize(part14,68).
valid_transport(part14,tr0).
valid_transport(part14,tr15).
valid_transport(part14,tr13).
part(part15).
partSize(part15,4).
valid_transport(part15,tr0).
valid_transport(part15,tr2).
valid_transport(part15,tr15).
valid_transport(part15,tr9).
valid_transport(part15,tr12).
valid_transport(part15,tr13).
valid_transport(part15,tr11).
part(part16).
partSize(part16,4).
valid_transport(part16,tr0).
valid_transport(part16,tr2).
valid_transport(part16,tr15).
valid_transport(part16,tr9).
valid_transport(part16,tr12).
valid_transport(part16,tr13).
valid_transport(part16,tr11).
part(part17).
partSize(part17,8).
valid_transport(part17,tr0).
valid_transport(part17,tr15).
valid_transport(part17,tr14).
valid_transport(part17,tr13).
valid_transport(part17,tr4).
part(part18).
partSize(part18,24).
valid_transport(part18,tr0).
valid_transport(part18,tr15).
valid_transport(part18,tr14).
valid_transport(part18,tr13).
valid_transport(part18,tr4).
part(part19).
partSize(part19,6).
valid_transport(part19,tr0).
valid_transport(part19,tr2).
valid_transport(part19,tr15).
valid_transport(part19,tr9).
valid_transport(part19,tr12).
valid_transport(part19,tr13).
valid_transport(part19,tr11).
part(part2).
partSize(part2,19).
valid_transport(part2,tr0).
valid_transport(part2,tr15).
valid_transport(part2,tr14).
valid_transport(part2,tr13).
valid_transport(part2,tr4).
part(part20).
partSize(part20,128).
valid_transport(part20,tr0).
valid_transport(part20,tr7).
valid_transport(part20,tr8).
valid_transport(part20,tr15).
valid_transport(part20,tr3).
valid_transport(part20,tr13).
part(part21).
partSize(part21,25).
valid_transport(part21,tr0).
valid_transport(part21,tr15).
valid_transport(part21,tr14).
valid_transport(part21,tr13).
valid_transport(part21,tr4).
part(part22).
partSize(part22,7).
valid_transport(part22,tr0).
valid_transport(part22,tr2).
valid_transport(part22,tr15).
valid_transport(part22,tr9).
valid_transport(part22,tr12).
valid_transport(part22,tr13).
valid_transport(part22,tr11).
part(part23).
partSize(part23,5).
valid_transport(part23,tr0).
valid_transport(part23,tr15).
valid_transport(part23,tr14).
valid_transport(part23,tr13).
valid_transport(part23,tr4).
part(part24).
partSize(part24,55).
valid_transport(part24,tr0).
valid_transport(part24,tr7).
valid_transport(part24,tr8).
valid_transport(part24,tr15).
valid_transport(part24,tr3).
valid_transport(part24,tr13).
part(part25).
partSize(part25,5).
valid_transport(part25,tr0).
valid_transport(part25,tr4).
valid_transport(part25,tr2).
valid_transport(part25,tr15).
valid_transport(part25,tr13).
part(part26).
partSize(part26,32).
valid_transport(part26,tr0).
valid_transport(part26,tr7).
valid_transport(part26,tr8).
valid_transport(part26,tr15).
valid_transport(part26,tr3).
valid_transport(part26,tr13).
part(part27).
partSize(part27,5).
valid_transport(part27,tr0).
valid_transport(part27,tr2).
valid_transport(part27,tr15).
valid_transport(part27,tr9).
valid_transport(part27,tr12).
valid_transport(part27,tr13).
valid_transport(part27,tr11).
part(part28).
partSize(part28,3).
valid_transport(part28,tr0).
valid_transport(part28,tr4).
valid_transport(part28,tr2).
valid_transport(part28,tr15).
valid_transport(part28,tr14).
valid_transport(part28,tr13).
part(part29).
partSize(part29,627).
part(part3).
partSize(part3,48).
valid_transport(part3,tr0).
valid_transport(part3,tr7).
valid_transport(part3,tr8).
valid_transport(part3,tr15).
valid_transport(part3,tr3).
valid_transport(part3,tr13).
part(part30).
partSize(part30,2).
valid_transport(part30,tr0).
valid_transport(part30,tr2).
valid_transport(part30,tr15).
valid_transport(part30,tr9).
valid_transport(part30,tr12).
valid_transport(part30,tr13).
valid_transport(part30,tr11).
part(part31).
partSize(part31,144).
valid_transport(part31,tr0).
valid_transport(part31,tr7).
valid_transport(part31,tr8).
valid_transport(part31,tr15).
valid_transport(part31,tr3).
valid_transport(part31,tr13).
part(part32).
partSize(part32,16).
valid_transport(part32,tr0).
valid_transport(part32,tr4).
valid_transport(part32,tr2).
valid_transport(part32,tr15).
valid_transport(part32,tr14).
valid_transport(part32,tr13).
part(part33).
partSize(part33,7).
valid_transport(part33,tr0).
valid_transport(part33,tr2).
valid_transport(part33,tr15).
valid_transport(part33,tr9).
valid_transport(part33,tr12).
valid_transport(part33,tr13).
valid_transport(part33,tr11).
part(part3345).
partSize(part3345,353).
valid_transport(part3345,tr0).
valid_transport(part3345,tr7).
valid_transport(part3345,tr8).
valid_transport(part3345,tr15).
valid_transport(part3345,tr3).
valid_transport(part3345,tr13).
part(part34).
partSize(part34,2).
valid_transport(part34,tr0).
valid_transport(part34,tr2).
valid_transport(part34,tr15).
valid_transport(part34,tr9).
valid_transport(part34,tr12).
valid_transport(part34,tr13).
valid_transport(part34,tr11).
part(part4).
partSize(part4,2).
valid_transport(part4,tr0).
valid_transport(part4,tr2).
valid_transport(part4,tr15).
valid_transport(part4,tr9).
valid_transport(part4,tr12).
valid_transport(part4,tr13).
valid_transport(part4,tr11).
part(part5).
partSize(part5,2).
valid_transport(part5,tr0).
valid_transport(part5,tr2).
valid_transport(part5,tr15).
valid_transport(part5,tr9).
valid_transport(part5,tr12).
valid_transport(part5,tr14).
valid_transport(part5,tr13).
valid_transport(part5,tr11).
part(part6).
partSize(part6,111).
valid_transport(part6,tr0).
valid_transport(part6,tr7).
valid_transport(part6,tr8).
valid_transport(part6,tr15).
valid_transport(part6,tr3).
valid_transport(part6,tr13).
part(part8).
partSize(part8,163).
valid_transport(part8,tr0).
valid_transport(part8,tr7).
valid_transport(part8,tr8).
valid_transport(part8,tr15).
valid_transport(part8,tr3).
valid_transport(part8,tr13).
part(part9).
partSize(part9,2).
valid_transport(part9,tr0).
valid_transport(part9,tr2).
valid_transport(part9,tr15).
valid_transport(part9,tr9).
valid_transport(part9,tr12).
valid_transport(part9,tr13).
valid_transport(part9,tr11).

% ---- demand ----
demandOffer(part0,prodloc20,40).
demandOffer(part0,prodloc9,40).
demandOffer(part0,prodloc25,-27).
demandOffer(part0,prodloc3,-53).
demandOffer(part1,prodloc4,20).
demandOffer(part1,prodloc6,20).
demandOffer(part1,prodloc23,-20).
demandOffer(part1,prodloc3,-20).
demandOffer(part10,prodloc32,20).
demandOffer(part10,prodloc13,20).
demandOffer(part10,prodloc2,-20).
demandOffer(part10,prodloc5,-20).
demandOffer(part12,prodloc27,10).
demandOffer(part12,prodloc26,20).
demandOffer(part12,prodloc4,-10).
demandOffer(part12,prodloc15,-10).
demandOffer(part12,prodloc5,-10).
demandOffer(part13,prodloc27,20).
demandOffer(part13,prodloc3,20).
demandOffer(part13,prodloc7,-20).
demandOffer(part13,prodloc14,-20).
demandOffer(part14,prodloc3,26).
demandOffer(part14,prodloc25,-26).
demandOffer(part15,prodloc3,53).
demandOffer(part15,prodloc14,27).
demandOffer(part15,prodloc2,-53).
demandOffer(part15,prodloc8,-27).
demandOffer(part16,prodloc18,53).
demandOffer(part16,prodloc26,27).
demandOffer(part16,prodloc9,-53).
demandOffer(part16,prodloc7,-27).
demandOffer(part17,prodloc19,20).
demandOffer(part17,prodloc11,-20).
demandOffer(part18,prodloc6,40).
demandOffer(part18,prodloc12,40).
demandOffer(part18,prodloc23,-27).
demandOffer(part18,prodloc4,-53).
demandOffer(part19,prodloc3,26).
demandOffer(part19,prodloc13,-26).
demandOffer(part2,prodloc31,40).
demandOffer(part2,prodloc27,40).
demandOffer(part2,prodloc20,-27).
demandOffer(part2,prodloc29,-53).
demandOffer(part20,prodloc29,53).
demandOffer(part20,prodloc23,27).
demandOffer(part20,prodloc19,-14).
demandOffer(part20,prodloc15,-46).
demandOffer(part20,prodloc11,-20).
demandOffer(part21,prodloc15,26).
demandOffer(part21,prodloc5,-26).
demandOffer(part22,prodloc19,53).
demandOffer(part22,prodloc33,27).
demandOffer(part22,prodloc31,-53).
demandOffer(part22,prodloc21,-27).
demandOffer(part23,prodloc28,20).
demandOffer(part23,prodloc18,20).
demandOffer(part23,prodloc4,-20).
demandOffer(part23,prodloc7,-20).
demandOffer(part25,prodloc32,20).
demandOffer(part25,prodloc26,-20).
demandOffer(part26,prodloc10,20).
demandOffer(part26,prodloc21,20).
demandOffer(part26,prodloc9,-14).
demandOffer(part26,prodloc31,-26).
demandOffer(part27,prodloc26,53).
demandOffer(part27,prodloc2,27).
demandOffer(part27,prodloc4,-53).
demandOffer(part27,prodloc20,-27).
demandOffer(part28,prodloc21,20).
demandOffer(part28,prodloc22,20).
demandOffer(part28,prodloc31,-20).
demandOffer(part28,prodloc29,-20).
demandOffer(part3,prodloc4,40).
demandOffer(part3,prodloc5,-14).
demandOffer(part3,prodloc17,-26).
demandOffer(part30,prodloc30,40).
demandOffer(part30,prodloc4,40).
demandOffer(part30,prodloc3,-27).
demandOffer(part30,prodloc19,-53).
demandOffer(part31,prodloc28,7).
demandOffer(part31,prodloc18,7).
demandOffer(part31,prodloc24,-14).
demandOffer(part32,prodloc22,53).
demandOffer(part32,prodloc1,27).
demandOffer(part32,prodloc29,-53).
demandOffer(part32,prodloc10,-27).
demandOffer(part33,prodloc7,53).
demandOffer(part33,prodloc31,27).
demandOffer(part33,prodloc3,-53).
demandOffer(part33,prodloc13,-27).
demandOffer(part34,prodloc18,20).
demandOffer(part34,prodloc8,-20).
demandOffer(part4,prodloc15,26).
demandOffer(part4,prodloc25,-26).
demandOffer(part5,prodloc25,20).
demandOffer(part5,prodloc31,-20).
demandOffer(part6,prodloc5,27).
demandOffer(part6,prodloc10,53).
demandOffer(part6,prodloc28,-24).
demandOffer(part6,prodloc12,-36).
demandOffer(part6,prodloc17,-10).
demandOffer(part6,prodloc8,-10).
demandOffer(part8,prodloc8,3).
demandOffer(part8,prodloc27,17).
demandOffer(part8,prodloc17,-10).
demandOffer(part8,prodloc26,-10).
demandOffer(part9,prodloc22,20).
demandOffer(part9,prodloc24,-20).

% ---- network (ASP-generated) ----
route(harbor0,harbor1,tr13,7591,45546).
route(harbor0,harbor1,tr2,7591,22773).
route(harbor0,harbor2,tr13,4975,29850).
route(harbor0,harbor2,tr2,4975,14925).
route(harbor0,harbor3,tr13,2749,16494).
route(harbor0,harbor3,tr2,2749,8247).
route(harbor0,harbor4,tr13,5804,34824).
route(harbor0,harbor4,tr2,5804,17412).
route(harbor0,harbor5,tr13,4987,29922).
route(harbor0,harbor5,tr2,4987,14961).
route(harbor0,harbor6,tr13,7630,45780).
route(harbor0,harbor6,tr2,7630,22890).
route(harbor0,harbor7,tr13,21608,129648).
route(harbor0,harbor7,tr2,21608,64824).
route(harbor0,harbor8,tr13,7675,46050).
route(harbor0,harbor8,tr2,7675,23025).
route(harbor0,harbor9,tr13,425,2550).
route(harbor0,harbor9,tr2,425,1275).
route(harbor0,harbor10,tr13,15921,95526).
route(harbor0,harbor10,tr2,15921,47763).
route(harbor0,harbor11,tr13,27263,163578).
route(harbor0,harbor11,tr2,27263,81789).
route(harbor0,harbor12,tr13,19334,116004).
route(harbor0,harbor12,tr2,19334,58002).
route(harbor0,harbor13,tr13,6005,36030).
route(harbor0,harbor13,tr2,6005,18015).
route(harbor0,harbor14,tr13,8639,51834).
route(harbor0,harbor14,tr2,8639,25917).
route(harbor0,harbor15,tr13,9268,55608).
route(harbor0,harbor15,tr2,9268,27804).
route(harbor0,harbor16,tr13,164,984).
route(harbor0,harbor16,tr2,164,492).
route(harbor0,prodloc0,tr0,4775,124150).
route(harbor0,prodloc0,tr13,4775,28650).
route(harbor0,prodloc1,tr0,13730,356980).
route(harbor0,prodloc1,tr13,13730,82380).
route(harbor0,prodloc2,tr0,17519,455494).
route(harbor0,prodloc2,tr13,17519,105114).
route(harbor0,prodloc3,tr0,12101,314626).
route(harbor0,prodloc3,tr13,12101,72606).
route(harbor0,prodloc4,tr0,19984,519584).
route(harbor0,prodloc4,tr13,19984,119904).
route(harbor0,prodloc5,tr0,18559,482534).
route(harbor0,prodloc5,tr13,18559,111354).
route(harbor0,prodloc6,tr0,10442,271492).
route(harbor0,prodloc6,tr13,10442,62652).
route(harbor0,prodloc7,tr0,4114,106964).
route(harbor0,prodloc7,tr13,4114,24684).
route(harbor0,prodloc8,tr0,22628,588328).
route(harbor0,prodloc8,tr13,22628,135768).
route(harbor0,prodloc9,tr0,28156,732056).
route(harbor0,prodloc9,tr13,28156,168936).
route(harbor0,prodloc10,tr0,16893,439218).
route(harbor0,prodloc10,tr13,16893,101358).
route(harbor0,prodloc11,tr0,20239,526214).
route(harbor0,prodloc11,tr13,20239,121434).
route(harbor0,prodloc12,tr0,21463,558038).
route(harbor0,prodloc12,tr13,21463,128778).
route(harbor0,prodloc13,tr0,22159,576134).
route(harbor0,prodloc13,tr13,22159,132954).
route(harbor0,prodloc14,tr0,24243,630318).
route(harbor0,prodloc14,tr13,24243,145458).
route(harbor0,prodloc15,tr0,1771,46046).
route(harbor0,prodloc15,tr13,1771,10626).
route(harbor0,prodloc16,tr0,14965,389090).
route(harbor0,prodloc16,tr13,14965,89790).
route(harbor0,prodloc17,tr0,28542,742092).
route(harbor0,prodloc17,tr13,28542,171252).
route(harbor0,prodloc18,tr0,25560,664560).
route(harbor0,prodloc18,tr13,25560,153360).
route(harbor0,prodloc19,tr0,28658,745108).
route(harbor0,prodloc19,tr13,28658,171948).
route(harbor0,prodloc20,tr0,22303,579878).
route(harbor0,prodloc20,tr13,22303,133818).
route(harbor0,prodloc21,tr0,26146,679796).
route(harbor0,prodloc21,tr13,26146,156876).
route(harbor0,prodloc22,tr0,18328,476528).
route(harbor0,prodloc22,tr13,18328,109968).
route(harbor0,prodloc23,tr0,12859,334334).
route(harbor0,prodloc23,tr13,12859,77154).
route(harbor0,prodloc24,tr0,13045,339170).
route(harbor0,prodloc24,tr13,13045,78270).
route(harbor0,prodloc25,tr0,13075,339950).
route(harbor0,prodloc25,tr13,13075,78450).
route(harbor0,prodloc26,tr0,12916,335816).
route(harbor0,prodloc26,tr13,12916,77496).
route(harbor0,prodloc27,tr0,3394,88244).
route(harbor0,prodloc27,tr13,3394,20364).
route(harbor0,prodloc28,tr0,15780,410280).
route(harbor0,prodloc28,tr13,15780,94680).
route(harbor0,prodloc29,tr0,20786,540436).
route(harbor0,prodloc29,tr13,20786,124716).
route(harbor0,prodloc30,tr0,13123,341198).
route(harbor0,prodloc30,tr13,13123,78738).
route(harbor0,prodloc31,tr0,2041,53066).
route(harbor0,prodloc31,tr13,2041,12246).
route(harbor0,prodloc32,tr0,6247,162422).
route(harbor0,prodloc32,tr13,6247,37482).
route(harbor0,prodloc33,tr0,2208,57408).
route(harbor0,prodloc33,tr13,2208,13248).
route(harbor1,harbor0,tr13,6870,41220).
route(harbor1,harbor0,tr2,6870,20610).
route(harbor1,harbor2,tr13,14468,86808).
route(harbor1,harbor2,tr2,14468,43404).
route(harbor1,harbor3,tr13,5348,32088).
route(harbor1,harbor3,tr2,5348,16044).
route(harbor1,harbor4,tr13,3632,21792).
route(harbor1,harbor4,tr2,3632,10896).
route(harbor1,harbor5,tr13,11172,67032).
route(harbor1,harbor5,tr2,11172,33516).
route(harbor1,harbor6,tr13,19714,118284).
route(harbor1,harbor6,tr2,19714,59142).
route(harbor1,harbor7,tr13,1752,10512).
route(harbor1,harbor7,tr2,1752,5256).
route(harbor1,harbor8,tr13,3384,20304).
route(harbor1,harbor8,tr2,3384,10152).
route(harbor1,harbor9,tr13,37,222).
route(harbor1,harbor9,tr2,37,111).
route(harbor1,harbor10,tr13,18602,111612).
route(harbor1,harbor10,tr2,18602,55806).
route(harbor1,harbor11,tr13,4986,29916).
route(harbor1,harbor11,tr2,4986,14958).
route(harbor1,harbor12,tr13,17613,105678).
route(harbor1,harbor12,tr2,17613,52839).
route(harbor1,harbor13,tr13,3354,20124).
route(harbor1,harbor13,tr2,3354,10062).
route(harbor1,harbor14,tr13,11944,71664).
route(harbor1,harbor14,tr2,11944,35832).
route(harbor1,harbor15,tr13,20140,120840).
route(harbor1,harbor15,tr2,20140,60420).
route(harbor1,harbor16,tr13,865,5190).
route(harbor1,harbor16,tr2,865,2595).
route(harbor1,prodloc0,tr0,2306,59956).
route(harbor1,prodloc0,tr13,2306,13836).
route(harbor1,prodloc1,tr0,28652,744952).
route(harbor1,prodloc1,tr13,28652,171912).
route(harbor1,prodloc2,tr0,6816,177216).
route(harbor1,prodloc2,tr13,6816,40896).
route(harbor1,prodloc3,tr0,20123,523198).
route(harbor1,prodloc3,tr13,20123,120738).
route(harbor1,prodloc4,tr0,12330,320580).
route(harbor1,prodloc4,tr13,12330,73980).
route(harbor1,prodloc5,tr0,4869,126594).
route(harbor1,prodloc5,tr13,4869,29214).
route(harbor1,prodloc6,tr0,20790,540540).
route(harbor1,prodloc6,tr13,20790,124740).
route(harbor1,prodloc7,tr0,8267,214942).
route(harbor1,prodloc7,tr13,8267,49602).
route(harbor1,prodloc8,tr0,11385,296010).
route(harbor1,prodloc8,tr13,11385,68310).
route(harbor1,prodloc9,tr0,19737,513162).
route(harbor1,prodloc9,tr13,19737,118422).
route(harbor1,prodloc10,tr0,11934,310284).
route(harbor1,prodloc10,tr13,11934,71604).
route(harbor1,prodloc11,tr0,15538,403988).
route(harbor1,prodloc11,tr13,15538,93228).
route(harbor1,prodloc12,tr0,4027,104702).
route(harbor1,prodloc12,tr13,4027,24162).
route(harbor1,prodloc13,tr0,3781,98306).
route(harbor1,prodloc13,tr13,3781,22686).
route(harbor1,prodloc14,tr0,27819,723294).
route(harbor1,prodloc14,tr13,27819,166914).
route(harbor1,prodloc15,tr0,15995,415870).
route(harbor1,prodloc15,tr13,15995,95970).
route(harbor1,prodloc16,tr0,15271,397046).
route(harbor1,prodloc16,tr13,15271,91626).
route(harbor1,prodloc17,tr0,15743,409318).
route(harbor1,prodloc17,tr13,15743,94458).
route(harbor1,prodloc18,tr0,15856,412256).
route(harbor1,prodloc18,tr13,15856,95136).
route(harbor1,prodloc19,tr0,10220,265720).
route(harbor1,prodloc19,tr13,10220,61320).
route(harbor1,prodloc20,tr0,2816,73216).
route(harbor1,prodloc20,tr13,2816,16896).
route(harbor1,prodloc21,tr0,4724,122824).
route(harbor1,prodloc21,tr13,4724,28344).
route(harbor1,prodloc22,tr0,3350,87100).
route(harbor1,prodloc22,tr13,3350,20100).
route(harbor1,prodloc23,tr0,24567,638742).
route(harbor1,prodloc23,tr13,24567,147402).
route(harbor1,prodloc24,tr0,11229,291954).
route(harbor1,prodloc24,tr13,11229,67374).
route(harbor1,prodloc25,tr0,24261,630786).
route(harbor1,prodloc25,tr13,24261,145566).
route(harbor1,prodloc26,tr0,8677,225602).
route(harbor1,prodloc26,tr13,8677,52062).
route(harbor1,prodloc27,tr0,15685,407810).
route(harbor1,prodloc27,tr13,15685,94110).
route(harbor1,prodloc28,tr0,27161,706186).
route(harbor1,prodloc28,tr13,27161,162966).
route(harbor1,prodloc29,tr0,22679,589654).
route(harbor1,prodloc29,tr13,22679,136074).
route(harbor1,prodloc30,tr0,5292,137592).
route(harbor1,prodloc30,tr13,5292,31752).
route(harbor1,prodloc31,tr0,16921,439946).
route(harbor1,prodloc31,tr13,16921,101526).
route(harbor1,prodloc32,tr0,758,19708).
route(harbor1,prodloc32,tr13,758,4548).
route(harbor1,prodloc33,tr0,6726,174876).
route(harbor1,prodloc33,tr13,6726,40356).
route(harbor2,harbor0,tr13,17339,104034).
route(harbor2,harbor0,tr2,17339,52017).
route(harbor2,harbor1,tr13,11883,71298).
route(harbor2,harbor1,tr2,11883,35649).
route(harbor2,harbor3,tr13,4833,28998).
route(harbor2,harbor3,tr2,4833,14499).
route(harbor2,harbor4,tr13,22642,135852).
route(harbor2,harbor4,tr2,22642,67926).
route(harbor2,harbor5,tr13,17828,106968).
route(harbor2,harbor5,tr2,17828,53484).
route(harbor2,harbor6,tr13,916,5496).
route(harbor2,harbor6,tr2,916,2748).
route(harbor2,harbor7,tr13,24872,149232).
route(harbor2,harbor7,tr2,24872,74616).
route(harbor2,harbor8,tr13,17335,104010).
route(harbor2,harbor8,tr2,17335,52005).
route(harbor2,harbor9,tr13,9797,58782).
route(harbor2,harbor9,tr2,9797,29391).
route(harbor2,harbor10,tr13,21097,126582).
route(harbor2,harbor10,tr2,21097,63291).
route(harbor2,harbor11,tr13,28319,169914).
route(harbor2,harbor11,tr2,28319,84957).
route(harbor2,harbor12,tr13,3012,18072).
route(harbor2,harbor12,tr2,3012,9036).
route(harbor2,harbor13,tr13,22842,137052).
route(harbor2,harbor13,tr2,22842,68526).
route(harbor2,harbor14,tr13,27733,166398).
route(harbor2,harbor14,tr2,27733,83199).
route(harbor2,harbor15,tr13,8586,51516).
route(harbor2,harbor15,tr2,8586,25758).
route(harbor2,harbor16,tr13,17016,102096).
route(harbor2,harbor16,tr2,17016,51048).
route(harbor2,prodloc0,tr0,12018,312468).
route(harbor2,prodloc0,tr13,12018,72108).
route(harbor2,prodloc1,tr0,5475,142350).
route(harbor2,prodloc1,tr13,5475,32850).
route(harbor2,prodloc2,tr0,11657,303082).
route(harbor2,prodloc2,tr13,11657,69942).
route(harbor2,prodloc3,tr0,25296,657696).
route(harbor2,prodloc3,tr13,25296,151776).
route(harbor2,prodloc4,tr0,7302,189852).
route(harbor2,prodloc4,tr13,7302,43812).
route(harbor2,prodloc5,tr0,17453,453778).
route(harbor2,prodloc5,tr13,17453,104718).
route(harbor2,prodloc6,tr0,17748,461448).
route(harbor2,prodloc6,tr13,17748,106488).
route(harbor2,prodloc7,tr0,25530,663780).
route(harbor2,prodloc7,tr13,25530,153180).
route(harbor2,prodloc8,tr0,16474,428324).
route(harbor2,prodloc8,tr13,16474,98844).
route(harbor2,prodloc9,tr0,10804,280904).
route(harbor2,prodloc9,tr13,10804,64824).
route(harbor2,prodloc10,tr0,20856,542256).
route(harbor2,prodloc10,tr13,20856,125136).
route(harbor2,prodloc11,tr0,7310,190060).
route(harbor2,prodloc11,tr13,7310,43860).
route(harbor2,prodloc12,tr0,20096,522496).
route(harbor2,prodloc12,tr13,20096,120576).
route(harbor2,prodloc13,tr0,26593,691418).
route(harbor2,prodloc13,tr13,26593,159558).
route(harbor2,prodloc14,tr0,25836,671736).
route(harbor2,prodloc14,tr13,25836,155016).
route(harbor2,prodloc15,tr0,24850,646100).
route(harbor2,prodloc15,tr13,24850,149100).
route(harbor2,prodloc16,tr0,27940,726440).
route(harbor2,prodloc16,tr13,27940,167640).
route(harbor2,prodloc17,tr0,6396,166296).
route(harbor2,prodloc17,tr13,6396,38376).
route(harbor2,prodloc18,tr0,26415,686790).
route(harbor2,prodloc18,tr13,26415,158490).
route(harbor2,prodloc19,tr0,7846,203996).
route(harbor2,prodloc19,tr13,7846,47076).
route(harbor2,prodloc20,tr0,26817,697242).
route(harbor2,prodloc20,tr13,26817,160902).
route(harbor2,prodloc21,tr0,13131,341406).
route(harbor2,prodloc21,tr13,13131,78786).
route(harbor2,prodloc22,tr0,24246,630396).
route(harbor2,prodloc22,tr13,24246,145476).
route(harbor2,prodloc23,tr0,26325,684450).
route(harbor2,prodloc23,tr13,26325,157950).
route(harbor2,prodloc24,tr0,7431,193206).
route(harbor2,prodloc24,tr13,7431,44586).
route(harbor2,prodloc25,tr0,6552,170352).
route(harbor2,prodloc25,tr13,6552,39312).
route(harbor2,prodloc26,tr0,16963,441038).
route(harbor2,prodloc26,tr13,16963,101778).
route(harbor2,prodloc27,tr0,16149,419874).
route(harbor2,prodloc27,tr13,16149,96894).
route(harbor2,prodloc28,tr0,11653,302978).
route(harbor2,prodloc28,tr13,11653,69918).
route(harbor2,prodloc29,tr0,23955,622830).
route(harbor2,prodloc29,tr13,23955,143730).
route(harbor2,prodloc30,tr0,951,24726).
route(harbor2,prodloc30,tr13,951,5706).
route(harbor2,prodloc31,tr0,917,23842).
route(harbor2,prodloc31,tr13,917,5502).
route(harbor2,prodloc32,tr0,25892,673192).
route(harbor2,prodloc32,tr13,25892,155352).
route(harbor2,prodloc33,tr0,9157,238082).
route(harbor2,prodloc33,tr13,9157,54942).
route(harbor3,harbor0,tr13,15504,93024).
route(harbor3,harbor0,tr2,15504,46512).
route(harbor3,harbor1,tr13,8522,51132).
route(harbor3,harbor1,tr2,8522,25566).
route(harbor3,harbor2,tr13,6375,38250).
route(harbor3,harbor2,tr2,6375,19125).
route(harbor3,harbor4,tr13,22722,136332).
route(harbor3,harbor4,tr2,22722,68166).
route(harbor3,harbor5,tr13,19859,119154).
route(harbor3,harbor5,tr2,19859,59577).
route(harbor3,harbor6,tr13,11311,67866).
route(harbor3,harbor6,tr2,11311,33933).
route(harbor3,harbor7,tr13,14684,88104).
route(harbor3,harbor7,tr2,14684,44052).
route(harbor3,harbor8,tr13,26525,159150).
route(harbor3,harbor8,tr2,26525,79575).
route(harbor3,harbor9,tr13,23725,142350).
route(harbor3,harbor9,tr2,23725,71175).
route(harbor3,harbor10,tr13,11483,68898).
route(harbor3,harbor10,tr2,11483,34449).
route(harbor3,harbor11,tr13,11978,71868).
route(harbor3,harbor11,tr2,11978,35934).
route(harbor3,harbor12,tr13,2669,16014).
route(harbor3,harbor12,tr2,2669,8007).
route(harbor3,harbor13,tr13,7254,43524).
route(harbor3,harbor13,tr2,7254,21762).
route(harbor3,harbor14,tr13,3377,20262).
route(harbor3,harbor14,tr2,3377,10131).
route(harbor3,harbor15,tr13,7463,44778).
route(harbor3,harbor15,tr2,7463,22389).
route(harbor3,harbor16,tr13,15433,92598).
route(harbor3,harbor16,tr2,15433,46299).
route(harbor3,prodloc0,tr0,6447,167622).
route(harbor3,prodloc0,tr13,6447,38682).
route(harbor3,prodloc1,tr0,11068,287768).
route(harbor3,prodloc1,tr13,11068,66408).
route(harbor3,prodloc2,tr0,6698,174148).
route(harbor3,prodloc2,tr13,6698,40188).
route(harbor3,prodloc3,tr0,15817,411242).
route(harbor3,prodloc3,tr13,15817,94902).
route(harbor3,prodloc4,tr0,20451,531726).
route(harbor3,prodloc4,tr13,20451,122706).
route(harbor3,prodloc5,tr0,19999,519974).
route(harbor3,prodloc5,tr13,19999,119994).
route(harbor3,prodloc6,tr0,27541,716066).
route(harbor3,prodloc6,tr13,27541,165246).
route(harbor3,prodloc7,tr0,64,1664).
route(harbor3,prodloc7,tr13,64,384).
route(harbor3,prodloc8,tr0,15713,408538).
route(harbor3,prodloc8,tr13,15713,94278).
route(harbor3,prodloc9,tr0,21398,556348).
route(harbor3,prodloc9,tr13,21398,128388).
route(harbor3,prodloc10,tr0,11274,293124).
route(harbor3,prodloc10,tr13,11274,67644).
route(harbor3,prodloc11,tr0,26204,681304).
route(harbor3,prodloc11,tr13,26204,157224).
route(harbor3,prodloc12,tr0,21076,547976).
route(harbor3,prodloc12,tr13,21076,126456).
route(harbor3,prodloc13,tr0,2780,72280).
route(harbor3,prodloc13,tr13,2780,16680).
route(harbor3,prodloc14,tr0,27351,711126).
route(harbor3,prodloc14,tr13,27351,164106).
route(harbor3,prodloc15,tr0,21648,562848).
route(harbor3,prodloc15,tr13,21648,129888).
route(harbor3,prodloc16,tr0,3931,102206).
route(harbor3,prodloc16,tr13,3931,23586).
route(harbor3,prodloc17,tr0,12733,331058).
route(harbor3,prodloc17,tr13,12733,76398).
route(harbor3,prodloc18,tr0,25636,666536).
route(harbor3,prodloc18,tr13,25636,153816).
route(harbor3,prodloc19,tr0,23316,606216).
route(harbor3,prodloc19,tr13,23316,139896).
route(harbor3,prodloc20,tr0,24582,639132).
route(harbor3,prodloc20,tr13,24582,147492).
route(harbor3,prodloc21,tr0,6533,169858).
route(harbor3,prodloc21,tr13,6533,39198).
route(harbor3,prodloc22,tr0,15666,407316).
route(harbor3,prodloc22,tr13,15666,93996).
route(harbor3,prodloc23,tr0,5851,152126).
route(harbor3,prodloc23,tr13,5851,35106).
route(harbor3,prodloc24,tr0,14220,369720).
route(harbor3,prodloc24,tr13,14220,85320).
route(harbor3,prodloc25,tr0,25860,672360).
route(harbor3,prodloc25,tr13,25860,155160).
route(harbor3,prodloc26,tr0,20837,541762).
route(harbor3,prodloc26,tr13,20837,125022).
route(harbor3,prodloc27,tr0,10897,283322).
route(harbor3,prodloc27,tr13,10897,65382).
route(harbor3,prodloc28,tr0,2844,73944).
route(harbor3,prodloc28,tr13,2844,17064).
route(harbor3,prodloc29,tr0,26243,682318).
route(harbor3,prodloc29,tr13,26243,157458).
route(harbor3,prodloc30,tr0,23654,615004).
route(harbor3,prodloc30,tr13,23654,141924).
route(harbor3,prodloc31,tr0,12972,337272).
route(harbor3,prodloc31,tr13,12972,77832).
route(harbor3,prodloc32,tr0,15178,394628).
route(harbor3,prodloc32,tr13,15178,91068).
route(harbor3,prodloc33,tr0,13154,342004).
route(harbor3,prodloc33,tr13,13154,78924).
route(harbor4,harbor0,tr13,24388,146328).
route(harbor4,harbor0,tr2,24388,73164).
route(harbor4,harbor1,tr13,2812,16872).
route(harbor4,harbor1,tr2,2812,8436).
route(harbor4,harbor2,tr13,23780,142680).
route(harbor4,harbor2,tr2,23780,71340).
route(harbor4,harbor3,tr13,5235,31410).
route(harbor4,harbor3,tr2,5235,15705).
route(harbor4,harbor5,tr13,5600,33600).
route(harbor4,harbor5,tr2,5600,16800).
route(harbor4,harbor6,tr13,4192,25152).
route(harbor4,harbor6,tr2,4192,12576).
route(harbor4,harbor7,tr13,932,5592).
route(harbor4,harbor7,tr2,932,2796).
route(harbor4,harbor8,tr13,4982,29892).
route(harbor4,harbor8,tr2,4982,14946).
route(harbor4,harbor9,tr13,19389,116334).
route(harbor4,harbor9,tr2,19389,58167).
route(harbor4,harbor10,tr13,15278,91668).
route(harbor4,harbor10,tr2,15278,45834).
route(harbor4,harbor11,tr13,26457,158742).
route(harbor4,harbor11,tr2,26457,79371).
route(harbor4,harbor12,tr13,21521,129126).
route(harbor4,harbor12,tr2,21521,64563).
route(harbor4,harbor13,tr13,4819,28914).
route(harbor4,harbor13,tr2,4819,14457).
route(harbor4,harbor14,tr13,20070,120420).
route(harbor4,harbor14,tr2,20070,60210).
route(harbor4,harbor15,tr13,27113,162678).
route(harbor4,harbor15,tr2,27113,81339).
route(harbor4,harbor16,tr13,19555,117330).
route(harbor4,harbor16,tr2,19555,58665).
route(harbor4,prodloc0,tr0,15545,404170).
route(harbor4,prodloc0,tr13,15545,93270).
route(harbor4,prodloc1,tr0,21539,560014).
route(harbor4,prodloc1,tr13,21539,129234).
route(harbor4,prodloc2,tr0,11484,298584).
route(harbor4,prodloc2,tr13,11484,68904).
route(harbor4,prodloc3,tr0,5110,132860).
route(harbor4,prodloc3,tr13,5110,30660).
route(harbor4,prodloc4,tr0,17980,467480).
route(harbor4,prodloc4,tr13,17980,107880).
route(harbor4,prodloc5,tr0,17968,467168).
route(harbor4,prodloc5,tr13,17968,107808).
route(harbor4,prodloc6,tr0,4294,111644).
route(harbor4,prodloc6,tr13,4294,25764).
route(harbor4,prodloc7,tr0,703,18278).
route(harbor4,prodloc7,tr13,703,4218).
route(harbor4,prodloc8,tr0,468,12168).
route(harbor4,prodloc8,tr13,468,2808).
route(harbor4,prodloc9,tr0,26195,681070).
route(harbor4,prodloc9,tr13,26195,157170).
route(harbor4,prodloc10,tr0,23803,618878).
route(harbor4,prodloc10,tr13,23803,142818).
route(harbor4,prodloc11,tr0,21290,553540).
route(harbor4,prodloc11,tr13,21290,127740).
route(harbor4,prodloc12,tr0,3369,87594).
route(harbor4,prodloc12,tr13,3369,20214).
route(harbor4,prodloc13,tr0,17257,448682).
route(harbor4,prodloc13,tr13,17257,103542).
route(harbor4,prodloc14,tr0,24561,638586).
route(harbor4,prodloc14,tr13,24561,147366).
route(harbor4,prodloc15,tr0,4564,118664).
route(harbor4,prodloc15,tr13,4564,27384).
route(harbor4,prodloc16,tr0,14217,369642).
route(harbor4,prodloc16,tr13,14217,85302).
route(harbor4,prodloc17,tr0,28567,742742).
route(harbor4,prodloc17,tr13,28567,171402).
route(harbor4,prodloc18,tr0,6385,166010).
route(harbor4,prodloc18,tr13,6385,38310).
route(harbor4,prodloc19,tr0,27073,703898).
route(harbor4,prodloc19,tr13,27073,162438).
route(harbor4,prodloc20,tr0,28638,744588).
route(harbor4,prodloc20,tr13,28638,171828).
route(harbor4,prodloc21,tr0,6917,179842).
route(harbor4,prodloc21,tr13,6917,41502).
route(harbor4,prodloc22,tr0,919,23894).
route(harbor4,prodloc22,tr13,919,5514).
route(harbor4,prodloc23,tr0,8254,214604).
route(harbor4,prodloc23,tr13,8254,49524).
route(harbor4,prodloc24,tr0,6974,181324).
route(harbor4,prodloc24,tr13,6974,41844).
route(harbor4,prodloc25,tr0,9601,249626).
route(harbor4,prodloc25,tr13,9601,57606).
route(harbor4,prodloc26,tr0,16424,427024).
route(harbor4,prodloc26,tr13,16424,98544).
route(harbor4,prodloc27,tr0,7883,204958).
route(harbor4,prodloc27,tr13,7883,47298).
route(harbor4,prodloc28,tr0,25026,650676).
route(harbor4,prodloc28,tr13,25026,150156).
route(harbor4,prodloc29,tr0,19218,499668).
route(harbor4,prodloc29,tr13,19218,115308).
route(harbor4,prodloc30,tr0,10684,277784).
route(harbor4,prodloc30,tr13,10684,64104).
route(harbor4,prodloc31,tr0,8500,221000).
route(harbor4,prodloc31,tr13,8500,51000).
route(harbor4,prodloc32,tr0,17839,463814).
route(harbor4,prodloc32,tr13,17839,107034).
route(harbor4,prodloc33,tr0,13732,357032).
route(harbor4,prodloc33,tr13,13732,82392).
route(harbor5,harbor0,tr13,27364,164184).
route(harbor5,harbor0,tr2,27364,82092).
route(harbor5,harbor1,tr13,4325,25950).
route(harbor5,harbor1,tr2,4325,12975).
route(harbor5,harbor2,tr13,2025,12150).
route(harbor5,harbor2,tr2,2025,6075).
route(harbor5,harbor3,tr13,24275,145650).
route(harbor5,harbor3,tr2,24275,72825).
route(harbor5,harbor4,tr13,11622,69732).
route(harbor5,harbor4,tr2,11622,34866).
route(harbor5,harbor6,tr13,15043,90258).
route(harbor5,harbor6,tr2,15043,45129).
route(harbor5,harbor7,tr13,21737,130422).
route(harbor5,harbor7,tr2,21737,65211).
route(harbor5,harbor8,tr13,19145,114870).
route(harbor5,harbor8,tr2,19145,57435).
route(harbor5,harbor9,tr13,26737,160422).
route(harbor5,harbor9,tr2,26737,80211).
route(harbor5,harbor10,tr13,16963,101778).
route(harbor5,harbor10,tr2,16963,50889).
route(harbor5,harbor11,tr13,13813,82878).
route(harbor5,harbor11,tr2,13813,41439).
route(harbor5,harbor12,tr13,27133,162798).
route(harbor5,harbor12,tr2,27133,81399).
route(harbor5,harbor13,tr13,28805,172830).
route(harbor5,harbor13,tr2,28805,86415).
route(harbor5,harbor14,tr13,16468,98808).
route(harbor5,harbor14,tr2,16468,49404).
route(harbor5,harbor15,tr13,4314,25884).
route(harbor5,harbor15,tr2,4314,12942).
route(harbor5,harbor16,tr13,17456,104736).
route(harbor5,harbor16,tr2,17456,52368).
route(harbor5,prodloc0,tr0,4977,129402).
route(harbor5,prodloc0,tr13,4977,29862).
route(harbor5,prodloc1,tr0,17156,446056).
route(harbor5,prodloc1,tr13,17156,102936).
route(harbor5,prodloc2,tr0,16731,435006).
route(harbor5,prodloc2,tr13,16731,100386).
route(harbor5,prodloc3,tr0,614,15964).
route(harbor5,prodloc3,tr13,614,3684).
route(harbor5,prodloc4,tr0,28602,743652).
route(harbor5,prodloc4,tr13,28602,171612).
route(harbor5,prodloc5,tr0,14424,375024).
route(harbor5,prodloc5,tr13,14424,86544).
route(harbor5,prodloc6,tr0,25446,661596).
route(harbor5,prodloc6,tr13,25446,152676).
route(harbor5,prodloc7,tr0,6002,156052).
route(harbor5,prodloc7,tr13,6002,36012).
route(harbor5,prodloc8,tr0,19943,518518).
route(harbor5,prodloc8,tr13,19943,119658).
route(harbor5,prodloc9,tr0,130,3380).
route(harbor5,prodloc9,tr13,130,780).
route(harbor5,prodloc10,tr0,25431,661206).
route(harbor5,prodloc10,tr13,25431,152586).
route(harbor5,prodloc11,tr0,26189,680914).
route(harbor5,prodloc11,tr13,26189,157134).
route(harbor5,prodloc12,tr0,4910,127660).
route(harbor5,prodloc12,tr13,4910,29460).
route(harbor5,prodloc13,tr0,5649,146874).
route(harbor5,prodloc13,tr13,5649,33894).
route(harbor5,prodloc14,tr0,4640,120640).
route(harbor5,prodloc14,tr13,4640,27840).
route(harbor5,prodloc15,tr0,15517,403442).
route(harbor5,prodloc15,tr13,15517,93102).
route(harbor5,prodloc16,tr0,20288,527488).
route(harbor5,prodloc16,tr13,20288,121728).
route(harbor5,prodloc17,tr0,23765,617890).
route(harbor5,prodloc17,tr13,23765,142590).
route(harbor5,prodloc18,tr0,3945,102570).
route(harbor5,prodloc18,tr13,3945,23670).
route(harbor5,prodloc19,tr0,18236,474136).
route(harbor5,prodloc19,tr13,18236,109416).
route(harbor5,prodloc20,tr0,2025,52650).
route(harbor5,prodloc20,tr13,2025,12150).
route(harbor5,prodloc21,tr0,10683,277758).
route(harbor5,prodloc21,tr13,10683,64098).
route(harbor5,prodloc22,tr0,22360,581360).
route(harbor5,prodloc22,tr13,22360,134160).
route(harbor5,prodloc23,tr0,16987,441662).
route(harbor5,prodloc23,tr13,16987,101922).
route(harbor5,prodloc24,tr0,17392,452192).
route(harbor5,prodloc24,tr13,17392,104352).
route(harbor5,prodloc25,tr0,18202,473252).
route(harbor5,prodloc25,tr13,18202,109212).
route(harbor5,prodloc26,tr0,15812,411112).
route(harbor5,prodloc26,tr13,15812,94872).
route(harbor5,prodloc27,tr0,25701,668226).
route(harbor5,prodloc27,tr13,25701,154206).
route(harbor5,prodloc28,tr0,25446,661596).
route(harbor5,prodloc28,tr13,25446,152676).
route(harbor5,prodloc29,tr0,3478,90428).
route(harbor5,prodloc29,tr13,3478,20868).
route(harbor5,prodloc30,tr0,28943,752518).
route(harbor5,prodloc30,tr13,28943,173658).
route(harbor5,prodloc31,tr0,18361,477386).
route(harbor5,prodloc31,tr13,18361,110166).
route(harbor5,prodloc32,tr0,1863,48438).
route(harbor5,prodloc32,tr13,1863,11178).
route(harbor5,prodloc33,tr0,8144,211744).
route(harbor5,prodloc33,tr13,8144,48864).
route(harbor6,harbor0,tr13,6298,37788).
route(harbor6,harbor0,tr2,6298,18894).
route(harbor6,harbor1,tr13,9104,54624).
route(harbor6,harbor1,tr2,9104,27312).
route(harbor6,harbor2,tr13,1412,8472).
route(harbor6,harbor2,tr2,1412,4236).
route(harbor6,harbor3,tr13,25335,152010).
route(harbor6,harbor3,tr2,25335,76005).
route(harbor6,harbor4,tr13,3232,19392).
route(harbor6,harbor4,tr2,3232,9696).
route(harbor6,harbor5,tr13,16666,99996).
route(harbor6,harbor5,tr2,16666,49998).
route(harbor6,harbor7,tr13,14846,89076).
route(harbor6,harbor7,tr2,14846,44538).
route(harbor6,harbor8,tr13,18436,110616).
route(harbor6,harbor8,tr2,18436,55308).
route(harbor6,harbor9,tr13,943,5658).
route(harbor6,harbor9,tr2,943,2829).
route(harbor6,harbor10,tr13,24933,149598).
route(harbor6,harbor10,tr2,24933,74799).
route(harbor6,harbor11,tr13,2106,12636).
route(harbor6,harbor11,tr2,2106,6318).
route(harbor6,harbor12,tr13,14554,87324).
route(harbor6,harbor12,tr2,14554,43662).
route(harbor6,harbor13,tr13,10699,64194).
route(harbor6,harbor13,tr2,10699,32097).
route(harbor6,harbor14,tr13,20101,120606).
route(harbor6,harbor14,tr2,20101,60303).
route(harbor6,harbor15,tr13,16595,99570).
route(harbor6,harbor15,tr2,16595,49785).
route(harbor6,harbor16,tr13,19891,119346).
route(harbor6,harbor16,tr2,19891,59673).
route(harbor6,prodloc0,tr0,16784,436384).
route(harbor6,prodloc0,tr13,16784,100704).
route(harbor6,prodloc1,tr0,6536,169936).
route(harbor6,prodloc1,tr13,6536,39216).
route(harbor6,prodloc2,tr0,22701,590226).
route(harbor6,prodloc2,tr13,22701,136206).
route(harbor6,prodloc3,tr0,9084,236184).
route(harbor6,prodloc3,tr13,9084,54504).
route(harbor6,prodloc4,tr0,14824,385424).
route(harbor6,prodloc4,tr13,14824,88944).
route(harbor6,prodloc5,tr0,16653,432978).
route(harbor6,prodloc5,tr13,16653,99918).
route(harbor6,prodloc6,tr0,17476,454376).
route(harbor6,prodloc6,tr13,17476,104856).
route(harbor6,prodloc7,tr0,26457,687882).
route(harbor6,prodloc7,tr13,26457,158742).
route(harbor6,prodloc8,tr0,15666,407316).
route(harbor6,prodloc8,tr13,15666,93996).
route(harbor6,prodloc9,tr0,16640,432640).
route(harbor6,prodloc9,tr13,16640,99840).
route(harbor6,prodloc10,tr0,8117,211042).
route(harbor6,prodloc10,tr13,8117,48702).
route(harbor6,prodloc11,tr0,22913,595738).
route(harbor6,prodloc11,tr13,22913,137478).
route(harbor6,prodloc12,tr0,17146,445796).
route(harbor6,prodloc12,tr13,17146,102876).
route(harbor6,prodloc13,tr0,28724,746824).
route(harbor6,prodloc13,tr13,28724,172344).
route(harbor6,prodloc14,tr0,28706,746356).
route(harbor6,prodloc14,tr13,28706,172236).
route(harbor6,prodloc15,tr0,8508,221208).
route(harbor6,prodloc15,tr13,8508,51048).
route(harbor6,prodloc16,tr0,18336,476736).
route(harbor6,prodloc16,tr13,18336,110016).
route(harbor6,prodloc17,tr0,6640,172640).
route(harbor6,prodloc17,tr13,6640,39840).
route(harbor6,prodloc18,tr0,27527,715702).
route(harbor6,prodloc18,tr13,27527,165162).
route(harbor6,prodloc19,tr0,14666,381316).
route(harbor6,prodloc19,tr13,14666,87996).
route(harbor6,prodloc20,tr0,4495,116870).
route(harbor6,prodloc20,tr13,4495,26970).
route(harbor6,prodloc21,tr0,13654,355004).
route(harbor6,prodloc21,tr13,13654,81924).
route(harbor6,prodloc22,tr0,3987,103662).
route(harbor6,prodloc22,tr13,3987,23922).
route(harbor6,prodloc23,tr0,12858,334308).
route(harbor6,prodloc23,tr13,12858,77148).
route(harbor6,prodloc24,tr0,14489,376714).
route(harbor6,prodloc24,tr13,14489,86934).
route(harbor6,prodloc25,tr0,10356,269256).
route(harbor6,prodloc25,tr13,10356,62136).
route(harbor6,prodloc26,tr0,2379,61854).
route(harbor6,prodloc26,tr13,2379,14274).
route(harbor6,prodloc27,tr0,21994,571844).
route(harbor6,prodloc27,tr13,21994,131964).
route(harbor6,prodloc28,tr0,7887,205062).
route(harbor6,prodloc28,tr13,7887,47322).
route(harbor6,prodloc29,tr0,14037,364962).
route(harbor6,prodloc29,tr13,14037,84222).
route(harbor6,prodloc30,tr0,2398,62348).
route(harbor6,prodloc30,tr13,2398,14388).
route(harbor6,prodloc31,tr0,6971,181246).
route(harbor6,prodloc31,tr13,6971,41826).
route(harbor6,prodloc32,tr0,21939,570414).
route(harbor6,prodloc32,tr13,21939,131634).
route(harbor6,prodloc33,tr0,9923,257998).
route(harbor6,prodloc33,tr13,9923,59538).
route(harbor7,harbor0,tr13,25718,154308).
route(harbor7,harbor0,tr2,25718,77154).
route(harbor7,harbor1,tr13,4039,24234).
route(harbor7,harbor1,tr2,4039,12117).
route(harbor7,harbor2,tr13,25488,152928).
route(harbor7,harbor2,tr2,25488,76464).
route(harbor7,harbor3,tr13,5090,30540).
route(harbor7,harbor3,tr2,5090,15270).
route(harbor7,harbor4,tr13,23495,140970).
route(harbor7,harbor4,tr2,23495,70485).
route(harbor7,harbor5,tr13,21114,126684).
route(harbor7,harbor5,tr2,21114,63342).
route(harbor7,harbor6,tr13,21665,129990).
route(harbor7,harbor6,tr2,21665,64995).
route(harbor7,harbor8,tr13,12029,72174).
route(harbor7,harbor8,tr2,12029,36087).
route(harbor7,harbor9,tr13,4715,28290).
route(harbor7,harbor9,tr2,4715,14145).
route(harbor7,harbor10,tr13,8323,49938).
route(harbor7,harbor10,tr2,8323,24969).
route(harbor7,harbor11,tr13,28958,173748).
route(harbor7,harbor11,tr2,28958,86874).
route(harbor7,harbor12,tr13,4527,27162).
route(harbor7,harbor12,tr2,4527,13581).
route(harbor7,harbor13,tr13,15356,92136).
route(harbor7,harbor13,tr2,15356,46068).
route(harbor7,harbor14,tr13,7225,43350).
route(harbor7,harbor14,tr2,7225,21675).
route(harbor7,harbor15,tr13,24497,146982).
route(harbor7,harbor15,tr2,24497,73491).
route(harbor7,harbor16,tr13,3114,18684).
route(harbor7,harbor16,tr2,3114,9342).
route(harbor7,prodloc0,tr0,13052,339352).
route(harbor7,prodloc0,tr13,13052,78312).
route(harbor7,prodloc1,tr0,15968,415168).
route(harbor7,prodloc1,tr13,15968,95808).
route(harbor7,prodloc2,tr0,5336,138736).
route(harbor7,prodloc2,tr13,5336,32016).
route(harbor7,prodloc3,tr0,21885,569010).
route(harbor7,prodloc3,tr13,21885,131310).
route(harbor7,prodloc4,tr0,27279,709254).
route(harbor7,prodloc4,tr13,27279,163674).
route(harbor7,prodloc5,tr0,7332,190632).
route(harbor7,prodloc5,tr13,7332,43992).
route(harbor7,prodloc6,tr0,5292,137592).
route(harbor7,prodloc6,tr13,5292,31752).
route(harbor7,prodloc7,tr0,23146,601796).
route(harbor7,prodloc7,tr13,23146,138876).
route(harbor7,prodloc8,tr0,14142,367692).
route(harbor7,prodloc8,tr13,14142,84852).
route(harbor7,prodloc9,tr0,16897,439322).
route(harbor7,prodloc9,tr13,16897,101382).
route(harbor7,prodloc10,tr0,13234,344084).
route(harbor7,prodloc10,tr13,13234,79404).
route(harbor7,prodloc11,tr0,11114,288964).
route(harbor7,prodloc11,tr13,11114,66684).
route(harbor7,prodloc12,tr0,13806,358956).
route(harbor7,prodloc12,tr13,13806,82836).
route(harbor7,prodloc13,tr0,6416,166816).
route(harbor7,prodloc13,tr13,6416,38496).
route(harbor7,prodloc14,tr0,11687,303862).
route(harbor7,prodloc14,tr13,11687,70122).
route(harbor7,prodloc15,tr0,10439,271414).
route(harbor7,prodloc15,tr13,10439,62634).
route(harbor7,prodloc16,tr0,3023,78598).
route(harbor7,prodloc16,tr13,3023,18138).
route(harbor7,prodloc17,tr0,23665,615290).
route(harbor7,prodloc17,tr13,23665,141990).
route(harbor7,prodloc18,tr0,11993,311818).
route(harbor7,prodloc18,tr13,11993,71958).
route(harbor7,prodloc19,tr0,640,16640).
route(harbor7,prodloc19,tr13,640,3840).
route(harbor7,prodloc20,tr0,11076,287976).
route(harbor7,prodloc20,tr13,11076,66456).
route(harbor7,prodloc21,tr0,18157,472082).
route(harbor7,prodloc21,tr13,18157,108942).
route(harbor7,prodloc22,tr0,15031,390806).
route(harbor7,prodloc22,tr13,15031,90186).
route(harbor7,prodloc23,tr0,14434,375284).
route(harbor7,prodloc23,tr13,14434,86604).
route(harbor7,prodloc24,tr0,23042,599092).
route(harbor7,prodloc24,tr13,23042,138252).
route(harbor7,prodloc25,tr0,594,15444).
route(harbor7,prodloc25,tr13,594,3564).
route(harbor7,prodloc26,tr0,12596,327496).
route(harbor7,prodloc26,tr13,12596,75576).
route(harbor7,prodloc27,tr0,10864,282464).
route(harbor7,prodloc27,tr13,10864,65184).
route(harbor7,prodloc28,tr0,16957,440882).
route(harbor7,prodloc28,tr13,16957,101742).
route(harbor7,prodloc29,tr0,20446,531596).
route(harbor7,prodloc29,tr13,20446,122676).
route(harbor7,prodloc30,tr0,9683,251758).
route(harbor7,prodloc30,tr13,9683,58098).
route(harbor7,prodloc31,tr0,16787,436462).
route(harbor7,prodloc31,tr13,16787,100722).
route(harbor7,prodloc32,tr0,2108,54808).
route(harbor7,prodloc32,tr13,2108,12648).
route(harbor7,prodloc33,tr0,3699,96174).
route(harbor7,prodloc33,tr13,3699,22194).
route(harbor8,harbor0,tr13,25863,155178).
route(harbor8,harbor0,tr2,25863,77589).
route(harbor8,harbor1,tr13,7519,45114).
route(harbor8,harbor1,tr2,7519,22557).
route(harbor8,harbor2,tr13,28747,172482).
route(harbor8,harbor2,tr2,28747,86241).
route(harbor8,harbor3,tr13,3463,20778).
route(harbor8,harbor3,tr2,3463,10389).
route(harbor8,harbor4,tr13,2784,16704).
route(harbor8,harbor4,tr2,2784,8352).
route(harbor8,harbor5,tr13,8732,52392).
route(harbor8,harbor5,tr2,8732,26196).
route(harbor8,harbor6,tr13,8940,53640).
route(harbor8,harbor6,tr2,8940,26820).
route(harbor8,harbor7,tr13,1327,7962).
route(harbor8,harbor7,tr2,1327,3981).
route(harbor8,harbor9,tr13,25556,153336).
route(harbor8,harbor9,tr2,25556,76668).
route(harbor8,harbor10,tr13,5979,35874).
route(harbor8,harbor10,tr2,5979,17937).
route(harbor8,harbor11,tr13,8891,53346).
route(harbor8,harbor11,tr2,8891,26673).
route(harbor8,harbor12,tr13,24795,148770).
route(harbor8,harbor12,tr2,24795,74385).
route(harbor8,harbor13,tr13,4275,25650).
route(harbor8,harbor13,tr2,4275,12825).
route(harbor8,harbor14,tr13,26892,161352).
route(harbor8,harbor14,tr2,26892,80676).
route(harbor8,harbor15,tr13,13866,83196).
route(harbor8,harbor15,tr2,13866,41598).
route(harbor8,harbor16,tr13,27869,167214).
route(harbor8,harbor16,tr2,27869,83607).
route(harbor8,prodloc0,tr0,22152,575952).
route(harbor8,prodloc0,tr13,22152,132912).
route(harbor8,prodloc1,tr0,26838,697788).
route(harbor8,prodloc1,tr13,26838,161028).
route(harbor8,prodloc2,tr0,8476,220376).
route(harbor8,prodloc2,tr13,8476,50856).
route(harbor8,prodloc3,tr0,13304,345904).
route(harbor8,prodloc3,tr13,13304,79824).
route(harbor8,prodloc4,tr0,4896,127296).
route(harbor8,prodloc4,tr13,4896,29376).
route(harbor8,prodloc5,tr0,17585,457210).
route(harbor8,prodloc5,tr13,17585,105510).
route(harbor8,prodloc6,tr0,16870,438620).
route(harbor8,prodloc6,tr13,16870,101220).
route(harbor8,prodloc7,tr0,18699,486174).
route(harbor8,prodloc7,tr13,18699,112194).
route(harbor8,prodloc8,tr0,16209,421434).
route(harbor8,prodloc8,tr13,16209,97254).
route(harbor8,prodloc9,tr0,22953,596778).
route(harbor8,prodloc9,tr13,22953,137718).
route(harbor8,prodloc10,tr0,10718,278668).
route(harbor8,prodloc10,tr13,10718,64308).
route(harbor8,prodloc11,tr0,2933,76258).
route(harbor8,prodloc11,tr13,2933,17598).
route(harbor8,prodloc12,tr0,9146,237796).
route(harbor8,prodloc12,tr13,9146,54876).
route(harbor8,prodloc13,tr0,1887,49062).
route(harbor8,prodloc13,tr13,1887,11322).
route(harbor8,prodloc14,tr0,26202,681252).
route(harbor8,prodloc14,tr13,26202,157212).
route(harbor8,prodloc15,tr0,22553,586378).
route(harbor8,prodloc15,tr13,22553,135318).
route(harbor8,prodloc16,tr0,6009,156234).
route(harbor8,prodloc16,tr13,6009,36054).
route(harbor8,prodloc17,tr0,13938,362388).
route(harbor8,prodloc17,tr13,13938,83628).
route(harbor8,prodloc18,tr0,2374,61724).
route(harbor8,prodloc18,tr13,2374,14244).
route(harbor8,prodloc19,tr0,8814,229164).
route(harbor8,prodloc19,tr13,8814,52884).
route(harbor8,prodloc20,tr0,553,14378).
route(harbor8,prodloc20,tr13,553,3318).
route(harbor8,prodloc21,tr0,20791,540566).
route(harbor8,prodloc21,tr13,20791,124746).
route(harbor8,prodloc22,tr0,2904,75504).
route(harbor8,prodloc22,tr13,2904,17424).
route(harbor8,prodloc23,tr0,26269,682994).
route(harbor8,prodloc23,tr13,26269,157614).
route(harbor8,prodloc24,tr0,8539,222014).
route(harbor8,prodloc24,tr13,8539,51234).
route(harbor8,prodloc25,tr0,2746,71396).
route(harbor8,prodloc25,tr13,2746,16476).
route(harbor8,prodloc26,tr0,19930,518180).
route(harbor8,prodloc26,tr13,19930,119580).
route(harbor8,prodloc27,tr0,28058,729508).
route(harbor8,prodloc27,tr13,28058,168348).
route(harbor8,prodloc28,tr0,7289,189514).
route(harbor8,prodloc28,tr13,7289,43734).
route(harbor8,prodloc29,tr0,2185,56810).
route(harbor8,prodloc29,tr13,2185,13110).
route(harbor8,prodloc30,tr0,8667,225342).
route(harbor8,prodloc30,tr13,8667,52002).
route(harbor8,prodloc31,tr0,28273,735098).
route(harbor8,prodloc31,tr13,28273,169638).
route(harbor8,prodloc32,tr0,3989,103714).
route(harbor8,prodloc32,tr13,3989,23934).
route(harbor8,prodloc33,tr0,14871,386646).
route(harbor8,prodloc33,tr13,14871,89226).
route(harbor9,harbor0,tr13,408,2448).
route(harbor9,harbor0,tr2,408,1224).
route(harbor9,harbor1,tr13,11143,66858).
route(harbor9,harbor1,tr2,11143,33429).
route(harbor9,harbor2,tr13,18152,108912).
route(harbor9,harbor2,tr2,18152,54456).
route(harbor9,harbor3,tr13,13719,82314).
route(harbor9,harbor3,tr2,13719,41157).
route(harbor9,harbor4,tr13,8807,52842).
route(harbor9,harbor4,tr2,8807,26421).
route(harbor9,harbor5,tr13,20401,122406).
route(harbor9,harbor5,tr2,20401,61203).
route(harbor9,harbor6,tr13,4264,25584).
route(harbor9,harbor6,tr2,4264,12792).
route(harbor9,harbor7,tr13,1445,8670).
route(harbor9,harbor7,tr2,1445,4335).
route(harbor9,harbor8,tr13,17295,103770).
route(harbor9,harbor8,tr2,17295,51885).
route(harbor9,harbor10,tr13,23280,139680).
route(harbor9,harbor10,tr2,23280,69840).
route(harbor9,harbor11,tr13,7843,47058).
route(harbor9,harbor11,tr2,7843,23529).
route(harbor9,harbor12,tr13,3616,21696).
route(harbor9,harbor12,tr2,3616,10848).
route(harbor9,harbor13,tr13,5320,31920).
route(harbor9,harbor13,tr2,5320,15960).
route(harbor9,harbor14,tr13,8611,51666).
route(harbor9,harbor14,tr2,8611,25833).
route(harbor9,harbor15,tr13,1680,10080).
route(harbor9,harbor15,tr2,1680,5040).
route(harbor9,harbor16,tr13,5965,35790).
route(harbor9,harbor16,tr2,5965,17895).
route(harbor9,prodloc0,tr0,6613,171938).
route(harbor9,prodloc0,tr13,6613,39678).
route(harbor9,prodloc1,tr0,10225,265850).
route(harbor9,prodloc1,tr13,10225,61350).
route(harbor9,prodloc2,tr0,20602,535652).
route(harbor9,prodloc2,tr13,20602,123612).
route(harbor9,prodloc3,tr0,9996,259896).
route(harbor9,prodloc3,tr13,9996,59976).
route(harbor9,prodloc4,tr0,17404,452504).
route(harbor9,prodloc4,tr13,17404,104424).
route(harbor9,prodloc5,tr0,24889,647114).
route(harbor9,prodloc5,tr13,24889,149334).
route(harbor9,prodloc6,tr0,6747,175422).
route(harbor9,prodloc6,tr13,6747,40482).
route(harbor9,prodloc7,tr0,9503,247078).
route(harbor9,prodloc7,tr13,9503,57018).
route(harbor9,prodloc8,tr0,14606,379756).
route(harbor9,prodloc8,tr13,14606,87636).
route(harbor9,prodloc9,tr0,16388,426088).
route(harbor9,prodloc9,tr13,16388,98328).
route(harbor9,prodloc10,tr0,22027,572702).
route(harbor9,prodloc10,tr13,22027,132162).
route(harbor9,prodloc11,tr0,5831,151606).
route(harbor9,prodloc11,tr13,5831,34986).
route(harbor9,prodloc12,tr0,8866,230516).
route(harbor9,prodloc12,tr13,8866,53196).
route(harbor9,prodloc13,tr0,11372,295672).
route(harbor9,prodloc13,tr13,11372,68232).
route(harbor9,prodloc14,tr0,26336,684736).
route(harbor9,prodloc14,tr13,26336,158016).
route(harbor9,prodloc15,tr0,597,15522).
route(harbor9,prodloc15,tr13,597,3582).
route(harbor9,prodloc16,tr0,8208,213408).
route(harbor9,prodloc16,tr13,8208,49248).
route(harbor9,prodloc17,tr0,1212,31512).
route(harbor9,prodloc17,tr13,1212,7272).
route(harbor9,prodloc18,tr0,504,13104).
route(harbor9,prodloc18,tr13,504,3024).
route(harbor9,prodloc19,tr0,606,15756).
route(harbor9,prodloc19,tr13,606,3636).
route(harbor9,prodloc20,tr0,24023,624598).
route(harbor9,prodloc20,tr13,24023,144138).
route(harbor9,prodloc21,tr0,16571,430846).
route(harbor9,prodloc21,tr13,16571,99426).
route(harbor9,prodloc22,tr0,18058,469508).
route(harbor9,prodloc22,tr13,18058,108348).
route(harbor9,prodloc23,tr0,6210,161460).
route(harbor9,prodloc23,tr13,6210,37260).
route(harbor9,prodloc24,tr0,16852,438152).
route(harbor9,prodloc24,tr13,16852,101112).
route(harbor9,prodloc25,tr0,15558,404508).
route(harbor9,prodloc25,tr13,15558,93348).
route(harbor9,prodloc26,tr0,8052,209352).
route(harbor9,prodloc26,tr13,8052,48312).
route(harbor9,prodloc27,tr0,14651,380926).
route(harbor9,prodloc27,tr13,14651,87906).
route(harbor9,prodloc28,tr0,3484,90584).
route(harbor9,prodloc28,tr13,3484,20904).
route(harbor9,prodloc29,tr0,21573,560898).
route(harbor9,prodloc29,tr13,21573,129438).
route(harbor9,prodloc30,tr0,26836,697736).
route(harbor9,prodloc30,tr13,26836,161016).
route(harbor9,prodloc31,tr0,21304,553904).
route(harbor9,prodloc31,tr13,21304,127824).
route(harbor9,prodloc32,tr0,14163,368238).
route(harbor9,prodloc32,tr13,14163,84978).
route(harbor9,prodloc33,tr0,21514,559364).
route(harbor9,prodloc33,tr13,21514,129084).
route(harbor10,harbor0,tr13,16250,97500).
route(harbor10,harbor0,tr2,16250,48750).
route(harbor10,harbor1,tr13,17918,107508).
route(harbor10,harbor1,tr2,17918,53754).
route(harbor10,harbor2,tr13,27378,164268).
route(harbor10,harbor2,tr2,27378,82134).
route(harbor10,harbor3,tr13,29151,174906).
route(harbor10,harbor3,tr2,29151,87453).
route(harbor10,harbor4,tr13,12910,77460).
route(harbor10,harbor4,tr2,12910,38730).
route(harbor10,harbor5,tr13,16633,99798).
route(harbor10,harbor5,tr2,16633,49899).
route(harbor10,harbor6,tr13,10115,60690).
route(harbor10,harbor6,tr2,10115,30345).
route(harbor10,harbor7,tr13,22565,135390).
route(harbor10,harbor7,tr2,22565,67695).
route(harbor10,harbor8,tr13,7081,42486).
route(harbor10,harbor8,tr2,7081,21243).
route(harbor10,harbor9,tr13,7552,45312).
route(harbor10,harbor9,tr2,7552,22656).
route(harbor10,harbor11,tr13,11259,67554).
route(harbor10,harbor11,tr2,11259,33777).
route(harbor10,harbor12,tr13,6538,39228).
route(harbor10,harbor12,tr2,6538,19614).
route(harbor10,harbor13,tr13,27302,163812).
route(harbor10,harbor13,tr2,27302,81906).
route(harbor10,harbor14,tr13,28929,173574).
route(harbor10,harbor14,tr2,28929,86787).
route(harbor10,harbor15,tr13,23187,139122).
route(harbor10,harbor15,tr2,23187,69561).
route(harbor10,harbor16,tr13,23912,143472).
route(harbor10,harbor16,tr2,23912,71736).
route(harbor10,prodloc0,tr0,20841,541866).
route(harbor10,prodloc0,tr13,20841,125046).
route(harbor10,prodloc1,tr0,4580,119080).
route(harbor10,prodloc1,tr13,4580,27480).
route(harbor10,prodloc2,tr0,13263,344838).
route(harbor10,prodloc2,tr13,13263,79578).
route(harbor10,prodloc3,tr0,11390,296140).
route(harbor10,prodloc3,tr13,11390,68340).
route(harbor10,prodloc4,tr0,1784,46384).
route(harbor10,prodloc4,tr13,1784,10704).
route(harbor10,prodloc5,tr0,27428,713128).
route(harbor10,prodloc5,tr13,27428,164568).
route(harbor10,prodloc6,tr0,4255,110630).
route(harbor10,prodloc6,tr13,4255,25530).
route(harbor10,prodloc7,tr0,469,12194).
route(harbor10,prodloc7,tr13,469,2814).
route(harbor10,prodloc8,tr0,2319,60294).
route(harbor10,prodloc8,tr13,2319,13914).
route(harbor10,prodloc9,tr0,20496,532896).
route(harbor10,prodloc9,tr13,20496,122976).
route(harbor10,prodloc10,tr0,24279,631254).
route(harbor10,prodloc10,tr13,24279,145674).
route(harbor10,prodloc11,tr0,28833,749658).
route(harbor10,prodloc11,tr13,28833,172998).
route(harbor10,prodloc12,tr0,8377,217802).
route(harbor10,prodloc12,tr13,8377,50262).
route(harbor10,prodloc13,tr0,14116,367016).
route(harbor10,prodloc13,tr13,14116,84696).
route(harbor10,prodloc14,tr0,5351,139126).
route(harbor10,prodloc14,tr13,5351,32106).
route(harbor10,prodloc15,tr0,1817,47242).
route(harbor10,prodloc15,tr13,1817,10902).
route(harbor10,prodloc16,tr0,2770,72020).
route(harbor10,prodloc16,tr13,2770,16620).
route(harbor10,prodloc17,tr0,21800,566800).
route(harbor10,prodloc17,tr13,21800,130800).
route(harbor10,prodloc18,tr0,27568,716768).
route(harbor10,prodloc18,tr13,27568,165408).
route(harbor10,prodloc19,tr0,12482,324532).
route(harbor10,prodloc19,tr13,12482,74892).
route(harbor10,prodloc20,tr0,28527,741702).
route(harbor10,prodloc20,tr13,28527,171162).
route(harbor10,prodloc21,tr0,16580,431080).
route(harbor10,prodloc21,tr13,16580,99480).
route(harbor10,prodloc22,tr0,21974,571324).
route(harbor10,prodloc22,tr13,21974,131844).
route(harbor10,prodloc23,tr0,9240,240240).
route(harbor10,prodloc23,tr13,9240,55440).
route(harbor10,prodloc24,tr0,19622,510172).
route(harbor10,prodloc24,tr13,19622,117732).
route(harbor10,prodloc25,tr0,7938,206388).
route(harbor10,prodloc25,tr13,7938,47628).
route(harbor10,prodloc26,tr0,22699,590174).
route(harbor10,prodloc26,tr13,22699,136194).
route(harbor10,prodloc27,tr0,9604,249704).
route(harbor10,prodloc27,tr13,9604,57624).
route(harbor10,prodloc28,tr0,1484,38584).
route(harbor10,prodloc28,tr13,1484,8904).
route(harbor10,prodloc29,tr0,15057,391482).
route(harbor10,prodloc29,tr13,15057,90342).
route(harbor10,prodloc30,tr0,6075,157950).
route(harbor10,prodloc30,tr13,6075,36450).
route(harbor10,prodloc31,tr0,5164,134264).
route(harbor10,prodloc31,tr13,5164,30984).
route(harbor10,prodloc32,tr0,8817,229242).
route(harbor10,prodloc32,tr13,8817,52902).
route(harbor10,prodloc33,tr0,14610,379860).
route(harbor10,prodloc33,tr13,14610,87660).
route(harbor11,harbor0,tr13,148,888).
route(harbor11,harbor0,tr2,148,444).
route(harbor11,harbor1,tr13,8655,51930).
route(harbor11,harbor1,tr2,8655,25965).
route(harbor11,harbor2,tr13,11962,71772).
route(harbor11,harbor2,tr2,11962,35886).
route(harbor11,harbor3,tr13,10808,64848).
route(harbor11,harbor3,tr2,10808,32424).
route(harbor11,harbor4,tr13,17956,107736).
route(harbor11,harbor4,tr2,17956,53868).
route(harbor11,harbor5,tr13,10631,63786).
route(harbor11,harbor5,tr2,10631,31893).
route(harbor11,harbor6,tr13,8040,48240).
route(harbor11,harbor6,tr2,8040,24120).
route(harbor11,harbor7,tr13,1158,6948).
route(harbor11,harbor7,tr2,1158,3474).
route(harbor11,harbor8,tr13,28944,173664).
route(harbor11,harbor8,tr2,28944,86832).
route(harbor11,harbor9,tr13,10173,61038).
route(harbor11,harbor9,tr2,10173,30519).
route(harbor11,harbor10,tr13,7169,43014).
route(harbor11,harbor10,tr2,7169,21507).
route(harbor11,harbor12,tr13,11714,70284).
route(harbor11,harbor12,tr2,11714,35142).
route(harbor11,harbor13,tr13,6025,36150).
route(harbor11,harbor13,tr2,6025,18075).
route(harbor11,harbor14,tr13,65,390).
route(harbor11,harbor14,tr2,65,195).
route(harbor11,harbor15,tr13,11018,66108).
route(harbor11,harbor15,tr2,11018,33054).
route(harbor11,harbor16,tr13,12535,75210).
route(harbor11,harbor16,tr2,12535,37605).
route(harbor11,prodloc0,tr0,2750,71500).
route(harbor11,prodloc0,tr13,2750,16500).
route(harbor11,prodloc1,tr0,15555,404430).
route(harbor11,prodloc1,tr13,15555,93330).
route(harbor11,prodloc2,tr0,9141,237666).
route(harbor11,prodloc2,tr13,9141,54846).
route(harbor11,prodloc3,tr0,16476,428376).
route(harbor11,prodloc3,tr13,16476,98856).
route(harbor11,prodloc4,tr0,21498,558948).
route(harbor11,prodloc4,tr13,21498,128988).
route(harbor11,prodloc5,tr0,6587,171262).
route(harbor11,prodloc5,tr13,6587,39522).
route(harbor11,prodloc6,tr0,8134,211484).
route(harbor11,prodloc6,tr13,8134,48804).
route(harbor11,prodloc7,tr0,16541,430066).
route(harbor11,prodloc7,tr13,16541,99246).
route(harbor11,prodloc8,tr0,25437,661362).
route(harbor11,prodloc8,tr13,25437,152622).
route(harbor11,prodloc9,tr0,164,4264).
route(harbor11,prodloc9,tr13,164,984).
route(harbor11,prodloc10,tr0,2979,77454).
route(harbor11,prodloc10,tr13,2979,17874).
route(harbor11,prodloc11,tr0,8658,225108).
route(harbor11,prodloc11,tr13,8658,51948).
route(harbor11,prodloc12,tr0,26774,696124).
route(harbor11,prodloc12,tr13,26774,160644).
route(harbor11,prodloc13,tr0,2943,76518).
route(harbor11,prodloc13,tr13,2943,17658).
route(harbor11,prodloc14,tr0,4716,122616).
route(harbor11,prodloc14,tr13,4716,28296).
route(harbor11,prodloc15,tr0,13093,340418).
route(harbor11,prodloc15,tr13,13093,78558).
route(harbor11,prodloc16,tr0,19230,499980).
route(harbor11,prodloc16,tr13,19230,115380).
route(harbor11,prodloc17,tr0,1367,35542).
route(harbor11,prodloc17,tr13,1367,8202).
route(harbor11,prodloc18,tr0,12911,335686).
route(harbor11,prodloc18,tr13,12911,77466).
route(harbor11,prodloc19,tr0,739,19214).
route(harbor11,prodloc19,tr13,739,4434).
route(harbor11,prodloc20,tr0,9820,255320).
route(harbor11,prodloc20,tr13,9820,58920).
route(harbor11,prodloc21,tr0,9971,259246).
route(harbor11,prodloc21,tr13,9971,59826).
route(harbor11,prodloc22,tr0,20635,536510).
route(harbor11,prodloc22,tr13,20635,123810).
route(harbor11,prodloc23,tr0,7630,198380).
route(harbor11,prodloc23,tr13,7630,45780).
route(harbor11,prodloc24,tr0,2770,72020).
route(harbor11,prodloc24,tr13,2770,16620).
route(harbor11,prodloc25,tr0,19190,498940).
route(harbor11,prodloc25,tr13,19190,115140).
route(harbor11,prodloc26,tr0,17342,450892).
route(harbor11,prodloc26,tr13,17342,104052).
route(harbor11,prodloc27,tr0,27961,726986).
route(harbor11,prodloc27,tr13,27961,167766).
route(harbor11,prodloc28,tr0,24595,639470).
route(harbor11,prodloc28,tr13,24595,147570).
route(harbor11,prodloc29,tr0,5089,132314).
route(harbor11,prodloc29,tr13,5089,30534).
route(harbor11,prodloc30,tr0,21548,560248).
route(harbor11,prodloc30,tr13,21548,129288).
route(harbor11,prodloc31,tr0,23463,610038).
route(harbor11,prodloc31,tr13,23463,140778).
route(harbor11,prodloc32,tr0,25693,668018).
route(harbor11,prodloc32,tr13,25693,154158).
route(harbor11,prodloc33,tr0,28808,749008).
route(harbor11,prodloc33,tr13,28808,172848).
route(harbor12,harbor0,tr13,19578,117468).
route(harbor12,harbor0,tr2,19578,58734).
route(harbor12,harbor1,tr13,12793,76758).
route(harbor12,harbor1,tr2,12793,38379).
route(harbor12,harbor2,tr13,25074,150444).
route(harbor12,harbor2,tr2,25074,75222).
route(harbor12,harbor3,tr13,10716,64296).
route(harbor12,harbor3,tr2,10716,32148).
route(harbor12,harbor4,tr13,23645,141870).
route(harbor12,harbor4,tr2,23645,70935).
route(harbor12,harbor5,tr13,16223,97338).
route(harbor12,harbor5,tr2,16223,48669).
route(harbor12,harbor6,tr13,4927,29562).
route(harbor12,harbor6,tr2,4927,14781).
route(harbor12,harbor7,tr13,9341,56046).
route(harbor12,harbor7,tr2,9341,28023).
route(harbor12,harbor8,tr13,23759,142554).
route(harbor12,harbor8,tr2,23759,71277).
route(harbor12,harbor9,tr13,20303,121818).
route(harbor12,harbor9,tr2,20303,60909).
route(harbor12,harbor10,tr13,21107,126642).
route(harbor12,harbor10,tr2,21107,63321).
route(harbor12,harbor11,tr13,4773,28638).
route(harbor12,harbor11,tr2,4773,14319).
route(harbor12,harbor13,tr13,1464,8784).
route(harbor12,harbor13,tr2,1464,4392).
route(harbor12,harbor14,tr13,27058,162348).
route(harbor12,harbor14,tr2,27058,81174).
route(harbor12,harbor15,tr13,27400,164400).
route(harbor12,harbor15,tr2,27400,82200).
route(harbor12,harbor16,tr13,23459,140754).
route(harbor12,harbor16,tr2,23459,70377).
route(harbor12,prodloc0,tr0,16811,437086).
route(harbor12,prodloc0,tr13,16811,100866).
route(harbor12,prodloc1,tr0,20558,534508).
route(harbor12,prodloc1,tr13,20558,123348).
route(harbor12,prodloc2,tr0,14067,365742).
route(harbor12,prodloc2,tr13,14067,84402).
route(harbor12,prodloc3,tr0,24048,625248).
route(harbor12,prodloc3,tr13,24048,144288).
route(harbor12,prodloc4,tr0,22974,597324).
route(harbor12,prodloc4,tr13,22974,137844).
route(harbor12,prodloc5,tr0,26616,692016).
route(harbor12,prodloc5,tr13,26616,159696).
route(harbor12,prodloc6,tr0,16567,430742).
route(harbor12,prodloc6,tr13,16567,99402).
route(harbor12,prodloc7,tr0,4566,118716).
route(harbor12,prodloc7,tr13,4566,27396).
route(harbor12,prodloc8,tr0,17164,446264).
route(harbor12,prodloc8,tr13,17164,102984).
route(harbor12,prodloc9,tr0,24671,641446).
route(harbor12,prodloc9,tr13,24671,148026).
route(harbor12,prodloc10,tr0,16529,429754).
route(harbor12,prodloc10,tr13,16529,99174).
route(harbor12,prodloc11,tr0,18629,484354).
route(harbor12,prodloc11,tr13,18629,111774).
route(harbor12,prodloc12,tr0,27361,711386).
route(harbor12,prodloc12,tr13,27361,164166).
route(harbor12,prodloc13,tr0,26639,692614).
route(harbor12,prodloc13,tr13,26639,159834).
route(harbor12,prodloc14,tr0,26369,685594).
route(harbor12,prodloc14,tr13,26369,158214).
route(harbor12,prodloc15,tr0,528,13728).
route(harbor12,prodloc15,tr13,528,3168).
route(harbor12,prodloc16,tr0,27081,704106).
route(harbor12,prodloc16,tr13,27081,162486).
route(harbor12,prodloc17,tr0,22496,584896).
route(harbor12,prodloc17,tr13,22496,134976).
route(harbor12,prodloc18,tr0,19140,497640).
route(harbor12,prodloc18,tr13,19140,114840).
route(harbor12,prodloc19,tr0,26149,679874).
route(harbor12,prodloc19,tr13,26149,156894).
route(harbor12,prodloc20,tr0,23306,605956).
route(harbor12,prodloc20,tr13,23306,139836).
route(harbor12,prodloc21,tr0,22379,581854).
route(harbor12,prodloc21,tr13,22379,134274).
route(harbor12,prodloc22,tr0,22720,590720).
route(harbor12,prodloc22,tr13,22720,136320).
route(harbor12,prodloc23,tr0,21068,547768).
route(harbor12,prodloc23,tr13,21068,126408).
route(harbor12,prodloc24,tr0,7536,195936).
route(harbor12,prodloc24,tr13,7536,45216).
route(harbor12,prodloc25,tr0,2790,72540).
route(harbor12,prodloc25,tr13,2790,16740).
route(harbor12,prodloc26,tr0,1023,26598).
route(harbor12,prodloc26,tr13,1023,6138).
route(harbor12,prodloc27,tr0,1373,35698).
route(harbor12,prodloc27,tr13,1373,8238).
route(harbor12,prodloc28,tr0,4363,113438).
route(harbor12,prodloc28,tr13,4363,26178).
route(harbor12,prodloc29,tr0,20879,542854).
route(harbor12,prodloc29,tr13,20879,125274).
route(harbor12,prodloc30,tr0,11821,307346).
route(harbor12,prodloc30,tr13,11821,70926).
route(harbor12,prodloc31,tr0,3439,89414).
route(harbor12,prodloc31,tr13,3439,20634).
route(harbor12,prodloc32,tr0,12343,320918).
route(harbor12,prodloc32,tr13,12343,74058).
route(harbor12,prodloc33,tr0,27390,712140).
route(harbor12,prodloc33,tr13,27390,164340).
route(harbor13,harbor0,tr13,14821,88926).
route(harbor13,harbor0,tr2,14821,44463).
route(harbor13,harbor1,tr13,18331,109986).
route(harbor13,harbor1,tr2,18331,54993).
route(harbor13,harbor2,tr13,1693,10158).
route(harbor13,harbor2,tr2,1693,5079).
route(harbor13,harbor3,tr13,20600,123600).
route(harbor13,harbor3,tr2,20600,61800).
route(harbor13,harbor4,tr13,647,3882).
route(harbor13,harbor4,tr2,647,1941).
route(harbor13,harbor5,tr13,20550,123300).
route(harbor13,harbor5,tr2,20550,61650).
route(harbor13,harbor6,tr13,17444,104664).
route(harbor13,harbor6,tr2,17444,52332).
route(harbor13,harbor7,tr13,22334,134004).
route(harbor13,harbor7,tr2,22334,67002).
route(harbor13,harbor8,tr13,8043,48258).
route(harbor13,harbor8,tr2,8043,24129).
route(harbor13,harbor9,tr13,16063,96378).
route(harbor13,harbor9,tr2,16063,48189).
route(harbor13,harbor10,tr13,8673,52038).
route(harbor13,harbor10,tr2,8673,26019).
route(harbor13,harbor11,tr13,138,828).
route(harbor13,harbor11,tr2,138,414).
route(harbor13,harbor12,tr13,15003,90018).
route(harbor13,harbor12,tr2,15003,45009).
route(harbor13,harbor14,tr13,26168,157008).
route(harbor13,harbor14,tr2,26168,78504).
route(harbor13,harbor15,tr13,2327,13962).
route(harbor13,harbor15,tr2,2327,6981).
route(harbor13,harbor16,tr13,24549,147294).
route(harbor13,harbor16,tr2,24549,73647).
route(harbor13,prodloc0,tr0,16483,428558).
route(harbor13,prodloc0,tr13,16483,98898).
route(harbor13,prodloc1,tr0,17539,456014).
route(harbor13,prodloc1,tr13,17539,105234).
route(harbor13,prodloc2,tr0,3014,78364).
route(harbor13,prodloc2,tr13,3014,18084).
route(harbor13,prodloc3,tr0,21605,561730).
route(harbor13,prodloc3,tr13,21605,129630).
route(harbor13,prodloc4,tr0,17237,448162).
route(harbor13,prodloc4,tr13,17237,103422).
route(harbor13,prodloc5,tr0,2166,56316).
route(harbor13,prodloc5,tr13,2166,12996).
route(harbor13,prodloc6,tr0,24438,635388).
route(harbor13,prodloc6,tr13,24438,146628).
route(harbor13,prodloc7,tr0,24145,627770).
route(harbor13,prodloc7,tr13,24145,144870).
route(harbor13,prodloc8,tr0,15529,403754).
route(harbor13,prodloc8,tr13,15529,93174).
route(harbor13,prodloc9,tr0,8265,214890).
route(harbor13,prodloc9,tr13,8265,49590).
route(harbor13,prodloc10,tr0,26518,689468).
route(harbor13,prodloc10,tr13,26518,159108).
route(harbor13,prodloc11,tr0,2441,63466).
route(harbor13,prodloc11,tr13,2441,14646).
route(harbor13,prodloc12,tr0,27728,720928).
route(harbor13,prodloc12,tr13,27728,166368).
route(harbor13,prodloc13,tr0,8703,226278).
route(harbor13,prodloc13,tr13,8703,52218).
route(harbor13,prodloc14,tr0,7695,200070).
route(harbor13,prodloc14,tr13,7695,46170).
route(harbor13,prodloc15,tr0,23900,621400).
route(harbor13,prodloc15,tr13,23900,143400).
route(harbor13,prodloc16,tr0,24789,644514).
route(harbor13,prodloc16,tr13,24789,148734).
route(harbor13,prodloc17,tr0,6726,174876).
route(harbor13,prodloc17,tr13,6726,40356).
route(harbor13,prodloc18,tr0,7562,196612).
route(harbor13,prodloc18,tr13,7562,45372).
route(harbor13,prodloc19,tr0,24244,630344).
route(harbor13,prodloc19,tr13,24244,145464).
route(harbor13,prodloc20,tr0,21298,553748).
route(harbor13,prodloc20,tr13,21298,127788).
route(harbor13,prodloc21,tr0,15086,392236).
route(harbor13,prodloc21,tr13,15086,90516).
route(harbor13,prodloc22,tr0,16187,420862).
route(harbor13,prodloc22,tr13,16187,97122).
route(harbor13,prodloc23,tr0,27708,720408).
route(harbor13,prodloc23,tr13,27708,166248).
route(harbor13,prodloc24,tr0,12537,325962).
route(harbor13,prodloc24,tr13,12537,75222).
route(harbor13,prodloc25,tr0,2516,65416).
route(harbor13,prodloc25,tr13,2516,15096).
route(harbor13,prodloc26,tr0,15698,408148).
route(harbor13,prodloc26,tr13,15698,94188).
route(harbor13,prodloc27,tr0,22405,582530).
route(harbor13,prodloc27,tr13,22405,134430).
route(harbor13,prodloc28,tr0,9416,244816).
route(harbor13,prodloc28,tr13,9416,56496).
route(harbor13,prodloc29,tr0,25134,653484).
route(harbor13,prodloc29,tr13,25134,150804).
route(harbor13,prodloc30,tr0,1533,39858).
route(harbor13,prodloc30,tr13,1533,9198).
route(harbor13,prodloc31,tr0,20219,525694).
route(harbor13,prodloc31,tr13,20219,121314).
route(harbor13,prodloc32,tr0,20737,539162).
route(harbor13,prodloc32,tr13,20737,124422).
route(harbor13,prodloc33,tr0,21064,547664).
route(harbor13,prodloc33,tr13,21064,126384).
route(harbor14,harbor0,tr13,6527,39162).
route(harbor14,harbor0,tr2,6527,19581).
route(harbor14,harbor1,tr13,2568,15408).
route(harbor14,harbor1,tr2,2568,7704).
route(harbor14,harbor2,tr13,19681,118086).
route(harbor14,harbor2,tr2,19681,59043).
route(harbor14,harbor3,tr13,4860,29160).
route(harbor14,harbor3,tr2,4860,14580).
route(harbor14,harbor4,tr13,10901,65406).
route(harbor14,harbor4,tr2,10901,32703).
route(harbor14,harbor5,tr13,8351,50106).
route(harbor14,harbor5,tr2,8351,25053).
route(harbor14,harbor6,tr13,21379,128274).
route(harbor14,harbor6,tr2,21379,64137).
route(harbor14,harbor7,tr13,24383,146298).
route(harbor14,harbor7,tr2,24383,73149).
route(harbor14,harbor8,tr13,22734,136404).
route(harbor14,harbor8,tr2,22734,68202).
route(harbor14,harbor9,tr13,10005,60030).
route(harbor14,harbor9,tr2,10005,30015).
route(harbor14,harbor10,tr13,20383,122298).
route(harbor14,harbor10,tr2,20383,61149).
route(harbor14,harbor11,tr13,18634,111804).
route(harbor14,harbor11,tr2,18634,55902).
route(harbor14,harbor12,tr13,4402,26412).
route(harbor14,harbor12,tr2,4402,13206).
route(harbor14,harbor13,tr13,438,2628).
route(harbor14,harbor13,tr2,438,1314).
route(harbor14,harbor15,tr13,15837,95022).
route(harbor14,harbor15,tr2,15837,47511).
route(harbor14,harbor16,tr13,2017,12102).
route(harbor14,harbor16,tr2,2017,6051).
route(harbor14,prodloc0,tr0,15920,413920).
route(harbor14,prodloc0,tr13,15920,95520).
route(harbor14,prodloc1,tr0,8809,229034).
route(harbor14,prodloc1,tr13,8809,52854).
route(harbor14,prodloc2,tr0,22022,572572).
route(harbor14,prodloc2,tr13,22022,132132).
route(harbor14,prodloc3,tr0,3263,84838).
route(harbor14,prodloc3,tr13,3263,19578).
route(harbor14,prodloc4,tr0,22683,589758).
route(harbor14,prodloc4,tr13,22683,136098).
route(harbor14,prodloc5,tr0,7135,185510).
route(harbor14,prodloc5,tr13,7135,42810).
route(harbor14,prodloc6,tr0,22143,575718).
route(harbor14,prodloc6,tr13,22143,132858).
route(harbor14,prodloc7,tr0,16045,417170).
route(harbor14,prodloc7,tr13,16045,96270).
route(harbor14,prodloc8,tr0,9532,247832).
route(harbor14,prodloc8,tr13,9532,57192).
route(harbor14,prodloc9,tr0,23230,603980).
route(harbor14,prodloc9,tr13,23230,139380).
route(harbor14,prodloc10,tr0,16927,440102).
route(harbor14,prodloc10,tr13,16927,101562).
route(harbor14,prodloc11,tr0,9358,243308).
route(harbor14,prodloc11,tr13,9358,56148).
route(harbor14,prodloc12,tr0,15228,395928).
route(harbor14,prodloc12,tr13,15228,91368).
route(harbor14,prodloc13,tr0,15268,396968).
route(harbor14,prodloc13,tr13,15268,91608).
route(harbor14,prodloc14,tr0,15283,397358).
route(harbor14,prodloc14,tr13,15283,91698).
route(harbor14,prodloc15,tr0,25140,653640).
route(harbor14,prodloc15,tr13,25140,150840).
route(harbor14,prodloc16,tr0,3885,101010).
route(harbor14,prodloc16,tr13,3885,23310).
route(harbor14,prodloc17,tr0,17994,467844).
route(harbor14,prodloc17,tr13,17994,107964).
route(harbor14,prodloc18,tr0,6531,169806).
route(harbor14,prodloc18,tr13,6531,39186).
route(harbor14,prodloc19,tr0,10214,265564).
route(harbor14,prodloc19,tr13,10214,61284).
route(harbor14,prodloc20,tr0,2815,73190).
route(harbor14,prodloc20,tr13,2815,16890).
route(harbor14,prodloc21,tr0,15499,402974).
route(harbor14,prodloc21,tr13,15499,92994).
route(harbor14,prodloc22,tr0,575,14950).
route(harbor14,prodloc22,tr13,575,3450).
route(harbor14,prodloc23,tr0,9491,246766).
route(harbor14,prodloc23,tr13,9491,56946).
route(harbor14,prodloc24,tr0,15041,391066).
route(harbor14,prodloc24,tr13,15041,90246).
route(harbor14,prodloc25,tr0,2507,65182).
route(harbor14,prodloc25,tr13,2507,15042).
route(harbor14,prodloc26,tr0,26868,698568).
route(harbor14,prodloc26,tr13,26868,161208).
route(harbor14,prodloc27,tr0,16602,431652).
route(harbor14,prodloc27,tr13,16602,99612).
route(harbor14,prodloc28,tr0,14729,382954).
route(harbor14,prodloc28,tr13,14729,88374).
route(harbor14,prodloc29,tr0,8805,228930).
route(harbor14,prodloc29,tr13,8805,52830).
route(harbor14,prodloc30,tr0,12678,329628).
route(harbor14,prodloc30,tr13,12678,76068).
route(harbor14,prodloc31,tr0,6877,178802).
route(harbor14,prodloc31,tr13,6877,41262).
route(harbor14,prodloc32,tr0,6906,179556).
route(harbor14,prodloc32,tr13,6906,41436).
route(harbor14,prodloc33,tr0,2446,63596).
route(harbor14,prodloc33,tr13,2446,14676).
route(harbor15,harbor0,tr13,19083,114498).
route(harbor15,harbor0,tr2,19083,57249).
route(harbor15,harbor1,tr13,2989,17934).
route(harbor15,harbor1,tr2,2989,8967).
route(harbor15,harbor2,tr13,4674,28044).
route(harbor15,harbor2,tr2,4674,14022).
route(harbor15,harbor3,tr13,24523,147138).
route(harbor15,harbor3,tr2,24523,73569).
route(harbor15,harbor4,tr13,17202,103212).
route(harbor15,harbor4,tr2,17202,51606).
route(harbor15,harbor5,tr13,8608,51648).
route(harbor15,harbor5,tr2,8608,25824).
route(harbor15,harbor6,tr13,11811,70866).
route(harbor15,harbor6,tr2,11811,35433).
route(harbor15,harbor7,tr13,4375,26250).
route(harbor15,harbor7,tr2,4375,13125).
route(harbor15,harbor8,tr13,19801,118806).
route(harbor15,harbor8,tr2,19801,59403).
route(harbor15,harbor9,tr13,26906,161436).
route(harbor15,harbor9,tr2,26906,80718).
route(harbor15,harbor10,tr13,20728,124368).
route(harbor15,harbor10,tr2,20728,62184).
route(harbor15,harbor11,tr13,16700,100200).
route(harbor15,harbor11,tr2,16700,50100).
route(harbor15,harbor12,tr13,9190,55140).
route(harbor15,harbor12,tr2,9190,27570).
route(harbor15,harbor13,tr13,29090,174540).
route(harbor15,harbor13,tr2,29090,87270).
route(harbor15,harbor14,tr13,3722,22332).
route(harbor15,harbor14,tr2,3722,11166).
route(harbor15,harbor16,tr13,23076,138456).
route(harbor15,harbor16,tr2,23076,69228).
route(harbor15,prodloc0,tr0,11968,311168).
route(harbor15,prodloc0,tr13,11968,71808).
route(harbor15,prodloc1,tr0,7583,197158).
route(harbor15,prodloc1,tr13,7583,45498).
route(harbor15,prodloc2,tr0,16316,424216).
route(harbor15,prodloc2,tr13,16316,97896).
route(harbor15,prodloc3,tr0,28711,746486).
route(harbor15,prodloc3,tr13,28711,172266).
route(harbor15,prodloc4,tr0,15931,414206).
route(harbor15,prodloc4,tr13,15931,95586).
route(harbor15,prodloc5,tr0,12915,335790).
route(harbor15,prodloc5,tr13,12915,77490).
route(harbor15,prodloc6,tr0,815,21190).
route(harbor15,prodloc6,tr13,815,4890).
route(harbor15,prodloc7,tr0,5214,135564).
route(harbor15,prodloc7,tr13,5214,31284).
route(harbor15,prodloc8,tr0,119,3094).
route(harbor15,prodloc8,tr13,119,714).
route(harbor15,prodloc9,tr0,16113,418938).
route(harbor15,prodloc9,tr13,16113,96678).
route(harbor15,prodloc10,tr0,22336,580736).
route(harbor15,prodloc10,tr13,22336,134016).
route(harbor15,prodloc11,tr0,14772,384072).
route(harbor15,prodloc11,tr13,14772,88632).
route(harbor15,prodloc12,tr0,13286,345436).
route(harbor15,prodloc12,tr13,13286,79716).
route(harbor15,prodloc13,tr0,9896,257296).
route(harbor15,prodloc13,tr13,9896,59376).
route(harbor15,prodloc14,tr0,23830,619580).
route(harbor15,prodloc14,tr13,23830,142980).
route(harbor15,prodloc15,tr0,4612,119912).
route(harbor15,prodloc15,tr13,4612,27672).
route(harbor15,prodloc16,tr0,13639,354614).
route(harbor15,prodloc16,tr13,13639,81834).
route(harbor15,prodloc17,tr0,11272,293072).
route(harbor15,prodloc17,tr13,11272,67632).
route(harbor15,prodloc18,tr0,12326,320476).
route(harbor15,prodloc18,tr13,12326,73956).
route(harbor15,prodloc19,tr0,10359,269334).
route(harbor15,prodloc19,tr13,10359,62154).
route(harbor15,prodloc20,tr0,3963,103038).
route(harbor15,prodloc20,tr13,3963,23778).
route(harbor15,prodloc21,tr0,27534,715884).
route(harbor15,prodloc21,tr13,27534,165204).
route(harbor15,prodloc22,tr0,10858,282308).
route(harbor15,prodloc22,tr13,10858,65148).
route(harbor15,prodloc23,tr0,59,1534).
route(harbor15,prodloc23,tr13,59,354).
route(harbor15,prodloc24,tr0,10636,276536).
route(harbor15,prodloc24,tr13,10636,63816).
route(harbor15,prodloc25,tr0,24602,639652).
route(harbor15,prodloc25,tr13,24602,147612).
route(harbor15,prodloc26,tr0,11086,288236).
route(harbor15,prodloc26,tr13,11086,66516).
route(harbor15,prodloc27,tr0,27497,714922).
route(harbor15,prodloc27,tr13,27497,164982).
route(harbor15,prodloc28,tr0,13052,339352).
route(harbor15,prodloc28,tr13,13052,78312).
route(harbor15,prodloc29,tr0,3935,102310).
route(harbor15,prodloc29,tr13,3935,23610).
route(harbor15,prodloc30,tr0,6416,166816).
route(harbor15,prodloc30,tr13,6416,38496).
route(harbor15,prodloc31,tr0,23366,607516).
route(harbor15,prodloc31,tr13,23366,140196).
route(harbor15,prodloc32,tr0,386,10036).
route(harbor15,prodloc32,tr13,386,2316).
route(harbor15,prodloc33,tr0,24247,630422).
route(harbor15,prodloc33,tr13,24247,145482).
route(harbor16,harbor0,tr13,9527,57162).
route(harbor16,harbor0,tr2,9527,28581).
route(harbor16,harbor1,tr13,8327,49962).
route(harbor16,harbor1,tr2,8327,24981).
route(harbor16,harbor2,tr13,12226,73356).
route(harbor16,harbor2,tr2,12226,36678).
route(harbor16,harbor3,tr13,2159,12954).
route(harbor16,harbor3,tr2,2159,6477).
route(harbor16,harbor4,tr13,12904,77424).
route(harbor16,harbor4,tr2,12904,38712).
route(harbor16,harbor5,tr13,12814,76884).
route(harbor16,harbor5,tr2,12814,38442).
route(harbor16,harbor6,tr13,28537,171222).
route(harbor16,harbor6,tr2,28537,85611).
route(harbor16,harbor7,tr13,19336,116016).
route(harbor16,harbor7,tr2,19336,58008).
route(harbor16,harbor8,tr13,2533,15198).
route(harbor16,harbor8,tr2,2533,7599).
route(harbor16,harbor9,tr13,11849,71094).
route(harbor16,harbor9,tr2,11849,35547).
route(harbor16,harbor10,tr13,14056,84336).
route(harbor16,harbor10,tr2,14056,42168).
route(harbor16,harbor11,tr13,24791,148746).
route(harbor16,harbor11,tr2,24791,74373).
route(harbor16,harbor12,tr13,9046,54276).
route(harbor16,harbor12,tr2,9046,27138).
route(harbor16,harbor13,tr13,28022,168132).
route(harbor16,harbor13,tr2,28022,84066).
route(harbor16,harbor14,tr13,1611,9666).
route(harbor16,harbor14,tr2,1611,4833).
route(harbor16,harbor15,tr13,9225,55350).
route(harbor16,harbor15,tr2,9225,27675).
route(harbor16,prodloc0,tr0,3334,86684).
route(harbor16,prodloc0,tr13,3334,20004).
route(harbor16,prodloc1,tr0,1693,44018).
route(harbor16,prodloc1,tr13,1693,10158).
route(harbor16,prodloc2,tr0,27352,711152).
route(harbor16,prodloc2,tr13,27352,164112).
route(harbor16,prodloc3,tr0,21693,564018).
route(harbor16,prodloc3,tr13,21693,130158).
route(harbor16,prodloc4,tr0,9361,243386).
route(harbor16,prodloc4,tr13,9361,56166).
route(harbor16,prodloc5,tr0,20808,541008).
route(harbor16,prodloc5,tr13,20808,124848).
route(harbor16,prodloc6,tr0,4881,126906).
route(harbor16,prodloc6,tr13,4881,29286).
route(harbor16,prodloc7,tr0,8171,212446).
route(harbor16,prodloc7,tr13,8171,49026).
route(harbor16,prodloc8,tr0,8709,226434).
route(harbor16,prodloc8,tr13,8709,52254).
route(harbor16,prodloc9,tr0,14296,371696).
route(harbor16,prodloc9,tr13,14296,85776).
route(harbor16,prodloc10,tr0,16745,435370).
route(harbor16,prodloc10,tr13,16745,100470).
route(harbor16,prodloc11,tr0,10343,268918).
route(harbor16,prodloc11,tr13,10343,62058).
route(harbor16,prodloc12,tr0,6222,161772).
route(harbor16,prodloc12,tr13,6222,37332).
route(harbor16,prodloc13,tr0,25337,658762).
route(harbor16,prodloc13,tr13,25337,152022).
route(harbor16,prodloc14,tr0,12235,318110).
route(harbor16,prodloc14,tr13,12235,73410).
route(harbor16,prodloc15,tr0,25729,668954).
route(harbor16,prodloc15,tr13,25729,154374).
route(harbor16,prodloc16,tr0,14018,364468).
route(harbor16,prodloc16,tr13,14018,84108).
route(harbor16,prodloc17,tr0,952,24752).
route(harbor16,prodloc17,tr13,952,5712).
route(harbor16,prodloc18,tr0,26608,691808).
route(harbor16,prodloc18,tr13,26608,159648).
route(harbor16,prodloc19,tr0,24959,648934).
route(harbor16,prodloc19,tr13,24959,149754).
route(harbor16,prodloc20,tr0,20675,537550).
route(harbor16,prodloc20,tr13,20675,124050).
route(harbor16,prodloc21,tr0,13110,340860).
route(harbor16,prodloc21,tr13,13110,78660).
route(harbor16,prodloc22,tr0,28697,746122).
route(harbor16,prodloc22,tr13,28697,172182).
route(harbor16,prodloc23,tr0,18160,472160).
route(harbor16,prodloc23,tr13,18160,108960).
route(harbor16,prodloc24,tr0,17999,467974).
route(harbor16,prodloc24,tr13,17999,107994).
route(harbor16,prodloc25,tr0,6668,173368).
route(harbor16,prodloc25,tr13,6668,40008).
route(harbor16,prodloc26,tr0,23580,613080).
route(harbor16,prodloc26,tr13,23580,141480).
route(harbor16,prodloc27,tr0,2642,68692).
route(harbor16,prodloc27,tr13,2642,15852).
route(harbor16,prodloc28,tr0,1623,42198).
route(harbor16,prodloc28,tr13,1623,9738).
route(harbor16,prodloc29,tr0,23999,623974).
route(harbor16,prodloc29,tr13,23999,143994).
route(harbor16,prodloc30,tr0,13465,350090).
route(harbor16,prodloc30,tr13,13465,80790).
route(harbor16,prodloc31,tr0,14775,384150).
route(harbor16,prodloc31,tr13,14775,88650).
route(harbor16,prodloc32,tr0,20151,523926).
route(harbor16,prodloc32,tr13,20151,120906).
route(harbor16,prodloc33,tr0,24665,641290).
route(harbor16,prodloc33,tr13,24665,147990).
route(prodloc0,harbor0,tr0,4542,118092).
route(prodloc0,harbor0,tr13,4542,27252).
route(prodloc0,harbor1,tr0,21120,549120).
route(prodloc0,harbor1,tr13,21120,126720).
route(prodloc0,harbor2,tr0,28493,740818).
route(prodloc0,harbor2,tr13,28493,170958).
route(prodloc0,harbor3,tr0,9380,243880).
route(prodloc0,harbor3,tr13,9380,56280).
route(prodloc0,harbor4,tr0,15913,413738).
route(prodloc0,harbor4,tr13,15913,95478).
route(prodloc0,harbor5,tr0,1606,41756).
route(prodloc0,harbor5,tr13,1606,9636).
route(prodloc0,harbor6,tr0,18027,468702).
route(prodloc0,harbor6,tr13,18027,108162).
route(prodloc0,harbor7,tr0,4173,108498).
route(prodloc0,harbor7,tr13,4173,25038).
route(prodloc0,harbor8,tr0,5597,145522).
route(prodloc0,harbor8,tr13,5597,33582).
route(prodloc0,harbor9,tr0,15474,402324).
route(prodloc0,harbor9,tr13,15474,92844).
route(prodloc0,harbor10,tr0,13596,353496).
route(prodloc0,harbor10,tr13,13596,81576).
route(prodloc0,harbor11,tr0,11263,292838).
route(prodloc0,harbor11,tr13,11263,67578).
route(prodloc0,harbor12,tr0,9234,240084).
route(prodloc0,harbor12,tr13,9234,55404).
route(prodloc0,harbor13,tr0,9759,253734).
route(prodloc0,harbor13,tr13,9759,58554).
route(prodloc0,harbor14,tr0,8382,217932).
route(prodloc0,harbor14,tr13,8382,50292).
route(prodloc0,harbor15,tr0,24218,629668).
route(prodloc0,harbor15,tr13,24218,145308).
route(prodloc0,harbor16,tr0,24209,629434).
route(prodloc0,harbor16,tr13,24209,145254).
route(prodloc0,prodloc1,tr0,21393,556218).
route(prodloc0,prodloc1,tr13,21393,128358).
route(prodloc0,prodloc2,tr0,8527,221702).
route(prodloc0,prodloc2,tr13,8527,51162).
route(prodloc0,prodloc3,tr0,13312,346112).
route(prodloc0,prodloc3,tr13,13312,79872).
route(prodloc0,prodloc4,tr0,21497,558922).
route(prodloc0,prodloc4,tr13,21497,128982).
route(prodloc0,prodloc5,tr0,7822,203372).
route(prodloc0,prodloc5,tr13,7822,46932).
route(prodloc0,prodloc6,tr0,9859,256334).
route(prodloc0,prodloc6,tr13,9859,59154).
route(prodloc0,prodloc7,tr0,15834,411684).
route(prodloc0,prodloc7,tr13,15834,95004).
route(prodloc0,prodloc8,tr0,18264,474864).
route(prodloc0,prodloc8,tr13,18264,109584).
route(prodloc0,prodloc9,tr0,21919,569894).
route(prodloc0,prodloc9,tr13,21919,131514).
route(prodloc0,prodloc10,tr0,12924,336024).
route(prodloc0,prodloc10,tr13,12924,77544).
route(prodloc0,prodloc11,tr0,3925,102050).
route(prodloc0,prodloc11,tr13,3925,23550).
route(prodloc0,prodloc12,tr0,5485,142610).
route(prodloc0,prodloc12,tr13,5485,32910).
route(prodloc0,prodloc13,tr0,21078,548028).
route(prodloc0,prodloc13,tr13,21078,126468).
route(prodloc0,prodloc14,tr0,5299,137774).
route(prodloc0,prodloc14,tr13,5299,31794).
route(prodloc0,prodloc15,tr0,2465,64090).
route(prodloc0,prodloc15,tr13,2465,14790).
route(prodloc0,prodloc16,tr0,6813,177138).
route(prodloc0,prodloc16,tr13,6813,40878).
route(prodloc0,prodloc17,tr0,16405,426530).
route(prodloc0,prodloc17,tr13,16405,98430).
route(prodloc0,prodloc18,tr0,26603,691678).
route(prodloc0,prodloc18,tr13,26603,159618).
route(prodloc0,prodloc19,tr0,16290,423540).
route(prodloc0,prodloc19,tr13,16290,97740).
route(prodloc0,prodloc20,tr0,18037,468962).
route(prodloc0,prodloc20,tr13,18037,108222).
route(prodloc0,prodloc21,tr0,7211,187486).
route(prodloc0,prodloc21,tr13,7211,43266).
route(prodloc0,prodloc22,tr0,14845,385970).
route(prodloc0,prodloc22,tr13,14845,89070).
route(prodloc0,prodloc23,tr0,10908,283608).
route(prodloc0,prodloc23,tr13,10908,65448).
route(prodloc0,prodloc24,tr0,24881,646906).
route(prodloc0,prodloc24,tr13,24881,149286).
route(prodloc0,prodloc25,tr0,14746,383396).
route(prodloc0,prodloc25,tr13,14746,88476).
route(prodloc0,prodloc26,tr0,14007,364182).
route(prodloc0,prodloc26,tr13,14007,84042).
route(prodloc0,prodloc27,tr0,4576,118976).
route(prodloc0,prodloc27,tr13,4576,27456).
route(prodloc0,prodloc28,tr0,17951,466726).
route(prodloc0,prodloc28,tr13,17951,107706).
route(prodloc0,prodloc29,tr0,6306,163956).
route(prodloc0,prodloc29,tr13,6306,37836).
route(prodloc0,prodloc30,tr0,8000,208000).
route(prodloc0,prodloc30,tr13,8000,48000).
route(prodloc0,prodloc31,tr0,2974,77324).
route(prodloc0,prodloc31,tr13,2974,17844).
route(prodloc0,prodloc32,tr0,5726,148876).
route(prodloc0,prodloc32,tr13,5726,34356).
route(prodloc0,prodloc33,tr0,11207,291382).
route(prodloc0,prodloc33,tr13,11207,67242).
route(prodloc1,harbor0,tr0,18216,473616).
route(prodloc1,harbor0,tr13,18216,109296).
route(prodloc1,harbor1,tr0,2986,77636).
route(prodloc1,harbor1,tr13,2986,17916).
route(prodloc1,harbor2,tr0,10464,272064).
route(prodloc1,harbor2,tr13,10464,62784).
route(prodloc1,harbor3,tr0,7837,203762).
route(prodloc1,harbor3,tr13,7837,47022).
route(prodloc1,harbor4,tr0,12070,313820).
route(prodloc1,harbor4,tr13,12070,72420).
route(prodloc1,harbor5,tr0,8467,220142).
route(prodloc1,harbor5,tr13,8467,50802).
route(prodloc1,harbor6,tr0,26523,689598).
route(prodloc1,harbor6,tr13,26523,159138).
route(prodloc1,harbor7,tr0,18667,485342).
route(prodloc1,harbor7,tr13,18667,112002).
route(prodloc1,harbor8,tr0,6625,172250).
route(prodloc1,harbor8,tr13,6625,39750).
route(prodloc1,harbor9,tr0,660,17160).
route(prodloc1,harbor9,tr13,660,3960).
route(prodloc1,harbor10,tr0,24566,638716).
route(prodloc1,harbor10,tr13,24566,147396).
route(prodloc1,harbor11,tr0,28530,741780).
route(prodloc1,harbor11,tr13,28530,171180).
route(prodloc1,harbor12,tr0,13528,351728).
route(prodloc1,harbor12,tr13,13528,81168).
route(prodloc1,harbor13,tr0,12546,326196).
route(prodloc1,harbor13,tr13,12546,75276).
route(prodloc1,harbor14,tr0,13564,352664).
route(prodloc1,harbor14,tr13,13564,81384).
route(prodloc1,harbor15,tr0,24441,635466).
route(prodloc1,harbor15,tr13,24441,146646).
route(prodloc1,harbor16,tr0,17177,446602).
route(prodloc1,harbor16,tr13,17177,103062).
route(prodloc1,prodloc0,tr0,6883,178958).
route(prodloc1,prodloc0,tr13,6883,41298).
route(prodloc1,prodloc2,tr0,12351,321126).
route(prodloc1,prodloc2,tr13,12351,74106).
route(prodloc1,prodloc3,tr0,8857,230282).
route(prodloc1,prodloc3,tr13,8857,53142).
route(prodloc1,prodloc4,tr0,11084,288184).
route(prodloc1,prodloc4,tr13,11084,66504).
route(prodloc1,prodloc5,tr0,24647,640822).
route(prodloc1,prodloc5,tr13,24647,147882).
route(prodloc1,prodloc6,tr0,2035,52910).
route(prodloc1,prodloc6,tr13,2035,12210).
route(prodloc1,prodloc7,tr0,16325,424450).
route(prodloc1,prodloc7,tr13,16325,97950).
route(prodloc1,prodloc8,tr0,9095,236470).
route(prodloc1,prodloc8,tr13,9095,54570).
route(prodloc1,prodloc9,tr0,18820,489320).
route(prodloc1,prodloc9,tr13,18820,112920).
route(prodloc1,prodloc10,tr13,11803,70818).
route(prodloc1,prodloc10,tr15,11803,377696).
route(prodloc1,prodloc11,tr0,4126,107276).
route(prodloc1,prodloc11,tr13,4126,24756).
route(prodloc1,prodloc12,tr0,22505,585130).
route(prodloc1,prodloc12,tr13,22505,135030).
route(prodloc1,prodloc13,tr0,16497,428922).
route(prodloc1,prodloc13,tr13,16497,98982).
route(prodloc1,prodloc14,tr0,17343,450918).
route(prodloc1,prodloc14,tr13,17343,104058).
route(prodloc1,prodloc15,tr0,20633,536458).
route(prodloc1,prodloc15,tr13,20633,123798).
route(prodloc1,prodloc16,tr0,25898,673348).
route(prodloc1,prodloc16,tr13,25898,155388).
route(prodloc1,prodloc17,tr0,28276,735176).
route(prodloc1,prodloc17,tr13,28276,169656).
route(prodloc1,prodloc18,tr0,27809,723034).
route(prodloc1,prodloc18,tr13,27809,166854).
route(prodloc1,prodloc19,tr0,7078,184028).
route(prodloc1,prodloc19,tr13,7078,42468).
route(prodloc1,prodloc20,tr0,3036,78936).
route(prodloc1,prodloc20,tr13,3036,18216).
route(prodloc1,prodloc21,tr0,8882,230932).
route(prodloc1,prodloc21,tr13,8882,53292).
route(prodloc1,prodloc22,tr0,8143,211718).
route(prodloc1,prodloc22,tr13,8143,48858).
route(prodloc1,prodloc23,tr0,12603,327678).
route(prodloc1,prodloc23,tr13,12603,75618).
route(prodloc1,prodloc24,tr0,13101,340626).
route(prodloc1,prodloc24,tr13,13101,78606).
route(prodloc1,prodloc25,tr0,21163,550238).
route(prodloc1,prodloc25,tr13,21163,126978).
route(prodloc1,prodloc26,tr0,14611,379886).
route(prodloc1,prodloc26,tr13,14611,87666).
route(prodloc1,prodloc27,tr0,14152,367952).
route(prodloc1,prodloc27,tr13,14152,84912).
route(prodloc1,prodloc28,tr0,10226,265876).
route(prodloc1,prodloc28,tr13,10226,61356).
route(prodloc1,prodloc29,tr0,27811,723086).
route(prodloc1,prodloc29,tr15,27811,889952).
route(prodloc1,prodloc30,tr0,26686,693836).
route(prodloc1,prodloc30,tr13,26686,160116).
route(prodloc1,prodloc31,tr0,28604,743704).
route(prodloc1,prodloc31,tr13,28604,171624).
route(prodloc1,prodloc32,tr0,716,18616).
route(prodloc1,prodloc32,tr13,716,4296).
route(prodloc1,prodloc33,tr0,4171,108446).
route(prodloc1,prodloc33,tr13,4171,25026).
route(prodloc2,harbor0,tr0,1058,27508).
route(prodloc2,harbor0,tr13,1058,6348).
route(prodloc2,harbor1,tr0,13934,362284).
route(prodloc2,harbor1,tr13,13934,83604).
route(prodloc2,harbor2,tr0,23251,604526).
route(prodloc2,harbor2,tr13,23251,139506).
route(prodloc2,harbor3,tr0,25026,650676).
route(prodloc2,harbor3,tr13,25026,150156).
route(prodloc2,harbor4,tr0,26355,685230).
route(prodloc2,harbor4,tr13,26355,158130).
route(prodloc2,harbor5,tr0,15510,403260).
route(prodloc2,harbor5,tr13,15510,93060).
route(prodloc2,harbor6,tr0,19242,500292).
route(prodloc2,harbor6,tr13,19242,115452).
route(prodloc2,harbor7,tr0,16052,417352).
route(prodloc2,harbor7,tr13,16052,96312).
route(prodloc2,harbor8,tr0,7,182).
route(prodloc2,harbor8,tr13,7,42).
route(prodloc2,harbor9,tr0,2398,62348).
route(prodloc2,harbor9,tr13,2398,14388).
route(prodloc2,harbor10,tr0,12831,333606).
route(prodloc2,harbor10,tr13,12831,76986).
route(prodloc2,harbor11,tr0,27054,703404).
route(prodloc2,harbor11,tr13,27054,162324).
route(prodloc2,harbor12,tr0,17298,449748).
route(prodloc2,harbor12,tr13,17298,103788).
route(prodloc2,harbor13,tr0,28033,728858).
route(prodloc2,harbor13,tr13,28033,168198).
route(prodloc2,harbor14,tr0,15342,398892).
route(prodloc2,harbor14,tr13,15342,92052).
route(prodloc2,harbor15,tr0,14713,382538).
route(prodloc2,harbor15,tr13,14713,88278).
route(prodloc2,harbor16,tr0,8143,211718).
route(prodloc2,harbor16,tr13,8143,48858).
route(prodloc2,prodloc0,tr0,25662,667212).
route(prodloc2,prodloc0,tr13,25662,153972).
route(prodloc2,prodloc1,tr0,3575,92950).
route(prodloc2,prodloc1,tr13,3575,21450).
route(prodloc2,prodloc3,tr0,7335,190710).
route(prodloc2,prodloc3,tr13,7335,44010).
route(prodloc2,prodloc4,tr0,5060,131560).
route(prodloc2,prodloc4,tr13,5060,30360).
route(prodloc2,prodloc5,tr0,4984,129584).
route(prodloc2,prodloc5,tr13,4984,29904).
route(prodloc2,prodloc6,tr0,17118,445068).
route(prodloc2,prodloc6,tr13,17118,102708).
route(prodloc2,prodloc7,tr0,22352,581152).
route(prodloc2,prodloc7,tr13,22352,134112).
route(prodloc2,prodloc8,tr0,3570,92820).
route(prodloc2,prodloc8,tr13,3570,21420).
route(prodloc2,prodloc9,tr0,27048,703248).
route(prodloc2,prodloc9,tr13,27048,162288).
route(prodloc2,prodloc10,tr0,23651,614926).
route(prodloc2,prodloc10,tr13,23651,141906).
route(prodloc2,prodloc11,tr0,22972,597272).
route(prodloc2,prodloc11,tr13,22972,137832).
route(prodloc2,prodloc12,tr0,21214,551564).
route(prodloc2,prodloc12,tr13,21214,127284).
route(prodloc2,prodloc13,tr0,27740,721240).
route(prodloc2,prodloc13,tr13,27740,166440).
route(prodloc2,prodloc14,tr0,25062,651612).
route(prodloc2,prodloc14,tr13,25062,150372).
route(prodloc2,prodloc15,tr0,14987,389662).
route(prodloc2,prodloc15,tr13,14987,89922).
route(prodloc2,prodloc16,tr0,2787,72462).
route(prodloc2,prodloc16,tr13,2787,16722).
route(prodloc2,prodloc17,tr0,18073,469898).
route(prodloc2,prodloc17,tr13,18073,108438).
route(prodloc2,prodloc18,tr0,25458,661908).
route(prodloc2,prodloc18,tr13,25458,152748).
route(prodloc2,prodloc19,tr0,1297,33722).
route(prodloc2,prodloc19,tr13,1297,7782).
route(prodloc2,prodloc20,tr13,46,276).
route(prodloc2,prodloc20,tr15,46,1472).
route(prodloc2,prodloc21,tr0,25636,666536).
route(prodloc2,prodloc21,tr13,25636,153816).
route(prodloc2,prodloc22,tr0,4119,107094).
route(prodloc2,prodloc22,tr13,4119,24714).
route(prodloc2,prodloc23,tr0,7623,198198).
route(prodloc2,prodloc23,tr13,7623,45738).
route(prodloc2,prodloc24,tr0,18659,485134).
route(prodloc2,prodloc24,tr13,18659,111954).
route(prodloc2,prodloc25,tr0,1233,32058).
route(prodloc2,prodloc25,tr13,1233,7398).
route(prodloc2,prodloc26,tr0,21153,549978).
route(prodloc2,prodloc26,tr13,21153,126918).
route(prodloc2,prodloc27,tr0,23431,609206).
route(prodloc2,prodloc27,tr13,23431,140586).
route(prodloc2,prodloc28,tr0,9956,258856).
route(prodloc2,prodloc28,tr13,9956,59736).
route(prodloc2,prodloc29,tr0,4195,109070).
route(prodloc2,prodloc29,tr13,4195,25170).
route(prodloc2,prodloc30,tr0,20530,533780).
route(prodloc2,prodloc30,tr13,20530,123180).
route(prodloc2,prodloc31,tr0,8252,214552).
route(prodloc2,prodloc31,tr13,8252,49512).
route(prodloc2,prodloc32,tr0,17311,450086).
route(prodloc2,prodloc32,tr13,17311,103866).
route(prodloc2,prodloc33,tr0,20851,542126).
route(prodloc2,prodloc33,tr13,20851,125106).
route(prodloc3,harbor0,tr0,14335,372710).
route(prodloc3,harbor0,tr13,14335,86010).
route(prodloc3,harbor1,tr0,22893,595218).
route(prodloc3,harbor1,tr13,22893,137358).
route(prodloc3,harbor2,tr0,25031,650806).
route(prodloc3,harbor2,tr13,25031,150186).
route(prodloc3,harbor3,tr0,3676,95576).
route(prodloc3,harbor3,tr13,3676,22056).
route(prodloc3,harbor4,tr0,3260,84760).
route(prodloc3,harbor4,tr13,3260,19560).
route(prodloc3,harbor5,tr0,2307,59982).
route(prodloc3,harbor5,tr13,2307,13842).
route(prodloc3,harbor6,tr0,9843,255918).
route(prodloc3,harbor6,tr13,9843,59058).
route(prodloc3,harbor7,tr0,17186,446836).
route(prodloc3,harbor7,tr13,17186,103116).
route(prodloc3,harbor8,tr0,19102,496652).
route(prodloc3,harbor8,tr13,19102,114612).
route(prodloc3,harbor9,tr0,6283,163358).
route(prodloc3,harbor9,tr13,6283,37698).
route(prodloc3,harbor10,tr0,12718,330668).
route(prodloc3,harbor10,tr13,12718,76308).
route(prodloc3,harbor11,tr0,8550,222300).
route(prodloc3,harbor11,tr13,8550,51300).
route(prodloc3,harbor12,tr0,7328,190528).
route(prodloc3,harbor12,tr13,7328,43968).
route(prodloc3,harbor13,tr0,25904,673504).
route(prodloc3,harbor13,tr13,25904,155424).
route(prodloc3,harbor14,tr0,19697,512122).
route(prodloc3,harbor14,tr13,19697,118182).
route(prodloc3,harbor15,tr0,39,1014).
route(prodloc3,harbor15,tr13,39,234).
route(prodloc3,harbor16,tr0,344,8944).
route(prodloc3,harbor16,tr13,344,2064).
route(prodloc3,prodloc0,tr0,17614,457964).
route(prodloc3,prodloc0,tr13,17614,105684).
route(prodloc3,prodloc1,tr0,9882,256932).
route(prodloc3,prodloc1,tr13,9882,59292).
route(prodloc3,prodloc2,tr0,15097,392522).
route(prodloc3,prodloc2,tr13,15097,90582).
route(prodloc3,prodloc4,tr0,9131,237406).
route(prodloc3,prodloc4,tr13,9131,54786).
route(prodloc3,prodloc5,tr0,10368,269568).
route(prodloc3,prodloc5,tr13,10368,62208).
route(prodloc3,prodloc6,tr0,21123,549198).
route(prodloc3,prodloc6,tr13,21123,126738).
route(prodloc3,prodloc7,tr13,27507,165042).
route(prodloc3,prodloc7,tr15,27507,880224).
route(prodloc3,prodloc8,tr0,7943,206518).
route(prodloc3,prodloc8,tr13,7943,47658).
route(prodloc3,prodloc9,tr0,15576,404976).
route(prodloc3,prodloc9,tr13,15576,93456).
route(prodloc3,prodloc10,tr0,17247,448422).
route(prodloc3,prodloc10,tr13,17247,103482).
route(prodloc3,prodloc11,tr0,7694,200044).
route(prodloc3,prodloc11,tr13,7694,46164).
route(prodloc3,prodloc12,tr0,17926,466076).
route(prodloc3,prodloc12,tr13,17926,107556).
route(prodloc3,prodloc13,tr13,8097,48582).
route(prodloc3,prodloc13,tr15,8097,259104).
route(prodloc3,prodloc14,tr0,961,24986).
route(prodloc3,prodloc14,tr15,961,30752).
route(prodloc3,prodloc15,tr0,13496,350896).
route(prodloc3,prodloc15,tr13,13496,80976).
route(prodloc3,prodloc16,tr0,23092,600392).
route(prodloc3,prodloc16,tr13,23092,138552).
route(prodloc3,prodloc17,tr0,21289,553514).
route(prodloc3,prodloc17,tr13,21289,127734).
route(prodloc3,prodloc18,tr0,10074,261924).
route(prodloc3,prodloc18,tr13,10074,60444).
route(prodloc3,prodloc19,tr0,1814,47164).
route(prodloc3,prodloc19,tr13,1814,10884).
route(prodloc3,prodloc20,tr0,715,18590).
route(prodloc3,prodloc20,tr13,715,4290).
route(prodloc3,prodloc21,tr0,6362,165412).
route(prodloc3,prodloc21,tr13,6362,38172).
route(prodloc3,prodloc22,tr0,16330,424580).
route(prodloc3,prodloc22,tr13,16330,97980).
route(prodloc3,prodloc23,tr0,22102,574652).
route(prodloc3,prodloc23,tr13,22102,132612).
route(prodloc3,prodloc24,tr0,21208,551408).
route(prodloc3,prodloc24,tr13,21208,127248).
route(prodloc3,prodloc25,tr0,13765,357890).
route(prodloc3,prodloc25,tr13,13765,82590).
route(prodloc3,prodloc26,tr0,2659,69134).
route(prodloc3,prodloc26,tr13,2659,15954).
route(prodloc3,prodloc27,tr0,8431,219206).
route(prodloc3,prodloc27,tr13,8431,50586).
route(prodloc3,prodloc28,tr0,7467,194142).
route(prodloc3,prodloc28,tr13,7467,44802).
route(prodloc3,prodloc29,tr0,21869,568594).
route(prodloc3,prodloc29,tr13,21869,131214).
route(prodloc3,prodloc30,tr0,13906,361556).
route(prodloc3,prodloc30,tr13,13906,83436).
route(prodloc3,prodloc31,tr0,12133,315458).
route(prodloc3,prodloc31,tr13,12133,72798).
route(prodloc3,prodloc32,tr0,7433,193258).
route(prodloc3,prodloc32,tr13,7433,44598).
route(prodloc3,prodloc33,tr0,16154,420004).
route(prodloc3,prodloc33,tr13,16154,96924).
route(prodloc4,harbor0,tr0,1119,29094).
route(prodloc4,harbor0,tr13,1119,6714).
route(prodloc4,harbor1,tr0,22802,592852).
route(prodloc4,harbor1,tr13,22802,136812).
route(prodloc4,harbor2,tr0,11079,288054).
route(prodloc4,harbor2,tr13,11079,66474).
route(prodloc4,harbor3,tr0,23540,612040).
route(prodloc4,harbor3,tr13,23540,141240).
route(prodloc4,harbor4,tr0,13782,358332).
route(prodloc4,harbor4,tr13,13782,82692).
route(prodloc4,harbor5,tr0,11874,308724).
route(prodloc4,harbor5,tr13,11874,71244).
route(prodloc4,harbor6,tr0,22368,581568).
route(prodloc4,harbor6,tr13,22368,134208).
route(prodloc4,harbor7,tr0,12989,337714).
route(prodloc4,harbor7,tr13,12989,77934).
route(prodloc4,harbor8,tr0,6492,168792).
route(prodloc4,harbor8,tr13,6492,38952).
route(prodloc4,harbor9,tr0,223,5798).
route(prodloc4,harbor9,tr13,223,1338).
route(prodloc4,harbor10,tr0,26120,679120).
route(prodloc4,harbor10,tr13,26120,156720).
route(prodloc4,harbor11,tr0,9573,248898).
route(prodloc4,harbor11,tr13,9573,57438).
route(prodloc4,harbor12,tr0,24221,629746).
route(prodloc4,harbor12,tr13,24221,145326).
route(prodloc4,harbor13,tr0,27695,720070).
route(prodloc4,harbor13,tr13,27695,166170).
route(prodloc4,harbor14,tr0,16545,430170).
route(prodloc4,harbor14,tr13,16545,99270).
route(prodloc4,harbor15,tr0,2211,57486).
route(prodloc4,harbor15,tr13,2211,13266).
route(prodloc4,harbor16,tr0,6726,174876).
route(prodloc4,harbor16,tr13,6726,40356).
route(prodloc4,prodloc0,tr0,16244,422344).
route(prodloc4,prodloc0,tr13,16244,97464).
route(prodloc4,prodloc1,tr0,6569,170794).
route(prodloc4,prodloc1,tr13,6569,39414).
route(prodloc4,prodloc2,tr0,10216,265616).
route(prodloc4,prodloc2,tr13,10216,61296).
route(prodloc4,prodloc3,tr0,25097,652522).
route(prodloc4,prodloc3,tr13,25097,150582).
route(prodloc4,prodloc5,tr0,26871,698646).
route(prodloc4,prodloc5,tr15,26871,859872).
route(prodloc4,prodloc6,tr0,6356,165256).
route(prodloc4,prodloc6,tr13,6356,38136).
route(prodloc4,prodloc7,tr0,7565,196690).
route(prodloc4,prodloc7,tr13,7565,45390).
route(prodloc4,prodloc8,tr0,15242,396292).
route(prodloc4,prodloc8,tr13,15242,91452).
route(prodloc4,prodloc9,tr0,7258,188708).
route(prodloc4,prodloc9,tr13,7258,43548).
route(prodloc4,prodloc10,tr0,8686,225836).
route(prodloc4,prodloc10,tr13,8686,52116).
route(prodloc4,prodloc11,tr0,24921,647946).
route(prodloc4,prodloc11,tr13,24921,149526).
route(prodloc4,prodloc12,tr0,9666,251316).
route(prodloc4,prodloc12,tr13,9666,57996).
route(prodloc4,prodloc13,tr0,3573,92898).
route(prodloc4,prodloc13,tr13,3573,21438).
route(prodloc4,prodloc14,tr0,20436,531336).
route(prodloc4,prodloc14,tr13,20436,122616).
route(prodloc4,prodloc15,tr0,16247,422422).
route(prodloc4,prodloc15,tr13,16247,97482).
route(prodloc4,prodloc16,tr0,19993,519818).
route(prodloc4,prodloc16,tr13,19993,119958).
route(prodloc4,prodloc17,tr0,6139,159614).
route(prodloc4,prodloc17,tr13,6139,36834).
route(prodloc4,prodloc18,tr0,7319,190294).
route(prodloc4,prodloc18,tr13,7319,43914).
route(prodloc4,prodloc19,tr0,15896,413296).
route(prodloc4,prodloc19,tr13,15896,95376).
route(prodloc4,prodloc20,tr0,13667,355342).
route(prodloc4,prodloc20,tr13,13667,82002).
route(prodloc4,prodloc21,tr0,21802,566852).
route(prodloc4,prodloc21,tr13,21802,130812).
route(prodloc4,prodloc22,tr0,1850,48100).
route(prodloc4,prodloc22,tr13,1850,11100).
route(prodloc4,prodloc23,tr0,19492,506792).
route(prodloc4,prodloc23,tr13,19492,116952).
route(prodloc4,prodloc24,tr0,4798,124748).
route(prodloc4,prodloc24,tr13,4798,28788).
route(prodloc4,prodloc25,tr0,12894,335244).
route(prodloc4,prodloc25,tr13,12894,77364).
route(prodloc4,prodloc26,tr0,1783,46358).
route(prodloc4,prodloc26,tr13,1783,10698).
route(prodloc4,prodloc27,tr0,6979,181454).
route(prodloc4,prodloc27,tr13,6979,41874).
route(prodloc4,prodloc28,tr0,776,20176).
route(prodloc4,prodloc28,tr13,776,4656).
route(prodloc4,prodloc29,tr0,19535,507910).
route(prodloc4,prodloc29,tr13,19535,117210).
route(prodloc4,prodloc30,tr0,4652,120952).
route(prodloc4,prodloc30,tr13,4652,27912).
route(prodloc4,prodloc31,tr0,13613,353938).
route(prodloc4,prodloc31,tr13,13613,81678).
route(prodloc4,prodloc32,tr0,1700,44200).
route(prodloc4,prodloc32,tr13,1700,10200).
route(prodloc4,prodloc33,tr0,23262,604812).
route(prodloc4,prodloc33,tr13,23262,139572).
route(prodloc5,harbor0,tr0,1972,51272).
route(prodloc5,harbor0,tr13,1972,11832).
route(prodloc5,harbor1,tr0,6034,156884).
route(prodloc5,harbor1,tr13,6034,36204).
route(prodloc5,harbor2,tr0,12890,335140).
route(prodloc5,harbor2,tr13,12890,77340).
route(prodloc5,harbor3,tr0,14735,383110).
route(prodloc5,harbor3,tr13,14735,88410).
route(prodloc5,harbor4,tr0,23333,606658).
route(prodloc5,harbor4,tr13,23333,139998).
route(prodloc5,harbor5,tr0,10297,267722).
route(prodloc5,harbor5,tr13,10297,61782).
route(prodloc5,harbor6,tr0,24011,624286).
route(prodloc5,harbor6,tr13,24011,144066).
route(prodloc5,harbor7,tr0,3711,96486).
route(prodloc5,harbor7,tr13,3711,22266).
route(prodloc5,harbor8,tr0,2602,67652).
route(prodloc5,harbor8,tr13,2602,15612).
route(prodloc5,harbor9,tr0,5429,141154).
route(prodloc5,harbor9,tr13,5429,32574).
route(prodloc5,harbor10,tr0,10790,280540).
route(prodloc5,harbor10,tr13,10790,64740).
route(prodloc5,harbor11,tr0,6250,162500).
route(prodloc5,harbor11,tr13,6250,37500).
route(prodloc5,harbor12,tr0,6080,158080).
route(prodloc5,harbor12,tr13,6080,36480).
route(prodloc5,harbor13,tr0,21382,555932).
route(prodloc5,harbor13,tr13,21382,128292).
route(prodloc5,harbor14,tr0,17198,447148).
route(prodloc5,harbor14,tr13,17198,103188).
route(prodloc5,harbor15,tr0,24457,635882).
route(prodloc5,harbor15,tr13,24457,146742).
route(prodloc5,harbor16,tr0,15324,398424).
route(prodloc5,harbor16,tr13,15324,91944).
route(prodloc5,prodloc0,tr0,1047,27222).
route(prodloc5,prodloc0,tr13,1047,6282).
route(prodloc5,prodloc1,tr0,10219,265694).
route(prodloc5,prodloc1,tr13,10219,61314).
route(prodloc5,prodloc2,tr0,21774,566124).
route(prodloc5,prodloc2,tr13,21774,130644).
route(prodloc5,prodloc3,tr0,23771,618046).
route(prodloc5,prodloc3,tr13,23771,142626).
route(prodloc5,prodloc4,tr0,12408,322608).
route(prodloc5,prodloc4,tr13,12408,74448).
route(prodloc5,prodloc6,tr0,27498,714948).
route(prodloc5,prodloc6,tr13,27498,164988).
route(prodloc5,prodloc7,tr0,12253,318578).
route(prodloc5,prodloc7,tr13,12253,73518).
route(prodloc5,prodloc8,tr0,10871,282646).
route(prodloc5,prodloc8,tr13,10871,65226).
route(prodloc5,prodloc9,tr0,14499,376974).
route(prodloc5,prodloc9,tr13,14499,86994).
route(prodloc5,prodloc10,tr0,5548,144248).
route(prodloc5,prodloc10,tr13,5548,33288).
route(prodloc5,prodloc11,tr0,3572,92872).
route(prodloc5,prodloc11,tr13,3572,21432).
route(prodloc5,prodloc12,tr13,96,576).
route(prodloc5,prodloc12,tr15,96,3072).
route(prodloc5,prodloc13,tr0,2565,66690).
route(prodloc5,prodloc13,tr13,2565,15390).
route(prodloc5,prodloc14,tr0,9170,238420).
route(prodloc5,prodloc14,tr13,9170,55020).
route(prodloc5,prodloc15,tr0,2648,68848).
route(prodloc5,prodloc15,tr13,2648,15888).
route(prodloc5,prodloc16,tr0,11518,299468).
route(prodloc5,prodloc16,tr13,11518,69108).
route(prodloc5,prodloc17,tr0,13770,358020).
route(prodloc5,prodloc17,tr15,13770,440640).
route(prodloc5,prodloc18,tr0,4055,105430).
route(prodloc5,prodloc18,tr13,4055,24330).
route(prodloc5,prodloc19,tr0,18389,478114).
route(prodloc5,prodloc19,tr13,18389,110334).
route(prodloc5,prodloc20,tr0,24866,646516).
route(prodloc5,prodloc20,tr13,24866,149196).
route(prodloc5,prodloc21,tr0,6798,176748).
route(prodloc5,prodloc21,tr13,6798,40788).
route(prodloc5,prodloc22,tr0,12458,323908).
route(prodloc5,prodloc22,tr13,12458,74748).
route(prodloc5,prodloc23,tr0,11688,303888).
route(prodloc5,prodloc23,tr13,11688,70128).
route(prodloc5,prodloc24,tr0,25191,654966).
route(prodloc5,prodloc24,tr13,25191,151146).
route(prodloc5,prodloc25,tr0,26923,699998).
route(prodloc5,prodloc25,tr13,26923,161538).
route(prodloc5,prodloc26,tr0,10117,263042).
route(prodloc5,prodloc26,tr13,10117,60702).
route(prodloc5,prodloc27,tr0,26937,700362).
route(prodloc5,prodloc27,tr13,26937,161622).
route(prodloc5,prodloc28,tr0,26345,684970).
route(prodloc5,prodloc28,tr13,26345,158070).
route(prodloc5,prodloc29,tr0,14172,368472).
route(prodloc5,prodloc29,tr13,14172,85032).
route(prodloc5,prodloc30,tr0,2877,74802).
route(prodloc5,prodloc30,tr13,2877,17262).
route(prodloc5,prodloc31,tr0,1616,42016).
route(prodloc5,prodloc31,tr13,1616,9696).
route(prodloc5,prodloc32,tr0,23111,600886).
route(prodloc5,prodloc32,tr13,23111,138666).
route(prodloc5,prodloc33,tr0,15516,403416).
route(prodloc5,prodloc33,tr13,15516,93096).
route(prodloc6,harbor0,tr0,6415,166790).
route(prodloc6,harbor0,tr13,6415,38490).
route(prodloc6,harbor1,tr0,12215,317590).
route(prodloc6,harbor1,tr13,12215,73290).
route(prodloc6,harbor2,tr0,17746,461396).
route(prodloc6,harbor2,tr13,17746,106476).
route(prodloc6,harbor3,tr0,14627,380302).
route(prodloc6,harbor3,tr13,14627,87762).
route(prodloc6,harbor4,tr0,6327,164502).
route(prodloc6,harbor4,tr13,6327,37962).
route(prodloc6,harbor5,tr0,10596,275496).
route(prodloc6,harbor5,tr13,10596,63576).
route(prodloc6,harbor6,tr0,11937,310362).
route(prodloc6,harbor6,tr13,11937,71622).
route(prodloc6,harbor7,tr0,24162,628212).
route(prodloc6,harbor7,tr13,24162,144972).
route(prodloc6,harbor8,tr0,15551,404326).
route(prodloc6,harbor8,tr13,15551,93306).
route(prodloc6,harbor9,tr0,994,25844).
route(prodloc6,harbor9,tr13,994,5964).
route(prodloc6,harbor10,tr0,20700,538200).
route(prodloc6,harbor10,tr13,20700,124200).
route(prodloc6,harbor11,tr0,13463,350038).
route(prodloc6,harbor11,tr13,13463,80778).
route(prodloc6,harbor12,tr0,8128,211328).
route(prodloc6,harbor12,tr13,8128,48768).
route(prodloc6,harbor13,tr0,26603,691678).
route(prodloc6,harbor13,tr13,26603,159618).
route(prodloc6,harbor14,tr0,20495,532870).
route(prodloc6,harbor14,tr13,20495,122970).
route(prodloc6,harbor15,tr0,25124,653224).
route(prodloc6,harbor15,tr13,25124,150744).
route(prodloc6,harbor16,tr0,13265,344890).
route(prodloc6,harbor16,tr13,13265,79590).
route(prodloc6,prodloc0,tr0,1334,34684).
route(prodloc6,prodloc0,tr13,1334,8004).
route(prodloc6,prodloc1,tr0,12308,320008).
route(prodloc6,prodloc1,tr13,12308,73848).
route(prodloc6,prodloc2,tr0,1144,29744).
route(prodloc6,prodloc2,tr13,1144,6864).
route(prodloc6,prodloc3,tr13,15208,91248).
route(prodloc6,prodloc3,tr15,15208,486656).
route(prodloc6,prodloc4,tr13,2052,12312).
route(prodloc6,prodloc4,tr15,2052,65664).
route(prodloc6,prodloc5,tr0,26325,684450).
route(prodloc6,prodloc5,tr13,26325,157950).
route(prodloc6,prodloc7,tr0,2033,52858).
route(prodloc6,prodloc7,tr13,2033,12198).
route(prodloc6,prodloc8,tr0,8423,218998).
route(prodloc6,prodloc8,tr13,8423,50538).
route(prodloc6,prodloc9,tr0,6389,166114).
route(prodloc6,prodloc9,tr13,6389,38334).
route(prodloc6,prodloc10,tr0,24489,636714).
route(prodloc6,prodloc10,tr13,24489,146934).
route(prodloc6,prodloc11,tr0,2061,53586).
route(prodloc6,prodloc11,tr13,2061,12366).
route(prodloc6,prodloc12,tr0,19846,515996).
route(prodloc6,prodloc12,tr13,19846,119076).
route(prodloc6,prodloc13,tr0,11112,288912).
route(prodloc6,prodloc13,tr13,11112,66672).
route(prodloc6,prodloc14,tr0,11895,309270).
route(prodloc6,prodloc14,tr13,11895,71370).
route(prodloc6,prodloc15,tr0,8925,232050).
route(prodloc6,prodloc15,tr13,8925,53550).
route(prodloc6,prodloc16,tr0,10978,285428).
route(prodloc6,prodloc16,tr13,10978,65868).
route(prodloc6,prodloc17,tr0,20219,525694).
route(prodloc6,prodloc17,tr13,20219,121314).
route(prodloc6,prodloc18,tr0,1430,37180).
route(prodloc6,prodloc18,tr13,1430,8580).
route(prodloc6,prodloc19,tr0,8592,223392).
route(prodloc6,prodloc19,tr13,8592,51552).
route(prodloc6,prodloc20,tr0,24461,635986).
route(prodloc6,prodloc20,tr13,24461,146766).
route(prodloc6,prodloc21,tr0,23484,610584).
route(prodloc6,prodloc21,tr13,23484,140904).
route(prodloc6,prodloc22,tr0,22598,587548).
route(prodloc6,prodloc22,tr13,22598,135588).
route(prodloc6,prodloc23,tr0,10372,269672).
route(prodloc6,prodloc23,tr13,10372,62232).
route(prodloc6,prodloc24,tr0,9033,234858).
route(prodloc6,prodloc24,tr13,9033,54198).
route(prodloc6,prodloc25,tr0,9747,253422).
route(prodloc6,prodloc25,tr13,9747,58482).
route(prodloc6,prodloc26,tr0,125,3250).
route(prodloc6,prodloc26,tr13,125,750).
route(prodloc6,prodloc27,tr0,23646,614796).
route(prodloc6,prodloc27,tr13,23646,141876).
route(prodloc6,prodloc28,tr0,24763,643838).
route(prodloc6,prodloc28,tr13,24763,148578).
route(prodloc6,prodloc29,tr0,19517,507442).
route(prodloc6,prodloc29,tr13,19517,117102).
route(prodloc6,prodloc30,tr0,26401,686426).
route(prodloc6,prodloc30,tr13,26401,158406).
route(prodloc6,prodloc31,tr0,20776,540176).
route(prodloc6,prodloc31,tr13,20776,124656).
route(prodloc6,prodloc32,tr0,2142,55692).
route(prodloc6,prodloc32,tr13,2142,12852).
route(prodloc6,prodloc33,tr0,796,20696).
route(prodloc6,prodloc33,tr13,796,4776).
route(prodloc7,harbor0,tr0,27068,703768).
route(prodloc7,harbor0,tr13,27068,162408).
route(prodloc7,harbor1,tr0,7665,199290).
route(prodloc7,harbor1,tr13,7665,45990).
route(prodloc7,harbor2,tr0,3516,91416).
route(prodloc7,harbor2,tr13,3516,21096).
route(prodloc7,harbor3,tr0,15572,404872).
route(prodloc7,harbor3,tr13,15572,93432).
route(prodloc7,harbor4,tr0,23449,609674).
route(prodloc7,harbor4,tr13,23449,140694).
route(prodloc7,harbor5,tr0,15263,396838).
route(prodloc7,harbor5,tr13,15263,91578).
route(prodloc7,harbor6,tr0,25441,661466).
route(prodloc7,harbor6,tr13,25441,152646).
route(prodloc7,harbor7,tr0,12667,329342).
route(prodloc7,harbor7,tr13,12667,76002).
route(prodloc7,harbor8,tr0,25882,672932).
route(prodloc7,harbor8,tr13,25882,155292).
route(prodloc7,harbor9,tr0,8228,213928).
route(prodloc7,harbor9,tr13,8228,49368).
route(prodloc7,harbor10,tr0,14090,366340).
route(prodloc7,harbor10,tr13,14090,84540).
route(prodloc7,harbor11,tr0,26701,694226).
route(prodloc7,harbor11,tr13,26701,160206).
route(prodloc7,harbor12,tr0,16172,420472).
route(prodloc7,harbor12,tr13,16172,97032).
route(prodloc7,harbor13,tr0,4350,113100).
route(prodloc7,harbor13,tr13,4350,26100).
route(prodloc7,harbor14,tr0,16272,423072).
route(prodloc7,harbor14,tr13,16272,97632).
route(prodloc7,harbor15,tr0,5996,155896).
route(prodloc7,harbor15,tr13,5996,35976).
route(prodloc7,harbor16,tr0,287,7462).
route(prodloc7,harbor16,tr13,287,1722).
route(prodloc7,prodloc0,tr0,26300,683800).
route(prodloc7,prodloc0,tr13,26300,157800).
route(prodloc7,prodloc1,tr0,24200,629200).
route(prodloc7,prodloc1,tr13,24200,145200).
route(prodloc7,prodloc2,tr0,9941,258466).
route(prodloc7,prodloc2,tr13,9941,59646).
route(prodloc7,prodloc3,tr0,26962,701012).
route(prodloc7,prodloc3,tr13,26962,161772).
route(prodloc7,prodloc4,tr0,22681,589706).
route(prodloc7,prodloc4,tr13,22681,136086).
route(prodloc7,prodloc5,tr0,25325,658450).
route(prodloc7,prodloc5,tr13,25325,151950).
route(prodloc7,prodloc6,tr0,4960,128960).
route(prodloc7,prodloc6,tr13,4960,29760).
route(prodloc7,prodloc8,tr0,19900,517400).
route(prodloc7,prodloc8,tr13,19900,119400).
route(prodloc7,prodloc9,tr0,7739,201214).
route(prodloc7,prodloc9,tr13,7739,46434).
route(prodloc7,prodloc10,tr0,10743,279318).
route(prodloc7,prodloc10,tr13,10743,64458).
route(prodloc7,prodloc11,tr0,28223,733798).
route(prodloc7,prodloc11,tr13,28223,169338).
route(prodloc7,prodloc12,tr0,10472,272272).
route(prodloc7,prodloc12,tr13,10472,62832).
route(prodloc7,prodloc13,tr13,15100,90600).
route(prodloc7,prodloc13,tr15,15100,483200).
route(prodloc7,prodloc14,tr0,11859,308334).
route(prodloc7,prodloc14,tr13,11859,71154).
route(prodloc7,prodloc15,tr0,25686,667836).
route(prodloc7,prodloc15,tr13,25686,154116).
route(prodloc7,prodloc16,tr0,25634,666484).
route(prodloc7,prodloc16,tr13,25634,153804).
route(prodloc7,prodloc17,tr0,19522,507572).
route(prodloc7,prodloc17,tr13,19522,117132).
route(prodloc7,prodloc18,tr0,2591,67366).
route(prodloc7,prodloc18,tr13,2591,15546).
route(prodloc7,prodloc19,tr0,16775,436150).
route(prodloc7,prodloc19,tr13,16775,100650).
route(prodloc7,prodloc20,tr0,6467,168142).
route(prodloc7,prodloc20,tr13,6467,38802).
route(prodloc7,prodloc21,tr0,12836,333736).
route(prodloc7,prodloc21,tr13,12836,77016).
route(prodloc7,prodloc22,tr0,24672,641472).
route(prodloc7,prodloc22,tr13,24672,148032).
route(prodloc7,prodloc23,tr0,5242,136292).
route(prodloc7,prodloc23,tr13,5242,31452).
route(prodloc7,prodloc24,tr0,8105,210730).
route(prodloc7,prodloc24,tr13,8105,48630).
route(prodloc7,prodloc25,tr0,13363,347438).
route(prodloc7,prodloc25,tr13,13363,80178).
route(prodloc7,prodloc26,tr0,2123,55198).
route(prodloc7,prodloc26,tr13,2123,12738).
route(prodloc7,prodloc27,tr0,21286,553436).
route(prodloc7,prodloc27,tr13,21286,127716).
route(prodloc7,prodloc28,tr0,1111,28886).
route(prodloc7,prodloc28,tr13,1111,6666).
route(prodloc7,prodloc29,tr0,15786,410436).
route(prodloc7,prodloc29,tr13,15786,94716).
route(prodloc7,prodloc30,tr0,18109,470834).
route(prodloc7,prodloc30,tr13,18109,108654).
route(prodloc7,prodloc31,tr0,17847,464022).
route(prodloc7,prodloc31,tr13,17847,107082).
route(prodloc7,prodloc32,tr0,10676,277576).
route(prodloc7,prodloc32,tr13,10676,64056).
route(prodloc7,prodloc33,tr0,5267,136942).
route(prodloc7,prodloc33,tr13,5267,31602).
route(prodloc8,harbor0,tr0,13979,363454).
route(prodloc8,harbor0,tr13,13979,83874).
route(prodloc8,harbor1,tr0,28951,752726).
route(prodloc8,harbor1,tr13,28951,173706).
route(prodloc8,harbor2,tr0,3449,89674).
route(prodloc8,harbor2,tr13,3449,20694).
route(prodloc8,harbor3,tr0,2366,61516).
route(prodloc8,harbor3,tr13,2366,14196).
route(prodloc8,harbor4,tr0,8681,225706).
route(prodloc8,harbor4,tr13,8681,52086).
route(prodloc8,harbor5,tr0,20468,532168).
route(prodloc8,harbor5,tr13,20468,122808).
route(prodloc8,harbor6,tr0,2757,71682).
route(prodloc8,harbor6,tr13,2757,16542).
route(prodloc8,harbor7,tr0,6828,177528).
route(prodloc8,harbor7,tr13,6828,40968).
route(prodloc8,harbor8,tr0,3161,82186).
route(prodloc8,harbor8,tr13,3161,18966).
route(prodloc8,harbor9,tr0,13799,358774).
route(prodloc8,harbor9,tr13,13799,82794).
route(prodloc8,harbor10,tr0,16336,424736).
route(prodloc8,harbor10,tr13,16336,98016).
route(prodloc8,harbor11,tr0,23259,604734).
route(prodloc8,harbor11,tr13,23259,139554).
route(prodloc8,harbor12,tr0,14648,380848).
route(prodloc8,harbor12,tr13,14648,87888).
route(prodloc8,harbor13,tr0,5677,147602).
route(prodloc8,harbor13,tr13,5677,34062).
route(prodloc8,harbor14,tr0,7676,199576).
route(prodloc8,harbor14,tr13,7676,46056).
route(prodloc8,harbor15,tr0,4357,113282).
route(prodloc8,harbor15,tr13,4357,26142).
route(prodloc8,harbor16,tr0,13661,355186).
route(prodloc8,harbor16,tr13,13661,81966).
route(prodloc8,prodloc0,tr0,15105,392730).
route(prodloc8,prodloc0,tr13,15105,90630).
route(prodloc8,prodloc1,tr0,20328,528528).
route(prodloc8,prodloc1,tr13,20328,121968).
route(prodloc8,prodloc2,tr0,22091,574366).
route(prodloc8,prodloc2,tr13,22091,132546).
route(prodloc8,prodloc3,tr0,7700,200200).
route(prodloc8,prodloc3,tr13,7700,46200).
route(prodloc8,prodloc4,tr0,24511,637286).
route(prodloc8,prodloc4,tr13,24511,147066).
route(prodloc8,prodloc5,tr0,17649,458874).
route(prodloc8,prodloc5,tr13,17649,105894).
route(prodloc8,prodloc6,tr0,27756,721656).
route(prodloc8,prodloc6,tr13,27756,166536).
route(prodloc8,prodloc7,tr0,25360,659360).
route(prodloc8,prodloc7,tr13,25360,152160).
route(prodloc8,prodloc9,tr0,21773,566098).
route(prodloc8,prodloc9,tr13,21773,130638).
route(prodloc8,prodloc10,tr0,24891,647166).
route(prodloc8,prodloc10,tr13,24891,149346).
route(prodloc8,prodloc11,tr0,3972,103272).
route(prodloc8,prodloc11,tr13,3972,23832).
route(prodloc8,prodloc12,tr0,25552,664352).
route(prodloc8,prodloc12,tr13,25552,153312).
route(prodloc8,prodloc13,tr0,27555,716430).
route(prodloc8,prodloc13,tr13,27555,165330).
route(prodloc8,prodloc14,tr0,9633,250458).
route(prodloc8,prodloc14,tr13,9633,57798).
route(prodloc8,prodloc15,tr0,9628,250328).
route(prodloc8,prodloc15,tr13,9628,57768).
route(prodloc8,prodloc16,tr0,9157,238082).
route(prodloc8,prodloc16,tr13,9157,54942).
route(prodloc8,prodloc17,tr0,18577,483002).
route(prodloc8,prodloc17,tr15,18577,594464).
route(prodloc8,prodloc18,tr0,8772,228072).
route(prodloc8,prodloc18,tr13,8772,52632).
route(prodloc8,prodloc19,tr0,12223,317798).
route(prodloc8,prodloc19,tr13,12223,73338).
route(prodloc8,prodloc20,tr0,8326,216476).
route(prodloc8,prodloc20,tr13,8326,49956).
route(prodloc8,prodloc21,tr0,24186,628836).
route(prodloc8,prodloc21,tr13,24186,145116).
route(prodloc8,prodloc22,tr0,8532,221832).
route(prodloc8,prodloc22,tr13,8532,51192).
route(prodloc8,prodloc23,tr0,6529,169754).
route(prodloc8,prodloc23,tr13,6529,39174).
route(prodloc8,prodloc24,tr0,14400,374400).
route(prodloc8,prodloc24,tr13,14400,86400).
route(prodloc8,prodloc25,tr0,8109,210834).
route(prodloc8,prodloc25,tr13,8109,48654).
route(prodloc8,prodloc26,tr0,6088,158288).
route(prodloc8,prodloc26,tr13,6088,36528).
route(prodloc8,prodloc27,tr0,8041,209066).
route(prodloc8,prodloc27,tr13,8041,48246).
route(prodloc8,prodloc28,tr0,7718,200668).
route(prodloc8,prodloc28,tr13,7718,46308).
route(prodloc8,prodloc29,tr0,5026,130676).
route(prodloc8,prodloc29,tr13,5026,30156).
route(prodloc8,prodloc30,tr0,9221,239746).
route(prodloc8,prodloc30,tr13,9221,55326).
route(prodloc8,prodloc31,tr0,18951,492726).
route(prodloc8,prodloc31,tr13,18951,113706).
route(prodloc8,prodloc32,tr0,6170,160420).
route(prodloc8,prodloc32,tr13,6170,37020).
route(prodloc8,prodloc33,tr0,10695,278070).
route(prodloc8,prodloc33,tr13,10695,64170).
route(prodloc9,harbor0,tr0,2125,55250).
route(prodloc9,harbor0,tr13,2125,12750).
route(prodloc9,harbor1,tr0,12980,337480).
route(prodloc9,harbor1,tr13,12980,77880).
route(prodloc9,harbor2,tr0,8248,214448).
route(prodloc9,harbor2,tr13,8248,49488).
route(prodloc9,harbor3,tr0,8061,209586).
route(prodloc9,harbor3,tr13,8061,48366).
route(prodloc9,harbor4,tr0,16626,432276).
route(prodloc9,harbor4,tr13,16626,99756).
route(prodloc9,harbor5,tr0,17248,448448).
route(prodloc9,harbor5,tr13,17248,103488).
route(prodloc9,harbor6,tr0,7583,197158).
route(prodloc9,harbor6,tr13,7583,45498).
route(prodloc9,harbor7,tr0,21289,553514).
route(prodloc9,harbor7,tr13,21289,127734).
route(prodloc9,harbor8,tr0,26493,688818).
route(prodloc9,harbor8,tr13,26493,158958).
route(prodloc9,harbor9,tr0,3296,85696).
route(prodloc9,harbor9,tr13,3296,19776).
route(prodloc9,harbor10,tr0,21410,556660).
route(prodloc9,harbor10,tr13,21410,128460).
route(prodloc9,harbor11,tr0,15203,395278).
route(prodloc9,harbor11,tr13,15203,91218).
route(prodloc9,harbor12,tr0,1215,31590).
route(prodloc9,harbor12,tr13,1215,7290).
route(prodloc9,harbor13,tr0,3355,87230).
route(prodloc9,harbor13,tr13,3355,20130).
route(prodloc9,harbor14,tr0,149,3874).
route(prodloc9,harbor14,tr13,149,894).
route(prodloc9,harbor15,tr0,15559,404534).
route(prodloc9,harbor15,tr13,15559,93354).
route(prodloc9,harbor16,tr0,28930,752180).
route(prodloc9,harbor16,tr13,28930,173580).
route(prodloc9,prodloc0,tr0,26842,697892).
route(prodloc9,prodloc0,tr13,26842,161052).
route(prodloc9,prodloc1,tr0,7575,196950).
route(prodloc9,prodloc1,tr13,7575,45450).
route(prodloc9,prodloc2,tr0,27545,716170).
route(prodloc9,prodloc2,tr13,27545,165270).
route(prodloc9,prodloc3,tr0,14691,381966).
route(prodloc9,prodloc3,tr15,14691,470112).
route(prodloc9,prodloc4,tr0,12253,318578).
route(prodloc9,prodloc4,tr13,12253,73518).
route(prodloc9,prodloc5,tr0,1324,34424).
route(prodloc9,prodloc5,tr13,1324,7944).
route(prodloc9,prodloc6,tr0,28735,747110).
route(prodloc9,prodloc6,tr13,28735,172410).
route(prodloc9,prodloc7,tr0,9625,250250).
route(prodloc9,prodloc7,tr13,9625,57750).
route(prodloc9,prodloc8,tr0,7633,198458).
route(prodloc9,prodloc8,tr13,7633,45798).
route(prodloc9,prodloc10,tr0,3908,101608).
route(prodloc9,prodloc10,tr13,3908,23448).
route(prodloc9,prodloc11,tr0,1653,42978).
route(prodloc9,prodloc11,tr13,1653,9918).
route(prodloc9,prodloc12,tr0,6213,161538).
route(prodloc9,prodloc12,tr13,6213,37278).
route(prodloc9,prodloc13,tr0,19678,511628).
route(prodloc9,prodloc13,tr13,19678,118068).
route(prodloc9,prodloc14,tr0,27131,705406).
route(prodloc9,prodloc14,tr13,27131,162786).
route(prodloc9,prodloc15,tr0,19112,496912).
route(prodloc9,prodloc15,tr13,19112,114672).
route(prodloc9,prodloc16,tr0,6364,165464).
route(prodloc9,prodloc16,tr13,6364,38184).
route(prodloc9,prodloc17,tr0,2463,64038).
route(prodloc9,prodloc17,tr13,2463,14778).
route(prodloc9,prodloc18,tr0,12199,317174).
route(prodloc9,prodloc18,tr13,12199,73194).
route(prodloc9,prodloc19,tr0,16801,436826).
route(prodloc9,prodloc19,tr13,16801,100806).
route(prodloc9,prodloc20,tr0,28383,737958).
route(prodloc9,prodloc20,tr13,28383,170298).
route(prodloc9,prodloc21,tr0,5826,151476).
route(prodloc9,prodloc21,tr13,5826,34956).
route(prodloc9,prodloc22,tr0,14718,382668).
route(prodloc9,prodloc22,tr13,14718,88308).
route(prodloc9,prodloc23,tr0,19762,513812).
route(prodloc9,prodloc23,tr13,19762,118572).
route(prodloc9,prodloc24,tr0,8519,221494).
route(prodloc9,prodloc24,tr13,8519,51114).
route(prodloc9,prodloc25,tr0,25397,660322).
route(prodloc9,prodloc25,tr13,25397,152382).
route(prodloc9,prodloc26,tr0,25488,662688).
route(prodloc9,prodloc26,tr13,25488,152928).
route(prodloc9,prodloc27,tr0,21784,566384).
route(prodloc9,prodloc27,tr13,21784,130704).
route(prodloc9,prodloc28,tr0,209,5434).
route(prodloc9,prodloc28,tr13,209,1254).
route(prodloc9,prodloc29,tr0,3468,90168).
route(prodloc9,prodloc29,tr13,3468,20808).
route(prodloc9,prodloc30,tr0,20890,543140).
route(prodloc9,prodloc30,tr13,20890,125340).
route(prodloc9,prodloc31,tr0,19536,507936).
route(prodloc9,prodloc31,tr13,19536,117216).
route(prodloc9,prodloc32,tr0,23257,604682).
route(prodloc9,prodloc32,tr13,23257,139542).
route(prodloc9,prodloc33,tr0,20316,528216).
route(prodloc9,prodloc33,tr13,20316,121896).
route(prodloc10,harbor0,tr0,11460,297960).
route(prodloc10,harbor0,tr13,11460,68760).
route(prodloc10,harbor1,tr0,7133,185458).
route(prodloc10,harbor1,tr13,7133,42798).
route(prodloc10,harbor2,tr0,1229,31954).
route(prodloc10,harbor2,tr13,1229,7374).
route(prodloc10,harbor3,tr0,12083,314158).
route(prodloc10,harbor3,tr13,12083,72498).
route(prodloc10,harbor4,tr0,11143,289718).
route(prodloc10,harbor4,tr13,11143,66858).
route(prodloc10,harbor5,tr0,4634,120484).
route(prodloc10,harbor5,tr13,4634,27804).
route(prodloc10,harbor6,tr0,1449,37674).
route(prodloc10,harbor6,tr13,1449,8694).
route(prodloc10,harbor7,tr0,6685,173810).
route(prodloc10,harbor7,tr13,6685,40110).
route(prodloc10,harbor8,tr0,8355,217230).
route(prodloc10,harbor8,tr13,8355,50130).
route(prodloc10,harbor9,tr0,1254,32604).
route(prodloc10,harbor9,tr13,1254,7524).
route(prodloc10,harbor10,tr0,19643,510718).
route(prodloc10,harbor10,tr13,19643,117858).
route(prodloc10,harbor11,tr0,23995,623870).
route(prodloc10,harbor11,tr13,23995,143970).
route(prodloc10,harbor12,tr0,21355,555230).
route(prodloc10,harbor12,tr13,21355,128130).
route(prodloc10,harbor13,tr0,6668,173368).
route(prodloc10,harbor13,tr13,6668,40008).
route(prodloc10,harbor14,tr0,26699,694174).
route(prodloc10,harbor14,tr13,26699,160194).
route(prodloc10,harbor15,tr0,374,9724).
route(prodloc10,harbor15,tr13,374,2244).
route(prodloc10,harbor16,tr0,26833,697658).
route(prodloc10,harbor16,tr13,26833,160998).
route(prodloc10,prodloc0,tr0,10725,278850).
route(prodloc10,prodloc0,tr13,10725,64350).
route(prodloc10,prodloc1,tr0,13403,348478).
route(prodloc10,prodloc1,tr13,13403,80418).
route(prodloc10,prodloc2,tr0,22229,577954).
route(prodloc10,prodloc2,tr13,22229,133374).
route(prodloc10,prodloc3,tr0,12185,316810).
route(prodloc10,prodloc3,tr13,12185,73110).
route(prodloc10,prodloc4,tr0,6068,157768).
route(prodloc10,prodloc4,tr13,6068,36408).
route(prodloc10,prodloc5,tr0,20351,529126).
route(prodloc10,prodloc5,tr13,20351,122106).
route(prodloc10,prodloc6,tr0,10232,266032).
route(prodloc10,prodloc6,tr13,10232,61392).
route(prodloc10,prodloc7,tr0,2555,66430).
route(prodloc10,prodloc7,tr13,2555,15330).
route(prodloc10,prodloc8,tr0,6667,173342).
route(prodloc10,prodloc8,tr15,6667,213344).
route(prodloc10,prodloc9,tr0,1033,26858).
route(prodloc10,prodloc9,tr13,1033,6198).
route(prodloc10,prodloc11,tr0,26061,677586).
route(prodloc10,prodloc11,tr13,26061,156366).
route(prodloc10,prodloc12,tr0,16242,422292).
route(prodloc10,prodloc12,tr13,16242,97452).
route(prodloc10,prodloc13,tr0,17960,466960).
route(prodloc10,prodloc13,tr13,17960,107760).
route(prodloc10,prodloc14,tr0,15845,411970).
route(prodloc10,prodloc14,tr13,15845,95070).
route(prodloc10,prodloc15,tr0,2075,53950).
route(prodloc10,prodloc15,tr13,2075,12450).
route(prodloc10,prodloc16,tr0,13376,347776).
route(prodloc10,prodloc16,tr13,13376,80256).
route(prodloc10,prodloc17,tr0,3324,86424).
route(prodloc10,prodloc17,tr13,3324,19944).
route(prodloc10,prodloc18,tr0,26080,678080).
route(prodloc10,prodloc18,tr13,26080,156480).
route(prodloc10,prodloc19,tr0,12955,336830).
route(prodloc10,prodloc19,tr13,12955,77730).
route(prodloc10,prodloc20,tr0,21760,565760).
route(prodloc10,prodloc20,tr13,21760,130560).
route(prodloc10,prodloc21,tr0,18028,468728).
route(prodloc10,prodloc21,tr13,18028,108168).
route(prodloc10,prodloc22,tr0,5066,131716).
route(prodloc10,prodloc22,tr13,5066,30396).
route(prodloc10,prodloc23,tr0,20946,544596).
route(prodloc10,prodloc23,tr13,20946,125676).
route(prodloc10,prodloc24,tr0,17500,455000).
route(prodloc10,prodloc24,tr13,17500,105000).
route(prodloc10,prodloc25,tr0,2988,77688).
route(prodloc10,prodloc25,tr13,2988,17928).
route(prodloc10,prodloc26,tr0,21401,556426).
route(prodloc10,prodloc26,tr13,21401,128406).
route(prodloc10,prodloc27,tr0,5365,139490).
route(prodloc10,prodloc27,tr13,5365,32190).
route(prodloc10,prodloc28,tr0,13036,338936).
route(prodloc10,prodloc28,tr15,13036,417152).
route(prodloc10,prodloc29,tr0,22789,592514).
route(prodloc10,prodloc29,tr13,22789,136734).
route(prodloc10,prodloc30,tr0,8887,231062).
route(prodloc10,prodloc30,tr13,8887,53322).
route(prodloc10,prodloc31,tr13,13429,80574).
route(prodloc10,prodloc31,tr15,13429,429728).
route(prodloc10,prodloc32,tr0,9285,241410).
route(prodloc10,prodloc32,tr13,9285,55710).
route(prodloc10,prodloc33,tr0,21884,568984).
route(prodloc10,prodloc33,tr13,21884,131304).
route(prodloc11,harbor0,tr0,10081,262106).
route(prodloc11,harbor0,tr13,10081,60486).
route(prodloc11,harbor1,tr0,13693,356018).
route(prodloc11,harbor1,tr13,13693,82158).
route(prodloc11,harbor2,tr0,1684,43784).
route(prodloc11,harbor2,tr13,1684,10104).
route(prodloc11,harbor3,tr0,10237,266162).
route(prodloc11,harbor3,tr13,10237,61422).
route(prodloc11,harbor4,tr0,24425,635050).
route(prodloc11,harbor4,tr13,24425,146550).
route(prodloc11,harbor5,tr0,18565,482690).
route(prodloc11,harbor5,tr13,18565,111390).
route(prodloc11,harbor6,tr0,11706,304356).
route(prodloc11,harbor6,tr13,11706,70236).
route(prodloc11,harbor7,tr0,13570,352820).
route(prodloc11,harbor7,tr13,13570,81420).
route(prodloc11,harbor8,tr0,13648,354848).
route(prodloc11,harbor8,tr13,13648,81888).
route(prodloc11,harbor9,tr0,598,15548).
route(prodloc11,harbor9,tr13,598,3588).
route(prodloc11,harbor10,tr0,28321,736346).
route(prodloc11,harbor10,tr13,28321,169926).
route(prodloc11,harbor11,tr0,25124,653224).
route(prodloc11,harbor11,tr13,25124,150744).
route(prodloc11,harbor12,tr0,26289,683514).
route(prodloc11,harbor12,tr13,26289,157734).
route(prodloc11,harbor13,tr0,11922,309972).
route(prodloc11,harbor13,tr13,11922,71532).
route(prodloc11,harbor14,tr0,21120,549120).
route(prodloc11,harbor14,tr13,21120,126720).
route(prodloc11,harbor15,tr0,6463,168038).
route(prodloc11,harbor15,tr13,6463,38778).
route(prodloc11,harbor16,tr0,12805,332930).
route(prodloc11,harbor16,tr13,12805,76830).
route(prodloc11,prodloc0,tr0,23858,620308).
route(prodloc11,prodloc0,tr13,23858,143148).
route(prodloc11,prodloc1,tr0,13272,345072).
route(prodloc11,prodloc1,tr13,13272,79632).
route(prodloc11,prodloc2,tr0,6675,173550).
route(prodloc11,prodloc2,tr13,6675,40050).
route(prodloc11,prodloc3,tr0,194,5044).
route(prodloc11,prodloc3,tr13,194,1164).
route(prodloc11,prodloc4,tr0,14228,369928).
route(prodloc11,prodloc4,tr13,14228,85368).
route(prodloc11,prodloc5,tr0,5132,133432).
route(prodloc11,prodloc5,tr13,5132,30792).
route(prodloc11,prodloc6,tr0,13887,361062).
route(prodloc11,prodloc6,tr13,13887,83322).
route(prodloc11,prodloc7,tr0,3722,96772).
route(prodloc11,prodloc7,tr13,3722,22332).
route(prodloc11,prodloc8,tr0,26883,698958).
route(prodloc11,prodloc8,tr13,26883,161298).
route(prodloc11,prodloc9,tr0,2967,77142).
route(prodloc11,prodloc9,tr13,2967,17802).
route(prodloc11,prodloc10,tr0,13312,346112).
route(prodloc11,prodloc10,tr13,13312,79872).
route(prodloc11,prodloc12,tr0,18935,492310).
route(prodloc11,prodloc12,tr13,18935,113610).
route(prodloc11,prodloc13,tr0,28930,752180).
route(prodloc11,prodloc13,tr13,28930,173580).
route(prodloc11,prodloc14,tr0,11953,310778).
route(prodloc11,prodloc14,tr13,11953,71718).
route(prodloc11,prodloc15,tr0,15104,392704).
route(prodloc11,prodloc15,tr13,15104,90624).
route(prodloc11,prodloc16,tr0,25333,658658).
route(prodloc11,prodloc16,tr13,25333,151998).
route(prodloc11,prodloc17,tr0,5328,138528).
route(prodloc11,prodloc17,tr13,5328,31968).
route(prodloc11,prodloc18,tr0,4261,110786).
route(prodloc11,prodloc18,tr13,4261,25566).
route(prodloc11,prodloc19,tr0,488,12688).
route(prodloc11,prodloc19,tr13,488,2928).
route(prodloc11,prodloc20,tr0,1695,44070).
route(prodloc11,prodloc20,tr13,1695,10170).
route(prodloc11,prodloc21,tr0,18075,469950).
route(prodloc11,prodloc21,tr13,18075,108450).
route(prodloc11,prodloc22,tr0,4671,121446).
route(prodloc11,prodloc22,tr13,4671,28026).
route(prodloc11,prodloc23,tr0,20995,545870).
route(prodloc11,prodloc23,tr13,20995,125970).
route(prodloc11,prodloc24,tr0,26428,687128).
route(prodloc11,prodloc24,tr13,26428,158568).
route(prodloc11,prodloc25,tr0,13001,338026).
route(prodloc11,prodloc25,tr13,13001,78006).
route(prodloc11,prodloc26,tr0,2919,75894).
route(prodloc11,prodloc26,tr13,2919,17514).
route(prodloc11,prodloc27,tr0,18773,488098).
route(prodloc11,prodloc27,tr13,18773,112638).
route(prodloc11,prodloc28,tr0,20390,530140).
route(prodloc11,prodloc28,tr13,20390,122340).
route(prodloc11,prodloc29,tr0,12153,315978).
route(prodloc11,prodloc29,tr13,12153,72918).
route(prodloc11,prodloc30,tr0,24160,628160).
route(prodloc11,prodloc30,tr13,24160,144960).
route(prodloc11,prodloc31,tr0,16532,429832).
route(prodloc11,prodloc31,tr13,16532,99192).
route(prodloc11,prodloc32,tr0,5627,146302).
route(prodloc11,prodloc32,tr13,5627,33762).
route(prodloc11,prodloc33,tr0,4782,124332).
route(prodloc11,prodloc33,tr13,4782,28692).
route(prodloc12,harbor0,tr0,11403,296478).
route(prodloc12,harbor0,tr13,11403,68418).
route(prodloc12,harbor1,tr0,9285,241410).
route(prodloc12,harbor1,tr13,9285,55710).
route(prodloc12,harbor2,tr0,5304,137904).
route(prodloc12,harbor2,tr13,5304,31824).
route(prodloc12,harbor3,tr0,17079,444054).
route(prodloc12,harbor3,tr13,17079,102474).
route(prodloc12,harbor4,tr0,5631,146406).
route(prodloc12,harbor4,tr13,5631,33786).
route(prodloc12,harbor5,tr0,2200,57200).
route(prodloc12,harbor5,tr13,2200,13200).
route(prodloc12,harbor6,tr0,3566,92716).
route(prodloc12,harbor6,tr13,3566,21396).
route(prodloc12,harbor7,tr0,12576,326976).
route(prodloc12,harbor7,tr13,12576,75456).
route(prodloc12,harbor8,tr0,16075,417950).
route(prodloc12,harbor8,tr13,16075,96450).
route(prodloc12,harbor9,tr0,24694,642044).
route(prodloc12,harbor9,tr13,24694,148164).
route(prodloc12,harbor10,tr0,26374,685724).
route(prodloc12,harbor10,tr13,26374,158244).
route(prodloc12,harbor11,tr0,25959,674934).
route(prodloc12,harbor11,tr13,25959,155754).
route(prodloc12,harbor12,tr0,26370,685620).
route(prodloc12,harbor12,tr13,26370,158220).
route(prodloc12,harbor13,tr0,6468,168168).
route(prodloc12,harbor13,tr13,6468,38808).
route(prodloc12,harbor14,tr0,9885,257010).
route(prodloc12,harbor14,tr13,9885,59310).
route(prodloc12,harbor15,tr0,4152,107952).
route(prodloc12,harbor15,tr13,4152,24912).
route(prodloc12,harbor16,tr0,27438,713388).
route(prodloc12,harbor16,tr13,27438,164628).
route(prodloc12,prodloc0,tr0,1427,37102).
route(prodloc12,prodloc0,tr13,1427,8562).
route(prodloc12,prodloc1,tr0,15820,411320).
route(prodloc12,prodloc1,tr13,15820,94920).
route(prodloc12,prodloc2,tr0,10308,268008).
route(prodloc12,prodloc2,tr13,10308,61848).
route(prodloc12,prodloc3,tr0,1750,45500).
route(prodloc12,prodloc3,tr13,1750,10500).
route(prodloc12,prodloc4,tr0,19913,517738).
route(prodloc12,prodloc4,tr15,19913,637216).
route(prodloc12,prodloc5,tr0,20854,542204).
route(prodloc12,prodloc5,tr13,20854,125124).
route(prodloc12,prodloc6,tr0,12712,330512).
route(prodloc12,prodloc6,tr13,12712,76272).
route(prodloc12,prodloc7,tr0,2829,73554).
route(prodloc12,prodloc7,tr13,2829,16974).
route(prodloc12,prodloc8,tr0,23342,606892).
route(prodloc12,prodloc8,tr13,23342,140052).
route(prodloc12,prodloc9,tr0,20329,528554).
route(prodloc12,prodloc9,tr13,20329,121974).
route(prodloc12,prodloc10,tr0,22553,586378).
route(prodloc12,prodloc10,tr13,22553,135318).
route(prodloc12,prodloc11,tr0,27021,702546).
route(prodloc12,prodloc11,tr13,27021,162126).
route(prodloc12,prodloc13,tr0,5253,136578).
route(prodloc12,prodloc13,tr13,5253,31518).
route(prodloc12,prodloc14,tr0,20984,545584).
route(prodloc12,prodloc14,tr13,20984,125904).
route(prodloc12,prodloc15,tr0,25751,669526).
route(prodloc12,prodloc15,tr13,25751,154506).
route(prodloc12,prodloc16,tr0,28070,729820).
route(prodloc12,prodloc16,tr13,28070,168420).
route(prodloc12,prodloc17,tr0,7278,189228).
route(prodloc12,prodloc17,tr13,7278,43668).
route(prodloc12,prodloc18,tr0,20352,529152).
route(prodloc12,prodloc18,tr13,20352,122112).
route(prodloc12,prodloc19,tr0,13256,344656).
route(prodloc12,prodloc19,tr13,13256,79536).
route(prodloc12,prodloc20,tr0,20145,523770).
route(prodloc12,prodloc20,tr13,20145,120870).
route(prodloc12,prodloc21,tr0,27735,721110).
route(prodloc12,prodloc21,tr13,27735,166410).
route(prodloc12,prodloc22,tr0,6428,167128).
route(prodloc12,prodloc22,tr13,6428,38568).
route(prodloc12,prodloc23,tr0,27172,706472).
route(prodloc12,prodloc23,tr13,27172,163032).
route(prodloc12,prodloc24,tr0,15499,402974).
route(prodloc12,prodloc24,tr13,15499,92994).
route(prodloc12,prodloc25,tr0,5997,155922).
route(prodloc12,prodloc25,tr13,5997,35982).
route(prodloc12,prodloc26,tr0,18529,481754).
route(prodloc12,prodloc26,tr13,18529,111174).
route(prodloc12,prodloc27,tr0,7149,185874).
route(prodloc12,prodloc27,tr13,7149,42894).
route(prodloc12,prodloc28,tr0,1368,35568).
route(prodloc12,prodloc28,tr13,1368,8208).
route(prodloc12,prodloc29,tr0,13100,340600).
route(prodloc12,prodloc29,tr13,13100,78600).
route(prodloc12,prodloc30,tr0,16972,441272).
route(prodloc12,prodloc30,tr13,16972,101832).
route(prodloc12,prodloc31,tr0,5129,133354).
route(prodloc12,prodloc31,tr13,5129,30774).
route(prodloc12,prodloc32,tr0,12571,326846).
route(prodloc12,prodloc32,tr13,12571,75426).
route(prodloc12,prodloc33,tr0,11772,306072).
route(prodloc12,prodloc33,tr13,11772,70632).
route(prodloc13,harbor0,tr0,4034,104884).
route(prodloc13,harbor0,tr13,4034,24204).
route(prodloc13,harbor1,tr0,4899,127374).
route(prodloc13,harbor1,tr13,4899,29394).
route(prodloc13,harbor2,tr0,8097,210522).
route(prodloc13,harbor2,tr13,8097,48582).
route(prodloc13,harbor3,tr0,23754,617604).
route(prodloc13,harbor3,tr13,23754,142524).
route(prodloc13,harbor4,tr0,26729,694954).
route(prodloc13,harbor4,tr13,26729,160374).
route(prodloc13,harbor5,tr0,6312,164112).
route(prodloc13,harbor5,tr13,6312,37872).
route(prodloc13,harbor6,tr0,1348,35048).
route(prodloc13,harbor6,tr13,1348,8088).
route(prodloc13,harbor7,tr0,18428,479128).
route(prodloc13,harbor7,tr13,18428,110568).
route(prodloc13,harbor8,tr0,27608,717808).
route(prodloc13,harbor8,tr13,27608,165648).
route(prodloc13,harbor9,tr0,24822,645372).
route(prodloc13,harbor9,tr13,24822,148932).
route(prodloc13,harbor10,tr0,22030,572780).
route(prodloc13,harbor10,tr13,22030,132180).
route(prodloc13,harbor11,tr0,1251,32526).
route(prodloc13,harbor11,tr13,1251,7506).
route(prodloc13,harbor12,tr0,21887,569062).
route(prodloc13,harbor12,tr13,21887,131322).
route(prodloc13,harbor13,tr0,27468,714168).
route(prodloc13,harbor13,tr13,27468,164808).
route(prodloc13,harbor14,tr0,10625,276250).
route(prodloc13,harbor14,tr13,10625,63750).
route(prodloc13,harbor15,tr0,3859,100334).
route(prodloc13,harbor15,tr13,3859,23154).
route(prodloc13,harbor16,tr0,12776,332176).
route(prodloc13,harbor16,tr13,12776,76656).
route(prodloc13,prodloc0,tr0,19647,510822).
route(prodloc13,prodloc0,tr13,19647,117882).
route(prodloc13,prodloc1,tr0,14935,388310).
route(prodloc13,prodloc1,tr13,14935,89610).
route(prodloc13,prodloc2,tr0,18026,468676).
route(prodloc13,prodloc2,tr13,18026,108156).
route(prodloc13,prodloc3,tr0,27822,723372).
route(prodloc13,prodloc3,tr13,27822,166932).
route(prodloc13,prodloc4,tr0,20548,534248).
route(prodloc13,prodloc4,tr13,20548,123288).
route(prodloc13,prodloc5,tr0,25498,662948).
route(prodloc13,prodloc5,tr15,25498,815936).
route(prodloc13,prodloc6,tr0,10036,260936).
route(prodloc13,prodloc6,tr13,10036,60216).
route(prodloc13,prodloc7,tr0,21269,552994).
route(prodloc13,prodloc7,tr13,21269,127614).
route(prodloc13,prodloc8,tr0,13766,357916).
route(prodloc13,prodloc8,tr13,13766,82596).
route(prodloc13,prodloc9,tr0,10101,262626).
route(prodloc13,prodloc9,tr13,10101,60606).
route(prodloc13,prodloc10,tr0,19093,496418).
route(prodloc13,prodloc10,tr13,19093,114558).
route(prodloc13,prodloc11,tr0,8169,212394).
route(prodloc13,prodloc11,tr13,8169,49014).
route(prodloc13,prodloc12,tr0,13952,362752).
route(prodloc13,prodloc12,tr13,13952,83712).
route(prodloc13,prodloc14,tr0,12755,331630).
route(prodloc13,prodloc14,tr13,12755,76530).
route(prodloc13,prodloc15,tr0,21590,561340).
route(prodloc13,prodloc15,tr13,21590,129540).
route(prodloc13,prodloc16,tr0,12042,313092).
route(prodloc13,prodloc16,tr13,12042,72252).
route(prodloc13,prodloc17,tr0,14642,380692).
route(prodloc13,prodloc17,tr13,14642,87852).
route(prodloc13,prodloc18,tr0,16503,429078).
route(prodloc13,prodloc18,tr13,16503,99018).
route(prodloc13,prodloc19,tr0,14365,373490).
route(prodloc13,prodloc19,tr13,14365,86190).
route(prodloc13,prodloc20,tr0,5859,152334).
route(prodloc13,prodloc20,tr13,5859,35154).
route(prodloc13,prodloc21,tr0,767,19942).
route(prodloc13,prodloc21,tr13,767,4602).
route(prodloc13,prodloc22,tr0,116,3016).
route(prodloc13,prodloc22,tr13,116,696).
route(prodloc13,prodloc23,tr0,20281,527306).
route(prodloc13,prodloc23,tr13,20281,121686).
route(prodloc13,prodloc24,tr0,16041,417066).
route(prodloc13,prodloc24,tr13,16041,96246).
route(prodloc13,prodloc25,tr0,15248,396448).
route(prodloc13,prodloc25,tr13,15248,91488).
route(prodloc13,prodloc26,tr0,7710,200460).
route(prodloc13,prodloc26,tr13,7710,46260).
route(prodloc13,prodloc27,tr0,14643,380718).
route(prodloc13,prodloc27,tr13,14643,87858).
route(prodloc13,prodloc28,tr0,25022,650572).
route(prodloc13,prodloc28,tr13,25022,150132).
route(prodloc13,prodloc29,tr0,20271,527046).
route(prodloc13,prodloc29,tr13,20271,121626).
route(prodloc13,prodloc30,tr0,25560,664560).
route(prodloc13,prodloc30,tr13,25560,153360).
route(prodloc13,prodloc31,tr0,26838,697788).
route(prodloc13,prodloc31,tr13,26838,161028).
route(prodloc13,prodloc32,tr0,15019,390494).
route(prodloc13,prodloc32,tr13,15019,90114).
route(prodloc13,prodloc33,tr0,27413,712738).
route(prodloc13,prodloc33,tr13,27413,164478).
route(prodloc14,harbor0,tr0,5886,153036).
route(prodloc14,harbor0,tr13,5886,35316).
route(prodloc14,harbor1,tr0,26561,690586).
route(prodloc14,harbor1,tr13,26561,159366).
route(prodloc14,harbor2,tr0,15508,403208).
route(prodloc14,harbor2,tr13,15508,93048).
route(prodloc14,harbor3,tr0,13120,341120).
route(prodloc14,harbor3,tr13,13120,78720).
route(prodloc14,harbor4,tr0,3510,91260).
route(prodloc14,harbor4,tr13,3510,21060).
route(prodloc14,harbor5,tr0,2201,57226).
route(prodloc14,harbor5,tr13,2201,13206).
route(prodloc14,harbor6,tr0,4211,109486).
route(prodloc14,harbor6,tr13,4211,25266).
route(prodloc14,harbor7,tr0,11751,305526).
route(prodloc14,harbor7,tr13,11751,70506).
route(prodloc14,harbor8,tr0,14111,366886).
route(prodloc14,harbor8,tr13,14111,84666).
route(prodloc14,harbor9,tr0,11973,311298).
route(prodloc14,harbor9,tr13,11973,71838).
route(prodloc14,harbor10,tr0,3007,78182).
route(prodloc14,harbor10,tr13,3007,18042).
route(prodloc14,harbor11,tr0,26291,683566).
route(prodloc14,harbor11,tr13,26291,157746).
route(prodloc14,harbor12,tr0,14484,376584).
route(prodloc14,harbor12,tr13,14484,86904).
route(prodloc14,harbor13,tr0,16528,429728).
route(prodloc14,harbor13,tr13,16528,99168).
route(prodloc14,harbor14,tr0,16718,434668).
route(prodloc14,harbor14,tr13,16718,100308).
route(prodloc14,harbor15,tr0,21533,559858).
route(prodloc14,harbor15,tr13,21533,129198).
route(prodloc14,harbor16,tr0,1337,34762).
route(prodloc14,harbor16,tr13,1337,8022).
route(prodloc14,prodloc0,tr0,1334,34684).
route(prodloc14,prodloc0,tr13,1334,8004).
route(prodloc14,prodloc1,tr0,20856,542256).
route(prodloc14,prodloc1,tr13,20856,125136).
route(prodloc14,prodloc2,tr0,4270,111020).
route(prodloc14,prodloc2,tr13,4270,25620).
route(prodloc14,prodloc3,tr0,2696,70096).
route(prodloc14,prodloc3,tr13,2696,16176).
route(prodloc14,prodloc4,tr0,24036,624936).
route(prodloc14,prodloc4,tr13,24036,144216).
route(prodloc14,prodloc5,tr0,10282,267332).
route(prodloc14,prodloc5,tr13,10282,61692).
route(prodloc14,prodloc6,tr0,25483,662558).
route(prodloc14,prodloc6,tr13,25483,152898).
route(prodloc14,prodloc7,tr0,23607,613782).
route(prodloc14,prodloc7,tr13,23607,141642).
route(prodloc14,prodloc8,tr0,16762,435812).
route(prodloc14,prodloc8,tr13,16762,100572).
route(prodloc14,prodloc9,tr0,2622,68172).
route(prodloc14,prodloc9,tr13,2622,15732).
route(prodloc14,prodloc10,tr0,1780,46280).
route(prodloc14,prodloc10,tr13,1780,10680).
route(prodloc14,prodloc11,tr0,24645,640770).
route(prodloc14,prodloc11,tr13,24645,147870).
route(prodloc14,prodloc12,tr0,16514,429364).
route(prodloc14,prodloc12,tr13,16514,99084).
route(prodloc14,prodloc13,tr0,12383,321958).
route(prodloc14,prodloc13,tr13,12383,74298).
route(prodloc14,prodloc15,tr0,21391,556166).
route(prodloc14,prodloc15,tr13,21391,128346).
route(prodloc14,prodloc16,tr0,25700,668200).
route(prodloc14,prodloc16,tr13,25700,154200).
route(prodloc14,prodloc17,tr0,4464,116064).
route(prodloc14,prodloc17,tr13,4464,26784).
route(prodloc14,prodloc18,tr0,849,22074).
route(prodloc14,prodloc18,tr13,849,5094).
route(prodloc14,prodloc19,tr0,28086,730236).
route(prodloc14,prodloc19,tr13,28086,168516).
route(prodloc14,prodloc20,tr0,2177,56602).
route(prodloc14,prodloc20,tr13,2177,13062).
route(prodloc14,prodloc21,tr0,20125,523250).
route(prodloc14,prodloc21,tr13,20125,120750).
route(prodloc14,prodloc22,tr0,23990,623740).
route(prodloc14,prodloc22,tr13,23990,143940).
route(prodloc14,prodloc23,tr0,22695,590070).
route(prodloc14,prodloc23,tr13,22695,136170).
route(prodloc14,prodloc24,tr0,26707,694382).
route(prodloc14,prodloc24,tr13,26707,160242).
route(prodloc14,prodloc25,tr0,3592,93392).
route(prodloc14,prodloc25,tr13,3592,21552).
route(prodloc14,prodloc26,tr0,6349,165074).
route(prodloc14,prodloc26,tr13,6349,38094).
route(prodloc14,prodloc27,tr0,4314,112164).
route(prodloc14,prodloc27,tr13,4314,25884).
route(prodloc14,prodloc28,tr0,16119,419094).
route(prodloc14,prodloc28,tr13,16119,96714).
route(prodloc14,prodloc29,tr0,9435,245310).
route(prodloc14,prodloc29,tr13,9435,56610).
route(prodloc14,prodloc30,tr0,26576,690976).
route(prodloc14,prodloc30,tr13,26576,159456).
route(prodloc14,prodloc31,tr0,26051,677326).
route(prodloc14,prodloc31,tr13,26051,156306).
route(prodloc14,prodloc32,tr0,5412,140712).
route(prodloc14,prodloc32,tr13,5412,32472).
route(prodloc14,prodloc33,tr0,22485,584610).
route(prodloc14,prodloc33,tr13,22485,134910).
route(prodloc15,harbor0,tr0,25835,671710).
route(prodloc15,harbor0,tr13,25835,155010).
route(prodloc15,harbor1,tr0,23630,614380).
route(prodloc15,harbor1,tr13,23630,141780).
route(prodloc15,harbor2,tr0,7247,188422).
route(prodloc15,harbor2,tr13,7247,43482).
route(prodloc15,harbor3,tr0,2148,55848).
route(prodloc15,harbor3,tr13,2148,12888).
route(prodloc15,harbor4,tr0,27298,709748).
route(prodloc15,harbor4,tr13,27298,163788).
route(prodloc15,harbor5,tr0,11500,299000).
route(prodloc15,harbor5,tr13,11500,69000).
route(prodloc15,harbor6,tr0,20005,520130).
route(prodloc15,harbor6,tr13,20005,120030).
route(prodloc15,harbor7,tr0,24780,644280).
route(prodloc15,harbor7,tr13,24780,148680).
route(prodloc15,harbor8,tr0,8266,214916).
route(prodloc15,harbor8,tr13,8266,49596).
route(prodloc15,harbor9,tr0,5204,135304).
route(prodloc15,harbor9,tr13,5204,31224).
route(prodloc15,harbor10,tr0,10613,275938).
route(prodloc15,harbor10,tr13,10613,63678).
route(prodloc15,harbor11,tr0,20106,522756).
route(prodloc15,harbor11,tr13,20106,120636).
route(prodloc15,harbor12,tr0,9012,234312).
route(prodloc15,harbor12,tr13,9012,54072).
route(prodloc15,harbor13,tr0,26728,694928).
route(prodloc15,harbor13,tr13,26728,160368).
route(prodloc15,harbor14,tr0,14957,388882).
route(prodloc15,harbor14,tr13,14957,89742).
route(prodloc15,harbor15,tr0,4706,122356).
route(prodloc15,harbor15,tr13,4706,28236).
route(prodloc15,harbor16,tr0,8330,216580).
route(prodloc15,harbor16,tr13,8330,49980).
route(prodloc15,prodloc0,tr0,16458,427908).
route(prodloc15,prodloc0,tr13,16458,98748).
route(prodloc15,prodloc1,tr0,15734,409084).
route(prodloc15,prodloc1,tr13,15734,94404).
route(prodloc15,prodloc2,tr0,6828,177528).
route(prodloc15,prodloc2,tr13,6828,40968).
route(prodloc15,prodloc3,tr0,19396,504296).
route(prodloc15,prodloc3,tr13,19396,116376).
route(prodloc15,prodloc4,tr0,8615,223990).
route(prodloc15,prodloc4,tr13,8615,51690).
route(prodloc15,prodloc5,tr0,20182,524732).
route(prodloc15,prodloc5,tr13,20182,121092).
route(prodloc15,prodloc6,tr0,16582,431132).
route(prodloc15,prodloc6,tr13,16582,99492).
route(prodloc15,prodloc7,tr0,7781,202306).
route(prodloc15,prodloc7,tr13,7781,46686).
route(prodloc15,prodloc8,tr0,10457,271882).
route(prodloc15,prodloc8,tr13,10457,62742).
route(prodloc15,prodloc9,tr0,12200,317200).
route(prodloc15,prodloc9,tr13,12200,73200).
route(prodloc15,prodloc10,tr0,1208,31408).
route(prodloc15,prodloc10,tr13,1208,7248).
route(prodloc15,prodloc11,tr0,6520,169520).
route(prodloc15,prodloc11,tr13,6520,39120).
route(prodloc15,prodloc12,tr0,5968,155168).
route(prodloc15,prodloc12,tr13,5968,35808).
route(prodloc15,prodloc13,tr0,13222,343772).
route(prodloc15,prodloc13,tr13,13222,79332).
route(prodloc15,prodloc14,tr0,5285,137410).
route(prodloc15,prodloc14,tr13,5285,31710).
route(prodloc15,prodloc16,tr0,20861,542386).
route(prodloc15,prodloc16,tr13,20861,125166).
route(prodloc15,prodloc17,tr0,9117,237042).
route(prodloc15,prodloc17,tr13,9117,54702).
route(prodloc15,prodloc18,tr0,22273,579098).
route(prodloc15,prodloc18,tr13,22273,133638).
route(prodloc15,prodloc19,tr0,10744,279344).
route(prodloc15,prodloc19,tr13,10744,64464).
route(prodloc15,prodloc20,tr0,12350,321100).
route(prodloc15,prodloc20,tr13,12350,74100).
route(prodloc15,prodloc21,tr0,5531,143806).
route(prodloc15,prodloc21,tr13,5531,33186).
route(prodloc15,prodloc22,tr0,25958,674908).
route(prodloc15,prodloc22,tr13,25958,155748).
route(prodloc15,prodloc23,tr0,25720,668720).
route(prodloc15,prodloc23,tr13,25720,154320).
route(prodloc15,prodloc24,tr0,8663,225238).
route(prodloc15,prodloc24,tr13,8663,51978).
route(prodloc15,prodloc25,tr13,3772,22632).
route(prodloc15,prodloc25,tr15,3772,120704).
route(prodloc15,prodloc26,tr0,25176,654576).
route(prodloc15,prodloc26,tr13,25176,151056).
route(prodloc15,prodloc27,tr0,17392,452192).
route(prodloc15,prodloc27,tr13,17392,104352).
route(prodloc15,prodloc28,tr0,1593,41418).
route(prodloc15,prodloc28,tr13,1593,9558).
route(prodloc15,prodloc29,tr0,20852,542152).
route(prodloc15,prodloc29,tr13,20852,125112).
route(prodloc15,prodloc30,tr0,28126,731276).
route(prodloc15,prodloc30,tr13,28126,168756).
route(prodloc15,prodloc31,tr0,11791,306566).
route(prodloc15,prodloc31,tr13,11791,70746).
route(prodloc15,prodloc32,tr0,28606,743756).
route(prodloc15,prodloc32,tr13,28606,171636).
route(prodloc15,prodloc33,tr0,14847,386022).
route(prodloc15,prodloc33,tr13,14847,89082).
route(prodloc16,harbor0,tr0,18194,473044).
route(prodloc16,harbor0,tr13,18194,109164).
route(prodloc16,harbor1,tr0,17088,444288).
route(prodloc16,harbor1,tr13,17088,102528).
route(prodloc16,harbor2,tr0,19008,494208).
route(prodloc16,harbor2,tr13,19008,114048).
route(prodloc16,harbor3,tr0,22570,586820).
route(prodloc16,harbor3,tr13,22570,135420).
route(prodloc16,harbor4,tr0,28920,751920).
route(prodloc16,harbor4,tr13,28920,173520).
route(prodloc16,harbor5,tr0,3429,89154).
route(prodloc16,harbor5,tr13,3429,20574).
route(prodloc16,harbor6,tr0,8260,214760).
route(prodloc16,harbor6,tr13,8260,49560).
route(prodloc16,harbor7,tr0,17555,456430).
route(prodloc16,harbor7,tr13,17555,105330).
route(prodloc16,harbor8,tr0,20638,536588).
route(prodloc16,harbor8,tr13,20638,123828).
route(prodloc16,harbor9,tr0,28071,729846).
route(prodloc16,harbor9,tr13,28071,168426).
route(prodloc16,harbor10,tr0,12920,335920).
route(prodloc16,harbor10,tr13,12920,77520).
route(prodloc16,harbor11,tr0,24182,628732).
route(prodloc16,harbor11,tr13,24182,145092).
route(prodloc16,harbor12,tr0,26140,679640).
route(prodloc16,harbor12,tr13,26140,156840).
route(prodloc16,harbor13,tr0,12174,316524).
route(prodloc16,harbor13,tr13,12174,73044).
route(prodloc16,harbor14,tr0,8677,225602).
route(prodloc16,harbor14,tr13,8677,52062).
route(prodloc16,harbor15,tr0,12314,320164).
route(prodloc16,harbor15,tr13,12314,73884).
route(prodloc16,harbor16,tr0,12091,314366).
route(prodloc16,harbor16,tr13,12091,72546).
route(prodloc16,prodloc0,tr0,18920,491920).
route(prodloc16,prodloc0,tr13,18920,113520).
route(prodloc16,prodloc1,tr0,4792,124592).
route(prodloc16,prodloc1,tr13,4792,28752).
route(prodloc16,prodloc2,tr0,11806,306956).
route(prodloc16,prodloc2,tr13,11806,70836).
route(prodloc16,prodloc3,tr0,10842,281892).
route(prodloc16,prodloc3,tr13,10842,65052).
route(prodloc16,prodloc4,tr0,25057,651482).
route(prodloc16,prodloc4,tr13,25057,150342).
route(prodloc16,prodloc5,tr0,2668,69368).
route(prodloc16,prodloc5,tr13,2668,16008).
route(prodloc16,prodloc6,tr0,14494,376844).
route(prodloc16,prodloc6,tr13,14494,86964).
route(prodloc16,prodloc7,tr0,7540,196040).
route(prodloc16,prodloc7,tr13,7540,45240).
route(prodloc16,prodloc8,tr0,5793,150618).
route(prodloc16,prodloc8,tr13,5793,34758).
route(prodloc16,prodloc9,tr0,20166,524316).
route(prodloc16,prodloc9,tr13,20166,120996).
route(prodloc16,prodloc10,tr0,24368,633568).
route(prodloc16,prodloc10,tr13,24368,146208).
route(prodloc16,prodloc11,tr0,1584,41184).
route(prodloc16,prodloc11,tr13,1584,9504).
route(prodloc16,prodloc12,tr0,9713,252538).
route(prodloc16,prodloc12,tr13,9713,58278).
route(prodloc16,prodloc13,tr0,26866,698516).
route(prodloc16,prodloc13,tr13,26866,161196).
route(prodloc16,prodloc14,tr0,16913,439738).
route(prodloc16,prodloc14,tr13,16913,101478).
route(prodloc16,prodloc15,tr0,8313,216138).
route(prodloc16,prodloc15,tr13,8313,49878).
route(prodloc16,prodloc17,tr0,10162,264212).
route(prodloc16,prodloc17,tr13,10162,60972).
route(prodloc16,prodloc18,tr0,20948,544648).
route(prodloc16,prodloc18,tr13,20948,125688).
route(prodloc16,prodloc19,tr0,28519,741494).
route(prodloc16,prodloc19,tr13,28519,171114).
route(prodloc16,prodloc20,tr0,19199,499174).
route(prodloc16,prodloc20,tr13,19199,115194).
route(prodloc16,prodloc21,tr0,21750,565500).
route(prodloc16,prodloc21,tr13,21750,130500).
route(prodloc16,prodloc22,tr0,10246,266396).
route(prodloc16,prodloc22,tr13,10246,61476).
route(prodloc16,prodloc23,tr0,24022,624572).
route(prodloc16,prodloc23,tr13,24022,144132).
route(prodloc16,prodloc24,tr0,60,1560).
route(prodloc16,prodloc24,tr13,60,360).
route(prodloc16,prodloc25,tr0,24483,636558).
route(prodloc16,prodloc25,tr13,24483,146898).
route(prodloc16,prodloc26,tr0,1109,28834).
route(prodloc16,prodloc26,tr13,1109,6654).
route(prodloc16,prodloc27,tr0,7264,188864).
route(prodloc16,prodloc27,tr13,7264,43584).
route(prodloc16,prodloc28,tr0,4896,127296).
route(prodloc16,prodloc28,tr13,4896,29376).
route(prodloc16,prodloc29,tr0,9536,247936).
route(prodloc16,prodloc29,tr13,9536,57216).
route(prodloc16,prodloc30,tr0,20188,524888).
route(prodloc16,prodloc30,tr13,20188,121128).
route(prodloc16,prodloc31,tr0,20502,533052).
route(prodloc16,prodloc31,tr13,20502,123012).
route(prodloc16,prodloc32,tr0,14165,368290).
route(prodloc16,prodloc32,tr13,14165,84990).
route(prodloc16,prodloc33,tr0,13688,355888).
route(prodloc16,prodloc33,tr13,13688,82128).
route(prodloc17,harbor0,tr0,16801,436826).
route(prodloc17,harbor0,tr13,16801,100806).
route(prodloc17,harbor1,tr0,11932,310232).
route(prodloc17,harbor1,tr13,11932,71592).
route(prodloc17,harbor2,tr0,1567,40742).
route(prodloc17,harbor2,tr13,1567,9402).
route(prodloc17,harbor3,tr0,4328,112528).
route(prodloc17,harbor3,tr13,4328,25968).
route(prodloc17,harbor4,tr0,16005,416130).
route(prodloc17,harbor4,tr13,16005,96030).
route(prodloc17,harbor5,tr0,7448,193648).
route(prodloc17,harbor5,tr13,7448,44688).
route(prodloc17,harbor6,tr0,20073,521898).
route(prodloc17,harbor6,tr13,20073,120438).
route(prodloc17,harbor7,tr0,21403,556478).
route(prodloc17,harbor7,tr13,21403,128418).
route(prodloc17,harbor8,tr0,1495,38870).
route(prodloc17,harbor8,tr13,1495,8970).
route(prodloc17,harbor9,tr0,732,19032).
route(prodloc17,harbor9,tr13,732,4392).
route(prodloc17,harbor10,tr0,1784,46384).
route(prodloc17,harbor10,tr13,1784,10704).
route(prodloc17,harbor11,tr0,87,2262).
route(prodloc17,harbor11,tr13,87,522).
route(prodloc17,harbor12,tr0,18585,483210).
route(prodloc17,harbor12,tr13,18585,111510).
route(prodloc17,harbor13,tr0,11633,302458).
route(prodloc17,harbor13,tr13,11633,69798).
route(prodloc17,harbor14,tr0,9954,258804).
route(prodloc17,harbor14,tr13,9954,59724).
route(prodloc17,harbor15,tr0,3487,90662).
route(prodloc17,harbor15,tr13,3487,20922).
route(prodloc17,harbor16,tr0,17142,445692).
route(prodloc17,harbor16,tr13,17142,102852).
route(prodloc17,prodloc0,tr0,11705,304330).
route(prodloc17,prodloc0,tr13,11705,70230).
route(prodloc17,prodloc1,tr0,17503,455078).
route(prodloc17,prodloc1,tr13,17503,105018).
route(prodloc17,prodloc2,tr0,7350,191100).
route(prodloc17,prodloc2,tr13,7350,44100).
route(prodloc17,prodloc3,tr0,13542,352092).
route(prodloc17,prodloc3,tr13,13542,81252).
route(prodloc17,prodloc4,tr0,19125,497250).
route(prodloc17,prodloc4,tr13,19125,114750).
route(prodloc17,prodloc5,tr0,9870,256620).
route(prodloc17,prodloc5,tr13,9870,59220).
route(prodloc17,prodloc6,tr0,19305,501930).
route(prodloc17,prodloc6,tr13,19305,115830).
route(prodloc17,prodloc7,tr0,4383,113958).
route(prodloc17,prodloc7,tr13,4383,26298).
route(prodloc17,prodloc8,tr0,6692,173992).
route(prodloc17,prodloc8,tr13,6692,40152).
route(prodloc17,prodloc9,tr0,12002,312052).
route(prodloc17,prodloc9,tr13,12002,72012).
route(prodloc17,prodloc10,tr0,20446,531596).
route(prodloc17,prodloc10,tr13,20446,122676).
route(prodloc17,prodloc11,tr0,27149,705874).
route(prodloc17,prodloc11,tr13,27149,162894).
route(prodloc17,prodloc12,tr0,15563,404638).
route(prodloc17,prodloc12,tr13,15563,93378).
route(prodloc17,prodloc13,tr0,5199,135174).
route(prodloc17,prodloc13,tr13,5199,31194).
route(prodloc17,prodloc14,tr0,4417,114842).
route(prodloc17,prodloc14,tr13,4417,26502).
route(prodloc17,prodloc15,tr0,464,12064).
route(prodloc17,prodloc15,tr13,464,2784).
route(prodloc17,prodloc16,tr0,26265,682890).
route(prodloc17,prodloc16,tr13,26265,157590).
route(prodloc17,prodloc18,tr0,7983,207558).
route(prodloc17,prodloc18,tr13,7983,47898).
route(prodloc17,prodloc19,tr0,23184,602784).
route(prodloc17,prodloc19,tr13,23184,139104).
route(prodloc17,prodloc20,tr0,4894,127244).
route(prodloc17,prodloc20,tr13,4894,29364).
route(prodloc17,prodloc21,tr0,14775,384150).
route(prodloc17,prodloc21,tr13,14775,88650).
route(prodloc17,prodloc22,tr0,3141,81666).
route(prodloc17,prodloc22,tr13,3141,18846).
route(prodloc17,prodloc23,tr0,2088,54288).
route(prodloc17,prodloc23,tr13,2088,12528).
route(prodloc17,prodloc24,tr0,20914,543764).
route(prodloc17,prodloc24,tr13,20914,125484).
route(prodloc17,prodloc25,tr0,4743,123318).
route(prodloc17,prodloc25,tr13,4743,28458).
route(prodloc17,prodloc26,tr0,28552,742352).
route(prodloc17,prodloc26,tr13,28552,171312).
route(prodloc17,prodloc27,tr0,21808,567008).
route(prodloc17,prodloc27,tr13,21808,130848).
route(prodloc17,prodloc28,tr0,25631,666406).
route(prodloc17,prodloc28,tr13,25631,153786).
route(prodloc17,prodloc29,tr0,8841,229866).
route(prodloc17,prodloc29,tr13,8841,53046).
route(prodloc17,prodloc30,tr0,13173,342498).
route(prodloc17,prodloc30,tr13,13173,79038).
route(prodloc17,prodloc31,tr0,26595,691470).
route(prodloc17,prodloc31,tr13,26595,159570).
route(prodloc17,prodloc32,tr0,8660,225160).
route(prodloc17,prodloc32,tr13,8660,51960).
route(prodloc17,prodloc33,tr0,378,9828).
route(prodloc17,prodloc33,tr13,378,2268).
route(prodloc18,harbor0,tr0,1841,47866).
route(prodloc18,harbor0,tr13,1841,11046).
route(prodloc18,harbor1,tr0,21135,549510).
route(prodloc18,harbor1,tr13,21135,126810).
route(prodloc18,harbor2,tr0,26900,699400).
route(prodloc18,harbor2,tr13,26900,161400).
route(prodloc18,harbor3,tr0,18428,479128).
route(prodloc18,harbor3,tr13,18428,110568).
route(prodloc18,harbor4,tr0,11481,298506).
route(prodloc18,harbor4,tr13,11481,68886).
route(prodloc18,harbor5,tr0,19489,506714).
route(prodloc18,harbor5,tr13,19489,116934).
route(prodloc18,harbor6,tr0,21157,550082).
route(prodloc18,harbor6,tr13,21157,126942).
route(prodloc18,harbor7,tr0,18957,492882).
route(prodloc18,harbor7,tr13,18957,113742).
route(prodloc18,harbor8,tr0,14542,378092).
route(prodloc18,harbor8,tr13,14542,87252).
route(prodloc18,harbor9,tr0,19724,512824).
route(prodloc18,harbor9,tr13,19724,118344).
route(prodloc18,harbor10,tr0,16962,441012).
route(prodloc18,harbor10,tr13,16962,101772).
route(prodloc18,harbor11,tr0,24038,624988).
route(prodloc18,harbor11,tr13,24038,144228).
route(prodloc18,harbor12,tr0,16151,419926).
route(prodloc18,harbor12,tr13,16151,96906).
route(prodloc18,harbor13,tr0,8144,211744).
route(prodloc18,harbor13,tr13,8144,48864).
route(prodloc18,harbor14,tr0,5411,140686).
route(prodloc18,harbor14,tr13,5411,32466).
route(prodloc18,harbor15,tr0,15,390).
route(prodloc18,harbor15,tr13,15,90).
route(prodloc18,harbor16,tr0,1443,37518).
route(prodloc18,harbor16,tr13,1443,8658).
route(prodloc18,prodloc0,tr0,2018,52468).
route(prodloc18,prodloc0,tr13,2018,12108).
route(prodloc18,prodloc1,tr0,17419,452894).
route(prodloc18,prodloc1,tr13,17419,104514).
route(prodloc18,prodloc2,tr0,828,21528).
route(prodloc18,prodloc2,tr13,828,4968).
route(prodloc18,prodloc3,tr0,13305,345930).
route(prodloc18,prodloc3,tr13,13305,79830).
route(prodloc18,prodloc4,tr13,6085,36510).
route(prodloc18,prodloc4,tr15,6085,194720).
route(prodloc18,prodloc5,tr0,7789,202514).
route(prodloc18,prodloc5,tr13,7789,46734).
route(prodloc18,prodloc6,tr0,5219,135694).
route(prodloc18,prodloc6,tr13,5219,31314).
route(prodloc18,prodloc7,tr0,1914,49764).
route(prodloc18,prodloc7,tr13,1914,11484).
route(prodloc18,prodloc8,tr0,25524,663624).
route(prodloc18,prodloc8,tr15,25524,816768).
route(prodloc18,prodloc9,tr0,3439,89414).
route(prodloc18,prodloc9,tr13,3439,20634).
route(prodloc18,prodloc10,tr0,406,10556).
route(prodloc18,prodloc10,tr13,406,2436).
route(prodloc18,prodloc11,tr0,20076,521976).
route(prodloc18,prodloc11,tr13,20076,120456).
route(prodloc18,prodloc12,tr0,18054,469404).
route(prodloc18,prodloc12,tr13,18054,108324).
route(prodloc18,prodloc13,tr0,21524,559624).
route(prodloc18,prodloc13,tr13,21524,129144).
route(prodloc18,prodloc14,tr0,6465,168090).
route(prodloc18,prodloc14,tr13,6465,38790).
route(prodloc18,prodloc15,tr0,4663,121238).
route(prodloc18,prodloc15,tr13,4663,27978).
route(prodloc18,prodloc16,tr0,13541,352066).
route(prodloc18,prodloc16,tr13,13541,81246).
route(prodloc18,prodloc17,tr0,6539,170014).
route(prodloc18,prodloc17,tr13,6539,39234).
route(prodloc18,prodloc19,tr0,16984,441584).
route(prodloc18,prodloc19,tr13,16984,101904).
route(prodloc18,prodloc20,tr0,19927,518102).
route(prodloc18,prodloc20,tr13,19927,119562).
route(prodloc18,prodloc21,tr0,21061,547586).
route(prodloc18,prodloc21,tr13,21061,126366).
route(prodloc18,prodloc22,tr0,16613,431938).
route(prodloc18,prodloc22,tr13,16613,99678).
route(prodloc18,prodloc23,tr0,21222,551772).
route(prodloc18,prodloc23,tr13,21222,127332).
route(prodloc18,prodloc24,tr13,21024,126144).
route(prodloc18,prodloc24,tr15,21024,672768).
route(prodloc18,prodloc25,tr0,13608,353808).
route(prodloc18,prodloc25,tr13,13608,81648).
route(prodloc18,prodloc26,tr0,26654,693004).
route(prodloc18,prodloc26,tr13,26654,159924).
route(prodloc18,prodloc27,tr0,20094,522444).
route(prodloc18,prodloc27,tr13,20094,120564).
route(prodloc18,prodloc28,tr0,5724,148824).
route(prodloc18,prodloc28,tr13,5724,34344).
route(prodloc18,prodloc29,tr0,16667,433342).
route(prodloc18,prodloc29,tr13,16667,100002).
route(prodloc18,prodloc30,tr0,10139,263614).
route(prodloc18,prodloc30,tr13,10139,60834).
route(prodloc18,prodloc31,tr0,2091,54366).
route(prodloc18,prodloc31,tr13,2091,12546).
route(prodloc18,prodloc32,tr0,9841,255866).
route(prodloc18,prodloc32,tr13,9841,59046).
route(prodloc18,prodloc33,tr0,20513,533338).
route(prodloc18,prodloc33,tr13,20513,123078).
route(prodloc19,harbor0,tr0,1590,41340).
route(prodloc19,harbor0,tr13,1590,9540).
route(prodloc19,harbor1,tr0,23736,617136).
route(prodloc19,harbor1,tr13,23736,142416).
route(prodloc19,harbor2,tr0,25658,667108).
route(prodloc19,harbor2,tr13,25658,153948).
route(prodloc19,harbor3,tr0,15662,407212).
route(prodloc19,harbor3,tr13,15662,93972).
route(prodloc19,harbor4,tr0,23444,609544).
route(prodloc19,harbor4,tr13,23444,140664).
route(prodloc19,harbor5,tr0,17644,458744).
route(prodloc19,harbor5,tr13,17644,105864).
route(prodloc19,harbor6,tr0,210,5460).
route(prodloc19,harbor6,tr13,210,1260).
route(prodloc19,harbor7,tr0,12295,319670).
route(prodloc19,harbor7,tr13,12295,73770).
route(prodloc19,harbor8,tr0,27672,719472).
route(prodloc19,harbor8,tr13,27672,166032).
route(prodloc19,harbor9,tr0,14310,372060).
route(prodloc19,harbor9,tr13,14310,85860).
route(prodloc19,harbor10,tr0,24420,634920).
route(prodloc19,harbor10,tr13,24420,146520).
route(prodloc19,harbor11,tr0,15247,396422).
route(prodloc19,harbor11,tr13,15247,91482).
route(prodloc19,harbor12,tr0,2639,68614).
route(prodloc19,harbor12,tr13,2639,15834).
route(prodloc19,harbor13,tr0,24307,631982).
route(prodloc19,harbor13,tr13,24307,145842).
route(prodloc19,harbor14,tr0,21482,558532).
route(prodloc19,harbor14,tr13,21482,128892).
route(prodloc19,harbor15,tr0,14829,385554).
route(prodloc19,harbor15,tr13,14829,88974).
route(prodloc19,harbor16,tr0,5749,149474).
route(prodloc19,harbor16,tr13,5749,34494).
route(prodloc19,prodloc0,tr0,7405,192530).
route(prodloc19,prodloc0,tr13,7405,44430).
route(prodloc19,prodloc1,tr0,3451,89726).
route(prodloc19,prodloc1,tr13,3451,20706).
route(prodloc19,prodloc2,tr0,8568,222768).
route(prodloc19,prodloc2,tr13,8568,51408).
route(prodloc19,prodloc3,tr0,7613,197938).
route(prodloc19,prodloc3,tr13,7613,45678).
route(prodloc19,prodloc4,tr0,21105,548730).
route(prodloc19,prodloc4,tr13,21105,126630).
route(prodloc19,prodloc5,tr0,1273,33098).
route(prodloc19,prodloc5,tr13,1273,7638).
route(prodloc19,prodloc6,tr0,4041,105066).
route(prodloc19,prodloc6,tr13,4041,24246).
route(prodloc19,prodloc7,tr0,10996,285896).
route(prodloc19,prodloc7,tr13,10996,65976).
route(prodloc19,prodloc8,tr0,24566,638716).
route(prodloc19,prodloc8,tr13,24566,147396).
route(prodloc19,prodloc9,tr0,22779,592254).
route(prodloc19,prodloc9,tr13,22779,136674).
route(prodloc19,prodloc10,tr0,27701,720226).
route(prodloc19,prodloc10,tr13,27701,166206).
route(prodloc19,prodloc11,tr0,8629,224354).
route(prodloc19,prodloc11,tr13,8629,51774).
route(prodloc19,prodloc12,tr0,23322,606372).
route(prodloc19,prodloc12,tr13,23322,139932).
route(prodloc19,prodloc13,tr0,1723,44798).
route(prodloc19,prodloc13,tr13,1723,10338).
route(prodloc19,prodloc14,tr0,8717,226642).
route(prodloc19,prodloc14,tr13,8717,52302).
route(prodloc19,prodloc15,tr0,20838,541788).
route(prodloc19,prodloc15,tr13,20838,125028).
route(prodloc19,prodloc16,tr0,18148,471848).
route(prodloc19,prodloc16,tr13,18148,108888).
route(prodloc19,prodloc17,tr0,22259,578734).
route(prodloc19,prodloc17,tr13,22259,133554).
route(prodloc19,prodloc18,tr0,14290,371540).
route(prodloc19,prodloc18,tr13,14290,85740).
route(prodloc19,prodloc20,tr0,22472,584272).
route(prodloc19,prodloc20,tr13,22472,134832).
route(prodloc19,prodloc21,tr0,25837,671762).
route(prodloc19,prodloc21,tr13,25837,155022).
route(prodloc19,prodloc22,tr0,17147,445822).
route(prodloc19,prodloc22,tr13,17147,102882).
route(prodloc19,prodloc23,tr0,8695,226070).
route(prodloc19,prodloc23,tr13,8695,52170).
route(prodloc19,prodloc24,tr0,9688,251888).
route(prodloc19,prodloc24,tr13,9688,58128).
route(prodloc19,prodloc25,tr0,21039,547014).
route(prodloc19,prodloc25,tr13,21039,126234).
route(prodloc19,prodloc26,tr0,7112,184912).
route(prodloc19,prodloc26,tr13,7112,42672).
route(prodloc19,prodloc27,tr0,2801,72826).
route(prodloc19,prodloc27,tr13,2801,16806).
route(prodloc19,prodloc28,tr0,28839,749814).
route(prodloc19,prodloc28,tr13,28839,173034).
route(prodloc19,prodloc29,tr0,16629,432354).
route(prodloc19,prodloc29,tr13,16629,99774).
route(prodloc19,prodloc30,tr0,500,13000).
route(prodloc19,prodloc30,tr13,500,3000).
route(prodloc19,prodloc31,tr0,5565,144690).
route(prodloc19,prodloc31,tr13,5565,33390).
route(prodloc19,prodloc32,tr0,8533,221858).
route(prodloc19,prodloc32,tr13,8533,51198).
route(prodloc19,prodloc33,tr0,7738,201188).
route(prodloc19,prodloc33,tr13,7738,46428).
route(prodloc20,harbor0,tr0,27583,717158).
route(prodloc20,harbor0,tr13,27583,165498).
route(prodloc20,harbor1,tr0,24377,633802).
route(prodloc20,harbor1,tr13,24377,146262).
route(prodloc20,harbor2,tr0,6646,172796).
route(prodloc20,harbor2,tr13,6646,39876).
route(prodloc20,harbor3,tr0,5218,135668).
route(prodloc20,harbor3,tr13,5218,31308).
route(prodloc20,harbor4,tr0,24451,635726).
route(prodloc20,harbor4,tr13,24451,146706).
route(prodloc20,harbor5,tr0,10712,278512).
route(prodloc20,harbor5,tr13,10712,64272).
route(prodloc20,harbor6,tr0,6291,163566).
route(prodloc20,harbor6,tr13,6291,37746).
route(prodloc20,harbor7,tr0,28843,749918).
route(prodloc20,harbor7,tr13,28843,173058).
route(prodloc20,harbor8,tr0,12739,331214).
route(prodloc20,harbor8,tr13,12739,76434).
route(prodloc20,harbor9,tr0,10768,279968).
route(prodloc20,harbor9,tr13,10768,64608).
route(prodloc20,harbor10,tr0,19703,512278).
route(prodloc20,harbor10,tr13,19703,118218).
route(prodloc20,harbor11,tr0,7839,203814).
route(prodloc20,harbor11,tr13,7839,47034).
route(prodloc20,harbor12,tr0,12435,323310).
route(prodloc20,harbor12,tr13,12435,74610).
route(prodloc20,harbor13,tr0,27917,725842).
route(prodloc20,harbor13,tr13,27917,167502).
route(prodloc20,harbor14,tr0,20668,537368).
route(prodloc20,harbor14,tr13,20668,124008).
route(prodloc20,harbor15,tr0,22705,590330).
route(prodloc20,harbor15,tr13,22705,136230).
route(prodloc20,harbor16,tr0,21800,566800).
route(prodloc20,harbor16,tr13,21800,130800).
route(prodloc20,prodloc0,tr0,27576,716976).
route(prodloc20,prodloc0,tr13,27576,165456).
route(prodloc20,prodloc1,tr0,17577,457002).
route(prodloc20,prodloc1,tr13,17577,105462).
route(prodloc20,prodloc2,tr0,15386,400036).
route(prodloc20,prodloc2,tr13,15386,92316).
route(prodloc20,prodloc3,tr0,15473,402298).
route(prodloc20,prodloc3,tr13,15473,92838).
route(prodloc20,prodloc4,tr0,27517,715442).
route(prodloc20,prodloc4,tr13,27517,165102).
route(prodloc20,prodloc5,tr0,17389,452114).
route(prodloc20,prodloc5,tr13,17389,104334).
route(prodloc20,prodloc6,tr0,22861,594386).
route(prodloc20,prodloc6,tr13,22861,137166).
route(prodloc20,prodloc7,tr0,211,5486).
route(prodloc20,prodloc7,tr13,211,1266).
route(prodloc20,prodloc8,tr0,28101,730626).
route(prodloc20,prodloc8,tr13,28101,168606).
route(prodloc20,prodloc9,tr0,870,22620).
route(prodloc20,prodloc9,tr13,870,5220).
route(prodloc20,prodloc10,tr0,14328,372528).
route(prodloc20,prodloc10,tr13,14328,85968).
route(prodloc20,prodloc11,tr0,23746,617396).
route(prodloc20,prodloc11,tr13,23746,142476).
route(prodloc20,prodloc12,tr0,7664,199264).
route(prodloc20,prodloc12,tr13,7664,45984).
route(prodloc20,prodloc13,tr0,18690,485940).
route(prodloc20,prodloc13,tr13,18690,112140).
route(prodloc20,prodloc14,tr0,10086,262236).
route(prodloc20,prodloc14,tr13,10086,60516).
route(prodloc20,prodloc15,tr0,25862,672412).
route(prodloc20,prodloc15,tr13,25862,155172).
route(prodloc20,prodloc16,tr0,6947,180622).
route(prodloc20,prodloc16,tr13,6947,41682).
route(prodloc20,prodloc17,tr0,12832,333632).
route(prodloc20,prodloc17,tr13,12832,76992).
route(prodloc20,prodloc18,tr0,20404,530504).
route(prodloc20,prodloc18,tr13,20404,122424).
route(prodloc20,prodloc19,tr0,19182,498732).
route(prodloc20,prodloc19,tr13,19182,115092).
route(prodloc20,prodloc21,tr0,2551,66326).
route(prodloc20,prodloc21,tr13,2551,15306).
route(prodloc20,prodloc22,tr0,18522,481572).
route(prodloc20,prodloc22,tr13,18522,111132).
route(prodloc20,prodloc23,tr0,5623,146198).
route(prodloc20,prodloc23,tr13,5623,33738).
route(prodloc20,prodloc24,tr0,4740,123240).
route(prodloc20,prodloc24,tr13,4740,28440).
route(prodloc20,prodloc25,tr0,1080,28080).
route(prodloc20,prodloc25,tr13,1080,6480).
route(prodloc20,prodloc26,tr0,883,22958).
route(prodloc20,prodloc26,tr13,883,5298).
route(prodloc20,prodloc27,tr0,3668,95368).
route(prodloc20,prodloc27,tr13,3668,22008).
route(prodloc20,prodloc28,tr0,3497,90922).
route(prodloc20,prodloc28,tr13,3497,20982).
route(prodloc20,prodloc29,tr0,20382,529932).
route(prodloc20,prodloc29,tr13,20382,122292).
route(prodloc20,prodloc30,tr0,5304,137904).
route(prodloc20,prodloc30,tr13,5304,31824).
route(prodloc20,prodloc31,tr0,11302,293852).
route(prodloc20,prodloc31,tr13,11302,67812).
route(prodloc20,prodloc32,tr0,4649,120874).
route(prodloc20,prodloc32,tr13,4649,27894).
route(prodloc20,prodloc33,tr0,22963,597038).
route(prodloc20,prodloc33,tr13,22963,137778).
route(prodloc21,harbor0,tr0,943,24518).
route(prodloc21,harbor0,tr13,943,5658).
route(prodloc21,harbor1,tr0,1013,26338).
route(prodloc21,harbor1,tr13,1013,6078).
route(prodloc21,harbor2,tr0,1366,35516).
route(prodloc21,harbor2,tr13,1366,8196).
route(prodloc21,harbor3,tr0,4537,117962).
route(prodloc21,harbor3,tr13,4537,27222).
route(prodloc21,harbor4,tr0,22697,590122).
route(prodloc21,harbor4,tr13,22697,136182).
route(prodloc21,harbor5,tr0,21089,548314).
route(prodloc21,harbor5,tr13,21089,126534).
route(prodloc21,harbor6,tr0,20772,540072).
route(prodloc21,harbor6,tr13,20772,124632).
route(prodloc21,harbor7,tr0,1399,36374).
route(prodloc21,harbor7,tr13,1399,8394).
route(prodloc21,harbor8,tr0,22841,593866).
route(prodloc21,harbor8,tr13,22841,137046).
route(prodloc21,harbor9,tr0,2224,57824).
route(prodloc21,harbor9,tr13,2224,13344).
route(prodloc21,harbor10,tr0,24144,627744).
route(prodloc21,harbor10,tr13,24144,144864).
route(prodloc21,harbor11,tr0,1531,39806).
route(prodloc21,harbor11,tr13,1531,9186).
route(prodloc21,harbor12,tr0,2156,56056).
route(prodloc21,harbor12,tr13,2156,12936).
route(prodloc21,harbor13,tr0,28067,729742).
route(prodloc21,harbor13,tr13,28067,168402).
route(prodloc21,harbor14,tr0,19350,503100).
route(prodloc21,harbor14,tr13,19350,116100).
route(prodloc21,harbor15,tr0,24963,649038).
route(prodloc21,harbor15,tr13,24963,149778).
route(prodloc21,harbor16,tr0,11910,309660).
route(prodloc21,harbor16,tr13,11910,71460).
route(prodloc21,prodloc0,tr0,6533,169858).
route(prodloc21,prodloc0,tr13,6533,39198).
route(prodloc21,prodloc1,tr0,26791,696566).
route(prodloc21,prodloc1,tr13,26791,160746).
route(prodloc21,prodloc2,tr0,26857,698282).
route(prodloc21,prodloc2,tr13,26857,161142).
route(prodloc21,prodloc3,tr0,17496,454896).
route(prodloc21,prodloc3,tr13,17496,104976).
route(prodloc21,prodloc4,tr0,21765,565890).
route(prodloc21,prodloc4,tr13,21765,130590).
route(prodloc21,prodloc5,tr0,2162,56212).
route(prodloc21,prodloc5,tr13,2162,12972).
route(prodloc21,prodloc6,tr0,28828,749528).
route(prodloc21,prodloc6,tr13,28828,172968).
route(prodloc21,prodloc7,tr0,28437,739362).
route(prodloc21,prodloc7,tr13,28437,170622).
route(prodloc21,prodloc8,tr0,24767,643942).
route(prodloc21,prodloc8,tr13,24767,148602).
route(prodloc21,prodloc9,tr13,23308,139848).
route(prodloc21,prodloc9,tr15,23308,745856).
route(prodloc21,prodloc10,tr0,12579,327054).
route(prodloc21,prodloc10,tr13,12579,75474).
route(prodloc21,prodloc11,tr0,3511,91286).
route(prodloc21,prodloc11,tr13,3511,21066).
route(prodloc21,prodloc12,tr0,8081,210106).
route(prodloc21,prodloc12,tr13,8081,48486).
route(prodloc21,prodloc13,tr0,6743,175318).
route(prodloc21,prodloc13,tr13,6743,40458).
route(prodloc21,prodloc14,tr0,6659,173134).
route(prodloc21,prodloc14,tr13,6659,39954).
route(prodloc21,prodloc15,tr0,3671,95446).
route(prodloc21,prodloc15,tr13,3671,22026).
route(prodloc21,prodloc16,tr0,1111,28886).
route(prodloc21,prodloc16,tr13,1111,6666).
route(prodloc21,prodloc17,tr0,1130,29380).
route(prodloc21,prodloc17,tr13,1130,6780).
route(prodloc21,prodloc18,tr0,27779,722254).
route(prodloc21,prodloc18,tr13,27779,166674).
route(prodloc21,prodloc19,tr0,26610,691860).
route(prodloc21,prodloc19,tr13,26610,159660).
route(prodloc21,prodloc20,tr0,24701,642226).
route(prodloc21,prodloc20,tr13,24701,148206).
route(prodloc21,prodloc22,tr0,20782,540332).
route(prodloc21,prodloc22,tr13,20782,124692).
route(prodloc21,prodloc23,tr0,2868,74568).
route(prodloc21,prodloc23,tr13,2868,17208).
route(prodloc21,prodloc24,tr0,27037,702962).
route(prodloc21,prodloc24,tr13,27037,162222).
route(prodloc21,prodloc25,tr0,24624,640224).
route(prodloc21,prodloc25,tr13,24624,147744).
route(prodloc21,prodloc26,tr0,20696,538096).
route(prodloc21,prodloc26,tr13,20696,124176).
route(prodloc21,prodloc27,tr0,20719,538694).
route(prodloc21,prodloc27,tr13,20719,124314).
route(prodloc21,prodloc28,tr0,9418,244868).
route(prodloc21,prodloc28,tr13,9418,56508).
route(prodloc21,prodloc29,tr0,15636,406536).
route(prodloc21,prodloc29,tr13,15636,93816).
route(prodloc21,prodloc30,tr0,3274,85124).
route(prodloc21,prodloc30,tr13,3274,19644).
route(prodloc21,prodloc31,tr0,4348,113048).
route(prodloc21,prodloc31,tr13,4348,26088).
route(prodloc21,prodloc32,tr0,3208,83408).
route(prodloc21,prodloc32,tr13,3208,19248).
route(prodloc21,prodloc33,tr0,25953,674778).
route(prodloc21,prodloc33,tr13,25953,155718).
route(prodloc22,harbor0,tr0,24819,645294).
route(prodloc22,harbor0,tr13,24819,148914).
route(prodloc22,harbor1,tr0,21180,550680).
route(prodloc22,harbor1,tr13,21180,127080).
route(prodloc22,harbor2,tr0,6719,174694).
route(prodloc22,harbor2,tr13,6719,40314).
route(prodloc22,harbor3,tr0,9650,250900).
route(prodloc22,harbor3,tr13,9650,57900).
route(prodloc22,harbor4,tr0,10459,271934).
route(prodloc22,harbor4,tr13,10459,62754).
route(prodloc22,harbor5,tr0,11028,286728).
route(prodloc22,harbor5,tr13,11028,66168).
route(prodloc22,harbor6,tr0,13887,361062).
route(prodloc22,harbor6,tr13,13887,83322).
route(prodloc22,harbor7,tr0,8559,222534).
route(prodloc22,harbor7,tr13,8559,51354).
route(prodloc22,harbor8,tr0,687,17862).
route(prodloc22,harbor8,tr13,687,4122).
route(prodloc22,harbor9,tr0,11500,299000).
route(prodloc22,harbor9,tr13,11500,69000).
route(prodloc22,harbor10,tr0,8413,218738).
route(prodloc22,harbor10,tr13,8413,50478).
route(prodloc22,harbor11,tr0,9262,240812).
route(prodloc22,harbor11,tr13,9262,55572).
route(prodloc22,harbor12,tr0,1588,41288).
route(prodloc22,harbor12,tr13,1588,9528).
route(prodloc22,harbor13,tr0,23456,609856).
route(prodloc22,harbor13,tr13,23456,140736).
route(prodloc22,harbor14,tr0,24900,647400).
route(prodloc22,harbor14,tr13,24900,149400).
route(prodloc22,harbor15,tr0,12061,313586).
route(prodloc22,harbor15,tr13,12061,72366).
route(prodloc22,harbor16,tr0,10514,273364).
route(prodloc22,harbor16,tr13,10514,63084).
route(prodloc22,prodloc0,tr0,25208,655408).
route(prodloc22,prodloc0,tr13,25208,151248).
route(prodloc22,prodloc1,tr0,19728,512928).
route(prodloc22,prodloc1,tr13,19728,118368).
route(prodloc22,prodloc2,tr0,16508,429208).
route(prodloc22,prodloc2,tr13,16508,99048).
route(prodloc22,prodloc3,tr0,15602,405652).
route(prodloc22,prodloc3,tr13,15602,93612).
route(prodloc22,prodloc4,tr0,27899,725374).
route(prodloc22,prodloc4,tr13,27899,167394).
route(prodloc22,prodloc5,tr0,9427,245102).
route(prodloc22,prodloc5,tr13,9427,56562).
route(prodloc22,prodloc6,tr0,20261,526786).
route(prodloc22,prodloc6,tr13,20261,121566).
route(prodloc22,prodloc7,tr0,24435,635310).
route(prodloc22,prodloc7,tr13,24435,146610).
route(prodloc22,prodloc8,tr0,1017,26442).
route(prodloc22,prodloc8,tr13,1017,6102).
route(prodloc22,prodloc9,tr0,25857,672282).
route(prodloc22,prodloc9,tr13,25857,155142).
route(prodloc22,prodloc10,tr0,13532,351832).
route(prodloc22,prodloc10,tr13,13532,81192).
route(prodloc22,prodloc11,tr0,1025,26650).
route(prodloc22,prodloc11,tr13,1025,6150).
route(prodloc22,prodloc12,tr0,14303,371878).
route(prodloc22,prodloc12,tr13,14303,85818).
route(prodloc22,prodloc13,tr0,16996,441896).
route(prodloc22,prodloc13,tr13,16996,101976).
route(prodloc22,prodloc14,tr0,25332,658632).
route(prodloc22,prodloc14,tr13,25332,151992).
route(prodloc22,prodloc15,tr0,3223,83798).
route(prodloc22,prodloc15,tr13,3223,19338).
route(prodloc22,prodloc16,tr0,11365,295490).
route(prodloc22,prodloc16,tr13,11365,68190).
route(prodloc22,prodloc17,tr0,15368,399568).
route(prodloc22,prodloc17,tr13,15368,92208).
route(prodloc22,prodloc18,tr0,23092,600392).
route(prodloc22,prodloc18,tr13,23092,138552).
route(prodloc22,prodloc19,tr0,1578,41028).
route(prodloc22,prodloc19,tr13,1578,9468).
route(prodloc22,prodloc20,tr0,17627,458302).
route(prodloc22,prodloc20,tr13,17627,105762).
route(prodloc22,prodloc21,tr0,18551,482326).
route(prodloc22,prodloc21,tr13,18551,111306).
route(prodloc22,prodloc23,tr0,7098,184548).
route(prodloc22,prodloc23,tr13,7098,42588).
route(prodloc22,prodloc24,tr0,23411,608686).
route(prodloc22,prodloc24,tr13,23411,140466).
route(prodloc22,prodloc25,tr0,28255,734630).
route(prodloc22,prodloc25,tr13,28255,169530).
route(prodloc22,prodloc26,tr0,27128,705328).
route(prodloc22,prodloc26,tr13,27128,162768).
route(prodloc22,prodloc27,tr0,2980,77480).
route(prodloc22,prodloc27,tr13,2980,17880).
route(prodloc22,prodloc28,tr0,18828,489528).
route(prodloc22,prodloc28,tr13,18828,112968).
route(prodloc22,prodloc30,tr0,9410,244660).
route(prodloc22,prodloc30,tr13,9410,56460).
route(prodloc22,prodloc31,tr13,5584,33504).
route(prodloc22,prodloc31,tr15,5584,178688).
route(prodloc22,prodloc32,tr0,14290,371540).
route(prodloc22,prodloc32,tr13,14290,85740).
route(prodloc22,prodloc33,tr0,44,1144).
route(prodloc22,prodloc33,tr13,44,264).
route(prodloc23,harbor0,tr0,17157,446082).
route(prodloc23,harbor0,tr13,17157,102942).
route(prodloc23,harbor1,tr0,6622,172172).
route(prodloc23,harbor1,tr13,6622,39732).
route(prodloc23,harbor2,tr0,9450,245700).
route(prodloc23,harbor2,tr13,9450,56700).
route(prodloc23,harbor3,tr0,24977,649402).
route(prodloc23,harbor3,tr13,24977,149862).
route(prodloc23,harbor4,tr0,24594,639444).
route(prodloc23,harbor4,tr13,24594,147564).
route(prodloc23,harbor5,tr0,1770,46020).
route(prodloc23,harbor5,tr13,1770,10620).
route(prodloc23,harbor6,tr0,144,3744).
route(prodloc23,harbor6,tr13,144,864).
route(prodloc23,harbor7,tr0,11398,296348).
route(prodloc23,harbor7,tr13,11398,68388).
route(prodloc23,harbor8,tr0,16085,418210).
route(prodloc23,harbor8,tr13,16085,96510).
route(prodloc23,harbor9,tr0,3137,81562).
route(prodloc23,harbor9,tr13,3137,18822).
route(prodloc23,harbor10,tr0,16106,418756).
route(prodloc23,harbor10,tr13,16106,96636).
route(prodloc23,harbor11,tr0,22782,592332).
route(prodloc23,harbor11,tr13,22782,136692).
route(prodloc23,harbor12,tr0,26110,678860).
route(prodloc23,harbor12,tr13,26110,156660).
route(prodloc23,harbor13,tr0,27046,703196).
route(prodloc23,harbor13,tr13,27046,162276).
route(prodloc23,harbor14,tr0,6048,157248).
route(prodloc23,harbor14,tr13,6048,36288).
route(prodloc23,harbor15,tr0,16208,421408).
route(prodloc23,harbor15,tr13,16208,97248).
route(prodloc23,harbor16,tr0,19418,504868).
route(prodloc23,harbor16,tr13,19418,116508).
route(prodloc23,prodloc0,tr0,11378,295828).
route(prodloc23,prodloc0,tr13,11378,68268).
route(prodloc23,prodloc1,tr0,27259,708734).
route(prodloc23,prodloc1,tr13,27259,163554).
route(prodloc23,prodloc2,tr0,16882,438932).
route(prodloc23,prodloc2,tr13,16882,101292).
route(prodloc23,prodloc3,tr0,8540,222040).
route(prodloc23,prodloc3,tr13,8540,51240).
route(prodloc23,prodloc4,tr0,18942,492492).
route(prodloc23,prodloc4,tr13,18942,113652).
route(prodloc23,prodloc5,tr0,5208,135408).
route(prodloc23,prodloc5,tr13,5208,31248).
route(prodloc23,prodloc6,tr0,9299,241774).
route(prodloc23,prodloc6,tr13,9299,55794).
route(prodloc23,prodloc7,tr0,26715,694590).
route(prodloc23,prodloc7,tr13,26715,160290).
route(prodloc23,prodloc8,tr0,7037,182962).
route(prodloc23,prodloc8,tr13,7037,42222).
route(prodloc23,prodloc9,tr0,22922,595972).
route(prodloc23,prodloc9,tr13,22922,137532).
route(prodloc23,prodloc10,tr0,7588,197288).
route(prodloc23,prodloc10,tr13,7588,45528).
route(prodloc23,prodloc11,tr0,16330,424580).
route(prodloc23,prodloc11,tr13,16330,97980).
route(prodloc23,prodloc12,tr0,5434,141284).
route(prodloc23,prodloc12,tr13,5434,32604).
route(prodloc23,prodloc13,tr0,3603,93678).
route(prodloc23,prodloc13,tr13,3603,21618).
route(prodloc23,prodloc14,tr0,20859,542334).
route(prodloc23,prodloc14,tr13,20859,125154).
route(prodloc23,prodloc15,tr0,25128,653328).
route(prodloc23,prodloc15,tr13,25128,150768).
route(prodloc23,prodloc16,tr0,2652,68952).
route(prodloc23,prodloc16,tr13,2652,15912).
route(prodloc23,prodloc17,tr0,16067,417742).
route(prodloc23,prodloc17,tr13,16067,96402).
route(prodloc23,prodloc18,tr0,25820,671320).
route(prodloc23,prodloc18,tr13,25820,154920).
route(prodloc23,prodloc19,tr0,22846,593996).
route(prodloc23,prodloc19,tr15,22846,731072).
route(prodloc23,prodloc20,tr0,18393,478218).
route(prodloc23,prodloc20,tr13,18393,110358).
route(prodloc23,prodloc21,tr0,25788,670488).
route(prodloc23,prodloc21,tr13,25788,154728).
route(prodloc23,prodloc22,tr0,3428,89128).
route(prodloc23,prodloc22,tr13,3428,20568).
route(prodloc23,prodloc24,tr0,20578,535028).
route(prodloc23,prodloc24,tr13,20578,123468).
route(prodloc23,prodloc25,tr0,10705,278330).
route(prodloc23,prodloc25,tr13,10705,64230).
route(prodloc23,prodloc26,tr0,11654,303004).
route(prodloc23,prodloc26,tr13,11654,69924).
route(prodloc23,prodloc27,tr0,3119,81094).
route(prodloc23,prodloc27,tr13,3119,18714).
route(prodloc23,prodloc28,tr0,13150,341900).
route(prodloc23,prodloc28,tr13,13150,78900).
route(prodloc23,prodloc29,tr0,12932,336232).
route(prodloc23,prodloc29,tr13,12932,77592).
route(prodloc23,prodloc30,tr0,24421,634946).
route(prodloc23,prodloc30,tr13,24421,146526).
route(prodloc23,prodloc31,tr0,2825,73450).
route(prodloc23,prodloc31,tr13,2825,16950).
route(prodloc23,prodloc32,tr0,13834,359684).
route(prodloc23,prodloc32,tr13,13834,83004).
route(prodloc23,prodloc33,tr0,21165,550290).
route(prodloc23,prodloc33,tr13,21165,126990).
route(prodloc24,harbor0,tr0,826,21476).
route(prodloc24,harbor0,tr13,826,4956).
route(prodloc24,harbor1,tr0,12190,316940).
route(prodloc24,harbor1,tr13,12190,73140).
route(prodloc24,harbor2,tr0,6756,175656).
route(prodloc24,harbor2,tr13,6756,40536).
route(prodloc24,harbor3,tr0,9935,258310).
route(prodloc24,harbor3,tr13,9935,59610).
route(prodloc24,harbor4,tr0,8626,224276).
route(prodloc24,harbor4,tr13,8626,51756).
route(prodloc24,harbor5,tr0,14028,364728).
route(prodloc24,harbor5,tr13,14028,84168).
route(prodloc24,harbor6,tr0,17858,464308).
route(prodloc24,harbor6,tr13,17858,107148).
route(prodloc24,harbor7,tr0,16424,427024).
route(prodloc24,harbor7,tr13,16424,98544).
route(prodloc24,harbor8,tr0,5608,145808).
route(prodloc24,harbor8,tr13,5608,33648).
route(prodloc24,harbor9,tr0,12431,323206).
route(prodloc24,harbor9,tr13,12431,74586).
route(prodloc24,harbor10,tr0,20670,537420).
route(prodloc24,harbor10,tr13,20670,124020).
route(prodloc24,harbor11,tr0,7655,199030).
route(prodloc24,harbor11,tr13,7655,45930).
route(prodloc24,harbor12,tr0,15105,392730).
route(prodloc24,harbor12,tr13,15105,90630).
route(prodloc24,harbor13,tr0,4159,108134).
route(prodloc24,harbor13,tr13,4159,24954).
route(prodloc24,harbor14,tr0,17419,452894).
route(prodloc24,harbor14,tr13,17419,104514).
route(prodloc24,harbor15,tr0,19469,506194).
route(prodloc24,harbor15,tr13,19469,116814).
route(prodloc24,harbor16,tr0,24724,642824).
route(prodloc24,harbor16,tr13,24724,148344).
route(prodloc24,prodloc0,tr0,22586,587236).
route(prodloc24,prodloc0,tr13,22586,135516).
route(prodloc24,prodloc1,tr0,24675,641550).
route(prodloc24,prodloc1,tr13,24675,148050).
route(prodloc24,prodloc2,tr0,19838,515788).
route(prodloc24,prodloc2,tr13,19838,119028).
route(prodloc24,prodloc3,tr0,21179,550654).
route(prodloc24,prodloc3,tr13,21179,127074).
route(prodloc24,prodloc4,tr0,1112,28912).
route(prodloc24,prodloc4,tr13,1112,6672).
route(prodloc24,prodloc5,tr0,11421,296946).
route(prodloc24,prodloc5,tr13,11421,68526).
route(prodloc24,prodloc6,tr0,19059,495534).
route(prodloc24,prodloc6,tr13,19059,114354).
route(prodloc24,prodloc7,tr0,10706,278356).
route(prodloc24,prodloc7,tr13,10706,64236).
route(prodloc24,prodloc8,tr0,17098,444548).
route(prodloc24,prodloc8,tr13,17098,102588).
route(prodloc24,prodloc9,tr0,5091,132366).
route(prodloc24,prodloc9,tr13,5091,30546).
route(prodloc24,prodloc10,tr0,28444,739544).
route(prodloc24,prodloc10,tr13,28444,170664).
route(prodloc24,prodloc11,tr0,27628,718328).
route(prodloc24,prodloc11,tr13,27628,165768).
route(prodloc24,prodloc12,tr0,14757,383682).
route(prodloc24,prodloc12,tr13,14757,88542).
route(prodloc24,prodloc13,tr0,21697,564122).
route(prodloc24,prodloc13,tr13,21697,130182).
route(prodloc24,prodloc14,tr0,18146,471796).
route(prodloc24,prodloc14,tr13,18146,108876).
route(prodloc24,prodloc15,tr0,24315,632190).
route(prodloc24,prodloc15,tr13,24315,145890).
route(prodloc24,prodloc16,tr0,10597,275522).
route(prodloc24,prodloc16,tr13,10597,63582).
route(prodloc24,prodloc17,tr0,5557,144482).
route(prodloc24,prodloc17,tr13,5557,33342).
route(prodloc24,prodloc18,tr0,15178,394628).
route(prodloc24,prodloc18,tr13,15178,91068).
route(prodloc24,prodloc19,tr0,14380,373880).
route(prodloc24,prodloc19,tr13,14380,86280).
route(prodloc24,prodloc20,tr0,22581,587106).
route(prodloc24,prodloc20,tr13,22581,135486).
route(prodloc24,prodloc21,tr0,25345,658970).
route(prodloc24,prodloc21,tr13,25345,152070).
route(prodloc24,prodloc22,tr0,8430,219180).
route(prodloc24,prodloc22,tr13,8430,50580).
route(prodloc24,prodloc23,tr0,18980,493480).
route(prodloc24,prodloc23,tr13,18980,113880).
route(prodloc24,prodloc25,tr0,7572,196872).
route(prodloc24,prodloc25,tr13,7572,45432).
route(prodloc24,prodloc26,tr0,4132,107432).
route(prodloc24,prodloc26,tr13,4132,24792).
route(prodloc24,prodloc27,tr0,10948,284648).
route(prodloc24,prodloc27,tr13,10948,65688).
route(prodloc24,prodloc28,tr0,15141,393666).
route(prodloc24,prodloc28,tr13,15141,90846).
route(prodloc24,prodloc29,tr0,21062,547612).
route(prodloc24,prodloc29,tr13,21062,126372).
route(prodloc24,prodloc30,tr0,22827,593502).
route(prodloc24,prodloc30,tr13,22827,136962).
route(prodloc24,prodloc31,tr0,7798,202748).
route(prodloc24,prodloc31,tr13,7798,46788).
route(prodloc24,prodloc32,tr0,16638,432588).
route(prodloc24,prodloc32,tr13,16638,99828).
route(prodloc24,prodloc33,tr0,6279,163254).
route(prodloc24,prodloc33,tr13,6279,37674).
route(prodloc25,harbor0,tr0,8766,227916).
route(prodloc25,harbor0,tr13,8766,52596).
route(prodloc25,harbor1,tr0,9881,256906).
route(prodloc25,harbor1,tr13,9881,59286).
route(prodloc25,harbor2,tr0,24733,643058).
route(prodloc25,harbor2,tr13,24733,148398).
route(prodloc25,harbor3,tr0,23043,599118).
route(prodloc25,harbor3,tr13,23043,138258).
route(prodloc25,harbor4,tr0,27085,704210).
route(prodloc25,harbor4,tr13,27085,162510).
route(prodloc25,harbor5,tr0,27647,718822).
route(prodloc25,harbor5,tr13,27647,165882).
route(prodloc25,harbor6,tr0,20230,525980).
route(prodloc25,harbor6,tr13,20230,121380).
route(prodloc25,harbor7,tr0,5067,131742).
route(prodloc25,harbor7,tr13,5067,30402).
route(prodloc25,harbor8,tr0,23704,616304).
route(prodloc25,harbor8,tr13,23704,142224).
route(prodloc25,harbor9,tr0,5113,132938).
route(prodloc25,harbor9,tr13,5113,30678).
route(prodloc25,harbor10,tr0,8114,210964).
route(prodloc25,harbor10,tr13,8114,48684).
route(prodloc25,harbor11,tr0,23698,616148).
route(prodloc25,harbor11,tr13,23698,142188).
route(prodloc25,harbor12,tr0,10702,278252).
route(prodloc25,harbor12,tr13,10702,64212).
route(prodloc25,harbor13,tr0,19757,513682).
route(prodloc25,harbor13,tr13,19757,118542).
route(prodloc25,harbor14,tr0,17112,444912).
route(prodloc25,harbor14,tr13,17112,102672).
route(prodloc25,harbor15,tr0,11425,297050).
route(prodloc25,harbor15,tr13,11425,68550).
route(prodloc25,harbor16,tr0,5275,137150).
route(prodloc25,harbor16,tr13,5275,31650).
route(prodloc25,prodloc0,tr0,7742,201292).
route(prodloc25,prodloc0,tr13,7742,46452).
route(prodloc25,prodloc1,tr0,10752,279552).
route(prodloc25,prodloc1,tr13,10752,64512).
route(prodloc25,prodloc2,tr0,6204,161304).
route(prodloc25,prodloc2,tr13,6204,37224).
route(prodloc25,prodloc3,tr0,8478,220428).
route(prodloc25,prodloc3,tr13,8478,50868).
route(prodloc25,prodloc4,tr0,23881,620906).
route(prodloc25,prodloc4,tr13,23881,143286).
route(prodloc25,prodloc5,tr0,3337,86762).
route(prodloc25,prodloc5,tr13,3337,20022).
route(prodloc25,prodloc6,tr0,5395,140270).
route(prodloc25,prodloc6,tr13,5395,32370).
route(prodloc25,prodloc7,tr0,21560,560560).
route(prodloc25,prodloc7,tr13,21560,129360).
route(prodloc25,prodloc8,tr0,3332,86632).
route(prodloc25,prodloc8,tr13,3332,19992).
route(prodloc25,prodloc9,tr0,6405,166530).
route(prodloc25,prodloc9,tr13,6405,38430).
route(prodloc25,prodloc10,tr0,12592,327392).
route(prodloc25,prodloc10,tr13,12592,75552).
route(prodloc25,prodloc11,tr0,4948,128648).
route(prodloc25,prodloc11,tr13,4948,29688).
route(prodloc25,prodloc12,tr0,4862,126412).
route(prodloc25,prodloc12,tr13,4862,29172).
route(prodloc25,prodloc13,tr0,26048,677248).
route(prodloc25,prodloc13,tr13,26048,156288).
route(prodloc25,prodloc14,tr0,9901,257426).
route(prodloc25,prodloc14,tr13,9901,59406).
route(prodloc25,prodloc15,tr0,24030,624780).
route(prodloc25,prodloc15,tr13,24030,144180).
route(prodloc25,prodloc16,tr0,9747,253422).
route(prodloc25,prodloc16,tr13,9747,58482).
route(prodloc25,prodloc17,tr0,14253,370578).
route(prodloc25,prodloc17,tr13,14253,85518).
route(prodloc25,prodloc18,tr0,8974,233324).
route(prodloc25,prodloc18,tr13,8974,53844).
route(prodloc25,prodloc19,tr0,6430,167180).
route(prodloc25,prodloc19,tr13,6430,38580).
route(prodloc25,prodloc20,tr0,3582,93132).
route(prodloc25,prodloc20,tr13,3582,21492).
route(prodloc25,prodloc21,tr0,20907,543582).
route(prodloc25,prodloc21,tr13,20907,125442).
route(prodloc25,prodloc22,tr0,3503,91078).
route(prodloc25,prodloc22,tr13,3503,21018).
route(prodloc25,prodloc23,tr0,9203,239278).
route(prodloc25,prodloc23,tr13,9203,55218).
route(prodloc25,prodloc24,tr0,6766,175916).
route(prodloc25,prodloc24,tr13,6766,40596).
route(prodloc25,prodloc26,tr0,12727,330902).
route(prodloc25,prodloc26,tr13,12727,76362).
route(prodloc25,prodloc27,tr0,15203,395278).
route(prodloc25,prodloc27,tr13,15203,91218).
route(prodloc25,prodloc28,tr0,1113,28938).
route(prodloc25,prodloc28,tr13,1113,6678).
route(prodloc25,prodloc29,tr0,415,10790).
route(prodloc25,prodloc29,tr13,415,2490).
route(prodloc25,prodloc30,tr0,13077,340002).
route(prodloc25,prodloc30,tr13,13077,78462).
route(prodloc25,prodloc31,tr0,27996,727896).
route(prodloc25,prodloc31,tr13,27996,167976).
route(prodloc25,prodloc32,tr0,25921,673946).
route(prodloc25,prodloc32,tr13,25921,155526).
route(prodloc25,prodloc33,tr0,14306,371956).
route(prodloc25,prodloc33,tr13,14306,85836).
route(prodloc26,harbor0,tr0,22724,590824).
route(prodloc26,harbor0,tr13,22724,136344).
route(prodloc26,harbor1,tr0,7291,189566).
route(prodloc26,harbor1,tr13,7291,43746).
route(prodloc26,harbor2,tr0,16401,426426).
route(prodloc26,harbor2,tr13,16401,98406).
route(prodloc26,harbor3,tr0,20723,538798).
route(prodloc26,harbor3,tr13,20723,124338).
route(prodloc26,harbor4,tr0,9708,252408).
route(prodloc26,harbor4,tr13,9708,58248).
route(prodloc26,harbor5,tr0,15182,394732).
route(prodloc26,harbor5,tr13,15182,91092).
route(prodloc26,harbor6,tr0,726,18876).
route(prodloc26,harbor6,tr13,726,4356).
route(prodloc26,harbor7,tr0,4648,120848).
route(prodloc26,harbor7,tr13,4648,27888).
route(prodloc26,harbor8,tr0,8430,219180).
route(prodloc26,harbor8,tr13,8430,50580).
route(prodloc26,harbor9,tr0,19784,514384).
route(prodloc26,harbor9,tr13,19784,118704).
route(prodloc26,harbor10,tr0,24192,628992).
route(prodloc26,harbor10,tr13,24192,145152).
route(prodloc26,harbor11,tr0,13263,344838).
route(prodloc26,harbor11,tr13,13263,79578).
route(prodloc26,harbor12,tr0,182,4732).
route(prodloc26,harbor12,tr13,182,1092).
route(prodloc26,harbor13,tr0,24281,631306).
route(prodloc26,harbor13,tr13,24281,145686).
route(prodloc26,harbor14,tr0,7941,206466).
route(prodloc26,harbor14,tr13,7941,47646).
route(prodloc26,harbor15,tr0,27949,726674).
route(prodloc26,harbor15,tr13,27949,167694).
route(prodloc26,harbor16,tr0,14093,366418).
route(prodloc26,harbor16,tr13,14093,84558).
route(prodloc26,prodloc0,tr0,22977,597402).
route(prodloc26,prodloc0,tr13,22977,137862).
route(prodloc26,prodloc1,tr0,18810,489060).
route(prodloc26,prodloc1,tr13,18810,112860).
route(prodloc26,prodloc2,tr0,19250,500500).
route(prodloc26,prodloc2,tr13,19250,115500).
route(prodloc26,prodloc3,tr0,24548,638248).
route(prodloc26,prodloc3,tr13,24548,147288).
route(prodloc26,prodloc5,tr0,13802,358852).
route(prodloc26,prodloc5,tr13,13802,82812).
route(prodloc26,prodloc6,tr0,27723,720798).
route(prodloc26,prodloc6,tr13,27723,166338).
route(prodloc26,prodloc7,tr0,7491,194766).
route(prodloc26,prodloc7,tr13,7491,44946).
route(prodloc26,prodloc8,tr0,21887,569062).
route(prodloc26,prodloc8,tr13,21887,131322).
route(prodloc26,prodloc9,tr0,23667,615342).
route(prodloc26,prodloc9,tr13,23667,142002).
route(prodloc26,prodloc10,tr0,21382,555932).
route(prodloc26,prodloc10,tr13,21382,128292).
route(prodloc26,prodloc11,tr0,28840,749840).
route(prodloc26,prodloc11,tr13,28840,173040).
route(prodloc26,prodloc12,tr0,28759,747734).
route(prodloc26,prodloc12,tr13,28759,172554).
route(prodloc26,prodloc13,tr0,25366,659516).
route(prodloc26,prodloc13,tr13,25366,152196).
route(prodloc26,prodloc14,tr0,21028,546728).
route(prodloc26,prodloc14,tr13,21028,126168).
route(prodloc26,prodloc15,tr0,22942,596492).
route(prodloc26,prodloc15,tr13,22942,137652).
route(prodloc26,prodloc16,tr0,19130,497380).
route(prodloc26,prodloc16,tr13,19130,114780).
route(prodloc26,prodloc17,tr0,27934,726284).
route(prodloc26,prodloc17,tr13,27934,167604).
route(prodloc26,prodloc18,tr0,7492,194792).
route(prodloc26,prodloc18,tr13,7492,44952).
route(prodloc26,prodloc19,tr0,22271,579046).
route(prodloc26,prodloc19,tr13,22271,133626).
route(prodloc26,prodloc20,tr0,5949,154674).
route(prodloc26,prodloc20,tr15,5949,190368).
route(prodloc26,prodloc21,tr0,21023,546598).
route(prodloc26,prodloc21,tr13,21023,126138).
route(prodloc26,prodloc22,tr0,4072,105872).
route(prodloc26,prodloc22,tr13,4072,24432).
route(prodloc26,prodloc23,tr0,14875,386750).
route(prodloc26,prodloc23,tr13,14875,89250).
route(prodloc26,prodloc24,tr0,14175,368550).
route(prodloc26,prodloc24,tr13,14175,85050).
route(prodloc26,prodloc25,tr0,10258,266708).
route(prodloc26,prodloc25,tr13,10258,61548).
route(prodloc26,prodloc27,tr0,8515,221390).
route(prodloc26,prodloc27,tr13,8515,51090).
route(prodloc26,prodloc28,tr0,20589,535314).
route(prodloc26,prodloc28,tr13,20589,123534).
route(prodloc26,prodloc29,tr0,22960,596960).
route(prodloc26,prodloc29,tr13,22960,137760).
route(prodloc26,prodloc30,tr0,3208,83408).
route(prodloc26,prodloc30,tr13,3208,19248).
route(prodloc26,prodloc31,tr0,13750,357500).
route(prodloc26,prodloc31,tr13,13750,82500).
route(prodloc26,prodloc32,tr0,7944,206544).
route(prodloc26,prodloc32,tr13,7944,47664).
route(prodloc26,prodloc33,tr0,25638,666588).
route(prodloc26,prodloc33,tr13,25638,153828).
route(prodloc27,harbor0,tr0,13113,340938).
route(prodloc27,harbor0,tr13,13113,78678).
route(prodloc27,harbor1,tr0,23370,607620).
route(prodloc27,harbor1,tr13,23370,140220).
route(prodloc27,harbor2,tr0,23353,607178).
route(prodloc27,harbor2,tr13,23353,140118).
route(prodloc27,harbor3,tr0,20633,536458).
route(prodloc27,harbor3,tr13,20633,123798).
route(prodloc27,harbor4,tr0,5128,133328).
route(prodloc27,harbor4,tr13,5128,30768).
route(prodloc27,harbor5,tr0,8195,213070).
route(prodloc27,harbor5,tr13,8195,49170).
route(prodloc27,harbor6,tr0,27836,723736).
route(prodloc27,harbor6,tr13,27836,167016).
route(prodloc27,harbor7,tr0,13881,360906).
route(prodloc27,harbor7,tr13,13881,83286).
route(prodloc27,harbor8,tr0,15820,411320).
route(prodloc27,harbor8,tr13,15820,94920).
route(prodloc27,harbor9,tr0,14917,387842).
route(prodloc27,harbor9,tr13,14917,89502).
route(prodloc27,harbor10,tr0,646,16796).
route(prodloc27,harbor10,tr13,646,3876).
route(prodloc27,harbor11,tr0,20369,529594).
route(prodloc27,harbor11,tr13,20369,122214).
route(prodloc27,harbor12,tr0,28134,731484).
route(prodloc27,harbor12,tr13,28134,168804).
route(prodloc27,harbor13,tr0,13415,348790).
route(prodloc27,harbor13,tr13,13415,80490).
route(prodloc27,harbor14,tr0,16984,441584).
route(prodloc27,harbor14,tr13,16984,101904).
route(prodloc27,harbor15,tr0,22128,575328).
route(prodloc27,harbor15,tr13,22128,132768).
route(prodloc27,harbor16,tr0,21665,563290).
route(prodloc27,harbor16,tr13,21665,129990).
route(prodloc27,prodloc0,tr0,28608,743808).
route(prodloc27,prodloc0,tr13,28608,171648).
route(prodloc27,prodloc1,tr0,6000,156000).
route(prodloc27,prodloc1,tr13,6000,36000).
route(prodloc27,prodloc2,tr0,21448,557648).
route(prodloc27,prodloc2,tr13,21448,128688).
route(prodloc27,prodloc3,tr0,10751,279526).
route(prodloc27,prodloc3,tr13,10751,64506).
route(prodloc27,prodloc4,tr0,25501,663026).
route(prodloc27,prodloc4,tr15,25501,816032).
route(prodloc27,prodloc5,tr0,350,9100).
route(prodloc27,prodloc5,tr13,350,2100).
route(prodloc27,prodloc6,tr0,12739,331214).
route(prodloc27,prodloc6,tr13,12739,76434).
route(prodloc27,prodloc7,tr0,27260,708760).
route(prodloc27,prodloc7,tr13,27260,163560).
route(prodloc27,prodloc8,tr0,16053,417378).
route(prodloc27,prodloc8,tr13,16053,96318).
route(prodloc27,prodloc9,tr0,3487,90662).
route(prodloc27,prodloc9,tr13,3487,20922).
route(prodloc27,prodloc10,tr0,1251,32526).
route(prodloc27,prodloc10,tr13,1251,7506).
route(prodloc27,prodloc11,tr0,8234,214084).
route(prodloc27,prodloc11,tr13,8234,49404).
route(prodloc27,prodloc12,tr0,17806,462956).
route(prodloc27,prodloc12,tr13,17806,106836).
route(prodloc27,prodloc13,tr0,7141,185666).
route(prodloc27,prodloc13,tr13,7141,42846).
route(prodloc27,prodloc14,tr0,5272,137072).
route(prodloc27,prodloc14,tr13,5272,31632).
route(prodloc27,prodloc15,tr0,23470,610220).
route(prodloc27,prodloc15,tr15,23470,751040).
route(prodloc27,prodloc16,tr0,25619,666094).
route(prodloc27,prodloc16,tr13,25619,153714).
route(prodloc27,prodloc17,tr0,6549,170274).
route(prodloc27,prodloc17,tr13,6549,39294).
route(prodloc27,prodloc18,tr0,17015,442390).
route(prodloc27,prodloc18,tr13,17015,102090).
route(prodloc27,prodloc19,tr0,11412,296712).
route(prodloc27,prodloc19,tr13,11412,68472).
route(prodloc27,prodloc20,tr0,3314,86164).
route(prodloc27,prodloc20,tr13,3314,19884).
route(prodloc27,prodloc21,tr0,27761,721786).
route(prodloc27,prodloc21,tr13,27761,166566).
route(prodloc27,prodloc22,tr0,18829,489554).
route(prodloc27,prodloc22,tr13,18829,112974).
route(prodloc27,prodloc23,tr0,14969,389194).
route(prodloc27,prodloc23,tr13,14969,89814).
route(prodloc27,prodloc24,tr0,17730,460980).
route(prodloc27,prodloc24,tr13,17730,106380).
route(prodloc27,prodloc25,tr0,6718,174668).
route(prodloc27,prodloc25,tr13,6718,40308).
route(prodloc27,prodloc26,tr0,23506,611156).
route(prodloc27,prodloc26,tr13,23506,141036).
route(prodloc27,prodloc28,tr0,15590,405340).
route(prodloc27,prodloc28,tr13,15590,93540).
route(prodloc27,prodloc29,tr13,16785,100710).
route(prodloc27,prodloc29,tr15,16785,537120).
route(prodloc27,prodloc30,tr0,529,13754).
route(prodloc27,prodloc30,tr13,529,3174).
route(prodloc27,prodloc31,tr0,20949,544674).
route(prodloc27,prodloc31,tr13,20949,125694).
route(prodloc27,prodloc32,tr0,25972,675272).
route(prodloc27,prodloc32,tr13,25972,155832).
route(prodloc27,prodloc33,tr0,27166,706316).
route(prodloc27,prodloc33,tr13,27166,162996).
route(prodloc28,harbor0,tr0,12123,315198).
route(prodloc28,harbor0,tr13,12123,72738).
route(prodloc28,harbor1,tr0,17096,444496).
route(prodloc28,harbor1,tr13,17096,102576).
route(prodloc28,harbor2,tr0,11236,292136).
route(prodloc28,harbor2,tr13,11236,67416).
route(prodloc28,harbor3,tr0,13448,349648).
route(prodloc28,harbor3,tr13,13448,80688).
route(prodloc28,harbor4,tr0,24319,632294).
route(prodloc28,harbor4,tr13,24319,145914).
route(prodloc28,harbor5,tr0,14974,389324).
route(prodloc28,harbor5,tr13,14974,89844).
route(prodloc28,harbor6,tr0,6886,179036).
route(prodloc28,harbor6,tr13,6886,41316).
route(prodloc28,harbor7,tr0,22427,583102).
route(prodloc28,harbor7,tr13,22427,134562).
route(prodloc28,harbor8,tr0,6024,156624).
route(prodloc28,harbor8,tr13,6024,36144).
route(prodloc28,harbor9,tr0,12863,334438).
route(prodloc28,harbor9,tr13,12863,77178).
route(prodloc28,harbor10,tr0,16837,437762).
route(prodloc28,harbor10,tr13,16837,101022).
route(prodloc28,harbor11,tr0,24994,649844).
route(prodloc28,harbor11,tr13,24994,149964).
route(prodloc28,harbor12,tr0,4012,104312).
route(prodloc28,harbor12,tr13,4012,24072).
route(prodloc28,harbor13,tr0,23893,621218).
route(prodloc28,harbor13,tr13,23893,143358).
route(prodloc28,harbor14,tr0,20121,523146).
route(prodloc28,harbor14,tr13,20121,120726).
route(prodloc28,harbor15,tr0,11650,302900).
route(prodloc28,harbor15,tr13,11650,69900).
route(prodloc28,harbor16,tr0,20893,543218).
route(prodloc28,harbor16,tr13,20893,125358).
route(prodloc28,prodloc0,tr0,1857,48282).
route(prodloc28,prodloc0,tr13,1857,11142).
route(prodloc28,prodloc1,tr0,8274,215124).
route(prodloc28,prodloc1,tr13,8274,49644).
route(prodloc28,prodloc2,tr0,8992,233792).
route(prodloc28,prodloc2,tr13,8992,53952).
route(prodloc28,prodloc3,tr0,12514,325364).
route(prodloc28,prodloc3,tr13,12514,75084).
route(prodloc28,prodloc4,tr0,13098,340548).
route(prodloc28,prodloc4,tr15,13098,419136).
route(prodloc28,prodloc5,tr0,2017,52442).
route(prodloc28,prodloc5,tr13,2017,12102).
route(prodloc28,prodloc6,tr0,438,11388).
route(prodloc28,prodloc6,tr13,438,2628).
route(prodloc28,prodloc7,tr13,2465,14790).
route(prodloc28,prodloc7,tr15,2465,78880).
route(prodloc28,prodloc8,tr0,13718,356668).
route(prodloc28,prodloc8,tr13,13718,82308).
route(prodloc28,prodloc9,tr0,13782,358332).
route(prodloc28,prodloc9,tr13,13782,82692).
route(prodloc28,prodloc10,tr0,20598,535548).
route(prodloc28,prodloc10,tr13,20598,123588).
route(prodloc28,prodloc11,tr0,22882,594932).
route(prodloc28,prodloc11,tr13,22882,137292).
route(prodloc28,prodloc12,tr0,22116,575016).
route(prodloc28,prodloc12,tr13,22116,132696).
route(prodloc28,prodloc13,tr0,11540,300040).
route(prodloc28,prodloc13,tr13,11540,69240).
route(prodloc28,prodloc14,tr0,19013,494338).
route(prodloc28,prodloc14,tr13,19013,114078).
route(prodloc28,prodloc15,tr0,8690,225940).
route(prodloc28,prodloc15,tr13,8690,52140).
route(prodloc28,prodloc16,tr0,3582,93132).
route(prodloc28,prodloc16,tr13,3582,21492).
route(prodloc28,prodloc17,tr0,7356,191256).
route(prodloc28,prodloc17,tr13,7356,44136).
route(prodloc28,prodloc18,tr0,9946,258596).
route(prodloc28,prodloc18,tr13,9946,59676).
route(prodloc28,prodloc19,tr0,24298,631748).
route(prodloc28,prodloc19,tr13,24298,145788).
route(prodloc28,prodloc20,tr0,13124,341224).
route(prodloc28,prodloc20,tr13,13124,78744).
route(prodloc28,prodloc21,tr0,17273,449098).
route(prodloc28,prodloc21,tr13,17273,103638).
route(prodloc28,prodloc22,tr0,7175,186550).
route(prodloc28,prodloc22,tr13,7175,43050).
route(prodloc28,prodloc23,tr0,26265,682890).
route(prodloc28,prodloc23,tr13,26265,157590).
route(prodloc28,prodloc24,tr0,12845,333970).
route(prodloc28,prodloc24,tr13,12845,77070).
route(prodloc28,prodloc25,tr0,15144,393744).
route(prodloc28,prodloc25,tr13,15144,90864).
route(prodloc28,prodloc26,tr0,6949,180674).
route(prodloc28,prodloc26,tr13,6949,41694).
route(prodloc28,prodloc27,tr0,5393,140218).
route(prodloc28,prodloc27,tr13,5393,32358).
route(prodloc28,prodloc29,tr0,4238,110188).
route(prodloc28,prodloc29,tr13,4238,25428).
route(prodloc28,prodloc30,tr0,25449,661674).
route(prodloc28,prodloc30,tr13,25449,152694).
route(prodloc28,prodloc31,tr0,2259,58734).
route(prodloc28,prodloc31,tr13,2259,13554).
route(prodloc28,prodloc32,tr0,26530,689780).
route(prodloc28,prodloc32,tr13,26530,159180).
route(prodloc28,prodloc33,tr0,26163,680238).
route(prodloc28,prodloc33,tr13,26163,156978).
route(prodloc29,harbor0,tr0,20786,540436).
route(prodloc29,harbor0,tr13,20786,124716).
route(prodloc29,harbor1,tr0,6331,164606).
route(prodloc29,harbor1,tr13,6331,37986).
route(prodloc29,harbor2,tr0,15375,399750).
route(prodloc29,harbor2,tr13,15375,92250).
route(prodloc29,harbor3,tr0,21045,547170).
route(prodloc29,harbor3,tr13,21045,126270).
route(prodloc29,harbor4,tr0,18419,478894).
route(prodloc29,harbor4,tr13,18419,110514).
route(prodloc29,harbor5,tr0,23618,614068).
route(prodloc29,harbor5,tr13,23618,141708).
route(prodloc29,harbor6,tr0,7407,192582).
route(prodloc29,harbor6,tr13,7407,44442).
route(prodloc29,harbor7,tr0,26696,694096).
route(prodloc29,harbor7,tr13,26696,160176).
route(prodloc29,harbor8,tr0,4794,124644).
route(prodloc29,harbor8,tr13,4794,28764).
route(prodloc29,harbor9,tr0,11573,300898).
route(prodloc29,harbor9,tr13,11573,69438).
route(prodloc29,harbor10,tr0,21826,567476).
route(prodloc29,harbor10,tr13,21826,130956).
route(prodloc29,harbor11,tr0,20934,544284).
route(prodloc29,harbor11,tr13,20934,125604).
route(prodloc29,harbor12,tr0,27222,707772).
route(prodloc29,harbor12,tr13,27222,163332).
route(prodloc29,harbor13,tr0,26830,697580).
route(prodloc29,harbor13,tr13,26830,160980).
route(prodloc29,harbor14,tr0,26060,677560).
route(prodloc29,harbor14,tr13,26060,156360).
route(prodloc29,harbor15,tr0,26746,695396).
route(prodloc29,harbor15,tr13,26746,160476).
route(prodloc29,harbor16,tr0,13544,352144).
route(prodloc29,harbor16,tr13,13544,81264).
route(prodloc29,prodloc0,tr0,15340,398840).
route(prodloc29,prodloc0,tr13,15340,92040).
route(prodloc29,prodloc1,tr0,9647,250822).
route(prodloc29,prodloc1,tr13,9647,57882).
route(prodloc29,prodloc2,tr0,24902,647452).
route(prodloc29,prodloc2,tr13,24902,149412).
route(prodloc29,prodloc3,tr0,17967,467142).
route(prodloc29,prodloc3,tr13,17967,107802).
route(prodloc29,prodloc4,tr0,21288,553488).
route(prodloc29,prodloc4,tr13,21288,127728).
route(prodloc29,prodloc5,tr0,4103,106678).
route(prodloc29,prodloc5,tr13,4103,24618).
route(prodloc29,prodloc6,tr0,25556,664456).
route(prodloc29,prodloc6,tr13,25556,153336).
route(prodloc29,prodloc7,tr0,27322,710372).
route(prodloc29,prodloc7,tr13,27322,163932).
route(prodloc29,prodloc8,tr0,15383,399958).
route(prodloc29,prodloc8,tr13,15383,92298).
route(prodloc29,prodloc9,tr0,11626,302276).
route(prodloc29,prodloc9,tr13,11626,69756).
route(prodloc29,prodloc10,tr0,25678,667628).
route(prodloc29,prodloc10,tr13,25678,154068).
route(prodloc29,prodloc11,tr13,27876,167256).
route(prodloc29,prodloc11,tr15,27876,892032).
route(prodloc29,prodloc12,tr0,7553,196378).
route(prodloc29,prodloc12,tr13,7553,45318).
route(prodloc29,prodloc13,tr0,8764,227864).
route(prodloc29,prodloc13,tr13,8764,52584).
route(prodloc29,prodloc14,tr0,23077,600002).
route(prodloc29,prodloc14,tr13,23077,138462).
route(prodloc29,prodloc15,tr0,12327,320502).
route(prodloc29,prodloc15,tr13,12327,73962).
route(prodloc29,prodloc16,tr0,22528,585728).
route(prodloc29,prodloc16,tr13,22528,135168).
route(prodloc29,prodloc17,tr0,8310,216060).
route(prodloc29,prodloc17,tr13,8310,49860).
route(prodloc29,prodloc18,tr0,13964,363064).
route(prodloc29,prodloc18,tr13,13964,83784).
route(prodloc29,prodloc19,tr0,22245,578370).
route(prodloc29,prodloc19,tr13,22245,133470).
route(prodloc29,prodloc20,tr0,6093,158418).
route(prodloc29,prodloc20,tr13,6093,36558).
route(prodloc29,prodloc21,tr0,15782,410332).
route(prodloc29,prodloc21,tr13,15782,94692).
route(prodloc29,prodloc22,tr0,90,2340).
route(prodloc29,prodloc22,tr13,90,540).
route(prodloc29,prodloc23,tr0,26394,686244).
route(prodloc29,prodloc23,tr13,26394,158364).
route(prodloc29,prodloc24,tr0,23653,614978).
route(prodloc29,prodloc24,tr13,23653,141918).
route(prodloc29,prodloc25,tr0,26180,680680).
route(prodloc29,prodloc25,tr13,26180,157080).
route(prodloc29,prodloc26,tr0,9216,239616).
route(prodloc29,prodloc26,tr13,9216,55296).
route(prodloc29,prodloc27,tr0,11732,305032).
route(prodloc29,prodloc27,tr13,11732,70392).
route(prodloc29,prodloc28,tr0,8029,208754).
route(prodloc29,prodloc28,tr13,8029,48174).
route(prodloc29,prodloc30,tr0,21445,557570).
route(prodloc29,prodloc30,tr13,21445,128670).
route(prodloc29,prodloc31,tr0,9892,257192).
route(prodloc29,prodloc31,tr13,9892,59352).
route(prodloc29,prodloc32,tr0,10498,272948).
route(prodloc29,prodloc32,tr13,10498,62988).
route(prodloc29,prodloc33,tr0,15715,408590).
route(prodloc29,prodloc33,tr13,15715,94290).
route(prodloc30,harbor0,tr0,15891,413166).
route(prodloc30,harbor0,tr13,15891,95346).
route(prodloc30,harbor1,tr0,14042,365092).
route(prodloc30,harbor1,tr13,14042,84252).
route(prodloc30,harbor2,tr0,20428,531128).
route(prodloc30,harbor2,tr13,20428,122568).
route(prodloc30,harbor3,tr0,20885,543010).
route(prodloc30,harbor3,tr13,20885,125310).
route(prodloc30,harbor4,tr0,2801,72826).
route(prodloc30,harbor4,tr13,2801,16806).
route(prodloc30,harbor5,tr0,21604,561704).
route(prodloc30,harbor5,tr13,21604,129624).
route(prodloc30,harbor6,tr0,11878,308828).
route(prodloc30,harbor6,tr13,11878,71268).
route(prodloc30,harbor7,tr0,5007,130182).
route(prodloc30,harbor7,tr13,5007,30042).
route(prodloc30,harbor8,tr0,9936,258336).
route(prodloc30,harbor8,tr13,9936,59616).
route(prodloc30,harbor9,tr0,28000,728000).
route(prodloc30,harbor9,tr13,28000,168000).
route(prodloc30,harbor10,tr0,12621,328146).
route(prodloc30,harbor10,tr13,12621,75726).
route(prodloc30,harbor11,tr0,1871,48646).
route(prodloc30,harbor11,tr13,1871,11226).
route(prodloc30,harbor12,tr0,2796,72696).
route(prodloc30,harbor12,tr13,2796,16776).
route(prodloc30,harbor13,tr0,27130,705380).
route(prodloc30,harbor13,tr13,27130,162780).
route(prodloc30,harbor14,tr0,18502,481052).
route(prodloc30,harbor14,tr13,18502,111012).
route(prodloc30,harbor15,tr0,10641,276666).
route(prodloc30,harbor15,tr13,10641,63846).
route(prodloc30,harbor16,tr0,25693,668018).
route(prodloc30,harbor16,tr13,25693,154158).
route(prodloc30,prodloc0,tr0,4602,119652).
route(prodloc30,prodloc0,tr13,4602,27612).
route(prodloc30,prodloc1,tr0,17390,452140).
route(prodloc30,prodloc1,tr13,17390,104340).
route(prodloc30,prodloc2,tr0,27242,708292).
route(prodloc30,prodloc2,tr13,27242,163452).
route(prodloc30,prodloc3,tr13,11311,67866).
route(prodloc30,prodloc3,tr15,11311,361952).
route(prodloc30,prodloc4,tr0,20749,539474).
route(prodloc30,prodloc4,tr13,20749,124494).
route(prodloc30,prodloc5,tr0,19087,496262).
route(prodloc30,prodloc5,tr13,19087,114522).
route(prodloc30,prodloc6,tr0,493,12818).
route(prodloc30,prodloc6,tr13,493,2958).
route(prodloc30,prodloc7,tr0,21540,560040).
route(prodloc30,prodloc7,tr13,21540,129240).
route(prodloc30,prodloc8,tr0,378,9828).
route(prodloc30,prodloc8,tr13,378,2268).
route(prodloc30,prodloc9,tr0,6875,178750).
route(prodloc30,prodloc9,tr13,6875,41250).
route(prodloc30,prodloc10,tr0,2361,61386).
route(prodloc30,prodloc10,tr13,2361,14166).
route(prodloc30,prodloc11,tr0,21496,558896).
route(prodloc30,prodloc11,tr13,21496,128976).
route(prodloc30,prodloc12,tr0,9602,249652).
route(prodloc30,prodloc12,tr13,9602,57612).
route(prodloc30,prodloc13,tr0,8194,213044).
route(prodloc30,prodloc13,tr13,8194,49164).
route(prodloc30,prodloc14,tr0,19931,518206).
route(prodloc30,prodloc14,tr13,19931,119586).
route(prodloc30,prodloc15,tr0,3328,86528).
route(prodloc30,prodloc15,tr13,3328,19968).
route(prodloc30,prodloc16,tr0,18957,492882).
route(prodloc30,prodloc16,tr13,18957,113742).
route(prodloc30,prodloc17,tr0,4679,121654).
route(prodloc30,prodloc17,tr13,4679,28074).
route(prodloc30,prodloc18,tr0,27991,727766).
route(prodloc30,prodloc18,tr13,27991,167946).
route(prodloc30,prodloc19,tr0,7657,199082).
route(prodloc30,prodloc19,tr13,7657,45942).
route(prodloc30,prodloc20,tr0,6085,158210).
route(prodloc30,prodloc20,tr13,6085,36510).
route(prodloc30,prodloc21,tr0,25439,661414).
route(prodloc30,prodloc21,tr13,25439,152634).
route(prodloc30,prodloc22,tr0,14811,385086).
route(prodloc30,prodloc22,tr13,14811,88866).
route(prodloc30,prodloc23,tr0,11354,295204).
route(prodloc30,prodloc23,tr13,11354,68124).
route(prodloc30,prodloc24,tr0,25721,668746).
route(prodloc30,prodloc24,tr13,25721,154326).
route(prodloc30,prodloc25,tr0,5004,130104).
route(prodloc30,prodloc25,tr13,5004,30024).
route(prodloc30,prodloc26,tr0,6835,177710).
route(prodloc30,prodloc26,tr13,6835,41010).
route(prodloc30,prodloc27,tr0,13190,342940).
route(prodloc30,prodloc27,tr13,13190,79140).
route(prodloc30,prodloc28,tr0,25943,674518).
route(prodloc30,prodloc28,tr13,25943,155658).
route(prodloc30,prodloc29,tr0,17517,455442).
route(prodloc30,prodloc29,tr13,17517,105102).
route(prodloc30,prodloc31,tr0,5504,143104).
route(prodloc30,prodloc31,tr13,5504,33024).
route(prodloc30,prodloc32,tr0,19974,519324).
route(prodloc30,prodloc32,tr13,19974,119844).
route(prodloc30,prodloc33,tr0,22547,586222).
route(prodloc30,prodloc33,tr13,22547,135282).
route(prodloc31,harbor0,tr0,19936,518336).
route(prodloc31,harbor0,tr13,19936,119616).
route(prodloc31,harbor1,tr0,25603,665678).
route(prodloc31,harbor1,tr13,25603,153618).
route(prodloc31,harbor2,tr0,2964,77064).
route(prodloc31,harbor2,tr13,2964,17784).
route(prodloc31,harbor3,tr0,21906,569556).
route(prodloc31,harbor3,tr13,21906,131436).
route(prodloc31,harbor4,tr0,17975,467350).
route(prodloc31,harbor4,tr13,17975,107850).
route(prodloc31,harbor5,tr0,25825,671450).
route(prodloc31,harbor5,tr13,25825,154950).
route(prodloc31,harbor6,tr0,20861,542386).
route(prodloc31,harbor6,tr13,20861,125166).
route(prodloc31,harbor7,tr0,27487,714662).
route(prodloc31,harbor7,tr13,27487,164922).
route(prodloc31,harbor8,tr0,9735,253110).
route(prodloc31,harbor8,tr13,9735,58410).
route(prodloc31,harbor9,tr0,6469,168194).
route(prodloc31,harbor9,tr13,6469,38814).
route(prodloc31,harbor10,tr0,16204,421304).
route(prodloc31,harbor10,tr13,16204,97224).
route(prodloc31,harbor11,tr0,22703,590278).
route(prodloc31,harbor11,tr13,22703,136218).
route(prodloc31,harbor12,tr0,6984,181584).
route(prodloc31,harbor12,tr13,6984,41904).
route(prodloc31,harbor13,tr0,17395,452270).
route(prodloc31,harbor13,tr13,17395,104370).
route(prodloc31,harbor14,tr0,2578,67028).
route(prodloc31,harbor14,tr13,2578,15468).
route(prodloc31,harbor15,tr0,24312,632112).
route(prodloc31,harbor15,tr13,24312,145872).
route(prodloc31,harbor16,tr0,27503,715078).
route(prodloc31,harbor16,tr13,27503,165018).
route(prodloc31,prodloc0,tr0,14373,373698).
route(prodloc31,prodloc0,tr13,14373,86238).
route(prodloc31,prodloc1,tr0,21996,571896).
route(prodloc31,prodloc1,tr13,21996,131976).
route(prodloc31,prodloc2,tr0,28925,752050).
route(prodloc31,prodloc2,tr13,28925,173550).
route(prodloc31,prodloc3,tr0,3835,99710).
route(prodloc31,prodloc3,tr13,3835,23010).
route(prodloc31,prodloc4,tr0,18190,472940).
route(prodloc31,prodloc4,tr13,18190,109140).
route(prodloc31,prodloc5,tr0,3882,100932).
route(prodloc31,prodloc5,tr13,3882,23292).
route(prodloc31,prodloc6,tr0,8668,225368).
route(prodloc31,prodloc6,tr13,8668,52008).
route(prodloc31,prodloc7,tr0,13733,357058).
route(prodloc31,prodloc7,tr13,13733,82398).
route(prodloc31,prodloc8,tr0,7675,199550).
route(prodloc31,prodloc8,tr13,7675,46050).
route(prodloc31,prodloc9,tr0,27102,704652).
route(prodloc31,prodloc9,tr13,27102,162612).
route(prodloc31,prodloc10,tr0,4567,118742).
route(prodloc31,prodloc10,tr13,4567,27402).
route(prodloc31,prodloc11,tr0,15509,403234).
route(prodloc31,prodloc11,tr13,15509,93054).
route(prodloc31,prodloc12,tr0,16159,420134).
route(prodloc31,prodloc12,tr13,16159,96954).
route(prodloc31,prodloc13,tr0,18260,474760).
route(prodloc31,prodloc13,tr15,18260,584320).
route(prodloc31,prodloc14,tr0,1917,49842).
route(prodloc31,prodloc14,tr13,1917,11502).
route(prodloc31,prodloc15,tr0,15873,412698).
route(prodloc31,prodloc15,tr13,15873,95238).
route(prodloc31,prodloc16,tr0,15307,397982).
route(prodloc31,prodloc16,tr13,15307,91842).
route(prodloc31,prodloc17,tr0,4734,123084).
route(prodloc31,prodloc17,tr13,4734,28404).
route(prodloc31,prodloc18,tr0,22953,596778).
route(prodloc31,prodloc18,tr13,22953,137718).
route(prodloc31,prodloc19,tr0,16103,418678).
route(prodloc31,prodloc19,tr13,16103,96618).
route(prodloc31,prodloc20,tr0,8081,210106).
route(prodloc31,prodloc20,tr13,8081,48486).
route(prodloc31,prodloc21,tr0,16326,424476).
route(prodloc31,prodloc21,tr13,16326,97956).
route(prodloc31,prodloc22,tr0,5396,140296).
route(prodloc31,prodloc22,tr13,5396,32376).
route(prodloc31,prodloc23,tr0,17681,459706).
route(prodloc31,prodloc23,tr13,17681,106086).
route(prodloc31,prodloc24,tr0,19649,510874).
route(prodloc31,prodloc24,tr13,19649,117894).
route(prodloc31,prodloc25,tr0,28276,735176).
route(prodloc31,prodloc25,tr13,28276,169656).
route(prodloc31,prodloc26,tr0,24073,625898).
route(prodloc31,prodloc26,tr13,24073,144438).
route(prodloc31,prodloc27,tr0,218,5668).
route(prodloc31,prodloc27,tr13,218,1308).
route(prodloc31,prodloc28,tr0,5256,136656).
route(prodloc31,prodloc28,tr13,5256,31536).
route(prodloc31,prodloc29,tr0,27552,716352).
route(prodloc31,prodloc29,tr13,27552,165312).
route(prodloc31,prodloc30,tr0,10510,273260).
route(prodloc31,prodloc30,tr13,10510,63060).
route(prodloc31,prodloc32,tr0,15336,398736).
route(prodloc31,prodloc32,tr13,15336,92016).
route(prodloc31,prodloc33,tr0,22804,592904).
route(prodloc31,prodloc33,tr13,22804,136824).
route(prodloc32,harbor0,tr0,18436,479336).
route(prodloc32,harbor0,tr13,18436,110616).
route(prodloc32,harbor1,tr0,16307,423982).
route(prodloc32,harbor1,tr13,16307,97842).
route(prodloc32,harbor2,tr0,21802,566852).
route(prodloc32,harbor2,tr13,21802,130812).
route(prodloc32,harbor3,tr0,9728,252928).
route(prodloc32,harbor3,tr13,9728,58368).
route(prodloc32,harbor4,tr0,27545,716170).
route(prodloc32,harbor4,tr13,27545,165270).
route(prodloc32,harbor5,tr0,15264,396864).
route(prodloc32,harbor5,tr13,15264,91584).
route(prodloc32,harbor6,tr0,12288,319488).
route(prodloc32,harbor6,tr13,12288,73728).
route(prodloc32,harbor7,tr0,13955,362830).
route(prodloc32,harbor7,tr13,13955,83730).
route(prodloc32,harbor8,tr0,13725,356850).
route(prodloc32,harbor8,tr13,13725,82350).
route(prodloc32,harbor9,tr0,22151,575926).
route(prodloc32,harbor9,tr13,22151,132906).
route(prodloc32,harbor10,tr0,2472,64272).
route(prodloc32,harbor10,tr13,2472,14832).
route(prodloc32,harbor11,tr0,5917,153842).
route(prodloc32,harbor11,tr13,5917,35502).
route(prodloc32,harbor12,tr0,20876,542776).
route(prodloc32,harbor12,tr13,20876,125256).
route(prodloc32,harbor13,tr0,11810,307060).
route(prodloc32,harbor13,tr13,11810,70860).
route(prodloc32,harbor14,tr0,20846,541996).
route(prodloc32,harbor14,tr13,20846,125076).
route(prodloc32,harbor15,tr0,21187,550862).
route(prodloc32,harbor15,tr13,21187,127122).
route(prodloc32,harbor16,tr0,936,24336).
route(prodloc32,harbor16,tr13,936,5616).
route(prodloc32,prodloc0,tr0,675,17550).
route(prodloc32,prodloc0,tr13,675,4050).
route(prodloc32,prodloc1,tr0,19979,519454).
route(prodloc32,prodloc1,tr13,19979,119874).
route(prodloc32,prodloc2,tr0,1505,39130).
route(prodloc32,prodloc2,tr13,1505,9030).
route(prodloc32,prodloc3,tr0,22369,581594).
route(prodloc32,prodloc3,tr13,22369,134214).
route(prodloc32,prodloc4,tr0,24136,627536).
route(prodloc32,prodloc4,tr13,24136,144816).
route(prodloc32,prodloc5,tr0,10830,281580).
route(prodloc32,prodloc5,tr15,10830,346560).
route(prodloc32,prodloc6,tr0,26498,688948).
route(prodloc32,prodloc6,tr13,26498,158988).
route(prodloc32,prodloc7,tr0,3081,80106).
route(prodloc32,prodloc7,tr13,3081,18486).
route(prodloc32,prodloc8,tr0,16734,435084).
route(prodloc32,prodloc8,tr13,16734,100404).
route(prodloc32,prodloc9,tr0,15867,412542).
route(prodloc32,prodloc9,tr13,15867,95202).
route(prodloc32,prodloc10,tr0,15883,412958).
route(prodloc32,prodloc10,tr13,15883,95298).
route(prodloc32,prodloc11,tr0,24813,645138).
route(prodloc32,prodloc11,tr13,24813,148878).
route(prodloc32,prodloc12,tr0,4736,123136).
route(prodloc32,prodloc12,tr13,4736,28416).
route(prodloc32,prodloc13,tr0,1112,28912).
route(prodloc32,prodloc13,tr13,1112,6672).
route(prodloc32,prodloc14,tr0,6993,181818).
route(prodloc32,prodloc14,tr13,6993,41958).
route(prodloc32,prodloc15,tr0,23535,611910).
route(prodloc32,prodloc15,tr13,23535,141210).
route(prodloc32,prodloc16,tr0,13620,354120).
route(prodloc32,prodloc16,tr13,13620,81720).
route(prodloc32,prodloc17,tr0,20491,532766).
route(prodloc32,prodloc17,tr13,20491,122946).
route(prodloc32,prodloc18,tr0,4160,108160).
route(prodloc32,prodloc18,tr13,4160,24960).
route(prodloc32,prodloc19,tr0,11097,288522).
route(prodloc32,prodloc19,tr13,11097,66582).
route(prodloc32,prodloc20,tr0,3097,80522).
route(prodloc32,prodloc20,tr13,3097,18582).
route(prodloc32,prodloc21,tr0,28237,734162).
route(prodloc32,prodloc21,tr13,28237,169422).
route(prodloc32,prodloc22,tr0,21596,561496).
route(prodloc32,prodloc22,tr13,21596,129576).
route(prodloc32,prodloc23,tr0,12000,312000).
route(prodloc32,prodloc23,tr13,12000,72000).
route(prodloc32,prodloc24,tr0,11186,290836).
route(prodloc32,prodloc24,tr13,11186,67116).
route(prodloc32,prodloc25,tr0,15551,404326).
route(prodloc32,prodloc25,tr13,15551,93306).
route(prodloc32,prodloc26,tr0,25512,663312).
route(prodloc32,prodloc26,tr13,25512,153072).
route(prodloc32,prodloc27,tr0,17222,447772).
route(prodloc32,prodloc27,tr13,17222,103332).
route(prodloc32,prodloc28,tr0,18159,472134).
route(prodloc32,prodloc28,tr13,18159,108954).
route(prodloc32,prodloc29,tr0,25252,656552).
route(prodloc32,prodloc29,tr13,25252,151512).
route(prodloc32,prodloc30,tr0,6907,179582).
route(prodloc32,prodloc30,tr13,6907,41442).
route(prodloc32,prodloc31,tr0,9313,242138).
route(prodloc32,prodloc31,tr13,9313,55878).
route(prodloc32,prodloc33,tr0,14262,370812).
route(prodloc32,prodloc33,tr13,14262,85572).
route(prodloc33,harbor0,tr0,11207,291382).
route(prodloc33,harbor0,tr13,11207,67242).
route(prodloc33,harbor1,tr0,13842,359892).
route(prodloc33,harbor1,tr13,13842,83052).
route(prodloc33,harbor2,tr0,8245,214370).
route(prodloc33,harbor2,tr13,8245,49470).
route(prodloc33,harbor3,tr0,18156,472056).
route(prodloc33,harbor3,tr13,18156,108936).
route(prodloc33,harbor4,tr0,1729,44954).
route(prodloc33,harbor4,tr13,1729,10374).
route(prodloc33,harbor5,tr0,27092,704392).
route(prodloc33,harbor5,tr13,27092,162552).
route(prodloc33,harbor6,tr0,9476,246376).
route(prodloc33,harbor6,tr13,9476,56856).
route(prodloc33,harbor7,tr0,9599,249574).
route(prodloc33,harbor7,tr13,9599,57594).
route(prodloc33,harbor8,tr0,11640,302640).
route(prodloc33,harbor8,tr13,11640,69840).
route(prodloc33,harbor9,tr0,27125,705250).
route(prodloc33,harbor9,tr13,27125,162750).
route(prodloc33,harbor10,tr0,16180,420680).
route(prodloc33,harbor10,tr13,16180,97080).
route(prodloc33,harbor11,tr0,13231,344006).
route(prodloc33,harbor11,tr13,13231,79386).
route(prodloc33,harbor12,tr0,10937,284362).
route(prodloc33,harbor12,tr13,10937,65622).
route(prodloc33,harbor13,tr0,16508,429208).
route(prodloc33,harbor13,tr13,16508,99048).
route(prodloc33,harbor14,tr0,8904,231504).
route(prodloc33,harbor14,tr13,8904,53424).
route(prodloc33,harbor15,tr0,28607,743782).
route(prodloc33,harbor15,tr13,28607,171642).
route(prodloc33,harbor16,tr0,16596,431496).
route(prodloc33,harbor16,tr13,16596,99576).
route(prodloc33,prodloc0,tr0,11300,293800).
route(prodloc33,prodloc0,tr13,11300,67800).
route(prodloc33,prodloc1,tr0,6671,173446).
route(prodloc33,prodloc1,tr13,6671,40026).
route(prodloc33,prodloc2,tr0,21450,557700).
route(prodloc33,prodloc2,tr13,21450,128700).
route(prodloc33,prodloc3,tr0,16130,419380).
route(prodloc33,prodloc3,tr13,16130,96780).
route(prodloc33,prodloc4,tr0,25952,674752).
route(prodloc33,prodloc4,tr13,25952,155712).
route(prodloc33,prodloc5,tr0,3866,100516).
route(prodloc33,prodloc5,tr13,3866,23196).
route(prodloc33,prodloc6,tr0,10844,281944).
route(prodloc33,prodloc6,tr13,10844,65064).
route(prodloc33,prodloc7,tr0,6303,163878).
route(prodloc33,prodloc7,tr13,6303,37818).
route(prodloc33,prodloc8,tr0,10392,270192).
route(prodloc33,prodloc8,tr13,10392,62352).
route(prodloc33,prodloc9,tr0,23371,607646).
route(prodloc33,prodloc9,tr13,23371,140226).
route(prodloc33,prodloc10,tr0,9806,254956).
route(prodloc33,prodloc10,tr13,9806,58836).
route(prodloc33,prodloc11,tr0,4182,108732).
route(prodloc33,prodloc11,tr13,4182,25092).
route(prodloc33,prodloc12,tr0,19218,499668).
route(prodloc33,prodloc12,tr13,19218,115308).
route(prodloc33,prodloc13,tr0,20803,540878).
route(prodloc33,prodloc13,tr13,20803,124818).
route(prodloc33,prodloc14,tr0,2871,74646).
route(prodloc33,prodloc14,tr13,2871,17226).
route(prodloc33,prodloc15,tr0,25699,668174).
route(prodloc33,prodloc15,tr13,25699,154194).
route(prodloc33,prodloc16,tr0,1314,34164).
route(prodloc33,prodloc16,tr13,1314,7884).
route(prodloc33,prodloc17,tr0,13072,339872).
route(prodloc33,prodloc17,tr13,13072,78432).
route(prodloc33,prodloc18,tr0,23682,615732).
route(prodloc33,prodloc18,tr13,23682,142092).
route(prodloc33,prodloc19,tr0,18165,472290).
route(prodloc33,prodloc19,tr13,18165,108990).
route(prodloc33,prodloc20,tr0,13306,345956).
route(prodloc33,prodloc20,tr13,13306,79836).
route(prodloc33,prodloc21,tr0,17873,464698).
route(prodloc33,prodloc21,tr13,17873,107238).
route(prodloc33,prodloc22,tr0,18812,489112).
route(prodloc33,prodloc22,tr13,18812,112872).
route(prodloc33,prodloc23,tr0,1630,42380).
route(prodloc33,prodloc23,tr13,1630,9780).
route(prodloc33,prodloc24,tr0,13059,339534).
route(prodloc33,prodloc24,tr13,13059,78354).
route(prodloc33,prodloc25,tr0,9845,255970).
route(prodloc33,prodloc25,tr13,9845,59070).
route(prodloc33,prodloc26,tr0,3557,92482).
route(prodloc33,prodloc26,tr13,3557,21342).
route(prodloc33,prodloc27,tr0,205,5330).
route(prodloc33,prodloc27,tr13,205,1230).
route(prodloc33,prodloc28,tr0,1522,39572).
route(prodloc33,prodloc28,tr13,1522,9132).
route(prodloc33,prodloc29,tr0,6225,161850).
route(prodloc33,prodloc29,tr13,6225,37350).
route(prodloc33,prodloc30,tr0,26936,700336).
route(prodloc33,prodloc30,tr13,26936,161616).
route(prodloc33,prodloc31,tr13,15568,93408).
route(prodloc33,prodloc31,tr15,15568,498176).
route(prodloc33,prodloc32,tr0,19947,518622).
route(prodloc33,prodloc32,tr13,19947,119682).
hub(harbor2).
hub(harbor5).
hub(harbor6).
hub(harbor11).
hub(harbor13).
hub(prodloc7).
hub(prodloc13).
hub(prodloc16).
hub(prodloc24).
hub(prodloc29).
