% Multibatching benchmark instance
% Source: instances.lp
% seed=16  harbors=17  prodlocs=34  hubs=10  disruptions=2

% ---- locations ----
location(harbor0).
location(harbor1).
location(harbor2).
location(harbor3).
location(harbor4).
location(harbor5).
location(harbor6).
location(harbor7).
location(harbor8).
location(harbor9).
location(harbor10).
location(harbor11).
location(harbor12).
location(harbor13).
location(harbor14).
location(harbor15).
location(harbor16).
location(prodloc0).
location(prodloc1).
location(prodloc2).
location(prodloc3).
location(prodloc4).
location(prodloc5).
location(prodloc6).
location(prodloc7).
location(prodloc8).
location(prodloc9).
location(prodloc10).
location(prodloc11).
location(prodloc12).
location(prodloc13).
location(prodloc14).
location(prodloc15).
location(prodloc16).
location(prodloc17).
location(prodloc18).
location(prodloc19).
location(prodloc20).
location(prodloc21).
location(prodloc22).
location(prodloc23).
location(prodloc24).
location(prodloc25).
location(prodloc26).
location(prodloc27).
location(prodloc28).
location(prodloc29).
location(prodloc30).
location(prodloc31).
location(prodloc32).
location(prodloc33).

% ---- transport resources ----
transportCapacity(tr0,1800).
transportCO2(tr0,1680).
transportCost(tr0,26).
transportSpeed(tr0,12).
transportCapacity(tr1,65).
transportCO2(tr1,90).
transportCost(tr1,1).
transportSpeed(tr1,35).
transportCapacity(tr10,1).
transportCO2(tr10,700).
transportCost(tr10,4).
transportSpeed(tr10,40).
transportCapacity(tr11,65).
transportCO2(tr11,62).
transportCost(tr11,1).
transportSpeed(tr11,25).
transportCapacity(tr12,65).
transportCO2(tr12,709).
transportCost(tr12,3).
transportSpeed(tr12,55).
transportCapacity(tr13,68).
transportCO2(tr13,160).
transportCost(tr13,6).
transportSpeed(tr13,25).
transportCapacity(tr14,146).
transportCO2(tr14,780).
transportCost(tr14,4).
transportSpeed(tr14,50).
transportCapacity(tr15,2217).
transportCO2(tr15,49470).
transportCost(tr15,32).
transportSpeed(tr15,625).
transportCapacity(tr2,96).
transportCO2(tr2,709).
transportCost(tr2,3).
transportSpeed(tr2,55).
transportCapacity(tr3,1).
transportCO2(tr3,6250).
transportCost(tr3,108).
transportSpeed(tr3,25).
transportCapacity(tr4,148).
transportCO2(tr4,780).
transportCost(tr4,4).
transportSpeed(tr4,50).
transportCapacity(tr5,65).
transportCO2(tr5,780).
transportCost(tr5,3).
transportSpeed(tr5,50).
transportCapacity(tr6,1).
transportCO2(tr6,100).
transportCost(tr6,40).
transportSpeed(tr6,25).
transportCapacity(tr7,1).
transportCO2(tr7,18000).
transportCost(tr7,278).
transportSpeed(tr7,10).
transportCapacity(tr8,1).
transportCO2(tr8,14400).
transportCost(tr8,107).
transportSpeed(tr8,25).
transportCapacity(tr9,65).
transportCO2(tr9,708).
transportCost(tr9,2).
transportSpeed(tr9,60).

% ---- parts ----
part(part0).
partSize(part0,21).
valid_transport(part0,tr0).
valid_transport(part0,tr15).
valid_transport(part0,tr14).
valid_transport(part0,tr13).
valid_transport(part0,tr4).
part(part1).
partSize(part1,1).
valid_transport(part1,tr0).
valid_transport(part1,tr2).
valid_transport(part1,tr15).
valid_transport(part1,tr9).
valid_transport(part1,tr12).
valid_transport(part1,tr13).
valid_transport(part1,tr11).
part(part10).
partSize(part10,1).
valid_transport(part10,tr0).
valid_transport(part10,tr2).
valid_transport(part10,tr15).
valid_transport(part10,tr9).
valid_transport(part10,tr12).
valid_transport(part10,tr13).
valid_transport(part10,tr11).
part(part11).
partSize(part11,83).
valid_transport(part11,tr0).
valid_transport(part11,tr7).
valid_transport(part11,tr8).
valid_transport(part11,tr15).
valid_transport(part11,tr3).
valid_transport(part11,tr13).
part(part12).
partSize(part12,273).
valid_transport(part12,tr0).
valid_transport(part12,tr7).
valid_transport(part12,tr8).
valid_transport(part12,tr15).
valid_transport(part12,tr3).
valid_transport(part12,tr13).
part(part13).
partSize(part13,1).
valid_transport(part13,tr0).
valid_transport(part13,tr2).
valid_transport(part13,tr15).
valid_transport(part13,tr9).
valid_transport(part13,tr12).
valid_transport(part13,tr13).
valid_transport(part13,tr11).
part(part14).
partSize(part14,68).
valid_transport(part14,tr0).
valid_transport(part14,tr15).
valid_transport(part14,tr13).
part(part15).
partSize(part15,4).
valid_transport(part15,tr0).
valid_transport(part15,tr2).
valid_transport(part15,tr15).
valid_transport(part15,tr9).
valid_transport(part15,tr12).
valid_transport(part15,tr13).
valid_transport(part15,tr11).
part(part16).
partSize(part16,4).
valid_transport(part16,tr0).
valid_transport(part16,tr2).
valid_transport(part16,tr15).
valid_transport(part16,tr9).
valid_transport(part16,tr12).
valid_transport(part16,tr13).
valid_transport(part16,tr11).
part(part17).
partSize(part17,8).
valid_transport(part17,tr0).
valid_transport(part17,tr15).
valid_transport(part17,tr14).
valid_transport(part17,tr13).
valid_transport(part17,tr4).
part(part18).
partSize(part18,24).
valid_transport(part18,tr0).
valid_transport(part18,tr15).
valid_transport(part18,tr14).
valid_transport(part18,tr13).
valid_transport(part18,tr4).
part(part19).
partSize(part19,6).
valid_transport(part19,tr0).
valid_transport(part19,tr2).
valid_transport(part19,tr15).
valid_transport(part19,tr9).
valid_transport(part19,tr12).
valid_transport(part19,tr13).
valid_transport(part19,tr11).
part(part2).
partSize(part2,19).
valid_transport(part2,tr0).
valid_transport(part2,tr15).
valid_transport(part2,tr14).
valid_transport(part2,tr13).
valid_transport(part2,tr4).
part(part20).
partSize(part20,128).
valid_transport(part20,tr0).
valid_transport(part20,tr7).
valid_transport(part20,tr8).
valid_transport(part20,tr15).
valid_transport(part20,tr3).
valid_transport(part20,tr13).
part(part21).
partSize(part21,25).
valid_transport(part21,tr0).
valid_transport(part21,tr15).
valid_transport(part21,tr14).
valid_transport(part21,tr13).
valid_transport(part21,tr4).
part(part22).
partSize(part22,7).
valid_transport(part22,tr0).
valid_transport(part22,tr2).
valid_transport(part22,tr15).
valid_transport(part22,tr9).
valid_transport(part22,tr12).
valid_transport(part22,tr13).
valid_transport(part22,tr11).
part(part23).
partSize(part23,5).
valid_transport(part23,tr0).
valid_transport(part23,tr15).
valid_transport(part23,tr14).
valid_transport(part23,tr13).
valid_transport(part23,tr4).
part(part24).
partSize(part24,55).
valid_transport(part24,tr0).
valid_transport(part24,tr7).
valid_transport(part24,tr8).
valid_transport(part24,tr15).
valid_transport(part24,tr3).
valid_transport(part24,tr13).
part(part25).
partSize(part25,5).
valid_transport(part25,tr0).
valid_transport(part25,tr4).
valid_transport(part25,tr2).
valid_transport(part25,tr15).
valid_transport(part25,tr13).
part(part26).
partSize(part26,32).
valid_transport(part26,tr0).
valid_transport(part26,tr7).
valid_transport(part26,tr8).
valid_transport(part26,tr15).
valid_transport(part26,tr3).
valid_transport(part26,tr13).
part(part27).
partSize(part27,5).
valid_transport(part27,tr0).
valid_transport(part27,tr2).
valid_transport(part27,tr15).
valid_transport(part27,tr9).
valid_transport(part27,tr12).
valid_transport(part27,tr13).
valid_transport(part27,tr11).
part(part28).
partSize(part28,3).
valid_transport(part28,tr0).
valid_transport(part28,tr4).
valid_transport(part28,tr2).
valid_transport(part28,tr15).
valid_transport(part28,tr14).
valid_transport(part28,tr13).
part(part29).
partSize(part29,627).
part(part3).
partSize(part3,48).
valid_transport(part3,tr0).
valid_transport(part3,tr7).
valid_transport(part3,tr8).
valid_transport(part3,tr15).
valid_transport(part3,tr3).
valid_transport(part3,tr13).
part(part30).
partSize(part30,2).
valid_transport(part30,tr0).
valid_transport(part30,tr2).
valid_transport(part30,tr15).
valid_transport(part30,tr9).
valid_transport(part30,tr12).
valid_transport(part30,tr13).
valid_transport(part30,tr11).
part(part31).
partSize(part31,144).
valid_transport(part31,tr0).
valid_transport(part31,tr7).
valid_transport(part31,tr8).
valid_transport(part31,tr15).
valid_transport(part31,tr3).
valid_transport(part31,tr13).
part(part32).
partSize(part32,16).
valid_transport(part32,tr0).
valid_transport(part32,tr4).
valid_transport(part32,tr2).
valid_transport(part32,tr15).
valid_transport(part32,tr14).
valid_transport(part32,tr13).
part(part33).
partSize(part33,7).
valid_transport(part33,tr0).
valid_transport(part33,tr2).
valid_transport(part33,tr15).
valid_transport(part33,tr9).
valid_transport(part33,tr12).
valid_transport(part33,tr13).
valid_transport(part33,tr11).
part(part3345).
partSize(part3345,353).
valid_transport(part3345,tr0).
valid_transport(part3345,tr7).
valid_transport(part3345,tr8).
valid_transport(part3345,tr15).
valid_transport(part3345,tr3).
valid_transport(part3345,tr13).
part(part34).
partSize(part34,2).
valid_transport(part34,tr0).
valid_transport(part34,tr2).
valid_transport(part34,tr15).
valid_transport(part34,tr9).
valid_transport(part34,tr12).
valid_transport(part34,tr13).
valid_transport(part34,tr11).
part(part4).
partSize(part4,2).
valid_transport(part4,tr0).
valid_transport(part4,tr2).
valid_transport(part4,tr15).
valid_transport(part4,tr9).
valid_transport(part4,tr12).
valid_transport(part4,tr13).
valid_transport(part4,tr11).
part(part5).
partSize(part5,2).
valid_transport(part5,tr0).
valid_transport(part5,tr2).
valid_transport(part5,tr15).
valid_transport(part5,tr9).
valid_transport(part5,tr12).
valid_transport(part5,tr14).
valid_transport(part5,tr13).
valid_transport(part5,tr11).
part(part6).
partSize(part6,111).
valid_transport(part6,tr0).
valid_transport(part6,tr7).
valid_transport(part6,tr8).
valid_transport(part6,tr15).
valid_transport(part6,tr3).
valid_transport(part6,tr13).
part(part8).
partSize(part8,163).
valid_transport(part8,tr0).
valid_transport(part8,tr7).
valid_transport(part8,tr8).
valid_transport(part8,tr15).
valid_transport(part8,tr3).
valid_transport(part8,tr13).
part(part9).
partSize(part9,2).
valid_transport(part9,tr0).
valid_transport(part9,tr2).
valid_transport(part9,tr15).
valid_transport(part9,tr9).
valid_transport(part9,tr12).
valid_transport(part9,tr13).
valid_transport(part9,tr11).

% ---- demand ----
demandOffer(part0,prodloc23,40).
demandOffer(part0,prodloc30,40).
demandOffer(part0,prodloc18,-27).
demandOffer(part0,prodloc26,-53).
demandOffer(part1,prodloc14,20).
demandOffer(part1,prodloc28,20).
demandOffer(part1,prodloc0,-20).
demandOffer(part1,prodloc26,-20).
demandOffer(part10,prodloc16,20).
demandOffer(part10,prodloc15,20).
demandOffer(part10,prodloc14,-20).
demandOffer(part10,prodloc0,-20).
demandOffer(part12,prodloc18,10).
demandOffer(part12,prodloc19,20).
demandOffer(part12,prodloc21,-10).
demandOffer(part12,prodloc9,-10).
demandOffer(part12,prodloc1,-10).
demandOffer(part13,prodloc14,20).
demandOffer(part13,prodloc16,20).
demandOffer(part13,prodloc1,-20).
demandOffer(part13,prodloc9,-20).
demandOffer(part14,prodloc1,26).
demandOffer(part14,prodloc29,-26).
demandOffer(part15,prodloc29,53).
demandOffer(part15,prodloc18,27).
demandOffer(part15,prodloc14,-53).
demandOffer(part15,prodloc19,-27).
demandOffer(part16,prodloc23,53).
demandOffer(part16,prodloc16,27).
demandOffer(part16,prodloc26,-53).
demandOffer(part16,prodloc5,-27).
demandOffer(part17,prodloc22,20).
demandOffer(part17,prodloc31,-20).
demandOffer(part18,prodloc27,40).
demandOffer(part18,prodloc33,40).
demandOffer(part18,prodloc11,-27).
demandOffer(part18,prodloc18,-53).
demandOffer(part19,prodloc2,26).
demandOffer(part19,prodloc18,-26).
demandOffer(part2,prodloc5,40).
demandOffer(part2,prodloc0,40).
demandOffer(part2,prodloc33,-27).
demandOffer(part2,prodloc23,-53).
demandOffer(part20,prodloc15,53).
demandOffer(part20,prodloc31,27).
demandOffer(part20,prodloc9,-14).
demandOffer(part20,prodloc19,-46).
demandOffer(part20,prodloc20,-20).
demandOffer(part21,prodloc29,26).
demandOffer(part21,prodloc4,-26).
demandOffer(part22,prodloc10,53).
demandOffer(part22,prodloc30,27).
demandOffer(part22,prodloc0,-53).
demandOffer(part22,prodloc28,-27).
demandOffer(part23,prodloc31,20).
demandOffer(part23,prodloc0,20).
demandOffer(part23,prodloc30,-20).
demandOffer(part23,prodloc7,-20).
demandOffer(part25,prodloc29,20).
demandOffer(part25,prodloc5,-20).
demandOffer(part26,prodloc31,20).
demandOffer(part26,prodloc1,20).
demandOffer(part26,prodloc9,-14).
demandOffer(part26,prodloc14,-26).
demandOffer(part27,prodloc25,53).
demandOffer(part27,prodloc23,27).
demandOffer(part27,prodloc2,-53).
demandOffer(part27,prodloc20,-27).
demandOffer(part28,prodloc30,20).
demandOffer(part28,prodloc32,20).
demandOffer(part28,prodloc4,-20).
demandOffer(part28,prodloc14,-20).
demandOffer(part3,prodloc20,40).
demandOffer(part3,prodloc6,-14).
demandOffer(part3,prodloc5,-26).
demandOffer(part30,prodloc7,40).
demandOffer(part30,prodloc15,40).
demandOffer(part30,prodloc0,-27).
demandOffer(part30,prodloc25,-53).
demandOffer(part31,prodloc2,7).
demandOffer(part31,prodloc7,7).
demandOffer(part31,prodloc3,-14).
demandOffer(part32,prodloc25,53).
demandOffer(part32,prodloc9,27).
demandOffer(part32,prodloc16,-53).
demandOffer(part32,prodloc15,-27).
demandOffer(part33,prodloc11,53).
demandOffer(part33,prodloc0,27).
demandOffer(part33,prodloc15,-53).
demandOffer(part33,prodloc33,-27).
demandOffer(part34,prodloc15,20).
demandOffer(part34,prodloc7,-20).
demandOffer(part4,prodloc6,26).
demandOffer(part4,prodloc9,-26).
demandOffer(part5,prodloc17,20).
demandOffer(part5,prodloc24,-20).
demandOffer(part6,prodloc26,27).
demandOffer(part6,prodloc2,53).
demandOffer(part6,prodloc25,-24).
demandOffer(part6,prodloc14,-36).
demandOffer(part6,prodloc28,-10).
demandOffer(part6,prodloc23,-10).
demandOffer(part8,prodloc29,3).
demandOffer(part8,prodloc16,17).
demandOffer(part8,prodloc2,-10).
demandOffer(part8,prodloc3,-10).
demandOffer(part9,prodloc1,20).
demandOffer(part9,prodloc12,-20).

% ---- network (ASP-generated) ----
route(harbor0,harbor1,tr13,14041,84246).
route(harbor0,harbor1,tr2,14041,42123).
route(harbor0,harbor2,tr13,21891,131346).
route(harbor0,harbor2,tr2,21891,65673).
route(harbor0,harbor3,tr13,8397,50382).
route(harbor0,harbor3,tr2,8397,25191).
route(harbor0,harbor4,tr13,16507,99042).
route(harbor0,harbor4,tr2,16507,49521).
route(harbor0,harbor5,tr13,12620,75720).
route(harbor0,harbor5,tr2,12620,37860).
route(harbor0,harbor6,tr13,3414,20484).
route(harbor0,harbor6,tr2,3414,10242).
route(harbor0,harbor7,tr13,26642,159852).
route(harbor0,harbor7,tr2,26642,79926).
route(harbor0,harbor8,tr13,7105,42630).
route(harbor0,harbor8,tr2,7105,21315).
route(harbor0,harbor9,tr13,3755,22530).
route(harbor0,harbor9,tr2,3755,11265).
route(harbor0,harbor10,tr13,13659,81954).
route(harbor0,harbor10,tr2,13659,40977).
route(harbor0,harbor11,tr13,20757,124542).
route(harbor0,harbor11,tr2,20757,62271).
route(harbor0,harbor12,tr13,3576,21456).
route(harbor0,harbor12,tr2,3576,10728).
route(harbor0,harbor13,tr13,9328,55968).
route(harbor0,harbor13,tr2,9328,27984).
route(harbor0,harbor14,tr13,3827,22962).
route(harbor0,harbor14,tr2,3827,11481).
route(harbor0,harbor15,tr13,14964,89784).
route(harbor0,harbor15,tr2,14964,44892).
route(harbor0,harbor16,tr13,14251,85506).
route(harbor0,harbor16,tr2,14251,42753).
route(harbor0,prodloc0,tr0,4628,120328).
route(harbor0,prodloc0,tr13,4628,27768).
route(harbor0,prodloc1,tr0,27544,716144).
route(harbor0,prodloc1,tr13,27544,165264).
route(harbor0,prodloc2,tr0,13099,340574).
route(harbor0,prodloc2,tr13,13099,78594).
route(harbor0,prodloc3,tr0,7785,202410).
route(harbor0,prodloc3,tr13,7785,46710).
route(harbor0,prodloc4,tr0,4126,107276).
route(harbor0,prodloc4,tr13,4126,24756).
route(harbor0,prodloc5,tr0,28934,752284).
route(harbor0,prodloc5,tr13,28934,173604).
route(harbor0,prodloc6,tr0,4302,111852).
route(harbor0,prodloc6,tr13,4302,25812).
route(harbor0,prodloc7,tr0,28709,746434).
route(harbor0,prodloc7,tr13,28709,172254).
route(harbor0,prodloc8,tr0,13228,343928).
route(harbor0,prodloc8,tr13,13228,79368).
route(harbor0,prodloc9,tr0,14185,368810).
route(harbor0,prodloc9,tr13,14185,85110).
route(harbor0,prodloc10,tr0,16430,427180).
route(harbor0,prodloc10,tr13,16430,98580).
route(harbor0,prodloc11,tr0,7370,191620).
route(harbor0,prodloc11,tr13,7370,44220).
route(harbor0,prodloc12,tr0,12963,337038).
route(harbor0,prodloc12,tr13,12963,77778).
route(harbor0,prodloc13,tr0,6051,157326).
route(harbor0,prodloc13,tr13,6051,36306).
route(harbor0,prodloc14,tr0,11874,308724).
route(harbor0,prodloc14,tr13,11874,71244).
route(harbor0,prodloc15,tr0,21872,568672).
route(harbor0,prodloc15,tr13,21872,131232).
route(harbor0,prodloc16,tr0,16257,422682).
route(harbor0,prodloc16,tr13,16257,97542).
route(harbor0,prodloc17,tr0,27058,703508).
route(harbor0,prodloc17,tr13,27058,162348).
route(harbor0,prodloc18,tr0,5708,148408).
route(harbor0,prodloc18,tr13,5708,34248).
route(harbor0,prodloc19,tr0,28199,733174).
route(harbor0,prodloc19,tr13,28199,169194).
route(harbor0,prodloc20,tr0,13371,347646).
route(harbor0,prodloc20,tr13,13371,80226).
route(harbor0,prodloc21,tr0,6840,177840).
route(harbor0,prodloc21,tr13,6840,41040).
route(harbor0,prodloc22,tr0,21571,560846).
route(harbor0,prodloc22,tr13,21571,129426).
route(harbor0,prodloc23,tr0,13980,363480).
route(harbor0,prodloc23,tr13,13980,83880).
route(harbor0,prodloc24,tr0,27749,721474).
route(harbor0,prodloc24,tr13,27749,166494).
route(harbor0,prodloc25,tr0,721,18746).
route(harbor0,prodloc25,tr13,721,4326).
route(harbor0,prodloc26,tr0,15999,415974).
route(harbor0,prodloc26,tr13,15999,95994).
route(harbor0,prodloc27,tr0,9985,259610).
route(harbor0,prodloc27,tr13,9985,59910).
route(harbor0,prodloc28,tr0,18760,487760).
route(harbor0,prodloc28,tr13,18760,112560).
route(harbor0,prodloc29,tr0,9667,251342).
route(harbor0,prodloc29,tr13,9667,58002).
route(harbor0,prodloc30,tr0,4057,105482).
route(harbor0,prodloc30,tr13,4057,24342).
route(harbor0,prodloc31,tr0,27773,722098).
route(harbor0,prodloc31,tr13,27773,166638).
route(harbor0,prodloc32,tr0,2499,64974).
route(harbor0,prodloc32,tr13,2499,14994).
route(harbor0,prodloc33,tr0,24626,640276).
route(harbor0,prodloc33,tr13,24626,147756).
route(harbor1,harbor0,tr13,25807,154842).
route(harbor1,harbor0,tr2,25807,77421).
route(harbor1,harbor2,tr13,10023,60138).
route(harbor1,harbor2,tr2,10023,30069).
route(harbor1,harbor3,tr13,24185,145110).
route(harbor1,harbor3,tr2,24185,72555).
route(harbor1,harbor4,tr13,16380,98280).
route(harbor1,harbor4,tr2,16380,49140).
route(harbor1,harbor5,tr13,7945,47670).
route(harbor1,harbor5,tr2,7945,23835).
route(harbor1,harbor6,tr13,17540,105240).
route(harbor1,harbor6,tr2,17540,52620).
route(harbor1,harbor7,tr13,21145,126870).
route(harbor1,harbor7,tr2,21145,63435).
route(harbor1,harbor8,tr13,15502,93012).
route(harbor1,harbor8,tr2,15502,46506).
route(harbor1,harbor9,tr13,6883,41298).
route(harbor1,harbor9,tr2,6883,20649).
route(harbor1,harbor10,tr13,19346,116076).
route(harbor1,harbor10,tr2,19346,58038).
route(harbor1,harbor11,tr13,14513,87078).
route(harbor1,harbor11,tr2,14513,43539).
route(harbor1,harbor12,tr13,16494,98964).
route(harbor1,harbor12,tr2,16494,49482).
route(harbor1,harbor13,tr13,4405,26430).
route(harbor1,harbor13,tr2,4405,13215).
route(harbor1,harbor14,tr13,16096,96576).
route(harbor1,harbor14,tr2,16096,48288).
route(harbor1,harbor15,tr13,18163,108978).
route(harbor1,harbor15,tr2,18163,54489).
route(harbor1,harbor16,tr13,2636,15816).
route(harbor1,harbor16,tr2,2636,7908).
route(harbor1,prodloc0,tr0,25013,650338).
route(harbor1,prodloc0,tr13,25013,150078).
route(harbor1,prodloc1,tr0,20727,538902).
route(harbor1,prodloc1,tr13,20727,124362).
route(harbor1,prodloc2,tr0,21916,569816).
route(harbor1,prodloc2,tr13,21916,131496).
route(harbor1,prodloc3,tr0,3518,91468).
route(harbor1,prodloc3,tr13,3518,21108).
route(harbor1,prodloc4,tr0,23725,616850).
route(harbor1,prodloc4,tr13,23725,142350).
route(harbor1,prodloc5,tr0,21636,562536).
route(harbor1,prodloc5,tr13,21636,129816).
route(harbor1,prodloc6,tr0,10267,266942).
route(harbor1,prodloc6,tr13,10267,61602).
route(harbor1,prodloc7,tr0,1906,49556).
route(harbor1,prodloc7,tr13,1906,11436).
route(harbor1,prodloc8,tr0,15152,393952).
route(harbor1,prodloc8,tr13,15152,90912).
route(harbor1,prodloc9,tr0,2639,68614).
route(harbor1,prodloc9,tr13,2639,15834).
route(harbor1,prodloc10,tr0,26423,686998).
route(harbor1,prodloc10,tr13,26423,158538).
route(harbor1,prodloc11,tr0,16270,423020).
route(harbor1,prodloc11,tr13,16270,97620).
route(harbor1,prodloc12,tr0,23853,620178).
route(harbor1,prodloc12,tr13,23853,143118).
route(harbor1,prodloc13,tr0,24746,643396).
route(harbor1,prodloc13,tr13,24746,148476).
route(harbor1,prodloc14,tr0,1720,44720).
route(harbor1,prodloc14,tr13,1720,10320).
route(harbor1,prodloc15,tr0,16823,437398).
route(harbor1,prodloc15,tr13,16823,100938).
route(harbor1,prodloc16,tr0,10973,285298).
route(harbor1,prodloc16,tr13,10973,65838).
route(harbor1,prodloc17,tr0,17422,452972).
route(harbor1,prodloc17,tr13,17422,104532).
route(harbor1,prodloc18,tr0,5620,146120).
route(harbor1,prodloc18,tr13,5620,33720).
route(harbor1,prodloc19,tr0,3273,85098).
route(harbor1,prodloc19,tr13,3273,19638).
route(harbor1,prodloc20,tr0,23298,605748).
route(harbor1,prodloc20,tr13,23298,139788).
route(harbor1,prodloc21,tr0,11941,310466).
route(harbor1,prodloc21,tr13,11941,71646).
route(harbor1,prodloc22,tr0,13187,342862).
route(harbor1,prodloc22,tr13,13187,79122).
route(harbor1,prodloc23,tr0,9279,241254).
route(harbor1,prodloc23,tr13,9279,55674).
route(harbor1,prodloc24,tr0,12820,333320).
route(harbor1,prodloc24,tr13,12820,76920).
route(harbor1,prodloc25,tr0,2124,55224).
route(harbor1,prodloc25,tr13,2124,12744).
route(harbor1,prodloc26,tr0,7308,190008).
route(harbor1,prodloc26,tr13,7308,43848).
route(harbor1,prodloc27,tr0,6255,162630).
route(harbor1,prodloc27,tr13,6255,37530).
route(harbor1,prodloc28,tr0,14882,386932).
route(harbor1,prodloc28,tr13,14882,89292).
route(harbor1,prodloc29,tr0,6879,178854).
route(harbor1,prodloc29,tr13,6879,41274).
route(harbor1,prodloc30,tr0,23541,612066).
route(harbor1,prodloc30,tr13,23541,141246).
route(harbor1,prodloc31,tr0,430,11180).
route(harbor1,prodloc31,tr13,430,2580).
route(harbor1,prodloc32,tr0,20680,537680).
route(harbor1,prodloc32,tr13,20680,124080).
route(harbor1,prodloc33,tr0,8,208).
route(harbor1,prodloc33,tr13,8,48).
route(harbor2,harbor0,tr13,7292,43752).
route(harbor2,harbor0,tr2,7292,21876).
route(harbor2,harbor1,tr13,10946,65676).
route(harbor2,harbor1,tr2,10946,32838).
route(harbor2,harbor3,tr13,12979,77874).
route(harbor2,harbor3,tr2,12979,38937).
route(harbor2,harbor4,tr13,19914,119484).
route(harbor2,harbor4,tr2,19914,59742).
route(harbor2,harbor5,tr13,20448,122688).
route(harbor2,harbor5,tr2,20448,61344).
route(harbor2,harbor6,tr13,6694,40164).
route(harbor2,harbor6,tr2,6694,20082).
route(harbor2,harbor7,tr13,1847,11082).
route(harbor2,harbor7,tr2,1847,5541).
route(harbor2,harbor8,tr13,8853,53118).
route(harbor2,harbor8,tr2,8853,26559).
route(harbor2,harbor9,tr13,21008,126048).
route(harbor2,harbor9,tr2,21008,63024).
route(harbor2,harbor10,tr13,781,4686).
route(harbor2,harbor10,tr2,781,2343).
route(harbor2,harbor11,tr13,12686,76116).
route(harbor2,harbor11,tr2,12686,38058).
route(harbor2,harbor12,tr13,20511,123066).
route(harbor2,harbor12,tr2,20511,61533).
route(harbor2,harbor13,tr13,1919,11514).
route(harbor2,harbor13,tr2,1919,5757).
route(harbor2,harbor14,tr13,4856,29136).
route(harbor2,harbor14,tr2,4856,14568).
route(harbor2,harbor15,tr13,21857,131142).
route(harbor2,harbor15,tr2,21857,65571).
route(harbor2,harbor16,tr13,17578,105468).
route(harbor2,harbor16,tr2,17578,52734).
route(harbor2,prodloc0,tr0,22671,589446).
route(harbor2,prodloc0,tr13,22671,136026).
route(harbor2,prodloc1,tr0,7295,189670).
route(harbor2,prodloc1,tr13,7295,43770).
route(harbor2,prodloc2,tr0,6780,176280).
route(harbor2,prodloc2,tr13,6780,40680).
route(harbor2,prodloc3,tr0,16504,429104).
route(harbor2,prodloc3,tr13,16504,99024).
route(harbor2,prodloc4,tr0,25851,672126).
route(harbor2,prodloc4,tr13,25851,155106).
route(harbor2,prodloc5,tr0,27705,720330).
route(harbor2,prodloc5,tr13,27705,166230).
route(harbor2,prodloc6,tr0,20581,535106).
route(harbor2,prodloc6,tr13,20581,123486).
route(harbor2,prodloc7,tr0,27988,727688).
route(harbor2,prodloc7,tr13,27988,167928).
route(harbor2,prodloc8,tr0,17667,459342).
route(harbor2,prodloc8,tr13,17667,106002).
route(harbor2,prodloc9,tr0,21720,564720).
route(harbor2,prodloc9,tr13,21720,130320).
route(harbor2,prodloc10,tr0,27091,704366).
route(harbor2,prodloc10,tr13,27091,162546).
route(harbor2,prodloc11,tr0,20923,543998).
route(harbor2,prodloc11,tr13,20923,125538).
route(harbor2,prodloc12,tr0,23751,617526).
route(harbor2,prodloc12,tr13,23751,142506).
route(harbor2,prodloc13,tr0,24327,632502).
route(harbor2,prodloc13,tr13,24327,145962).
route(harbor2,prodloc14,tr0,8774,228124).
route(harbor2,prodloc14,tr13,8774,52644).
route(harbor2,prodloc15,tr0,16836,437736).
route(harbor2,prodloc15,tr13,16836,101016).
route(harbor2,prodloc16,tr0,927,24102).
route(harbor2,prodloc16,tr13,927,5562).
route(harbor2,prodloc17,tr0,20160,524160).
route(harbor2,prodloc17,tr13,20160,120960).
route(harbor2,prodloc18,tr0,20075,521950).
route(harbor2,prodloc18,tr13,20075,120450).
route(harbor2,prodloc19,tr0,26159,680134).
route(harbor2,prodloc19,tr13,26159,156954).
route(harbor2,prodloc20,tr0,26352,685152).
route(harbor2,prodloc20,tr13,26352,158112).
route(harbor2,prodloc21,tr0,16736,435136).
route(harbor2,prodloc21,tr13,16736,100416).
route(harbor2,prodloc22,tr0,7167,186342).
route(harbor2,prodloc22,tr13,7167,43002).
route(harbor2,prodloc23,tr0,15452,401752).
route(harbor2,prodloc23,tr13,15452,92712).
route(harbor2,prodloc24,tr0,19024,494624).
route(harbor2,prodloc24,tr13,19024,114144).
route(harbor2,prodloc25,tr0,15768,409968).
route(harbor2,prodloc25,tr13,15768,94608).
route(harbor2,prodloc26,tr0,11448,297648).
route(harbor2,prodloc26,tr13,11448,68688).
route(harbor2,prodloc27,tr0,4481,116506).
route(harbor2,prodloc27,tr13,4481,26886).
route(harbor2,prodloc28,tr0,23404,608504).
route(harbor2,prodloc28,tr13,23404,140424).
route(harbor2,prodloc29,tr0,15099,392574).
route(harbor2,prodloc29,tr13,15099,90594).
route(harbor2,prodloc30,tr0,24514,637364).
route(harbor2,prodloc30,tr13,24514,147084).
route(harbor2,prodloc31,tr0,23550,612300).
route(harbor2,prodloc31,tr13,23550,141300).
route(harbor2,prodloc32,tr0,5663,147238).
route(harbor2,prodloc32,tr13,5663,33978).
route(harbor2,prodloc33,tr0,3566,92716).
route(harbor2,prodloc33,tr13,3566,21396).
route(harbor3,harbor0,tr13,6243,37458).
route(harbor3,harbor0,tr2,6243,18729).
route(harbor3,harbor1,tr13,766,4596).
route(harbor3,harbor1,tr2,766,2298).
route(harbor3,harbor2,tr13,3042,18252).
route(harbor3,harbor2,tr2,3042,9126).
route(harbor3,harbor4,tr13,12279,73674).
route(harbor3,harbor4,tr2,12279,36837).
route(harbor3,harbor5,tr13,23964,143784).
route(harbor3,harbor5,tr2,23964,71892).
route(harbor3,harbor6,tr13,9426,56556).
route(harbor3,harbor6,tr2,9426,28278).
route(harbor3,harbor7,tr13,21442,128652).
route(harbor3,harbor7,tr2,21442,64326).
route(harbor3,harbor8,tr13,26697,160182).
route(harbor3,harbor8,tr2,26697,80091).
route(harbor3,harbor9,tr13,21099,126594).
route(harbor3,harbor9,tr2,21099,63297).
route(harbor3,harbor10,tr13,3211,19266).
route(harbor3,harbor10,tr2,3211,9633).
route(harbor3,harbor11,tr13,5120,30720).
route(harbor3,harbor11,tr2,5120,15360).
route(harbor3,harbor12,tr13,1277,7662).
route(harbor3,harbor12,tr2,1277,3831).
route(harbor3,harbor13,tr13,6119,36714).
route(harbor3,harbor13,tr2,6119,18357).
route(harbor3,harbor14,tr13,20113,120678).
route(harbor3,harbor14,tr2,20113,60339).
route(harbor3,harbor15,tr13,22601,135606).
route(harbor3,harbor15,tr2,22601,67803).
route(harbor3,harbor16,tr13,24866,149196).
route(harbor3,harbor16,tr2,24866,74598).
route(harbor3,prodloc0,tr0,22632,588432).
route(harbor3,prodloc0,tr13,22632,135792).
route(harbor3,prodloc1,tr0,3853,100178).
route(harbor3,prodloc1,tr13,3853,23118).
route(harbor3,prodloc2,tr0,23619,614094).
route(harbor3,prodloc2,tr13,23619,141714).
route(harbor3,prodloc3,tr0,24945,648570).
route(harbor3,prodloc3,tr13,24945,149670).
route(harbor3,prodloc4,tr0,7533,195858).
route(harbor3,prodloc4,tr13,7533,45198).
route(harbor3,prodloc5,tr0,11292,293592).
route(harbor3,prodloc5,tr13,11292,67752).
route(harbor3,prodloc6,tr0,6672,173472).
route(harbor3,prodloc6,tr13,6672,40032).
route(harbor3,prodloc7,tr0,18588,483288).
route(harbor3,prodloc7,tr13,18588,111528).
route(harbor3,prodloc8,tr0,14297,371722).
route(harbor3,prodloc8,tr13,14297,85782).
route(harbor3,prodloc9,tr0,2975,77350).
route(harbor3,prodloc9,tr13,2975,17850).
route(harbor3,prodloc10,tr0,5968,155168).
route(harbor3,prodloc10,tr13,5968,35808).
route(harbor3,prodloc11,tr0,2945,76570).
route(harbor3,prodloc11,tr13,2945,17670).
route(harbor3,prodloc12,tr0,15126,393276).
route(harbor3,prodloc12,tr13,15126,90756).
route(harbor3,prodloc13,tr0,2584,67184).
route(harbor3,prodloc13,tr13,2584,15504).
route(harbor3,prodloc14,tr0,28950,752700).
route(harbor3,prodloc14,tr13,28950,173700).
route(harbor3,prodloc15,tr0,1072,27872).
route(harbor3,prodloc15,tr13,1072,6432).
route(harbor3,prodloc16,tr0,18815,489190).
route(harbor3,prodloc16,tr13,18815,112890).
route(harbor3,prodloc17,tr0,4936,128336).
route(harbor3,prodloc17,tr13,4936,29616).
route(harbor3,prodloc18,tr0,5000,130000).
route(harbor3,prodloc18,tr13,5000,30000).
route(harbor3,prodloc19,tr0,22263,578838).
route(harbor3,prodloc19,tr13,22263,133578).
route(harbor3,prodloc20,tr0,23782,618332).
route(harbor3,prodloc20,tr13,23782,142692).
route(harbor3,prodloc21,tr0,25558,664508).
route(harbor3,prodloc21,tr13,25558,153348).
route(harbor3,prodloc22,tr0,5173,134498).
route(harbor3,prodloc22,tr13,5173,31038).
route(harbor3,prodloc23,tr0,25322,658372).
route(harbor3,prodloc23,tr13,25322,151932).
route(harbor3,prodloc24,tr0,6724,174824).
route(harbor3,prodloc24,tr13,6724,40344).
route(harbor3,prodloc25,tr0,13682,355732).
route(harbor3,prodloc25,tr13,13682,82092).
route(harbor3,prodloc26,tr0,1398,36348).
route(harbor3,prodloc26,tr13,1398,8388).
route(harbor3,prodloc27,tr0,24671,641446).
route(harbor3,prodloc27,tr13,24671,148026).
route(harbor3,prodloc28,tr0,11612,301912).
route(harbor3,prodloc28,tr13,11612,69672).
route(harbor3,prodloc29,tr0,3776,98176).
route(harbor3,prodloc29,tr13,3776,22656).
route(harbor3,prodloc30,tr0,22353,581178).
route(harbor3,prodloc30,tr13,22353,134118).
route(harbor3,prodloc31,tr0,28342,736892).
route(harbor3,prodloc31,tr13,28342,170052).
route(harbor3,prodloc32,tr0,13209,343434).
route(harbor3,prodloc32,tr13,13209,79254).
route(harbor3,prodloc33,tr0,13436,349336).
route(harbor3,prodloc33,tr13,13436,80616).
route(harbor4,harbor0,tr13,8517,51102).
route(harbor4,harbor0,tr2,8517,25551).
route(harbor4,harbor1,tr13,4053,24318).
route(harbor4,harbor1,tr2,4053,12159).
route(harbor4,harbor2,tr13,20048,120288).
route(harbor4,harbor2,tr2,20048,60144).
route(harbor4,harbor3,tr13,12588,75528).
route(harbor4,harbor3,tr2,12588,37764).
route(harbor4,harbor5,tr13,19533,117198).
route(harbor4,harbor5,tr2,19533,58599).
route(harbor4,harbor6,tr13,6371,38226).
route(harbor4,harbor6,tr2,6371,19113).
route(harbor4,harbor7,tr13,11618,69708).
route(harbor4,harbor7,tr2,11618,34854).
route(harbor4,harbor8,tr13,24375,146250).
route(harbor4,harbor8,tr2,24375,73125).
route(harbor4,harbor9,tr13,14484,86904).
route(harbor4,harbor9,tr2,14484,43452).
route(harbor4,harbor10,tr13,12293,73758).
route(harbor4,harbor10,tr2,12293,36879).
route(harbor4,harbor11,tr13,14219,85314).
route(harbor4,harbor11,tr2,14219,42657).
route(harbor4,harbor12,tr13,585,3510).
route(harbor4,harbor12,tr2,585,1755).
route(harbor4,harbor13,tr13,11295,67770).
route(harbor4,harbor13,tr2,11295,33885).
route(harbor4,harbor14,tr13,6339,38034).
route(harbor4,harbor14,tr2,6339,19017).
route(harbor4,harbor15,tr13,27110,162660).
route(harbor4,harbor15,tr2,27110,81330).
route(harbor4,harbor16,tr13,2655,15930).
route(harbor4,harbor16,tr2,2655,7965).
route(harbor4,prodloc0,tr0,6968,181168).
route(harbor4,prodloc0,tr13,6968,41808).
route(harbor4,prodloc1,tr0,12573,326898).
route(harbor4,prodloc1,tr13,12573,75438).
route(harbor4,prodloc2,tr0,13474,350324).
route(harbor4,prodloc2,tr13,13474,80844).
route(harbor4,prodloc3,tr0,25674,667524).
route(harbor4,prodloc3,tr13,25674,154044).
route(harbor4,prodloc4,tr0,1795,46670).
route(harbor4,prodloc4,tr13,1795,10770).
route(harbor4,prodloc5,tr0,19451,505726).
route(harbor4,prodloc5,tr13,19451,116706).
route(harbor4,prodloc6,tr0,6938,180388).
route(harbor4,prodloc6,tr13,6938,41628).
route(harbor4,prodloc7,tr0,13514,351364).
route(harbor4,prodloc7,tr13,13514,81084).
route(harbor4,prodloc8,tr0,25338,658788).
route(harbor4,prodloc8,tr13,25338,152028).
route(harbor4,prodloc9,tr0,23993,623818).
route(harbor4,prodloc9,tr13,23993,143958).
route(harbor4,prodloc10,tr0,21890,569140).
route(harbor4,prodloc10,tr13,21890,131340).
route(harbor4,prodloc11,tr0,18120,471120).
route(harbor4,prodloc11,tr13,18120,108720).
route(harbor4,prodloc12,tr0,11195,291070).
route(harbor4,prodloc12,tr13,11195,67170).
route(harbor4,prodloc13,tr0,1427,37102).
route(harbor4,prodloc13,tr13,1427,8562).
route(harbor4,prodloc14,tr0,16929,440154).
route(harbor4,prodloc14,tr13,16929,101574).
route(harbor4,prodloc15,tr0,13300,345800).
route(harbor4,prodloc15,tr13,13300,79800).
route(harbor4,prodloc16,tr0,11433,297258).
route(harbor4,prodloc16,tr13,11433,68598).
route(harbor4,prodloc17,tr0,698,18148).
route(harbor4,prodloc17,tr13,698,4188).
route(harbor4,prodloc18,tr0,21357,555282).
route(harbor4,prodloc18,tr13,21357,128142).
route(harbor4,prodloc19,tr0,4809,125034).
route(harbor4,prodloc19,tr13,4809,28854).
route(harbor4,prodloc20,tr0,13664,355264).
route(harbor4,prodloc20,tr13,13664,81984).
route(harbor4,prodloc21,tr0,7726,200876).
route(harbor4,prodloc21,tr13,7726,46356).
route(harbor4,prodloc22,tr0,10550,274300).
route(harbor4,prodloc22,tr13,10550,63300).
route(harbor4,prodloc23,tr0,5473,142298).
route(harbor4,prodloc23,tr13,5473,32838).
route(harbor4,prodloc24,tr0,13254,344604).
route(harbor4,prodloc24,tr13,13254,79524).
route(harbor4,prodloc25,tr0,1848,48048).
route(harbor4,prodloc25,tr13,1848,11088).
route(harbor4,prodloc26,tr0,12327,320502).
route(harbor4,prodloc26,tr13,12327,73962).
route(harbor4,prodloc27,tr0,1396,36296).
route(harbor4,prodloc27,tr13,1396,8376).
route(harbor4,prodloc28,tr0,28448,739648).
route(harbor4,prodloc28,tr13,28448,170688).
route(harbor4,prodloc29,tr0,13113,340938).
route(harbor4,prodloc29,tr13,13113,78678).
route(harbor4,prodloc30,tr0,20905,543530).
route(harbor4,prodloc30,tr13,20905,125430).
route(harbor4,prodloc31,tr0,27797,722722).
route(harbor4,prodloc31,tr13,27797,166782).
route(harbor4,prodloc32,tr0,24572,638872).
route(harbor4,prodloc32,tr13,24572,147432).
route(harbor4,prodloc33,tr0,14663,381238).
route(harbor4,prodloc33,tr13,14663,87978).
route(harbor5,harbor0,tr13,21383,128298).
route(harbor5,harbor0,tr2,21383,64149).
route(harbor5,harbor1,tr13,1217,7302).
route(harbor5,harbor1,tr2,1217,3651).
route(harbor5,harbor2,tr13,4718,28308).
route(harbor5,harbor2,tr2,4718,14154).
route(harbor5,harbor3,tr13,30,180).
route(harbor5,harbor3,tr2,30,90).
route(harbor5,harbor4,tr13,5523,33138).
route(harbor5,harbor4,tr2,5523,16569).
route(harbor5,harbor6,tr13,24156,144936).
route(harbor5,harbor6,tr2,24156,72468).
route(harbor5,harbor7,tr13,29000,174000).
route(harbor5,harbor7,tr2,29000,87000).
route(harbor5,harbor8,tr13,6420,38520).
route(harbor5,harbor8,tr2,6420,19260).
route(harbor5,harbor9,tr13,21851,131106).
route(harbor5,harbor9,tr2,21851,65553).
route(harbor5,harbor10,tr13,19113,114678).
route(harbor5,harbor10,tr2,19113,57339).
route(harbor5,harbor11,tr13,9674,58044).
route(harbor5,harbor11,tr2,9674,29022).
route(harbor5,harbor12,tr13,20152,120912).
route(harbor5,harbor12,tr2,20152,60456).
route(harbor5,harbor13,tr13,21922,131532).
route(harbor5,harbor13,tr2,21922,65766).
route(harbor5,harbor14,tr13,19360,116160).
route(harbor5,harbor14,tr2,19360,58080).
route(harbor5,harbor15,tr13,13531,81186).
route(harbor5,harbor15,tr2,13531,40593).
route(harbor5,harbor16,tr13,27629,165774).
route(harbor5,harbor16,tr2,27629,82887).
route(harbor5,prodloc0,tr0,859,22334).
route(harbor5,prodloc0,tr13,859,5154).
route(harbor5,prodloc1,tr0,1685,43810).
route(harbor5,prodloc1,tr13,1685,10110).
route(harbor5,prodloc2,tr0,3844,99944).
route(harbor5,prodloc2,tr13,3844,23064).
route(harbor5,prodloc3,tr0,26962,701012).
route(harbor5,prodloc3,tr13,26962,161772).
route(harbor5,prodloc4,tr0,16992,441792).
route(harbor5,prodloc4,tr13,16992,101952).
route(harbor5,prodloc5,tr0,26731,695006).
route(harbor5,prodloc5,tr13,26731,160386).
route(harbor5,prodloc6,tr0,17605,457730).
route(harbor5,prodloc6,tr13,17605,105630).
route(harbor5,prodloc7,tr0,36,936).
route(harbor5,prodloc7,tr13,36,216).
route(harbor5,prodloc8,tr0,4106,106756).
route(harbor5,prodloc8,tr13,4106,24636).
route(harbor5,prodloc9,tr0,10286,267436).
route(harbor5,prodloc9,tr13,10286,61716).
route(harbor5,prodloc10,tr0,19869,516594).
route(harbor5,prodloc10,tr13,19869,119214).
route(harbor5,prodloc11,tr0,20129,523354).
route(harbor5,prodloc11,tr13,20129,120774).
route(harbor5,prodloc12,tr0,2621,68146).
route(harbor5,prodloc12,tr13,2621,15726).
route(harbor5,prodloc13,tr0,19224,499824).
route(harbor5,prodloc13,tr13,19224,115344).
route(harbor5,prodloc14,tr0,17506,455156).
route(harbor5,prodloc14,tr13,17506,105036).
route(harbor5,prodloc15,tr0,9917,257842).
route(harbor5,prodloc15,tr13,9917,59502).
route(harbor5,prodloc16,tr0,14646,380796).
route(harbor5,prodloc16,tr13,14646,87876).
route(harbor5,prodloc17,tr0,4806,124956).
route(harbor5,prodloc17,tr13,4806,28836).
route(harbor5,prodloc18,tr0,19570,508820).
route(harbor5,prodloc18,tr13,19570,117420).
route(harbor5,prodloc19,tr0,14067,365742).
route(harbor5,prodloc19,tr13,14067,84402).
route(harbor5,prodloc20,tr0,9272,241072).
route(harbor5,prodloc20,tr13,9272,55632).
route(harbor5,prodloc21,tr0,18447,479622).
route(harbor5,prodloc21,tr13,18447,110682).
route(harbor5,prodloc22,tr0,19988,519688).
route(harbor5,prodloc22,tr13,19988,119928).
route(harbor5,prodloc23,tr0,26404,686504).
route(harbor5,prodloc23,tr13,26404,158424).
route(harbor5,prodloc24,tr0,13388,348088).
route(harbor5,prodloc24,tr13,13388,80328).
route(harbor5,prodloc25,tr0,17521,455546).
route(harbor5,prodloc25,tr13,17521,105126).
route(harbor5,prodloc26,tr0,2699,70174).
route(harbor5,prodloc26,tr13,2699,16194).
route(harbor5,prodloc27,tr0,22598,587548).
route(harbor5,prodloc27,tr13,22598,135588).
route(harbor5,prodloc28,tr0,25367,659542).
route(harbor5,prodloc28,tr13,25367,152202).
route(harbor5,prodloc29,tr0,4861,126386).
route(harbor5,prodloc29,tr13,4861,29166).
route(harbor5,prodloc30,tr0,20216,525616).
route(harbor5,prodloc30,tr13,20216,121296).
route(harbor5,prodloc31,tr0,1397,36322).
route(harbor5,prodloc31,tr13,1397,8382).
route(harbor5,prodloc32,tr0,9758,253708).
route(harbor5,prodloc32,tr13,9758,58548).
route(harbor5,prodloc33,tr0,8605,223730).
route(harbor5,prodloc33,tr13,8605,51630).
route(harbor6,harbor0,tr13,9962,59772).
route(harbor6,harbor0,tr2,9962,29886).
route(harbor6,harbor1,tr13,21419,128514).
route(harbor6,harbor1,tr2,21419,64257).
route(harbor6,harbor2,tr13,22885,137310).
route(harbor6,harbor2,tr2,22885,68655).
route(harbor6,harbor3,tr13,14586,87516).
route(harbor6,harbor3,tr2,14586,43758).
route(harbor6,harbor4,tr13,23781,142686).
route(harbor6,harbor4,tr2,23781,71343).
route(harbor6,harbor5,tr13,10380,62280).
route(harbor6,harbor5,tr2,10380,31140).
route(harbor6,harbor7,tr13,2473,14838).
route(harbor6,harbor7,tr2,2473,7419).
route(harbor6,harbor8,tr13,26700,160200).
route(harbor6,harbor8,tr2,26700,80100).
route(harbor6,harbor9,tr13,26853,161118).
route(harbor6,harbor9,tr2,26853,80559).
route(harbor6,harbor10,tr13,29308,175848).
route(harbor6,harbor10,tr2,29308,87924).
route(harbor6,harbor11,tr13,20623,123738).
route(harbor6,harbor11,tr2,20623,61869).
route(harbor6,harbor12,tr13,8574,51444).
route(harbor6,harbor12,tr2,8574,25722).
route(harbor6,harbor13,tr13,12394,74364).
route(harbor6,harbor13,tr2,12394,37182).
route(harbor6,harbor14,tr13,10088,60528).
route(harbor6,harbor14,tr2,10088,30264).
route(harbor6,harbor15,tr13,28459,170754).
route(harbor6,harbor15,tr2,28459,85377).
route(harbor6,harbor16,tr13,21334,128004).
route(harbor6,harbor16,tr2,21334,64002).
route(harbor6,prodloc0,tr0,18502,481052).
route(harbor6,prodloc0,tr13,18502,111012).
route(harbor6,prodloc1,tr0,25761,669786).
route(harbor6,prodloc1,tr13,25761,154566).
route(harbor6,prodloc2,tr0,15645,406770).
route(harbor6,prodloc2,tr13,15645,93870).
route(harbor6,prodloc3,tr0,716,18616).
route(harbor6,prodloc3,tr13,716,4296).
route(harbor6,prodloc4,tr0,4071,105846).
route(harbor6,prodloc4,tr13,4071,24426).
route(harbor6,prodloc5,tr0,3768,97968).
route(harbor6,prodloc5,tr13,3768,22608).
route(harbor6,prodloc6,tr0,10966,285116).
route(harbor6,prodloc6,tr13,10966,65796).
route(harbor6,prodloc7,tr0,13169,342394).
route(harbor6,prodloc7,tr13,13169,79014).
route(harbor6,prodloc8,tr0,8947,232622).
route(harbor6,prodloc8,tr13,8947,53682).
route(harbor6,prodloc9,tr0,28361,737386).
route(harbor6,prodloc9,tr13,28361,170166).
route(harbor6,prodloc10,tr0,14738,383188).
route(harbor6,prodloc10,tr13,14738,88428).
route(harbor6,prodloc11,tr0,9493,246818).
route(harbor6,prodloc11,tr13,9493,56958).
route(harbor6,prodloc12,tr0,27369,711594).
route(harbor6,prodloc12,tr13,27369,164214).
route(harbor6,prodloc13,tr0,25676,667576).
route(harbor6,prodloc13,tr13,25676,154056).
route(harbor6,prodloc14,tr0,7156,186056).
route(harbor6,prodloc14,tr13,7156,42936).
route(harbor6,prodloc15,tr0,8918,231868).
route(harbor6,prodloc15,tr13,8918,53508).
route(harbor6,prodloc16,tr0,467,12142).
route(harbor6,prodloc16,tr13,467,2802).
route(harbor6,prodloc17,tr0,15549,404274).
route(harbor6,prodloc17,tr13,15549,93294).
route(harbor6,prodloc18,tr0,22936,596336).
route(harbor6,prodloc18,tr13,22936,137616).
route(harbor6,prodloc19,tr0,136,3536).
route(harbor6,prodloc19,tr13,136,816).
route(harbor6,prodloc20,tr0,23576,612976).
route(harbor6,prodloc20,tr13,23576,141456).
route(harbor6,prodloc21,tr0,6484,168584).
route(harbor6,prodloc21,tr13,6484,38904).
route(harbor6,prodloc22,tr0,28604,743704).
route(harbor6,prodloc22,tr13,28604,171624).
route(harbor6,prodloc23,tr0,2702,70252).
route(harbor6,prodloc23,tr13,2702,16212).
route(harbor6,prodloc24,tr0,26177,680602).
route(harbor6,prodloc24,tr13,26177,157062).
route(harbor6,prodloc25,tr0,13724,356824).
route(harbor6,prodloc25,tr13,13724,82344).
route(harbor6,prodloc26,tr0,5101,132626).
route(harbor6,prodloc26,tr13,5101,30606).
route(harbor6,prodloc27,tr0,19429,505154).
route(harbor6,prodloc27,tr13,19429,116574).
route(harbor6,prodloc28,tr0,7337,190762).
route(harbor6,prodloc28,tr13,7337,44022).
route(harbor6,prodloc29,tr0,11010,286260).
route(harbor6,prodloc29,tr13,11010,66060).
route(harbor6,prodloc30,tr0,13397,348322).
route(harbor6,prodloc30,tr13,13397,80382).
route(harbor6,prodloc31,tr0,18733,487058).
route(harbor6,prodloc31,tr13,18733,112398).
route(harbor6,prodloc32,tr0,25210,655460).
route(harbor6,prodloc32,tr13,25210,151260).
route(harbor6,prodloc33,tr0,3545,92170).
route(harbor6,prodloc33,tr13,3545,21270).
route(harbor7,harbor0,tr13,24379,146274).
route(harbor7,harbor0,tr2,24379,73137).
route(harbor7,harbor1,tr13,27282,163692).
route(harbor7,harbor1,tr2,27282,81846).
route(harbor7,harbor2,tr13,8787,52722).
route(harbor7,harbor2,tr2,8787,26361).
route(harbor7,harbor3,tr13,29144,174864).
route(harbor7,harbor3,tr2,29144,87432).
route(harbor7,harbor4,tr13,27321,163926).
route(harbor7,harbor4,tr2,27321,81963).
route(harbor7,harbor5,tr13,26123,156738).
route(harbor7,harbor5,tr2,26123,78369).
route(harbor7,harbor6,tr13,25080,150480).
route(harbor7,harbor6,tr2,25080,75240).
route(harbor7,harbor8,tr13,387,2322).
route(harbor7,harbor8,tr2,387,1161).
route(harbor7,harbor9,tr13,10428,62568).
route(harbor7,harbor9,tr2,10428,31284).
route(harbor7,harbor10,tr13,5593,33558).
route(harbor7,harbor10,tr2,5593,16779).
route(harbor7,harbor11,tr13,12272,73632).
route(harbor7,harbor11,tr2,12272,36816).
route(harbor7,harbor12,tr13,13726,82356).
route(harbor7,harbor12,tr2,13726,41178).
route(harbor7,harbor13,tr13,19270,115620).
route(harbor7,harbor13,tr2,19270,57810).
route(harbor7,harbor14,tr13,9557,57342).
route(harbor7,harbor14,tr2,9557,28671).
route(harbor7,harbor15,tr13,11972,71832).
route(harbor7,harbor15,tr2,11972,35916).
route(harbor7,harbor16,tr13,24690,148140).
route(harbor7,harbor16,tr2,24690,74070).
route(harbor7,prodloc0,tr0,7039,183014).
route(harbor7,prodloc0,tr13,7039,42234).
route(harbor7,prodloc1,tr0,5156,134056).
route(harbor7,prodloc1,tr13,5156,30936).
route(harbor7,prodloc2,tr0,21468,558168).
route(harbor7,prodloc2,tr13,21468,128808).
route(harbor7,prodloc3,tr0,6642,172692).
route(harbor7,prodloc3,tr13,6642,39852).
route(harbor7,prodloc4,tr0,26388,686088).
route(harbor7,prodloc4,tr13,26388,158328).
route(harbor7,prodloc5,tr0,23953,622778).
route(harbor7,prodloc5,tr13,23953,143718).
route(harbor7,prodloc6,tr0,17157,446082).
route(harbor7,prodloc6,tr13,17157,102942).
route(harbor7,prodloc7,tr0,1295,33670).
route(harbor7,prodloc7,tr13,1295,7770).
route(harbor7,prodloc8,tr0,17463,454038).
route(harbor7,prodloc8,tr13,17463,104778).
route(harbor7,prodloc9,tr0,2743,71318).
route(harbor7,prodloc9,tr13,2743,16458).
route(harbor7,prodloc10,tr0,9123,237198).
route(harbor7,prodloc10,tr13,9123,54738).
route(harbor7,prodloc11,tr0,17,442).
route(harbor7,prodloc11,tr13,17,102).
route(harbor7,prodloc12,tr0,23167,602342).
route(harbor7,prodloc12,tr13,23167,139002).
route(harbor7,prodloc13,tr0,644,16744).
route(harbor7,prodloc13,tr13,644,3864).
route(harbor7,prodloc14,tr0,18052,469352).
route(harbor7,prodloc14,tr13,18052,108312).
route(harbor7,prodloc15,tr0,3229,83954).
route(harbor7,prodloc15,tr13,3229,19374).
route(harbor7,prodloc16,tr0,27664,719264).
route(harbor7,prodloc16,tr13,27664,165984).
route(harbor7,prodloc17,tr0,24245,630370).
route(harbor7,prodloc17,tr13,24245,145470).
route(harbor7,prodloc18,tr0,27582,717132).
route(harbor7,prodloc18,tr13,27582,165492).
route(harbor7,prodloc19,tr0,8814,229164).
route(harbor7,prodloc19,tr13,8814,52884).
route(harbor7,prodloc20,tr0,6394,166244).
route(harbor7,prodloc20,tr13,6394,38364).
route(harbor7,prodloc21,tr0,3499,90974).
route(harbor7,prodloc21,tr13,3499,20994).
route(harbor7,prodloc22,tr0,3911,101686).
route(harbor7,prodloc22,tr13,3911,23466).
route(harbor7,prodloc23,tr0,16311,424086).
route(harbor7,prodloc23,tr13,16311,97866).
route(harbor7,prodloc24,tr0,16185,420810).
route(harbor7,prodloc24,tr13,16185,97110).
route(harbor7,prodloc25,tr0,11716,304616).
route(harbor7,prodloc25,tr13,11716,70296).
route(harbor7,prodloc26,tr0,732,19032).
route(harbor7,prodloc26,tr13,732,4392).
route(harbor7,prodloc27,tr0,119,3094).
route(harbor7,prodloc27,tr13,119,714).
route(harbor7,prodloc28,tr0,2158,56108).
route(harbor7,prodloc28,tr13,2158,12948).
route(harbor7,prodloc29,tr0,23175,602550).
route(harbor7,prodloc29,tr13,23175,139050).
route(harbor7,prodloc30,tr0,8321,216346).
route(harbor7,prodloc30,tr13,8321,49926).
route(harbor7,prodloc31,tr0,22529,585754).
route(harbor7,prodloc31,tr13,22529,135174).
route(harbor7,prodloc32,tr0,13752,357552).
route(harbor7,prodloc32,tr13,13752,82512).
route(harbor7,prodloc33,tr0,28537,741962).
route(harbor7,prodloc33,tr13,28537,171222).
route(harbor8,harbor0,tr13,3898,23388).
route(harbor8,harbor0,tr2,3898,11694).
route(harbor8,harbor1,tr13,10787,64722).
route(harbor8,harbor1,tr2,10787,32361).
route(harbor8,harbor2,tr13,13775,82650).
route(harbor8,harbor2,tr2,13775,41325).
route(harbor8,harbor3,tr13,19571,117426).
route(harbor8,harbor3,tr2,19571,58713).
route(harbor8,harbor4,tr13,15884,95304).
route(harbor8,harbor4,tr2,15884,47652).
route(harbor8,harbor5,tr13,12320,73920).
route(harbor8,harbor5,tr2,12320,36960).
route(harbor8,harbor6,tr13,7809,46854).
route(harbor8,harbor6,tr2,7809,23427).
route(harbor8,harbor7,tr13,19984,119904).
route(harbor8,harbor7,tr2,19984,59952).
route(harbor8,harbor9,tr13,6630,39780).
route(harbor8,harbor9,tr2,6630,19890).
route(harbor8,harbor10,tr13,10015,60090).
route(harbor8,harbor10,tr2,10015,30045).
route(harbor8,harbor11,tr13,5258,31548).
route(harbor8,harbor11,tr2,5258,15774).
route(harbor8,harbor12,tr13,7327,43962).
route(harbor8,harbor12,tr2,7327,21981).
route(harbor8,harbor13,tr13,21741,130446).
route(harbor8,harbor13,tr2,21741,65223).
route(harbor8,harbor14,tr13,6007,36042).
route(harbor8,harbor14,tr2,6007,18021).
route(harbor8,harbor15,tr13,5703,34218).
route(harbor8,harbor15,tr2,5703,17109).
route(harbor8,harbor16,tr13,12716,76296).
route(harbor8,harbor16,tr2,12716,38148).
route(harbor8,prodloc0,tr0,24208,629408).
route(harbor8,prodloc0,tr13,24208,145248).
route(harbor8,prodloc1,tr0,11571,300846).
route(harbor8,prodloc1,tr13,11571,69426).
route(harbor8,prodloc2,tr0,2399,62374).
route(harbor8,prodloc2,tr13,2399,14394).
route(harbor8,prodloc3,tr0,4858,126308).
route(harbor8,prodloc3,tr13,4858,29148).
route(harbor8,prodloc4,tr0,907,23582).
route(harbor8,prodloc4,tr13,907,5442).
route(harbor8,prodloc5,tr0,21134,549484).
route(harbor8,prodloc5,tr13,21134,126804).
route(harbor8,prodloc6,tr0,6686,173836).
route(harbor8,prodloc6,tr13,6686,40116).
route(harbor8,prodloc7,tr0,25030,650780).
route(harbor8,prodloc7,tr13,25030,150180).
route(harbor8,prodloc8,tr0,4725,122850).
route(harbor8,prodloc8,tr13,4725,28350).
route(harbor8,prodloc9,tr0,24857,646282).
route(harbor8,prodloc9,tr13,24857,149142).
route(harbor8,prodloc10,tr0,26325,684450).
route(harbor8,prodloc10,tr13,26325,157950).
route(harbor8,prodloc11,tr0,20753,539578).
route(harbor8,prodloc11,tr13,20753,124518).
route(harbor8,prodloc12,tr0,13525,351650).
route(harbor8,prodloc12,tr13,13525,81150).
route(harbor8,prodloc13,tr0,2978,77428).
route(harbor8,prodloc13,tr13,2978,17868).
route(harbor8,prodloc14,tr0,22938,596388).
route(harbor8,prodloc14,tr13,22938,137628).
route(harbor8,prodloc15,tr0,8654,225004).
route(harbor8,prodloc15,tr13,8654,51924).
route(harbor8,prodloc16,tr0,27002,702052).
route(harbor8,prodloc16,tr13,27002,162012).
route(harbor8,prodloc17,tr0,9476,246376).
route(harbor8,prodloc17,tr13,9476,56856).
route(harbor8,prodloc18,tr0,14023,364598).
route(harbor8,prodloc18,tr13,14023,84138).
route(harbor8,prodloc19,tr0,11040,287040).
route(harbor8,prodloc19,tr13,11040,66240).
route(harbor8,prodloc20,tr0,22796,592696).
route(harbor8,prodloc20,tr13,22796,136776).
route(harbor8,prodloc21,tr0,25627,666302).
route(harbor8,prodloc21,tr13,25627,153762).
route(harbor8,prodloc22,tr0,10658,277108).
route(harbor8,prodloc22,tr13,10658,63948).
route(harbor8,prodloc23,tr0,25824,671424).
route(harbor8,prodloc23,tr13,25824,154944).
route(harbor8,prodloc24,tr0,12977,337402).
route(harbor8,prodloc24,tr13,12977,77862).
route(harbor8,prodloc25,tr0,6422,166972).
route(harbor8,prodloc25,tr13,6422,38532).
route(harbor8,prodloc26,tr0,10983,285558).
route(harbor8,prodloc26,tr13,10983,65898).
route(harbor8,prodloc27,tr0,8189,212914).
route(harbor8,prodloc27,tr13,8189,49134).
route(harbor8,prodloc28,tr0,15065,391690).
route(harbor8,prodloc28,tr13,15065,90390).
route(harbor8,prodloc29,tr0,809,21034).
route(harbor8,prodloc29,tr13,809,4854).
route(harbor8,prodloc30,tr0,17635,458510).
route(harbor8,prodloc30,tr13,17635,105810).
route(harbor8,prodloc31,tr0,626,16276).
route(harbor8,prodloc31,tr13,626,3756).
route(harbor8,prodloc32,tr0,11473,298298).
route(harbor8,prodloc32,tr13,11473,68838).
route(harbor8,prodloc33,tr0,706,18356).
route(harbor8,prodloc33,tr13,706,4236).
route(harbor9,harbor0,tr13,14407,86442).
route(harbor9,harbor0,tr2,14407,43221).
route(harbor9,harbor1,tr13,17700,106200).
route(harbor9,harbor1,tr2,17700,53100).
route(harbor9,harbor2,tr13,13360,80160).
route(harbor9,harbor2,tr2,13360,40080).
route(harbor9,harbor3,tr13,16746,100476).
route(harbor9,harbor3,tr2,16746,50238).
route(harbor9,harbor4,tr13,13465,80790).
route(harbor9,harbor4,tr2,13465,40395).
route(harbor9,harbor5,tr13,19348,116088).
route(harbor9,harbor5,tr2,19348,58044).
route(harbor9,harbor6,tr13,2944,17664).
route(harbor9,harbor6,tr2,2944,8832).
route(harbor9,harbor7,tr13,17352,104112).
route(harbor9,harbor7,tr2,17352,52056).
route(harbor9,harbor8,tr13,4669,28014).
route(harbor9,harbor8,tr2,4669,14007).
route(harbor9,harbor10,tr13,22894,137364).
route(harbor9,harbor10,tr2,22894,68682).
route(harbor9,harbor11,tr13,7879,47274).
route(harbor9,harbor11,tr2,7879,23637).
route(harbor9,harbor12,tr13,17469,104814).
route(harbor9,harbor12,tr2,17469,52407).
route(harbor9,harbor13,tr13,8092,48552).
route(harbor9,harbor13,tr2,8092,24276).
route(harbor9,harbor14,tr13,660,3960).
route(harbor9,harbor14,tr2,660,1980).
route(harbor9,harbor15,tr13,5695,34170).
route(harbor9,harbor15,tr2,5695,17085).
route(harbor9,harbor16,tr13,1446,8676).
route(harbor9,harbor16,tr2,1446,4338).
route(harbor9,prodloc0,tr0,5574,144924).
route(harbor9,prodloc0,tr13,5574,33444).
route(harbor9,prodloc1,tr0,8622,224172).
route(harbor9,prodloc1,tr13,8622,51732).
route(harbor9,prodloc2,tr0,7185,186810).
route(harbor9,prodloc2,tr13,7185,43110).
route(harbor9,prodloc3,tr0,11833,307658).
route(harbor9,prodloc3,tr13,11833,70998).
route(harbor9,prodloc4,tr0,15910,413660).
route(harbor9,prodloc4,tr13,15910,95460).
route(harbor9,prodloc5,tr0,1162,30212).
route(harbor9,prodloc5,tr13,1162,6972).
route(harbor9,prodloc6,tr0,16290,423540).
route(harbor9,prodloc6,tr13,16290,97740).
route(harbor9,prodloc7,tr0,4287,111462).
route(harbor9,prodloc7,tr13,4287,25722).
route(harbor9,prodloc8,tr0,27418,712868).
route(harbor9,prodloc8,tr13,27418,164508).
route(harbor9,prodloc9,tr0,27387,712062).
route(harbor9,prodloc9,tr13,27387,164322).
route(harbor9,prodloc10,tr0,8019,208494).
route(harbor9,prodloc10,tr13,8019,48114).
route(harbor9,prodloc11,tr0,10315,268190).
route(harbor9,prodloc11,tr13,10315,61890).
route(harbor9,prodloc12,tr0,15366,399516).
route(harbor9,prodloc12,tr13,15366,92196).
route(harbor9,prodloc13,tr0,13794,358644).
route(harbor9,prodloc13,tr13,13794,82764).
route(harbor9,prodloc14,tr0,20722,538772).
route(harbor9,prodloc14,tr13,20722,124332).
route(harbor9,prodloc15,tr0,12224,317824).
route(harbor9,prodloc15,tr13,12224,73344).
route(harbor9,prodloc16,tr0,23580,613080).
route(harbor9,prodloc16,tr13,23580,141480).
route(harbor9,prodloc17,tr0,10951,284726).
route(harbor9,prodloc17,tr13,10951,65706).
route(harbor9,prodloc18,tr0,7991,207766).
route(harbor9,prodloc18,tr13,7991,47946).
route(harbor9,prodloc19,tr0,9546,248196).
route(harbor9,prodloc19,tr13,9546,57276).
route(harbor9,prodloc20,tr0,13567,352742).
route(harbor9,prodloc20,tr13,13567,81402).
route(harbor9,prodloc21,tr0,21067,547742).
route(harbor9,prodloc21,tr13,21067,126402).
route(harbor9,prodloc22,tr0,325,8450).
route(harbor9,prodloc22,tr13,325,1950).
route(harbor9,prodloc23,tr0,13327,346502).
route(harbor9,prodloc23,tr13,13327,79962).
route(harbor9,prodloc24,tr0,28707,746382).
route(harbor9,prodloc24,tr13,28707,172242).
route(harbor9,prodloc25,tr0,98,2548).
route(harbor9,prodloc25,tr13,98,588).
route(harbor9,prodloc26,tr0,26842,697892).
route(harbor9,prodloc26,tr13,26842,161052).
route(harbor9,prodloc27,tr0,6711,174486).
route(harbor9,prodloc27,tr13,6711,40266).
route(harbor9,prodloc28,tr0,20550,534300).
route(harbor9,prodloc28,tr13,20550,123300).
route(harbor9,prodloc29,tr0,21086,548236).
route(harbor9,prodloc29,tr13,21086,126516).
route(harbor9,prodloc30,tr0,14148,367848).
route(harbor9,prodloc30,tr13,14148,84888).
route(harbor9,prodloc31,tr0,20877,542802).
route(harbor9,prodloc31,tr13,20877,125262).
route(harbor9,prodloc32,tr0,4966,129116).
route(harbor9,prodloc32,tr13,4966,29796).
route(harbor9,prodloc33,tr0,249,6474).
route(harbor9,prodloc33,tr13,249,1494).
route(harbor10,harbor0,tr13,7011,42066).
route(harbor10,harbor0,tr2,7011,21033).
route(harbor10,harbor1,tr13,28912,173472).
route(harbor10,harbor1,tr2,28912,86736).
route(harbor10,harbor2,tr13,28604,171624).
route(harbor10,harbor2,tr2,28604,85812).
route(harbor10,harbor3,tr13,19947,119682).
route(harbor10,harbor3,tr2,19947,59841).
route(harbor10,harbor4,tr13,19591,117546).
route(harbor10,harbor4,tr2,19591,58773).
route(harbor10,harbor5,tr13,21696,130176).
route(harbor10,harbor5,tr2,21696,65088).
route(harbor10,harbor6,tr13,4494,26964).
route(harbor10,harbor6,tr2,4494,13482).
route(harbor10,harbor7,tr13,953,5718).
route(harbor10,harbor7,tr2,953,2859).
route(harbor10,harbor8,tr13,19271,115626).
route(harbor10,harbor8,tr2,19271,57813).
route(harbor10,harbor9,tr13,3187,19122).
route(harbor10,harbor9,tr2,3187,9561).
route(harbor10,harbor11,tr13,29310,175860).
route(harbor10,harbor11,tr2,29310,87930).
route(harbor10,harbor12,tr13,16678,100068).
route(harbor10,harbor12,tr2,16678,50034).
route(harbor10,harbor13,tr13,6627,39762).
route(harbor10,harbor13,tr2,6627,19881).
route(harbor10,harbor14,tr13,20186,121116).
route(harbor10,harbor14,tr2,20186,60558).
route(harbor10,harbor15,tr13,7727,46362).
route(harbor10,harbor15,tr2,7727,23181).
route(harbor10,harbor16,tr13,13092,78552).
route(harbor10,harbor16,tr2,13092,39276).
route(harbor10,prodloc0,tr0,8973,233298).
route(harbor10,prodloc0,tr13,8973,53838).
route(harbor10,prodloc1,tr0,508,13208).
route(harbor10,prodloc1,tr13,508,3048).
route(harbor10,prodloc2,tr0,15084,392184).
route(harbor10,prodloc2,tr13,15084,90504).
route(harbor10,prodloc3,tr0,1911,49686).
route(harbor10,prodloc3,tr13,1911,11466).
route(harbor10,prodloc4,tr0,10529,273754).
route(harbor10,prodloc4,tr13,10529,63174).
route(harbor10,prodloc5,tr0,24097,626522).
route(harbor10,prodloc5,tr13,24097,144582).
route(harbor10,prodloc6,tr0,10143,263718).
route(harbor10,prodloc6,tr13,10143,60858).
route(harbor10,prodloc7,tr0,10247,266422).
route(harbor10,prodloc7,tr13,10247,61482).
route(harbor10,prodloc8,tr0,22737,591162).
route(harbor10,prodloc8,tr13,22737,136422).
route(harbor10,prodloc9,tr0,10941,284466).
route(harbor10,prodloc9,tr13,10941,65646).
route(harbor10,prodloc10,tr0,25583,665158).
route(harbor10,prodloc10,tr13,25583,153498).
route(harbor10,prodloc11,tr0,8091,210366).
route(harbor10,prodloc11,tr13,8091,48546).
route(harbor10,prodloc12,tr0,7787,202462).
route(harbor10,prodloc12,tr13,7787,46722).
route(harbor10,prodloc13,tr0,1330,34580).
route(harbor10,prodloc13,tr13,1330,7980).
route(harbor10,prodloc14,tr0,17168,446368).
route(harbor10,prodloc14,tr13,17168,103008).
route(harbor10,prodloc15,tr0,9220,239720).
route(harbor10,prodloc15,tr13,9220,55320).
route(harbor10,prodloc16,tr0,4803,124878).
route(harbor10,prodloc16,tr13,4803,28818).
route(harbor10,prodloc17,tr0,23222,603772).
route(harbor10,prodloc17,tr13,23222,139332).
route(harbor10,prodloc18,tr0,8427,219102).
route(harbor10,prodloc18,tr13,8427,50562).
route(harbor10,prodloc19,tr0,10613,275938).
route(harbor10,prodloc19,tr13,10613,63678).
route(harbor10,prodloc20,tr0,27129,705354).
route(harbor10,prodloc20,tr13,27129,162774).
route(harbor10,prodloc21,tr0,11496,298896).
route(harbor10,prodloc21,tr13,11496,68976).
route(harbor10,prodloc22,tr0,3949,102674).
route(harbor10,prodloc22,tr13,3949,23694).
route(harbor10,prodloc23,tr0,8066,209716).
route(harbor10,prodloc23,tr13,8066,48396).
route(harbor10,prodloc24,tr0,2640,68640).
route(harbor10,prodloc24,tr13,2640,15840).
route(harbor10,prodloc25,tr0,16310,424060).
route(harbor10,prodloc25,tr13,16310,97860).
route(harbor10,prodloc26,tr0,1694,44044).
route(harbor10,prodloc26,tr13,1694,10164).
route(harbor10,prodloc27,tr0,9825,255450).
route(harbor10,prodloc27,tr13,9825,58950).
route(harbor10,prodloc28,tr0,20711,538486).
route(harbor10,prodloc28,tr13,20711,124266).
route(harbor10,prodloc29,tr0,8034,208884).
route(harbor10,prodloc29,tr13,8034,48204).
route(harbor10,prodloc30,tr0,28313,736138).
route(harbor10,prodloc30,tr13,28313,169878).
route(harbor10,prodloc31,tr0,8809,229034).
route(harbor10,prodloc31,tr13,8809,52854).
route(harbor10,prodloc32,tr0,13030,338780).
route(harbor10,prodloc32,tr13,13030,78180).
route(harbor10,prodloc33,tr0,17070,443820).
route(harbor10,prodloc33,tr13,17070,102420).
route(harbor11,harbor0,tr13,5130,30780).
route(harbor11,harbor0,tr2,5130,15390).
route(harbor11,harbor1,tr13,24012,144072).
route(harbor11,harbor1,tr2,24012,72036).
route(harbor11,harbor2,tr13,9413,56478).
route(harbor11,harbor2,tr2,9413,28239).
route(harbor11,harbor3,tr13,16725,100350).
route(harbor11,harbor3,tr2,16725,50175).
route(harbor11,harbor4,tr13,1987,11922).
route(harbor11,harbor4,tr2,1987,5961).
route(harbor11,harbor5,tr13,27042,162252).
route(harbor11,harbor5,tr2,27042,81126).
route(harbor11,harbor6,tr13,11425,68550).
route(harbor11,harbor6,tr2,11425,34275).
route(harbor11,harbor7,tr13,12568,75408).
route(harbor11,harbor7,tr2,12568,37704).
route(harbor11,harbor8,tr13,532,3192).
route(harbor11,harbor8,tr2,532,1596).
route(harbor11,harbor9,tr13,7192,43152).
route(harbor11,harbor9,tr2,7192,21576).
route(harbor11,harbor10,tr13,11593,69558).
route(harbor11,harbor10,tr2,11593,34779).
route(harbor11,harbor12,tr13,2628,15768).
route(harbor11,harbor12,tr2,2628,7884).
route(harbor11,harbor13,tr13,21853,131118).
route(harbor11,harbor13,tr2,21853,65559).
route(harbor11,harbor14,tr13,10565,63390).
route(harbor11,harbor14,tr2,10565,31695).
route(harbor11,harbor15,tr13,11100,66600).
route(harbor11,harbor15,tr2,11100,33300).
route(harbor11,harbor16,tr13,12044,72264).
route(harbor11,harbor16,tr2,12044,36132).
route(harbor11,prodloc0,tr0,14060,365560).
route(harbor11,prodloc0,tr13,14060,84360).
route(harbor11,prodloc1,tr0,16773,436098).
route(harbor11,prodloc1,tr13,16773,100638).
route(harbor11,prodloc2,tr0,10027,260702).
route(harbor11,prodloc2,tr13,10027,60162).
route(harbor11,prodloc3,tr0,8066,209716).
route(harbor11,prodloc3,tr13,8066,48396).
route(harbor11,prodloc4,tr0,19753,513578).
route(harbor11,prodloc4,tr13,19753,118518).
route(harbor11,prodloc5,tr0,26537,689962).
route(harbor11,prodloc5,tr13,26537,159222).
route(harbor11,prodloc6,tr0,3686,95836).
route(harbor11,prodloc6,tr13,3686,22116).
route(harbor11,prodloc7,tr0,6272,163072).
route(harbor11,prodloc7,tr13,6272,37632).
route(harbor11,prodloc8,tr0,20105,522730).
route(harbor11,prodloc8,tr13,20105,120630).
route(harbor11,prodloc9,tr0,23670,615420).
route(harbor11,prodloc9,tr13,23670,142020).
route(harbor11,prodloc10,tr0,19886,517036).
route(harbor11,prodloc10,tr13,19886,119316).
route(harbor11,prodloc11,tr0,21102,548652).
route(harbor11,prodloc11,tr13,21102,126612).
route(harbor11,prodloc12,tr0,28813,749138).
route(harbor11,prodloc12,tr13,28813,172878).
route(harbor11,prodloc13,tr0,3030,78780).
route(harbor11,prodloc13,tr13,3030,18180).
route(harbor11,prodloc14,tr0,19363,503438).
route(harbor11,prodloc14,tr13,19363,116178).
route(harbor11,prodloc15,tr0,4330,112580).
route(harbor11,prodloc15,tr13,4330,25980).
route(harbor11,prodloc16,tr0,28554,742404).
route(harbor11,prodloc16,tr13,28554,171324).
route(harbor11,prodloc17,tr0,14039,365014).
route(harbor11,prodloc17,tr13,14039,84234).
route(harbor11,prodloc18,tr0,18113,470938).
route(harbor11,prodloc18,tr13,18113,108678).
route(harbor11,prodloc19,tr0,6088,158288).
route(harbor11,prodloc19,tr13,6088,36528).
route(harbor11,prodloc20,tr0,24172,628472).
route(harbor11,prodloc20,tr13,24172,145032).
route(harbor11,prodloc21,tr0,18329,476554).
route(harbor11,prodloc21,tr13,18329,109974).
route(harbor11,prodloc22,tr0,20481,532506).
route(harbor11,prodloc22,tr13,20481,122886).
route(harbor11,prodloc23,tr0,4162,108212).
route(harbor11,prodloc23,tr13,4162,24972).
route(harbor11,prodloc24,tr0,6550,170300).
route(harbor11,prodloc24,tr13,6550,39300).
route(harbor11,prodloc25,tr0,19880,516880).
route(harbor11,prodloc25,tr13,19880,119280).
route(harbor11,prodloc26,tr0,5235,136110).
route(harbor11,prodloc26,tr13,5235,31410).
route(harbor11,prodloc27,tr0,26308,684008).
route(harbor11,prodloc27,tr13,26308,157848).
route(harbor11,prodloc28,tr0,7144,185744).
route(harbor11,prodloc28,tr13,7144,42864).
route(harbor11,prodloc29,tr0,22947,596622).
route(harbor11,prodloc29,tr13,22947,137682).
route(harbor11,prodloc30,tr0,24020,624520).
route(harbor11,prodloc30,tr13,24020,144120).
route(harbor11,prodloc31,tr0,25420,660920).
route(harbor11,prodloc31,tr13,25420,152520).
route(harbor11,prodloc32,tr0,19566,508716).
route(harbor11,prodloc32,tr13,19566,117396).
route(harbor11,prodloc33,tr0,15126,393276).
route(harbor11,prodloc33,tr13,15126,90756).
route(harbor12,harbor0,tr13,17410,104460).
route(harbor12,harbor0,tr2,17410,52230).
route(harbor12,harbor1,tr13,8165,48990).
route(harbor12,harbor1,tr2,8165,24495).
route(harbor12,harbor2,tr13,6719,40314).
route(harbor12,harbor2,tr2,6719,20157).
route(harbor12,harbor3,tr13,4671,28026).
route(harbor12,harbor3,tr2,4671,14013).
route(harbor12,harbor4,tr13,13931,83586).
route(harbor12,harbor4,tr2,13931,41793).
route(harbor12,harbor5,tr13,20384,122304).
route(harbor12,harbor5,tr2,20384,61152).
route(harbor12,harbor6,tr13,9484,56904).
route(harbor12,harbor6,tr2,9484,28452).
route(harbor12,harbor7,tr13,1132,6792).
route(harbor12,harbor7,tr2,1132,3396).
route(harbor12,harbor8,tr13,3190,19140).
route(harbor12,harbor8,tr2,3190,9570).
route(harbor12,harbor9,tr13,7458,44748).
route(harbor12,harbor9,tr2,7458,22374).
route(harbor12,harbor10,tr13,25732,154392).
route(harbor12,harbor10,tr2,25732,77196).
route(harbor12,harbor11,tr13,26227,157362).
route(harbor12,harbor11,tr2,26227,78681).
route(harbor12,harbor13,tr13,22818,136908).
route(harbor12,harbor13,tr2,22818,68454).
route(harbor12,harbor14,tr13,26011,156066).
route(harbor12,harbor14,tr2,26011,78033).
route(harbor12,harbor15,tr13,21280,127680).
route(harbor12,harbor15,tr2,21280,63840).
route(harbor12,harbor16,tr13,12294,73764).
route(harbor12,harbor16,tr2,12294,36882).
route(harbor12,prodloc0,tr0,27348,711048).
route(harbor12,prodloc0,tr13,27348,164088).
route(harbor12,prodloc1,tr0,27461,713986).
route(harbor12,prodloc1,tr13,27461,164766).
route(harbor12,prodloc2,tr0,18304,475904).
route(harbor12,prodloc2,tr13,18304,109824).
route(harbor12,prodloc3,tr0,26555,690430).
route(harbor12,prodloc3,tr13,26555,159330).
route(harbor12,prodloc4,tr0,9632,250432).
route(harbor12,prodloc4,tr13,9632,57792).
route(harbor12,prodloc5,tr0,7655,199030).
route(harbor12,prodloc5,tr13,7655,45930).
route(harbor12,prodloc6,tr0,20827,541502).
route(harbor12,prodloc6,tr13,20827,124962).
route(harbor12,prodloc7,tr0,26462,688012).
route(harbor12,prodloc7,tr13,26462,158772).
route(harbor12,prodloc8,tr0,22253,578578).
route(harbor12,prodloc8,tr13,22253,133518).
route(harbor12,prodloc9,tr0,1834,47684).
route(harbor12,prodloc9,tr13,1834,11004).
route(harbor12,prodloc10,tr0,18827,489502).
route(harbor12,prodloc10,tr13,18827,112962).
route(harbor12,prodloc11,tr0,3430,89180).
route(harbor12,prodloc11,tr13,3430,20580).
route(harbor12,prodloc12,tr0,453,11778).
route(harbor12,prodloc12,tr13,453,2718).
route(harbor12,prodloc13,tr0,2840,73840).
route(harbor12,prodloc13,tr13,2840,17040).
route(harbor12,prodloc14,tr0,21697,564122).
route(harbor12,prodloc14,tr13,21697,130182).
route(harbor12,prodloc15,tr0,21977,571402).
route(harbor12,prodloc15,tr13,21977,131862).
route(harbor12,prodloc16,tr0,3277,85202).
route(harbor12,prodloc16,tr13,3277,19662).
route(harbor12,prodloc17,tr0,5135,133510).
route(harbor12,prodloc17,tr13,5135,30810).
route(harbor12,prodloc18,tr0,4849,126074).
route(harbor12,prodloc18,tr13,4849,29094).
route(harbor12,prodloc19,tr0,1097,28522).
route(harbor12,prodloc19,tr13,1097,6582).
route(harbor12,prodloc20,tr0,12725,330850).
route(harbor12,prodloc20,tr13,12725,76350).
route(harbor12,prodloc21,tr0,14325,372450).
route(harbor12,prodloc21,tr13,14325,85950).
route(harbor12,prodloc22,tr0,11854,308204).
route(harbor12,prodloc22,tr13,11854,71124).
route(harbor12,prodloc23,tr0,10029,260754).
route(harbor12,prodloc23,tr13,10029,60174).
route(harbor12,prodloc24,tr0,7602,197652).
route(harbor12,prodloc24,tr13,7602,45612).
route(harbor12,prodloc25,tr0,18426,479076).
route(harbor12,prodloc25,tr13,18426,110556).
route(harbor12,prodloc26,tr0,5268,136968).
route(harbor12,prodloc26,tr13,5268,31608).
route(harbor12,prodloc27,tr0,5883,152958).
route(harbor12,prodloc27,tr13,5883,35298).
route(harbor12,prodloc28,tr0,11246,292396).
route(harbor12,prodloc28,tr13,11246,67476).
route(harbor12,prodloc29,tr0,22921,595946).
route(harbor12,prodloc29,tr13,22921,137526).
route(harbor12,prodloc30,tr0,11409,296634).
route(harbor12,prodloc30,tr13,11409,68454).
route(harbor12,prodloc31,tr0,20504,533104).
route(harbor12,prodloc31,tr13,20504,123024).
route(harbor12,prodloc32,tr0,20294,527644).
route(harbor12,prodloc32,tr13,20294,121764).
route(harbor12,prodloc33,tr0,12959,336934).
route(harbor12,prodloc33,tr13,12959,77754).
route(harbor13,harbor0,tr13,25096,150576).
route(harbor13,harbor0,tr2,25096,75288).
route(harbor13,harbor1,tr13,24417,146502).
route(harbor13,harbor1,tr2,24417,73251).
route(harbor13,harbor2,tr13,19435,116610).
route(harbor13,harbor2,tr2,19435,58305).
route(harbor13,harbor3,tr13,13736,82416).
route(harbor13,harbor3,tr2,13736,41208).
route(harbor13,harbor4,tr13,17817,106902).
route(harbor13,harbor4,tr2,17817,53451).
route(harbor13,harbor5,tr13,28681,172086).
route(harbor13,harbor5,tr2,28681,86043).
route(harbor13,harbor6,tr13,7805,46830).
route(harbor13,harbor6,tr2,7805,23415).
route(harbor13,harbor7,tr13,17657,105942).
route(harbor13,harbor7,tr2,17657,52971).
route(harbor13,harbor8,tr13,9919,59514).
route(harbor13,harbor8,tr2,9919,29757).
route(harbor13,harbor9,tr13,13442,80652).
route(harbor13,harbor9,tr2,13442,40326).
route(harbor13,harbor10,tr13,23522,141132).
route(harbor13,harbor10,tr2,23522,70566).
route(harbor13,harbor11,tr13,5056,30336).
route(harbor13,harbor11,tr2,5056,15168).
route(harbor13,harbor12,tr13,11401,68406).
route(harbor13,harbor12,tr2,11401,34203).
route(harbor13,harbor14,tr13,23387,140322).
route(harbor13,harbor14,tr2,23387,70161).
route(harbor13,harbor15,tr13,3571,21426).
route(harbor13,harbor15,tr2,3571,10713).
route(harbor13,harbor16,tr13,13760,82560).
route(harbor13,harbor16,tr2,13760,41280).
route(harbor13,prodloc0,tr0,12524,325624).
route(harbor13,prodloc0,tr13,12524,75144).
route(harbor13,prodloc1,tr0,16074,417924).
route(harbor13,prodloc1,tr13,16074,96444).
route(harbor13,prodloc2,tr0,11697,304122).
route(harbor13,prodloc2,tr13,11697,70182).
route(harbor13,prodloc3,tr0,4665,121290).
route(harbor13,prodloc3,tr13,4665,27990).
route(harbor13,prodloc4,tr0,12377,321802).
route(harbor13,prodloc4,tr13,12377,74262).
route(harbor13,prodloc5,tr0,7994,207844).
route(harbor13,prodloc5,tr13,7994,47964).
route(harbor13,prodloc6,tr0,14001,364026).
route(harbor13,prodloc6,tr13,14001,84006).
route(harbor13,prodloc7,tr0,18944,492544).
route(harbor13,prodloc7,tr13,18944,113664).
route(harbor13,prodloc8,tr0,26561,690586).
route(harbor13,prodloc8,tr13,26561,159366).
route(harbor13,prodloc9,tr0,26927,700102).
route(harbor13,prodloc9,tr13,26927,161562).
route(harbor13,prodloc10,tr0,14324,372424).
route(harbor13,prodloc10,tr13,14324,85944).
route(harbor13,prodloc11,tr0,18693,486018).
route(harbor13,prodloc11,tr13,18693,112158).
route(harbor13,prodloc12,tr0,24852,646152).
route(harbor13,prodloc12,tr13,24852,149112).
route(harbor13,prodloc13,tr0,25879,672854).
route(harbor13,prodloc13,tr13,25879,155274).
route(harbor13,prodloc14,tr0,21109,548834).
route(harbor13,prodloc14,tr13,21109,126654).
route(harbor13,prodloc15,tr0,5899,153374).
route(harbor13,prodloc15,tr13,5899,35394).
route(harbor13,prodloc16,tr0,6417,166842).
route(harbor13,prodloc16,tr13,6417,38502).
route(harbor13,prodloc17,tr0,14261,370786).
route(harbor13,prodloc17,tr13,14261,85566).
route(harbor13,prodloc18,tr0,17992,467792).
route(harbor13,prodloc18,tr13,17992,107952).
route(harbor13,prodloc19,tr0,2154,56004).
route(harbor13,prodloc19,tr13,2154,12924).
route(harbor13,prodloc20,tr0,25079,652054).
route(harbor13,prodloc20,tr13,25079,150474).
route(harbor13,prodloc21,tr0,19801,514826).
route(harbor13,prodloc21,tr13,19801,118806).
route(harbor13,prodloc22,tr0,12301,319826).
route(harbor13,prodloc22,tr13,12301,73806).
route(harbor13,prodloc23,tr0,17577,457002).
route(harbor13,prodloc23,tr13,17577,105462).
route(harbor13,prodloc24,tr0,13528,351728).
route(harbor13,prodloc24,tr13,13528,81168).
route(harbor13,prodloc25,tr0,3374,87724).
route(harbor13,prodloc25,tr13,3374,20244).
route(harbor13,prodloc26,tr0,365,9490).
route(harbor13,prodloc26,tr13,365,2190).
route(harbor13,prodloc27,tr0,16920,439920).
route(harbor13,prodloc27,tr13,16920,101520).
route(harbor13,prodloc28,tr0,20073,521898).
route(harbor13,prodloc28,tr13,20073,120438).
route(harbor13,prodloc29,tr0,7989,207714).
route(harbor13,prodloc29,tr13,7989,47934).
route(harbor13,prodloc30,tr0,15229,395954).
route(harbor13,prodloc30,tr13,15229,91374).
route(harbor13,prodloc31,tr0,21618,562068).
route(harbor13,prodloc31,tr13,21618,129708).
route(harbor13,prodloc32,tr0,10332,268632).
route(harbor13,prodloc32,tr13,10332,61992).
route(harbor13,prodloc33,tr0,11762,305812).
route(harbor13,prodloc33,tr13,11762,70572).
route(harbor14,harbor0,tr13,26449,158694).
route(harbor14,harbor0,tr2,26449,79347).
route(harbor14,harbor1,tr13,15070,90420).
route(harbor14,harbor1,tr2,15070,45210).
route(harbor14,harbor2,tr13,2216,13296).
route(harbor14,harbor2,tr2,2216,6648).
route(harbor14,harbor3,tr13,19543,117258).
route(harbor14,harbor3,tr2,19543,58629).
route(harbor14,harbor4,tr13,25349,152094).
route(harbor14,harbor4,tr2,25349,76047).
route(harbor14,harbor5,tr13,18086,108516).
route(harbor14,harbor5,tr2,18086,54258).
route(harbor14,harbor6,tr13,22840,137040).
route(harbor14,harbor6,tr2,22840,68520).
route(harbor14,harbor7,tr13,5998,35988).
route(harbor14,harbor7,tr2,5998,17994).
route(harbor14,harbor8,tr13,9323,55938).
route(harbor14,harbor8,tr2,9323,27969).
route(harbor14,harbor9,tr13,2603,15618).
route(harbor14,harbor9,tr2,2603,7809).
route(harbor14,harbor10,tr13,3159,18954).
route(harbor14,harbor10,tr2,3159,9477).
route(harbor14,harbor11,tr13,20231,121386).
route(harbor14,harbor11,tr2,20231,60693).
route(harbor14,harbor12,tr13,12135,72810).
route(harbor14,harbor12,tr2,12135,36405).
route(harbor14,harbor13,tr13,25543,153258).
route(harbor14,harbor13,tr2,25543,76629).
route(harbor14,harbor15,tr13,11158,66948).
route(harbor14,harbor15,tr2,11158,33474).
route(harbor14,harbor16,tr13,20076,120456).
route(harbor14,harbor16,tr2,20076,60228).
route(harbor14,prodloc0,tr0,27625,718250).
route(harbor14,prodloc0,tr13,27625,165750).
route(harbor14,prodloc1,tr0,16691,433966).
route(harbor14,prodloc1,tr13,16691,100146).
route(harbor14,prodloc2,tr0,9158,238108).
route(harbor14,prodloc2,tr13,9158,54948).
route(harbor14,prodloc3,tr0,19594,509444).
route(harbor14,prodloc3,tr13,19594,117564).
route(harbor14,prodloc4,tr0,1997,51922).
route(harbor14,prodloc4,tr13,1997,11982).
route(harbor14,prodloc5,tr0,24928,648128).
route(harbor14,prodloc5,tr13,24928,149568).
route(harbor14,prodloc6,tr0,6825,177450).
route(harbor14,prodloc6,tr13,6825,40950).
route(harbor14,prodloc7,tr0,14288,371488).
route(harbor14,prodloc7,tr13,14288,85728).
route(harbor14,prodloc8,tr0,3529,91754).
route(harbor14,prodloc8,tr13,3529,21174).
route(harbor14,prodloc9,tr0,8946,232596).
route(harbor14,prodloc9,tr13,8946,53676).
route(harbor14,prodloc10,tr0,14249,370474).
route(harbor14,prodloc10,tr13,14249,85494).
route(harbor14,prodloc11,tr0,7753,201578).
route(harbor14,prodloc11,tr13,7753,46518).
route(harbor14,prodloc12,tr0,22298,579748).
route(harbor14,prodloc12,tr13,22298,133788).
route(harbor14,prodloc13,tr0,17767,461942).
route(harbor14,prodloc13,tr13,17767,106602).
route(harbor14,prodloc14,tr0,10591,275366).
route(harbor14,prodloc14,tr13,10591,63546).
route(harbor14,prodloc15,tr0,2420,62920).
route(harbor14,prodloc15,tr13,2420,14520).
route(harbor14,prodloc16,tr0,27150,705900).
route(harbor14,prodloc16,tr13,27150,162900).
route(harbor14,prodloc17,tr0,13841,359866).
route(harbor14,prodloc17,tr13,13841,83046).
route(harbor14,prodloc18,tr0,14931,388206).
route(harbor14,prodloc18,tr13,14931,89586).
route(harbor14,prodloc19,tr0,7943,206518).
route(harbor14,prodloc19,tr13,7943,47658).
route(harbor14,prodloc20,tr0,16701,434226).
route(harbor14,prodloc20,tr13,16701,100206).
route(harbor14,prodloc21,tr0,12105,314730).
route(harbor14,prodloc21,tr13,12105,72630).
route(harbor14,prodloc22,tr0,28412,738712).
route(harbor14,prodloc22,tr13,28412,170472).
route(harbor14,prodloc23,tr0,9040,235040).
route(harbor14,prodloc23,tr13,9040,54240).
route(harbor14,prodloc24,tr0,11837,307762).
route(harbor14,prodloc24,tr13,11837,71022).
route(harbor14,prodloc25,tr0,16951,440726).
route(harbor14,prodloc25,tr13,16951,101706).
route(harbor14,prodloc26,tr0,10352,269152).
route(harbor14,prodloc26,tr13,10352,62112).
route(harbor14,prodloc27,tr0,14570,378820).
route(harbor14,prodloc27,tr13,14570,87420).
route(harbor14,prodloc28,tr0,16776,436176).
route(harbor14,prodloc28,tr13,16776,100656).
route(harbor14,prodloc29,tr0,2908,75608).
route(harbor14,prodloc29,tr13,2908,17448).
route(harbor14,prodloc30,tr0,8023,208598).
route(harbor14,prodloc30,tr13,8023,48138).
route(harbor14,prodloc31,tr0,26071,677846).
route(harbor14,prodloc31,tr13,26071,156426).
route(harbor14,prodloc32,tr0,11081,288106).
route(harbor14,prodloc32,tr13,11081,66486).
route(harbor14,prodloc33,tr0,23592,613392).
route(harbor14,prodloc33,tr13,23592,141552).
route(harbor15,harbor0,tr13,293,1758).
route(harbor15,harbor0,tr2,293,879).
route(harbor15,harbor1,tr13,8220,49320).
route(harbor15,harbor1,tr2,8220,24660).
route(harbor15,harbor2,tr13,2891,17346).
route(harbor15,harbor2,tr2,2891,8673).
route(harbor15,harbor3,tr13,20103,120618).
route(harbor15,harbor3,tr2,20103,60309).
route(harbor15,harbor4,tr13,22097,132582).
route(harbor15,harbor4,tr2,22097,66291).
route(harbor15,harbor5,tr13,14441,86646).
route(harbor15,harbor5,tr2,14441,43323).
route(harbor15,harbor6,tr13,9833,58998).
route(harbor15,harbor6,tr2,9833,29499).
route(harbor15,harbor7,tr13,29217,175302).
route(harbor15,harbor7,tr2,29217,87651).
route(harbor15,harbor8,tr13,17269,103614).
route(harbor15,harbor8,tr2,17269,51807).
route(harbor15,harbor9,tr13,11646,69876).
route(harbor15,harbor9,tr2,11646,34938).
route(harbor15,harbor10,tr13,5238,31428).
route(harbor15,harbor10,tr2,5238,15714).
route(harbor15,harbor11,tr13,21576,129456).
route(harbor15,harbor11,tr2,21576,64728).
route(harbor15,harbor12,tr13,12250,73500).
route(harbor15,harbor12,tr2,12250,36750).
route(harbor15,harbor13,tr13,21950,131700).
route(harbor15,harbor13,tr2,21950,65850).
route(harbor15,harbor14,tr13,20238,121428).
route(harbor15,harbor14,tr2,20238,60714).
route(harbor15,harbor16,tr13,21293,127758).
route(harbor15,harbor16,tr2,21293,63879).
route(harbor15,prodloc0,tr0,25334,658684).
route(harbor15,prodloc0,tr13,25334,152004).
route(harbor15,prodloc1,tr0,26782,696332).
route(harbor15,prodloc1,tr13,26782,160692).
route(harbor15,prodloc2,tr0,2843,73918).
route(harbor15,prodloc2,tr13,2843,17058).
route(harbor15,prodloc3,tr0,24982,649532).
route(harbor15,prodloc3,tr13,24982,149892).
route(harbor15,prodloc4,tr0,12640,328640).
route(harbor15,prodloc4,tr13,12640,75840).
route(harbor15,prodloc5,tr0,11250,292500).
route(harbor15,prodloc5,tr13,11250,67500).
route(harbor15,prodloc6,tr0,20812,541112).
route(harbor15,prodloc6,tr13,20812,124872).
route(harbor15,prodloc7,tr0,20002,520052).
route(harbor15,prodloc7,tr13,20002,120012).
route(harbor15,prodloc8,tr0,16135,419510).
route(harbor15,prodloc8,tr13,16135,96810).
route(harbor15,prodloc9,tr0,4123,107198).
route(harbor15,prodloc9,tr13,4123,24738).
route(harbor15,prodloc10,tr0,5063,131638).
route(harbor15,prodloc10,tr13,5063,30378).
route(harbor15,prodloc11,tr0,22420,582920).
route(harbor15,prodloc11,tr13,22420,134520).
route(harbor15,prodloc12,tr0,3178,82628).
route(harbor15,prodloc12,tr13,3178,19068).
route(harbor15,prodloc13,tr0,12202,317252).
route(harbor15,prodloc13,tr13,12202,73212).
route(harbor15,prodloc14,tr0,22085,574210).
route(harbor15,prodloc14,tr13,22085,132510).
route(harbor15,prodloc15,tr0,17285,449410).
route(harbor15,prodloc15,tr13,17285,103710).
route(harbor15,prodloc16,tr0,13161,342186).
route(harbor15,prodloc16,tr13,13161,78966).
route(harbor15,prodloc17,tr0,27200,707200).
route(harbor15,prodloc17,tr13,27200,163200).
route(harbor15,prodloc18,tr0,27694,720044).
route(harbor15,prodloc18,tr13,27694,166164).
route(harbor15,prodloc19,tr0,9677,251602).
route(harbor15,prodloc19,tr13,9677,58062).
route(harbor15,prodloc20,tr0,20261,526786).
route(harbor15,prodloc20,tr13,20261,121566).
route(harbor15,prodloc21,tr0,6181,160706).
route(harbor15,prodloc21,tr13,6181,37086).
route(harbor15,prodloc22,tr0,1273,33098).
route(harbor15,prodloc22,tr13,1273,7638).
route(harbor15,prodloc23,tr0,26179,680654).
route(harbor15,prodloc23,tr13,26179,157074).
route(harbor15,prodloc24,tr0,10890,283140).
route(harbor15,prodloc24,tr13,10890,65340).
route(harbor15,prodloc25,tr0,9510,247260).
route(harbor15,prodloc25,tr13,9510,57060).
route(harbor15,prodloc26,tr0,18755,487630).
route(harbor15,prodloc26,tr13,18755,112530).
route(harbor15,prodloc27,tr0,26046,677196).
route(harbor15,prodloc27,tr13,26046,156276).
route(harbor15,prodloc28,tr0,8294,215644).
route(harbor15,prodloc28,tr13,8294,49764).
route(harbor15,prodloc29,tr0,5201,135226).
route(harbor15,prodloc29,tr13,5201,31206).
route(harbor15,prodloc30,tr0,11313,294138).
route(harbor15,prodloc30,tr13,11313,67878).
route(harbor15,prodloc31,tr0,18383,477958).
route(harbor15,prodloc31,tr13,18383,110298).
route(harbor15,prodloc32,tr0,24817,645242).
route(harbor15,prodloc32,tr13,24817,148902).
route(harbor15,prodloc33,tr0,10123,263198).
route(harbor15,prodloc33,tr13,10123,60738).
route(harbor16,harbor0,tr13,21358,128148).
route(harbor16,harbor0,tr2,21358,64074).
route(harbor16,harbor1,tr13,10125,60750).
route(harbor16,harbor1,tr2,10125,30375).
route(harbor16,harbor2,tr13,21004,126024).
route(harbor16,harbor2,tr2,21004,63012).
route(harbor16,harbor3,tr13,26383,158298).
route(harbor16,harbor3,tr2,26383,79149).
route(harbor16,harbor4,tr13,4582,27492).
route(harbor16,harbor4,tr2,4582,13746).
route(harbor16,harbor5,tr13,14096,84576).
route(harbor16,harbor5,tr2,14096,42288).
route(harbor16,harbor6,tr13,14293,85758).
route(harbor16,harbor6,tr2,14293,42879).
route(harbor16,harbor7,tr13,12558,75348).
route(harbor16,harbor7,tr2,12558,37674).
route(harbor16,harbor8,tr13,26497,158982).
route(harbor16,harbor8,tr2,26497,79491).
route(harbor16,harbor9,tr13,28266,169596).
route(harbor16,harbor9,tr2,28266,84798).
route(harbor16,harbor10,tr13,59,354).
route(harbor16,harbor10,tr2,59,177).
route(harbor16,harbor11,tr13,8805,52830).
route(harbor16,harbor11,tr2,8805,26415).
route(harbor16,harbor12,tr13,23334,140004).
route(harbor16,harbor12,tr2,23334,70002).
route(harbor16,harbor13,tr13,19488,116928).
route(harbor16,harbor13,tr2,19488,58464).
route(harbor16,harbor14,tr13,10138,60828).
route(harbor16,harbor14,tr2,10138,30414).
route(harbor16,harbor15,tr13,28248,169488).
route(harbor16,harbor15,tr2,28248,84744).
route(harbor16,prodloc0,tr0,9317,242242).
route(harbor16,prodloc0,tr13,9317,55902).
route(harbor16,prodloc1,tr0,24448,635648).
route(harbor16,prodloc1,tr13,24448,146688).
route(harbor16,prodloc2,tr0,27338,710788).
route(harbor16,prodloc2,tr13,27338,164028).
route(harbor16,prodloc3,tr0,14630,380380).
route(harbor16,prodloc3,tr13,14630,87780).
route(harbor16,prodloc4,tr0,12093,314418).
route(harbor16,prodloc4,tr13,12093,72558).
route(harbor16,prodloc5,tr0,25185,654810).
route(harbor16,prodloc5,tr13,25185,151110).
route(harbor16,prodloc6,tr0,16358,425308).
route(harbor16,prodloc6,tr13,16358,98148).
route(harbor16,prodloc7,tr0,28845,749970).
route(harbor16,prodloc7,tr13,28845,173070).
route(harbor16,prodloc8,tr0,9920,257920).
route(harbor16,prodloc8,tr13,9920,59520).
route(harbor16,prodloc9,tr0,18270,475020).
route(harbor16,prodloc9,tr13,18270,109620).
route(harbor16,prodloc10,tr0,10945,284570).
route(harbor16,prodloc10,tr13,10945,65670).
route(harbor16,prodloc11,tr0,10343,268918).
route(harbor16,prodloc11,tr13,10343,62058).
route(harbor16,prodloc12,tr0,26524,689624).
route(harbor16,prodloc12,tr13,26524,159144).
route(harbor16,prodloc13,tr0,19313,502138).
route(harbor16,prodloc13,tr13,19313,115878).
route(harbor16,prodloc14,tr0,9783,254358).
route(harbor16,prodloc14,tr13,9783,58698).
route(harbor16,prodloc15,tr0,1765,45890).
route(harbor16,prodloc15,tr13,1765,10590).
route(harbor16,prodloc16,tr0,25067,651742).
route(harbor16,prodloc16,tr13,25067,150402).
route(harbor16,prodloc17,tr0,25588,665288).
route(harbor16,prodloc17,tr13,25588,153528).
route(harbor16,prodloc18,tr0,15255,396630).
route(harbor16,prodloc18,tr13,15255,91530).
route(harbor16,prodloc19,tr0,5395,140270).
route(harbor16,prodloc19,tr13,5395,32370).
route(harbor16,prodloc20,tr0,16240,422240).
route(harbor16,prodloc20,tr13,16240,97440).
route(harbor16,prodloc21,tr0,17437,453362).
route(harbor16,prodloc21,tr13,17437,104622).
route(harbor16,prodloc22,tr0,11639,302614).
route(harbor16,prodloc22,tr13,11639,69834).
route(harbor16,prodloc23,tr0,13686,355836).
route(harbor16,prodloc23,tr13,13686,82116).
route(harbor16,prodloc24,tr0,6951,180726).
route(harbor16,prodloc24,tr13,6951,41706).
route(harbor16,prodloc25,tr0,765,19890).
route(harbor16,prodloc25,tr13,765,4590).
route(harbor16,prodloc26,tr0,2130,55380).
route(harbor16,prodloc26,tr13,2130,12780).
route(harbor16,prodloc27,tr0,11061,287586).
route(harbor16,prodloc27,tr13,11061,66366).
route(harbor16,prodloc28,tr0,15523,403598).
route(harbor16,prodloc28,tr13,15523,93138).
route(harbor16,prodloc29,tr0,754,19604).
route(harbor16,prodloc29,tr13,754,4524).
route(harbor16,prodloc30,tr0,8719,226694).
route(harbor16,prodloc30,tr13,8719,52314).
route(harbor16,prodloc31,tr0,1247,32422).
route(harbor16,prodloc31,tr13,1247,7482).
route(harbor16,prodloc32,tr0,22430,583180).
route(harbor16,prodloc32,tr13,22430,134580).
route(harbor16,prodloc33,tr0,28612,743912).
route(harbor16,prodloc33,tr13,28612,171672).
route(prodloc0,harbor0,tr0,15983,415558).
route(prodloc0,harbor0,tr13,15983,95898).
route(prodloc0,harbor1,tr0,25731,669006).
route(prodloc0,harbor1,tr13,25731,154386).
route(prodloc0,harbor2,tr0,28052,729352).
route(prodloc0,harbor2,tr13,28052,168312).
route(prodloc0,harbor3,tr0,23599,613574).
route(prodloc0,harbor3,tr13,23599,141594).
route(prodloc0,harbor4,tr0,16011,416286).
route(prodloc0,harbor4,tr13,16011,96066).
route(prodloc0,harbor5,tr0,21010,546260).
route(prodloc0,harbor5,tr13,21010,126060).
route(prodloc0,harbor6,tr0,11952,310752).
route(prodloc0,harbor6,tr13,11952,71712).
route(prodloc0,harbor7,tr0,12449,323674).
route(prodloc0,harbor7,tr13,12449,74694).
route(prodloc0,harbor8,tr0,8000,208000).
route(prodloc0,harbor8,tr13,8000,48000).
route(prodloc0,harbor9,tr0,18685,485810).
route(prodloc0,harbor9,tr13,18685,112110).
route(prodloc0,harbor10,tr0,28586,743236).
route(prodloc0,harbor10,tr13,28586,171516).
route(prodloc0,harbor11,tr0,9847,256022).
route(prodloc0,harbor11,tr13,9847,59082).
route(prodloc0,harbor12,tr0,20579,535054).
route(prodloc0,harbor12,tr13,20579,123474).
route(prodloc0,harbor13,tr0,13261,344786).
route(prodloc0,harbor13,tr13,13261,79566).
route(prodloc0,harbor14,tr0,25571,664846).
route(prodloc0,harbor14,tr13,25571,153426).
route(prodloc0,harbor15,tr0,10331,268606).
route(prodloc0,harbor15,tr13,10331,61986).
route(prodloc0,harbor16,tr0,12476,324376).
route(prodloc0,harbor16,tr13,12476,74856).
route(prodloc0,prodloc1,tr0,8804,228904).
route(prodloc0,prodloc1,tr13,8804,52824).
route(prodloc0,prodloc2,tr0,23174,602524).
route(prodloc0,prodloc2,tr13,23174,139044).
route(prodloc0,prodloc3,tr0,10888,283088).
route(prodloc0,prodloc3,tr13,10888,65328).
route(prodloc0,prodloc4,tr0,8848,230048).
route(prodloc0,prodloc4,tr13,8848,53088).
route(prodloc0,prodloc5,tr0,7161,186186).
route(prodloc0,prodloc5,tr13,7161,42966).
route(prodloc0,prodloc6,tr0,2422,62972).
route(prodloc0,prodloc6,tr13,2422,14532).
route(prodloc0,prodloc7,tr0,6597,171522).
route(prodloc0,prodloc7,tr13,6597,39582).
route(prodloc0,prodloc8,tr0,27309,710034).
route(prodloc0,prodloc8,tr13,27309,163854).
route(prodloc0,prodloc9,tr0,11404,296504).
route(prodloc0,prodloc9,tr13,11404,68424).
route(prodloc0,prodloc10,tr0,10092,262392).
route(prodloc0,prodloc10,tr13,10092,60552).
route(prodloc0,prodloc11,tr0,5747,149422).
route(prodloc0,prodloc11,tr13,5747,34482).
route(prodloc0,prodloc12,tr0,3399,88374).
route(prodloc0,prodloc12,tr13,3399,20394).
route(prodloc0,prodloc13,tr0,16445,427570).
route(prodloc0,prodloc13,tr13,16445,98670).
route(prodloc0,prodloc14,tr0,432,11232).
route(prodloc0,prodloc14,tr13,432,2592).
route(prodloc0,prodloc15,tr13,24763,148578).
route(prodloc0,prodloc15,tr15,24763,792416).
route(prodloc0,prodloc16,tr0,13668,355368).
route(prodloc0,prodloc16,tr13,13668,82008).
route(prodloc0,prodloc17,tr0,9499,246974).
route(prodloc0,prodloc17,tr13,9499,56994).
route(prodloc0,prodloc18,tr0,23645,614770).
route(prodloc0,prodloc18,tr13,23645,141870).
route(prodloc0,prodloc19,tr0,24887,647062).
route(prodloc0,prodloc19,tr13,24887,149322).
route(prodloc0,prodloc20,tr0,16005,416130).
route(prodloc0,prodloc20,tr13,16005,96030).
route(prodloc0,prodloc21,tr0,12273,319098).
route(prodloc0,prodloc21,tr13,12273,73638).
route(prodloc0,prodloc22,tr0,12163,316238).
route(prodloc0,prodloc22,tr13,12163,72978).
route(prodloc0,prodloc23,tr13,6474,38844).
route(prodloc0,prodloc23,tr15,6474,207168).
route(prodloc0,prodloc24,tr0,6513,169338).
route(prodloc0,prodloc24,tr13,6513,39078).
route(prodloc0,prodloc25,tr0,26490,688740).
route(prodloc0,prodloc25,tr13,26490,158940).
route(prodloc0,prodloc26,tr0,13589,353314).
route(prodloc0,prodloc26,tr13,13589,81534).
route(prodloc0,prodloc27,tr0,23532,611832).
route(prodloc0,prodloc27,tr13,23532,141192).
route(prodloc0,prodloc28,tr0,5236,136136).
route(prodloc0,prodloc28,tr13,5236,31416).
route(prodloc0,prodloc29,tr0,12715,330590).
route(prodloc0,prodloc29,tr13,12715,76290).
route(prodloc0,prodloc30,tr0,10011,260286).
route(prodloc0,prodloc30,tr13,10011,60066).
route(prodloc0,prodloc31,tr0,23084,600184).
route(prodloc0,prodloc31,tr13,23084,138504).
route(prodloc0,prodloc32,tr0,2576,66976).
route(prodloc0,prodloc32,tr13,2576,15456).
route(prodloc0,prodloc33,tr0,10165,264290).
route(prodloc0,prodloc33,tr13,10165,60990).
route(prodloc1,harbor0,tr0,16044,417144).
route(prodloc1,harbor0,tr13,16044,96264).
route(prodloc1,harbor1,tr0,24993,649818).
route(prodloc1,harbor1,tr13,24993,149958).
route(prodloc1,harbor2,tr0,6275,163150).
route(prodloc1,harbor2,tr13,6275,37650).
route(prodloc1,harbor3,tr0,21505,559130).
route(prodloc1,harbor3,tr13,21505,129030).
route(prodloc1,harbor4,tr0,14648,380848).
route(prodloc1,harbor4,tr13,14648,87888).
route(prodloc1,harbor5,tr0,18508,481208).
route(prodloc1,harbor5,tr13,18508,111048).
route(prodloc1,harbor6,tr0,2022,52572).
route(prodloc1,harbor6,tr13,2022,12132).
route(prodloc1,harbor7,tr0,10008,260208).
route(prodloc1,harbor7,tr13,10008,60048).
route(prodloc1,harbor8,tr0,20724,538824).
route(prodloc1,harbor8,tr13,20724,124344).
route(prodloc1,harbor9,tr0,17491,454766).
route(prodloc1,harbor9,tr13,17491,104946).
route(prodloc1,harbor10,tr0,7964,207064).
route(prodloc1,harbor10,tr13,7964,47784).
route(prodloc1,harbor11,tr0,14428,375128).
route(prodloc1,harbor11,tr13,14428,86568).
route(prodloc1,harbor12,tr0,1986,51636).
route(prodloc1,harbor12,tr13,1986,11916).
route(prodloc1,harbor13,tr0,18397,478322).
route(prodloc1,harbor13,tr13,18397,110382).
route(prodloc1,harbor14,tr0,12570,326820).
route(prodloc1,harbor14,tr13,12570,75420).
route(prodloc1,harbor15,tr0,24780,644280).
route(prodloc1,harbor15,tr13,24780,148680).
route(prodloc1,harbor16,tr0,23988,623688).
route(prodloc1,harbor16,tr13,23988,143928).
route(prodloc1,prodloc0,tr0,1917,49842).
route(prodloc1,prodloc0,tr13,1917,11502).
route(prodloc1,prodloc2,tr0,19385,504010).
route(prodloc1,prodloc2,tr13,19385,116310).
route(prodloc1,prodloc3,tr0,3844,99944).
route(prodloc1,prodloc3,tr13,3844,23064).
route(prodloc1,prodloc4,tr0,16447,427622).
route(prodloc1,prodloc4,tr13,16447,98682).
route(prodloc1,prodloc5,tr0,10918,283868).
route(prodloc1,prodloc5,tr13,10918,65508).
route(prodloc1,prodloc6,tr0,2338,60788).
route(prodloc1,prodloc6,tr13,2338,14028).
route(prodloc1,prodloc7,tr0,6268,162968).
route(prodloc1,prodloc7,tr13,6268,37608).
route(prodloc1,prodloc8,tr0,6547,170222).
route(prodloc1,prodloc8,tr13,6547,39282).
route(prodloc1,prodloc9,tr13,12452,74712).
route(prodloc1,prodloc9,tr15,12452,398464).
route(prodloc1,prodloc10,tr0,25324,658424).
route(prodloc1,prodloc10,tr13,25324,151944).
route(prodloc1,prodloc11,tr0,19851,516126).
route(prodloc1,prodloc11,tr13,19851,119106).
route(prodloc1,prodloc12,tr0,14611,379886).
route(prodloc1,prodloc12,tr13,14611,87666).
route(prodloc1,prodloc13,tr0,25279,657254).
route(prodloc1,prodloc13,tr13,25279,151674).
route(prodloc1,prodloc14,tr0,14615,379990).
route(prodloc1,prodloc14,tr13,14615,87690).
route(prodloc1,prodloc15,tr0,3691,95966).
route(prodloc1,prodloc15,tr13,3691,22146).
route(prodloc1,prodloc16,tr0,20335,528710).
route(prodloc1,prodloc16,tr13,20335,122010).
route(prodloc1,prodloc17,tr0,21860,568360).
route(prodloc1,prodloc17,tr13,21860,131160).
route(prodloc1,prodloc18,tr0,15346,398996).
route(prodloc1,prodloc18,tr13,15346,92076).
route(prodloc1,prodloc19,tr0,4092,106392).
route(prodloc1,prodloc19,tr13,4092,24552).
route(prodloc1,prodloc20,tr0,794,20644).
route(prodloc1,prodloc20,tr13,794,4764).
route(prodloc1,prodloc21,tr0,24767,643942).
route(prodloc1,prodloc21,tr13,24767,148602).
route(prodloc1,prodloc22,tr0,24958,648908).
route(prodloc1,prodloc22,tr13,24958,149748).
route(prodloc1,prodloc23,tr0,28161,732186).
route(prodloc1,prodloc23,tr13,28161,168966).
route(prodloc1,prodloc24,tr0,26440,687440).
route(prodloc1,prodloc24,tr13,26440,158640).
route(prodloc1,prodloc25,tr0,23060,599560).
route(prodloc1,prodloc25,tr13,23060,138360).
route(prodloc1,prodloc26,tr0,3065,79690).
route(prodloc1,prodloc26,tr13,3065,18390).
route(prodloc1,prodloc27,tr0,11439,297414).
route(prodloc1,prodloc27,tr13,11439,68634).
route(prodloc1,prodloc28,tr0,20043,521118).
route(prodloc1,prodloc28,tr13,20043,120258).
route(prodloc1,prodloc29,tr0,11433,297258).
route(prodloc1,prodloc29,tr15,11433,365856).
route(prodloc1,prodloc30,tr0,9060,235560).
route(prodloc1,prodloc30,tr13,9060,54360).
route(prodloc1,prodloc31,tr0,23755,617630).
route(prodloc1,prodloc31,tr13,23755,142530).
route(prodloc1,prodloc32,tr0,27919,725894).
route(prodloc1,prodloc32,tr13,27919,167514).
route(prodloc1,prodloc33,tr0,27960,726960).
route(prodloc1,prodloc33,tr13,27960,167760).
route(prodloc2,harbor0,tr0,25523,663598).
route(prodloc2,harbor0,tr13,25523,153138).
route(prodloc2,harbor1,tr0,3774,98124).
route(prodloc2,harbor1,tr13,3774,22644).
route(prodloc2,harbor2,tr0,15898,413348).
route(prodloc2,harbor2,tr13,15898,95388).
route(prodloc2,harbor3,tr0,8629,224354).
route(prodloc2,harbor3,tr13,8629,51774).
route(prodloc2,harbor4,tr0,3011,78286).
route(prodloc2,harbor4,tr13,3011,18066).
route(prodloc2,harbor5,tr0,28654,745004).
route(prodloc2,harbor5,tr13,28654,171924).
route(prodloc2,harbor6,tr0,7946,206596).
route(prodloc2,harbor6,tr13,7946,47676).
route(prodloc2,harbor7,tr0,25443,661518).
route(prodloc2,harbor7,tr13,25443,152658).
route(prodloc2,harbor8,tr0,14247,370422).
route(prodloc2,harbor8,tr13,14247,85482).
route(prodloc2,harbor9,tr0,7132,185432).
route(prodloc2,harbor9,tr13,7132,42792).
route(prodloc2,harbor10,tr0,5089,132314).
route(prodloc2,harbor10,tr13,5089,30534).
route(prodloc2,harbor11,tr0,16370,425620).
route(prodloc2,harbor11,tr13,16370,98220).
route(prodloc2,harbor12,tr0,1565,40690).
route(prodloc2,harbor12,tr13,1565,9390).
route(prodloc2,harbor13,tr0,1334,34684).
route(prodloc2,harbor13,tr13,1334,8004).
route(prodloc2,harbor14,tr0,9324,242424).
route(prodloc2,harbor14,tr13,9324,55944).
route(prodloc2,harbor15,tr0,24551,638326).
route(prodloc2,harbor15,tr13,24551,147306).
route(prodloc2,harbor16,tr0,27802,722852).
route(prodloc2,harbor16,tr13,27802,166812).
route(prodloc2,prodloc0,tr0,20865,542490).
route(prodloc2,prodloc0,tr13,20865,125190).
route(prodloc2,prodloc1,tr0,18646,484796).
route(prodloc2,prodloc1,tr13,18646,111876).
route(prodloc2,prodloc3,tr0,583,15158).
route(prodloc2,prodloc3,tr13,583,3498).
route(prodloc2,prodloc4,tr0,5620,146120).
route(prodloc2,prodloc4,tr13,5620,33720).
route(prodloc2,prodloc5,tr0,16,416).
route(prodloc2,prodloc5,tr13,16,96).
route(prodloc2,prodloc6,tr0,5143,133718).
route(prodloc2,prodloc6,tr13,5143,30858).
route(prodloc2,prodloc7,tr0,17696,460096).
route(prodloc2,prodloc7,tr13,17696,106176).
route(prodloc2,prodloc8,tr0,3328,86528).
route(prodloc2,prodloc8,tr13,3328,19968).
route(prodloc2,prodloc9,tr0,6142,159692).
route(prodloc2,prodloc9,tr13,6142,36852).
route(prodloc2,prodloc10,tr0,12686,329836).
route(prodloc2,prodloc10,tr13,12686,76116).
route(prodloc2,prodloc11,tr0,12876,334776).
route(prodloc2,prodloc11,tr13,12876,77256).
route(prodloc2,prodloc12,tr0,4415,114790).
route(prodloc2,prodloc12,tr13,4415,26490).
route(prodloc2,prodloc13,tr0,11945,310570).
route(prodloc2,prodloc13,tr13,11945,71670).
route(prodloc2,prodloc14,tr0,3481,90506).
route(prodloc2,prodloc14,tr13,3481,20886).
route(prodloc2,prodloc15,tr0,28062,729612).
route(prodloc2,prodloc15,tr13,28062,168372).
route(prodloc2,prodloc16,tr0,18164,472264).
route(prodloc2,prodloc16,tr13,18164,108984).
route(prodloc2,prodloc17,tr0,16963,441038).
route(prodloc2,prodloc17,tr13,16963,101778).
route(prodloc2,prodloc18,tr13,5085,30510).
route(prodloc2,prodloc18,tr15,5085,162720).
route(prodloc2,prodloc19,tr0,2742,71292).
route(prodloc2,prodloc19,tr13,2742,16452).
route(prodloc2,prodloc20,tr0,360,9360).
route(prodloc2,prodloc20,tr13,360,2160).
route(prodloc2,prodloc21,tr0,2362,61412).
route(prodloc2,prodloc21,tr13,2362,14172).
route(prodloc2,prodloc22,tr0,1220,31720).
route(prodloc2,prodloc22,tr13,1220,7320).
route(prodloc2,prodloc23,tr0,25549,664274).
route(prodloc2,prodloc23,tr13,25549,153294).
route(prodloc2,prodloc24,tr0,19487,506662).
route(prodloc2,prodloc24,tr13,19487,116922).
route(prodloc2,prodloc25,tr0,21832,567632).
route(prodloc2,prodloc25,tr15,21832,698624).
route(prodloc2,prodloc26,tr0,1697,44122).
route(prodloc2,prodloc26,tr13,1697,10182).
route(prodloc2,prodloc27,tr0,300,7800).
route(prodloc2,prodloc27,tr13,300,1800).
route(prodloc2,prodloc28,tr0,15225,395850).
route(prodloc2,prodloc28,tr15,15225,487200).
route(prodloc2,prodloc29,tr0,12563,326638).
route(prodloc2,prodloc29,tr13,12563,75378).
route(prodloc2,prodloc30,tr0,28191,732966).
route(prodloc2,prodloc30,tr13,28191,169146).
route(prodloc2,prodloc31,tr0,26876,698776).
route(prodloc2,prodloc31,tr13,26876,161256).
route(prodloc2,prodloc32,tr0,330,8580).
route(prodloc2,prodloc32,tr13,330,1980).
route(prodloc2,prodloc33,tr0,14494,376844).
route(prodloc2,prodloc33,tr13,14494,86964).
route(prodloc3,harbor0,tr0,12260,318760).
route(prodloc3,harbor0,tr13,12260,73560).
route(prodloc3,harbor1,tr0,37,962).
route(prodloc3,harbor1,tr13,37,222).
route(prodloc3,harbor2,tr0,14802,384852).
route(prodloc3,harbor2,tr13,14802,88812).
route(prodloc3,harbor3,tr0,7109,184834).
route(prodloc3,harbor3,tr13,7109,42654).
route(prodloc3,harbor4,tr0,26062,677612).
route(prodloc3,harbor4,tr13,26062,156372).
route(prodloc3,harbor5,tr0,4049,105274).
route(prodloc3,harbor5,tr13,4049,24294).
route(prodloc3,harbor6,tr0,3815,99190).
route(prodloc3,harbor6,tr13,3815,22890).
route(prodloc3,harbor7,tr0,18031,468806).
route(prodloc3,harbor7,tr13,18031,108186).
route(prodloc3,harbor8,tr0,27627,718302).
route(prodloc3,harbor8,tr13,27627,165762).
route(prodloc3,harbor9,tr0,21623,562198).
route(prodloc3,harbor9,tr13,21623,129738).
route(prodloc3,harbor10,tr0,7150,185900).
route(prodloc3,harbor10,tr13,7150,42900).
route(prodloc3,harbor11,tr0,1047,27222).
route(prodloc3,harbor11,tr13,1047,6282).
route(prodloc3,harbor12,tr0,19315,502190).
route(prodloc3,harbor12,tr13,19315,115890).
route(prodloc3,harbor13,tr0,12828,333528).
route(prodloc3,harbor13,tr13,12828,76968).
route(prodloc3,harbor14,tr0,25777,670202).
route(prodloc3,harbor14,tr13,25777,154662).
route(prodloc3,harbor15,tr0,8854,230204).
route(prodloc3,harbor15,tr13,8854,53124).
route(prodloc3,harbor16,tr0,2096,54496).
route(prodloc3,harbor16,tr13,2096,12576).
route(prodloc3,prodloc0,tr0,27934,726284).
route(prodloc3,prodloc0,tr13,27934,167604).
route(prodloc3,prodloc1,tr0,5546,144196).
route(prodloc3,prodloc1,tr13,5546,33276).
route(prodloc3,prodloc2,tr0,18606,483756).
route(prodloc3,prodloc2,tr13,18606,111636).
route(prodloc3,prodloc4,tr0,25533,663858).
route(prodloc3,prodloc4,tr13,25533,153198).
route(prodloc3,prodloc5,tr0,159,4134).
route(prodloc3,prodloc5,tr13,159,954).
route(prodloc3,prodloc6,tr0,20414,530764).
route(prodloc3,prodloc6,tr13,20414,122484).
route(prodloc3,prodloc7,tr0,9743,253318).
route(prodloc3,prodloc7,tr13,9743,58458).
route(prodloc3,prodloc8,tr0,24143,627718).
route(prodloc3,prodloc8,tr13,24143,144858).
route(prodloc3,prodloc9,tr0,8887,231062).
route(prodloc3,prodloc9,tr13,8887,53322).
route(prodloc3,prodloc10,tr0,2593,67418).
route(prodloc3,prodloc10,tr13,2593,15558).
route(prodloc3,prodloc11,tr0,19321,502346).
route(prodloc3,prodloc11,tr13,19321,115926).
route(prodloc3,prodloc12,tr0,11807,306982).
route(prodloc3,prodloc12,tr13,11807,70842).
route(prodloc3,prodloc13,tr0,444,11544).
route(prodloc3,prodloc13,tr13,444,2664).
route(prodloc3,prodloc14,tr0,28030,728780).
route(prodloc3,prodloc14,tr13,28030,168180).
route(prodloc3,prodloc15,tr0,75,1950).
route(prodloc3,prodloc15,tr13,75,450).
route(prodloc3,prodloc16,tr0,27247,708422).
route(prodloc3,prodloc16,tr13,27247,163482).
route(prodloc3,prodloc17,tr0,19791,514566).
route(prodloc3,prodloc17,tr13,19791,118746).
route(prodloc3,prodloc18,tr0,23561,612586).
route(prodloc3,prodloc18,tr13,23561,141366).
route(prodloc3,prodloc19,tr0,17239,448214).
route(prodloc3,prodloc19,tr13,17239,103434).
route(prodloc3,prodloc20,tr0,1750,45500).
route(prodloc3,prodloc20,tr13,1750,10500).
route(prodloc3,prodloc21,tr0,20128,523328).
route(prodloc3,prodloc21,tr13,20128,120768).
route(prodloc3,prodloc22,tr0,6529,169754).
route(prodloc3,prodloc22,tr13,6529,39174).
route(prodloc3,prodloc23,tr0,6898,179348).
route(prodloc3,prodloc23,tr13,6898,41388).
route(prodloc3,prodloc24,tr0,26701,694226).
route(prodloc3,prodloc24,tr13,26701,160206).
route(prodloc3,prodloc25,tr0,26673,693498).
route(prodloc3,prodloc25,tr13,26673,160038).
route(prodloc3,prodloc26,tr0,4377,113802).
route(prodloc3,prodloc26,tr13,4377,26262).
route(prodloc3,prodloc27,tr0,21648,562848).
route(prodloc3,prodloc27,tr13,21648,129888).
route(prodloc3,prodloc28,tr0,20388,530088).
route(prodloc3,prodloc28,tr13,20388,122328).
route(prodloc3,prodloc29,tr0,20560,534560).
route(prodloc3,prodloc29,tr13,20560,123360).
route(prodloc3,prodloc30,tr0,18506,481156).
route(prodloc3,prodloc30,tr13,18506,111036).
route(prodloc3,prodloc31,tr0,7894,205244).
route(prodloc3,prodloc31,tr13,7894,47364).
route(prodloc3,prodloc32,tr0,14141,367666).
route(prodloc3,prodloc32,tr13,14141,84846).
route(prodloc3,prodloc33,tr0,15075,391950).
route(prodloc3,prodloc33,tr13,15075,90450).
route(prodloc4,harbor0,tr0,8208,213408).
route(prodloc4,harbor0,tr13,8208,49248).
route(prodloc4,harbor1,tr0,16711,434486).
route(prodloc4,harbor1,tr13,16711,100266).
route(prodloc4,harbor2,tr0,21861,568386).
route(prodloc4,harbor2,tr13,21861,131166).
route(prodloc4,harbor3,tr0,14465,376090).
route(prodloc4,harbor3,tr13,14465,86790).
route(prodloc4,harbor4,tr0,25044,651144).
route(prodloc4,harbor4,tr13,25044,150264).
route(prodloc4,harbor5,tr0,12357,321282).
route(prodloc4,harbor5,tr13,12357,74142).
route(prodloc4,harbor6,tr0,9251,240526).
route(prodloc4,harbor6,tr13,9251,55506).
route(prodloc4,harbor7,tr0,15038,390988).
route(prodloc4,harbor7,tr13,15038,90228).
route(prodloc4,harbor8,tr0,10042,261092).
route(prodloc4,harbor8,tr13,10042,60252).
route(prodloc4,harbor9,tr0,16871,438646).
route(prodloc4,harbor9,tr13,16871,101226).
route(prodloc4,harbor10,tr0,23075,599950).
route(prodloc4,harbor10,tr13,23075,138450).
route(prodloc4,harbor11,tr0,160,4160).
route(prodloc4,harbor11,tr13,160,960).
route(prodloc4,harbor12,tr0,5772,150072).
route(prodloc4,harbor12,tr13,5772,34632).
route(prodloc4,harbor13,tr0,7781,202306).
route(prodloc4,harbor13,tr13,7781,46686).
route(prodloc4,harbor14,tr0,17401,452426).
route(prodloc4,harbor14,tr13,17401,104406).
route(prodloc4,harbor15,tr0,27033,702858).
route(prodloc4,harbor15,tr13,27033,162198).
route(prodloc4,harbor16,tr0,10476,272376).
route(prodloc4,harbor16,tr13,10476,62856).
route(prodloc4,prodloc0,tr0,14610,379860).
route(prodloc4,prodloc0,tr13,14610,87660).
route(prodloc4,prodloc1,tr0,22017,572442).
route(prodloc4,prodloc1,tr13,22017,132102).
route(prodloc4,prodloc2,tr0,8401,218426).
route(prodloc4,prodloc2,tr13,8401,50406).
route(prodloc4,prodloc3,tr0,22129,575354).
route(prodloc4,prodloc3,tr13,22129,132774).
route(prodloc4,prodloc5,tr0,8510,221260).
route(prodloc4,prodloc5,tr13,8510,51060).
route(prodloc4,prodloc6,tr0,28028,728728).
route(prodloc4,prodloc6,tr13,28028,168168).
route(prodloc4,prodloc7,tr0,21120,549120).
route(prodloc4,prodloc7,tr13,21120,126720).
route(prodloc4,prodloc8,tr0,18419,478894).
route(prodloc4,prodloc8,tr13,18419,110514).
route(prodloc4,prodloc9,tr0,21659,563134).
route(prodloc4,prodloc9,tr13,21659,129954).
route(prodloc4,prodloc10,tr0,4390,114140).
route(prodloc4,prodloc10,tr13,4390,26340).
route(prodloc4,prodloc11,tr0,12390,322140).
route(prodloc4,prodloc11,tr13,12390,74340).
route(prodloc4,prodloc12,tr0,17031,442806).
route(prodloc4,prodloc12,tr13,17031,102186).
route(prodloc4,prodloc13,tr0,3353,87178).
route(prodloc4,prodloc13,tr13,3353,20118).
route(prodloc4,prodloc14,tr0,3567,92742).
route(prodloc4,prodloc14,tr13,3567,21402).
route(prodloc4,prodloc15,tr0,16165,420290).
route(prodloc4,prodloc15,tr13,16165,96990).
route(prodloc4,prodloc16,tr0,15234,396084).
route(prodloc4,prodloc16,tr13,15234,91404).
route(prodloc4,prodloc17,tr0,22844,593944).
route(prodloc4,prodloc17,tr13,22844,137064).
route(prodloc4,prodloc18,tr0,13704,356304).
route(prodloc4,prodloc18,tr13,13704,82224).
route(prodloc4,prodloc19,tr0,5414,140764).
route(prodloc4,prodloc19,tr13,5414,32484).
route(prodloc4,prodloc20,tr0,11929,310154).
route(prodloc4,prodloc20,tr13,11929,71574).
route(prodloc4,prodloc21,tr0,16942,440492).
route(prodloc4,prodloc21,tr13,16942,101652).
route(prodloc4,prodloc22,tr0,8127,211302).
route(prodloc4,prodloc22,tr13,8127,48762).
route(prodloc4,prodloc23,tr0,12953,336778).
route(prodloc4,prodloc23,tr13,12953,77718).
route(prodloc4,prodloc24,tr0,5395,140270).
route(prodloc4,prodloc24,tr13,5395,32370).
route(prodloc4,prodloc25,tr0,2908,75608).
route(prodloc4,prodloc25,tr13,2908,17448).
route(prodloc4,prodloc26,tr0,8747,227422).
route(prodloc4,prodloc26,tr13,8747,52482).
route(prodloc4,prodloc27,tr0,24501,637026).
route(prodloc4,prodloc27,tr13,24501,147006).
route(prodloc4,prodloc28,tr0,21532,559832).
route(prodloc4,prodloc28,tr13,21532,129192).
route(prodloc4,prodloc29,tr0,12176,316576).
route(prodloc4,prodloc29,tr13,12176,73056).
route(prodloc4,prodloc30,tr0,5509,143234).
route(prodloc4,prodloc30,tr13,5509,33054).
route(prodloc4,prodloc31,tr0,24010,624260).
route(prodloc4,prodloc31,tr13,24010,144060).
route(prodloc4,prodloc32,tr0,15734,409084).
route(prodloc4,prodloc32,tr13,15734,94404).
route(prodloc4,prodloc33,tr0,14660,381160).
route(prodloc4,prodloc33,tr13,14660,87960).
route(prodloc5,harbor0,tr0,1947,50622).
route(prodloc5,harbor0,tr13,1947,11682).
route(prodloc5,harbor1,tr0,24705,642330).
route(prodloc5,harbor1,tr13,24705,148230).
route(prodloc5,harbor2,tr0,10063,261638).
route(prodloc5,harbor2,tr13,10063,60378).
route(prodloc5,harbor3,tr0,16887,439062).
route(prodloc5,harbor3,tr13,16887,101322).
route(prodloc5,harbor4,tr0,12013,312338).
route(prodloc5,harbor4,tr13,12013,72078).
route(prodloc5,harbor5,tr0,19018,494468).
route(prodloc5,harbor5,tr13,19018,114108).
route(prodloc5,harbor6,tr0,6122,159172).
route(prodloc5,harbor6,tr13,6122,36732).
route(prodloc5,harbor7,tr0,15782,410332).
route(prodloc5,harbor7,tr13,15782,94692).
route(prodloc5,harbor8,tr0,26682,693732).
route(prodloc5,harbor8,tr13,26682,160092).
route(prodloc5,harbor9,tr0,28922,751972).
route(prodloc5,harbor9,tr13,28922,173532).
route(prodloc5,harbor10,tr0,11289,293514).
route(prodloc5,harbor10,tr13,11289,67734).
route(prodloc5,harbor11,tr0,14442,375492).
route(prodloc5,harbor11,tr13,14442,86652).
route(prodloc5,harbor12,tr0,14949,388674).
route(prodloc5,harbor12,tr13,14949,89694).
route(prodloc5,harbor13,tr0,1727,44902).
route(prodloc5,harbor13,tr13,1727,10362).
route(prodloc5,harbor14,tr0,24985,649610).
route(prodloc5,harbor14,tr13,24985,149910).
route(prodloc5,harbor15,tr0,27697,720122).
route(prodloc5,harbor15,tr13,27697,166182).
route(prodloc5,harbor16,tr0,7275,189150).
route(prodloc5,harbor16,tr13,7275,43650).
route(prodloc5,prodloc0,tr0,21992,571792).
route(prodloc5,prodloc0,tr13,21992,131952).
route(prodloc5,prodloc1,tr0,25988,675688).
route(prodloc5,prodloc1,tr13,25988,155928).
route(prodloc5,prodloc2,tr0,75,1950).
route(prodloc5,prodloc2,tr13,75,450).
route(prodloc5,prodloc3,tr0,9262,240812).
route(prodloc5,prodloc3,tr13,9262,55572).
route(prodloc5,prodloc4,tr0,8330,216580).
route(prodloc5,prodloc4,tr13,8330,49980).
route(prodloc5,prodloc6,tr0,21978,571428).
route(prodloc5,prodloc6,tr13,21978,131868).
route(prodloc5,prodloc7,tr0,28353,737178).
route(prodloc5,prodloc7,tr13,28353,170118).
route(prodloc5,prodloc8,tr0,11015,286390).
route(prodloc5,prodloc8,tr13,11015,66090).
route(prodloc5,prodloc9,tr0,8079,210054).
route(prodloc5,prodloc9,tr13,8079,48474).
route(prodloc5,prodloc10,tr0,16109,418834).
route(prodloc5,prodloc10,tr13,16109,96654).
route(prodloc5,prodloc11,tr0,22344,580944).
route(prodloc5,prodloc11,tr13,22344,134064).
route(prodloc5,prodloc12,tr0,3313,86138).
route(prodloc5,prodloc12,tr13,3313,19878).
route(prodloc5,prodloc13,tr0,25731,669006).
route(prodloc5,prodloc13,tr13,25731,154386).
route(prodloc5,prodloc14,tr0,16525,429650).
route(prodloc5,prodloc14,tr13,16525,99150).
route(prodloc5,prodloc15,tr0,24244,630344).
route(prodloc5,prodloc15,tr13,24244,145464).
route(prodloc5,prodloc16,tr0,22701,590226).
route(prodloc5,prodloc16,tr13,22701,136206).
route(prodloc5,prodloc17,tr0,11931,310206).
route(prodloc5,prodloc17,tr13,11931,71586).
route(prodloc5,prodloc18,tr0,20971,545246).
route(prodloc5,prodloc18,tr13,20971,125826).
route(prodloc5,prodloc19,tr0,21197,551122).
route(prodloc5,prodloc19,tr13,21197,127182).
route(prodloc5,prodloc20,tr0,28486,740636).
route(prodloc5,prodloc20,tr13,28486,170916).
route(prodloc5,prodloc21,tr0,1134,29484).
route(prodloc5,prodloc21,tr13,1134,6804).
route(prodloc5,prodloc22,tr0,17626,458276).
route(prodloc5,prodloc22,tr13,17626,105756).
route(prodloc5,prodloc23,tr0,14810,385060).
route(prodloc5,prodloc23,tr13,14810,88860).
route(prodloc5,prodloc24,tr0,11302,293852).
route(prodloc5,prodloc24,tr13,11302,67812).
route(prodloc5,prodloc25,tr0,4243,110318).
route(prodloc5,prodloc25,tr13,4243,25458).
route(prodloc5,prodloc26,tr0,19275,501150).
route(prodloc5,prodloc26,tr13,19275,115650).
route(prodloc5,prodloc27,tr0,21455,557830).
route(prodloc5,prodloc27,tr13,21455,128730).
route(prodloc5,prodloc28,tr0,9299,241774).
route(prodloc5,prodloc28,tr13,9299,55794).
route(prodloc5,prodloc29,tr0,28004,728104).
route(prodloc5,prodloc29,tr13,28004,168024).
route(prodloc5,prodloc30,tr0,27146,705796).
route(prodloc5,prodloc30,tr13,27146,162876).
route(prodloc5,prodloc31,tr0,23425,609050).
route(prodloc5,prodloc31,tr13,23425,140550).
route(prodloc5,prodloc32,tr0,7075,183950).
route(prodloc5,prodloc32,tr13,7075,42450).
route(prodloc5,prodloc33,tr0,24897,647322).
route(prodloc5,prodloc33,tr15,24897,796704).
route(prodloc6,harbor0,tr0,25104,652704).
route(prodloc6,harbor0,tr13,25104,150624).
route(prodloc6,harbor1,tr0,2338,60788).
route(prodloc6,harbor1,tr13,2338,14028).
route(prodloc6,harbor2,tr0,17253,448578).
route(prodloc6,harbor2,tr13,17253,103518).
route(prodloc6,harbor3,tr0,19479,506454).
route(prodloc6,harbor3,tr13,19479,116874).
route(prodloc6,harbor4,tr0,7387,192062).
route(prodloc6,harbor4,tr13,7387,44322).
route(prodloc6,harbor5,tr0,2003,52078).
route(prodloc6,harbor5,tr13,2003,12018).
route(prodloc6,harbor6,tr0,15687,407862).
route(prodloc6,harbor6,tr13,15687,94122).
route(prodloc6,harbor7,tr0,15865,412490).
route(prodloc6,harbor7,tr13,15865,95190).
route(prodloc6,harbor8,tr0,4831,125606).
route(prodloc6,harbor8,tr13,4831,28986).
route(prodloc6,harbor9,tr0,11116,289016).
route(prodloc6,harbor9,tr13,11116,66696).
route(prodloc6,harbor10,tr0,282,7332).
route(prodloc6,harbor10,tr13,282,1692).
route(prodloc6,harbor11,tr0,4388,114088).
route(prodloc6,harbor11,tr13,4388,26328).
route(prodloc6,harbor12,tr0,25647,666822).
route(prodloc6,harbor12,tr13,25647,153882).
route(prodloc6,harbor13,tr0,24162,628212).
route(prodloc6,harbor13,tr13,24162,144972).
route(prodloc6,harbor14,tr0,2198,57148).
route(prodloc6,harbor14,tr13,2198,13188).
route(prodloc6,harbor15,tr0,9781,254306).
route(prodloc6,harbor15,tr13,9781,58686).
route(prodloc6,harbor16,tr0,3105,80730).
route(prodloc6,harbor16,tr13,3105,18630).
route(prodloc6,prodloc0,tr0,15335,398710).
route(prodloc6,prodloc0,tr13,15335,92010).
route(prodloc6,prodloc1,tr0,21737,565162).
route(prodloc6,prodloc1,tr13,21737,130422).
route(prodloc6,prodloc2,tr0,10066,261716).
route(prodloc6,prodloc2,tr13,10066,60396).
route(prodloc6,prodloc3,tr0,1473,38298).
route(prodloc6,prodloc3,tr13,1473,8838).
route(prodloc6,prodloc4,tr0,10633,276458).
route(prodloc6,prodloc4,tr13,10633,63798).
route(prodloc6,prodloc5,tr0,16309,424034).
route(prodloc6,prodloc5,tr13,16309,97854).
route(prodloc6,prodloc7,tr0,18832,489632).
route(prodloc6,prodloc7,tr13,18832,112992).
route(prodloc6,prodloc8,tr0,9481,246506).
route(prodloc6,prodloc8,tr13,9481,56886).
route(prodloc6,prodloc9,tr0,6819,177294).
route(prodloc6,prodloc9,tr15,6819,218208).
route(prodloc6,prodloc10,tr0,6907,179582).
route(prodloc6,prodloc10,tr13,6907,41442).
route(prodloc6,prodloc11,tr0,23133,601458).
route(prodloc6,prodloc11,tr13,23133,138798).
route(prodloc6,prodloc12,tr0,10369,269594).
route(prodloc6,prodloc12,tr13,10369,62214).
route(prodloc6,prodloc13,tr0,3669,95394).
route(prodloc6,prodloc13,tr13,3669,22014).
route(prodloc6,prodloc14,tr0,11400,296400).
route(prodloc6,prodloc14,tr13,11400,68400).
route(prodloc6,prodloc15,tr0,7178,186628).
route(prodloc6,prodloc15,tr13,7178,43068).
route(prodloc6,prodloc16,tr0,662,17212).
route(prodloc6,prodloc16,tr13,662,3972).
route(prodloc6,prodloc17,tr0,22609,587834).
route(prodloc6,prodloc17,tr13,22609,135654).
route(prodloc6,prodloc18,tr0,7780,202280).
route(prodloc6,prodloc18,tr13,7780,46680).
route(prodloc6,prodloc19,tr0,18095,470470).
route(prodloc6,prodloc19,tr13,18095,108570).
route(prodloc6,prodloc20,tr0,8087,210262).
route(prodloc6,prodloc20,tr13,8087,48522).
route(prodloc6,prodloc21,tr0,648,16848).
route(prodloc6,prodloc21,tr13,648,3888).
route(prodloc6,prodloc22,tr0,20718,538668).
route(prodloc6,prodloc22,tr13,20718,124308).
route(prodloc6,prodloc23,tr0,19589,509314).
route(prodloc6,prodloc23,tr13,19589,117534).
route(prodloc6,prodloc24,tr0,16912,439712).
route(prodloc6,prodloc24,tr13,16912,101472).
route(prodloc6,prodloc25,tr0,13920,361920).
route(prodloc6,prodloc25,tr13,13920,83520).
route(prodloc6,prodloc26,tr0,22012,572312).
route(prodloc6,prodloc26,tr13,22012,132072).
route(prodloc6,prodloc27,tr0,8884,230984).
route(prodloc6,prodloc27,tr13,8884,53304).
route(prodloc6,prodloc28,tr0,18737,487162).
route(prodloc6,prodloc28,tr13,18737,112422).
route(prodloc6,prodloc29,tr0,20069,521794).
route(prodloc6,prodloc29,tr13,20069,120414).
route(prodloc6,prodloc30,tr0,28185,732810).
route(prodloc6,prodloc30,tr13,28185,169110).
route(prodloc6,prodloc31,tr0,6484,168584).
route(prodloc6,prodloc31,tr13,6484,38904).
route(prodloc6,prodloc32,tr0,6324,164424).
route(prodloc6,prodloc32,tr13,6324,37944).
route(prodloc6,prodloc33,tr0,19742,513292).
route(prodloc6,prodloc33,tr13,19742,118452).
route(prodloc7,harbor0,tr0,7126,185276).
route(prodloc7,harbor0,tr13,7126,42756).
route(prodloc7,harbor1,tr0,12110,314860).
route(prodloc7,harbor1,tr13,12110,72660).
route(prodloc7,harbor2,tr0,18437,479362).
route(prodloc7,harbor2,tr13,18437,110622).
route(prodloc7,harbor3,tr0,10903,283478).
route(prodloc7,harbor3,tr13,10903,65418).
route(prodloc7,harbor4,tr0,25495,662870).
route(prodloc7,harbor4,tr13,25495,152970).
route(prodloc7,harbor5,tr0,23709,616434).
route(prodloc7,harbor5,tr13,23709,142254).
route(prodloc7,harbor6,tr0,14398,374348).
route(prodloc7,harbor6,tr13,14398,86388).
route(prodloc7,harbor7,tr0,4915,127790).
route(prodloc7,harbor7,tr13,4915,29490).
route(prodloc7,harbor8,tr0,20109,522834).
route(prodloc7,harbor8,tr13,20109,120654).
route(prodloc7,harbor9,tr0,8137,211562).
route(prodloc7,harbor9,tr13,8137,48822).
route(prodloc7,harbor10,tr0,28907,751582).
route(prodloc7,harbor10,tr13,28907,173442).
route(prodloc7,harbor11,tr0,14416,374816).
route(prodloc7,harbor11,tr13,14416,86496).
route(prodloc7,harbor12,tr0,16619,432094).
route(prodloc7,harbor12,tr13,16619,99714).
route(prodloc7,harbor13,tr0,5841,151866).
route(prodloc7,harbor13,tr13,5841,35046).
route(prodloc7,harbor14,tr0,23804,618904).
route(prodloc7,harbor14,tr13,23804,142824).
route(prodloc7,harbor15,tr0,5156,134056).
route(prodloc7,harbor15,tr13,5156,30936).
route(prodloc7,harbor16,tr0,9219,239694).
route(prodloc7,harbor16,tr13,9219,55314).
route(prodloc7,prodloc0,tr0,27608,717808).
route(prodloc7,prodloc0,tr15,27608,883456).
route(prodloc7,prodloc1,tr0,26092,678392).
route(prodloc7,prodloc1,tr13,26092,156552).
route(prodloc7,prodloc2,tr0,24993,649818).
route(prodloc7,prodloc2,tr13,24993,149958).
route(prodloc7,prodloc3,tr0,22431,583206).
route(prodloc7,prodloc3,tr13,22431,134586).
route(prodloc7,prodloc4,tr0,25789,670514).
route(prodloc7,prodloc4,tr13,25789,154734).
route(prodloc7,prodloc5,tr0,11456,297856).
route(prodloc7,prodloc5,tr13,11456,68736).
route(prodloc7,prodloc6,tr0,5918,153868).
route(prodloc7,prodloc6,tr13,5918,35508).
route(prodloc7,prodloc8,tr0,23832,619632).
route(prodloc7,prodloc8,tr13,23832,142992).
route(prodloc7,prodloc9,tr0,23640,614640).
route(prodloc7,prodloc9,tr13,23640,141840).
route(prodloc7,prodloc10,tr0,19977,519402).
route(prodloc7,prodloc10,tr13,19977,119862).
route(prodloc7,prodloc11,tr0,6306,163956).
route(prodloc7,prodloc11,tr13,6306,37836).
route(prodloc7,prodloc12,tr0,18769,487994).
route(prodloc7,prodloc12,tr13,18769,112614).
route(prodloc7,prodloc13,tr0,24829,645554).
route(prodloc7,prodloc13,tr13,24829,148974).
route(prodloc7,prodloc14,tr0,4096,106496).
route(prodloc7,prodloc14,tr13,4096,24576).
route(prodloc7,prodloc15,tr0,18058,469508).
route(prodloc7,prodloc15,tr13,18058,108348).
route(prodloc7,prodloc16,tr0,13825,359450).
route(prodloc7,prodloc16,tr13,13825,82950).
route(prodloc7,prodloc17,tr0,26502,689052).
route(prodloc7,prodloc17,tr13,26502,159012).
route(prodloc7,prodloc18,tr0,23396,608296).
route(prodloc7,prodloc18,tr13,23396,140376).
route(prodloc7,prodloc19,tr0,10875,282750).
route(prodloc7,prodloc19,tr13,10875,65250).
route(prodloc7,prodloc20,tr0,15387,400062).
route(prodloc7,prodloc20,tr13,15387,92322).
route(prodloc7,prodloc21,tr0,26348,685048).
route(prodloc7,prodloc21,tr13,26348,158088).
route(prodloc7,prodloc22,tr0,11259,292734).
route(prodloc7,prodloc22,tr13,11259,67554).
route(prodloc7,prodloc23,tr0,18376,477776).
route(prodloc7,prodloc23,tr13,18376,110256).
route(prodloc7,prodloc24,tr0,19291,501566).
route(prodloc7,prodloc24,tr13,19291,115746).
route(prodloc7,prodloc25,tr0,28651,744926).
route(prodloc7,prodloc25,tr13,28651,171906).
route(prodloc7,prodloc26,tr0,12288,319488).
route(prodloc7,prodloc26,tr13,12288,73728).
route(prodloc7,prodloc27,tr0,13345,346970).
route(prodloc7,prodloc27,tr13,13345,80070).
route(prodloc7,prodloc28,tr0,11727,304902).
route(prodloc7,prodloc28,tr13,11727,70362).
route(prodloc7,prodloc29,tr0,28088,730288).
route(prodloc7,prodloc29,tr13,28088,168528).
route(prodloc7,prodloc30,tr0,21449,557674).
route(prodloc7,prodloc30,tr13,21449,128694).
route(prodloc7,prodloc31,tr0,20740,539240).
route(prodloc7,prodloc31,tr13,20740,124440).
route(prodloc7,prodloc32,tr0,10298,267748).
route(prodloc7,prodloc32,tr13,10298,61788).
route(prodloc7,prodloc33,tr0,20366,529516).
route(prodloc7,prodloc33,tr13,20366,122196).
route(prodloc8,harbor0,tr0,27688,719888).
route(prodloc8,harbor0,tr13,27688,166128).
route(prodloc8,harbor1,tr0,26209,681434).
route(prodloc8,harbor1,tr13,26209,157254).
route(prodloc8,harbor2,tr0,5773,150098).
route(prodloc8,harbor2,tr13,5773,34638).
route(prodloc8,harbor3,tr0,14724,382824).
route(prodloc8,harbor3,tr13,14724,88344).
route(prodloc8,harbor4,tr0,2379,61854).
route(prodloc8,harbor4,tr13,2379,14274).
route(prodloc8,harbor5,tr0,28158,732108).
route(prodloc8,harbor5,tr13,28158,168948).
route(prodloc8,harbor6,tr0,14659,381134).
route(prodloc8,harbor6,tr13,14659,87954).
route(prodloc8,harbor7,tr0,15771,410046).
route(prodloc8,harbor7,tr13,15771,94626).
route(prodloc8,harbor8,tr0,24708,642408).
route(prodloc8,harbor8,tr13,24708,148248).
route(prodloc8,harbor9,tr0,21547,560222).
route(prodloc8,harbor9,tr13,21547,129282).
route(prodloc8,harbor10,tr0,3038,78988).
route(prodloc8,harbor10,tr13,3038,18228).
route(prodloc8,harbor11,tr0,9458,245908).
route(prodloc8,harbor11,tr13,9458,56748).
route(prodloc8,harbor12,tr0,25589,665314).
route(prodloc8,harbor12,tr13,25589,153534).
route(prodloc8,harbor13,tr0,26888,699088).
route(prodloc8,harbor13,tr13,26888,161328).
route(prodloc8,harbor14,tr0,6837,177762).
route(prodloc8,harbor14,tr13,6837,41022).
route(prodloc8,harbor15,tr0,5029,130754).
route(prodloc8,harbor15,tr13,5029,30174).
route(prodloc8,harbor16,tr0,19737,513162).
route(prodloc8,harbor16,tr13,19737,118422).
route(prodloc8,prodloc0,tr0,17797,462722).
route(prodloc8,prodloc0,tr13,17797,106782).
route(prodloc8,prodloc1,tr0,4019,104494).
route(prodloc8,prodloc1,tr13,4019,24114).
route(prodloc8,prodloc2,tr0,8903,231478).
route(prodloc8,prodloc2,tr13,8903,53418).
route(prodloc8,prodloc3,tr0,24333,632658).
route(prodloc8,prodloc3,tr13,24333,145998).
route(prodloc8,prodloc4,tr0,6661,173186).
route(prodloc8,prodloc4,tr13,6661,39966).
route(prodloc8,prodloc5,tr0,2114,54964).
route(prodloc8,prodloc5,tr13,2114,12684).
route(prodloc8,prodloc6,tr0,15076,391976).
route(prodloc8,prodloc6,tr13,15076,90456).
route(prodloc8,prodloc7,tr0,28052,729352).
route(prodloc8,prodloc7,tr13,28052,168312).
route(prodloc8,prodloc9,tr0,1824,47424).
route(prodloc8,prodloc9,tr13,1824,10944).
route(prodloc8,prodloc10,tr0,3829,99554).
route(prodloc8,prodloc10,tr13,3829,22974).
route(prodloc8,prodloc11,tr0,24256,630656).
route(prodloc8,prodloc11,tr13,24256,145536).
route(prodloc8,prodloc12,tr0,7932,206232).
route(prodloc8,prodloc12,tr13,7932,47592).
route(prodloc8,prodloc13,tr0,27489,714714).
route(prodloc8,prodloc13,tr13,27489,164934).
route(prodloc8,prodloc14,tr0,141,3666).
route(prodloc8,prodloc14,tr13,141,846).
route(prodloc8,prodloc15,tr0,10104,262704).
route(prodloc8,prodloc15,tr13,10104,60624).
route(prodloc8,prodloc16,tr0,17889,465114).
route(prodloc8,prodloc16,tr13,17889,107334).
route(prodloc8,prodloc17,tr0,13902,361452).
route(prodloc8,prodloc17,tr13,13902,83412).
route(prodloc8,prodloc18,tr0,21292,553592).
route(prodloc8,prodloc18,tr13,21292,127752).
route(prodloc8,prodloc19,tr0,20342,528892).
route(prodloc8,prodloc19,tr13,20342,122052).
route(prodloc8,prodloc20,tr0,4583,119158).
route(prodloc8,prodloc20,tr13,4583,27498).
route(prodloc8,prodloc21,tr0,595,15470).
route(prodloc8,prodloc21,tr13,595,3570).
route(prodloc8,prodloc22,tr0,15934,414284).
route(prodloc8,prodloc22,tr13,15934,95604).
route(prodloc8,prodloc23,tr0,19433,505258).
route(prodloc8,prodloc23,tr13,19433,116598).
route(prodloc8,prodloc24,tr0,1741,45266).
route(prodloc8,prodloc24,tr13,1741,10446).
route(prodloc8,prodloc25,tr0,20233,526058).
route(prodloc8,prodloc25,tr13,20233,121398).
route(prodloc8,prodloc26,tr0,3201,83226).
route(prodloc8,prodloc26,tr13,3201,19206).
route(prodloc8,prodloc27,tr0,9920,257920).
route(prodloc8,prodloc27,tr13,9920,59520).
route(prodloc8,prodloc28,tr0,12699,330174).
route(prodloc8,prodloc28,tr13,12699,76194).
route(prodloc8,prodloc29,tr0,20121,523146).
route(prodloc8,prodloc29,tr13,20121,120726).
route(prodloc8,prodloc30,tr0,14274,371124).
route(prodloc8,prodloc30,tr13,14274,85644).
route(prodloc8,prodloc31,tr0,9112,236912).
route(prodloc8,prodloc31,tr13,9112,54672).
route(prodloc8,prodloc32,tr0,793,20618).
route(prodloc8,prodloc32,tr13,793,4758).
route(prodloc8,prodloc33,tr0,18844,489944).
route(prodloc8,prodloc33,tr13,18844,113064).
route(prodloc9,harbor0,tr0,23659,615134).
route(prodloc9,harbor0,tr13,23659,141954).
route(prodloc9,harbor1,tr0,4677,121602).
route(prodloc9,harbor1,tr13,4677,28062).
route(prodloc9,harbor2,tr0,27665,719290).
route(prodloc9,harbor2,tr13,27665,165990).
route(prodloc9,harbor3,tr0,11753,305578).
route(prodloc9,harbor3,tr13,11753,70518).
route(prodloc9,harbor4,tr0,6429,167154).
route(prodloc9,harbor4,tr13,6429,38574).
route(prodloc9,harbor5,tr0,22947,596622).
route(prodloc9,harbor5,tr13,22947,137682).
route(prodloc9,harbor6,tr0,26319,684294).
route(prodloc9,harbor6,tr13,26319,157914).
route(prodloc9,harbor7,tr0,10094,262444).
route(prodloc9,harbor7,tr13,10094,60564).
route(prodloc9,harbor8,tr0,27571,716846).
route(prodloc9,harbor8,tr13,27571,165426).
route(prodloc9,harbor9,tr0,2996,77896).
route(prodloc9,harbor9,tr13,2996,17976).
route(prodloc9,harbor10,tr0,26361,685386).
route(prodloc9,harbor10,tr13,26361,158166).
route(prodloc9,harbor11,tr0,10612,275912).
route(prodloc9,harbor11,tr13,10612,63672).
route(prodloc9,harbor12,tr0,3204,83304).
route(prodloc9,harbor12,tr13,3204,19224).
route(prodloc9,harbor13,tr0,26353,685178).
route(prodloc9,harbor13,tr13,26353,158118).
route(prodloc9,harbor14,tr0,20024,520624).
route(prodloc9,harbor14,tr13,20024,120144).
route(prodloc9,harbor15,tr0,25913,673738).
route(prodloc9,harbor15,tr13,25913,155478).
route(prodloc9,harbor16,tr0,13727,356902).
route(prodloc9,harbor16,tr13,13727,82362).
route(prodloc9,prodloc0,tr0,28481,740506).
route(prodloc9,prodloc0,tr13,28481,170886).
route(prodloc9,prodloc1,tr0,17631,458406).
route(prodloc9,prodloc1,tr13,17631,105786).
route(prodloc9,prodloc2,tr0,18014,468364).
route(prodloc9,prodloc2,tr13,18014,108084).
route(prodloc9,prodloc3,tr0,24162,628212).
route(prodloc9,prodloc3,tr13,24162,144972).
route(prodloc9,prodloc4,tr0,1311,34086).
route(prodloc9,prodloc4,tr13,1311,7866).
route(prodloc9,prodloc5,tr0,8656,225056).
route(prodloc9,prodloc5,tr13,8656,51936).
route(prodloc9,prodloc6,tr0,5104,132704).
route(prodloc9,prodloc6,tr13,5104,30624).
route(prodloc9,prodloc7,tr0,14440,375440).
route(prodloc9,prodloc7,tr13,14440,86640).
route(prodloc9,prodloc8,tr0,26829,697554).
route(prodloc9,prodloc8,tr13,26829,160974).
route(prodloc9,prodloc10,tr0,10645,276770).
route(prodloc9,prodloc10,tr13,10645,63870).
route(prodloc9,prodloc11,tr0,19354,503204).
route(prodloc9,prodloc11,tr13,19354,116124).
route(prodloc9,prodloc12,tr0,14311,372086).
route(prodloc9,prodloc12,tr13,14311,85866).
route(prodloc9,prodloc13,tr0,14496,376896).
route(prodloc9,prodloc13,tr13,14496,86976).
route(prodloc9,prodloc14,tr0,20651,536926).
route(prodloc9,prodloc14,tr13,20651,123906).
route(prodloc9,prodloc15,tr0,13225,343850).
route(prodloc9,prodloc15,tr13,13225,79350).
route(prodloc9,prodloc16,tr0,13873,360698).
route(prodloc9,prodloc16,tr13,13873,83238).
route(prodloc9,prodloc17,tr0,11956,310856).
route(prodloc9,prodloc17,tr13,11956,71736).
route(prodloc9,prodloc18,tr0,25673,667498).
route(prodloc9,prodloc18,tr13,25673,154038).
route(prodloc9,prodloc19,tr0,21971,571246).
route(prodloc9,prodloc19,tr13,21971,131826).
route(prodloc9,prodloc20,tr0,10643,276718).
route(prodloc9,prodloc20,tr13,10643,63858).
route(prodloc9,prodloc21,tr0,22434,583284).
route(prodloc9,prodloc21,tr13,22434,134604).
route(prodloc9,prodloc22,tr0,13910,361660).
route(prodloc9,prodloc22,tr13,13910,83460).
route(prodloc9,prodloc23,tr0,12805,332930).
route(prodloc9,prodloc23,tr13,12805,76830).
route(prodloc9,prodloc24,tr0,5831,151606).
route(prodloc9,prodloc24,tr13,5831,34986).
route(prodloc9,prodloc25,tr0,9608,249808).
route(prodloc9,prodloc25,tr13,9608,57648).
route(prodloc9,prodloc26,tr0,25119,653094).
route(prodloc9,prodloc26,tr13,25119,150714).
route(prodloc9,prodloc27,tr0,18628,484328).
route(prodloc9,prodloc27,tr13,18628,111768).
route(prodloc9,prodloc28,tr0,22853,594178).
route(prodloc9,prodloc28,tr13,22853,137118).
route(prodloc9,prodloc29,tr0,20936,544336).
route(prodloc9,prodloc29,tr13,20936,125616).
route(prodloc9,prodloc30,tr0,7227,187902).
route(prodloc9,prodloc30,tr13,7227,43362).
route(prodloc9,prodloc31,tr0,16078,418028).
route(prodloc9,prodloc31,tr13,16078,96468).
route(prodloc9,prodloc32,tr0,20825,541450).
route(prodloc9,prodloc32,tr13,20825,124950).
route(prodloc9,prodloc33,tr0,6620,172120).
route(prodloc9,prodloc33,tr13,6620,39720).
route(prodloc10,harbor0,tr0,6172,160472).
route(prodloc10,harbor0,tr13,6172,37032).
route(prodloc10,harbor1,tr0,10009,260234).
route(prodloc10,harbor1,tr13,10009,60054).
route(prodloc10,harbor2,tr0,17387,452062).
route(prodloc10,harbor2,tr13,17387,104322).
route(prodloc10,harbor3,tr0,11951,310726).
route(prodloc10,harbor3,tr13,11951,71706).
route(prodloc10,harbor4,tr0,8923,231998).
route(prodloc10,harbor4,tr13,8923,53538).
route(prodloc10,harbor5,tr0,15034,390884).
route(prodloc10,harbor5,tr13,15034,90204).
route(prodloc10,harbor6,tr0,24229,629954).
route(prodloc10,harbor6,tr13,24229,145374).
route(prodloc10,harbor7,tr0,16161,420186).
route(prodloc10,harbor7,tr13,16161,96966).
route(prodloc10,harbor8,tr0,23232,604032).
route(prodloc10,harbor8,tr13,23232,139392).
route(prodloc10,harbor9,tr0,2773,72098).
route(prodloc10,harbor9,tr13,2773,16638).
route(prodloc10,harbor10,tr0,12632,328432).
route(prodloc10,harbor10,tr13,12632,75792).
route(prodloc10,harbor11,tr0,7895,205270).
route(prodloc10,harbor11,tr13,7895,47370).
route(prodloc10,harbor12,tr0,10005,260130).
route(prodloc10,harbor12,tr13,10005,60030).
route(prodloc10,harbor13,tr0,9845,255970).
route(prodloc10,harbor13,tr13,9845,59070).
route(prodloc10,harbor14,tr0,24129,627354).
route(prodloc10,harbor14,tr13,24129,144774).
route(prodloc10,harbor15,tr0,24499,636974).
route(prodloc10,harbor15,tr13,24499,146994).
route(prodloc10,harbor16,tr0,22991,597766).
route(prodloc10,harbor16,tr13,22991,137946).
route(prodloc10,prodloc0,tr0,20056,521456).
route(prodloc10,prodloc0,tr15,20056,641792).
route(prodloc10,prodloc1,tr0,15223,395798).
route(prodloc10,prodloc1,tr13,15223,91338).
route(prodloc10,prodloc2,tr0,17030,442780).
route(prodloc10,prodloc2,tr13,17030,102180).
route(prodloc10,prodloc3,tr0,16725,434850).
route(prodloc10,prodloc3,tr13,16725,100350).
route(prodloc10,prodloc4,tr0,2767,71942).
route(prodloc10,prodloc4,tr13,2767,16602).
route(prodloc10,prodloc5,tr0,15630,406380).
route(prodloc10,prodloc5,tr13,15630,93780).
route(prodloc10,prodloc6,tr0,8725,226850).
route(prodloc10,prodloc6,tr13,8725,52350).
route(prodloc10,prodloc7,tr0,11371,295646).
route(prodloc10,prodloc7,tr13,11371,68226).
route(prodloc10,prodloc8,tr0,27640,718640).
route(prodloc10,prodloc8,tr13,27640,165840).
route(prodloc10,prodloc9,tr0,24505,637130).
route(prodloc10,prodloc9,tr13,24505,147030).
route(prodloc10,prodloc11,tr0,15400,400400).
route(prodloc10,prodloc11,tr13,15400,92400).
route(prodloc10,prodloc12,tr0,1806,46956).
route(prodloc10,prodloc12,tr13,1806,10836).
route(prodloc10,prodloc13,tr0,16480,428480).
route(prodloc10,prodloc13,tr13,16480,98880).
route(prodloc10,prodloc14,tr0,9473,246298).
route(prodloc10,prodloc14,tr13,9473,56838).
route(prodloc10,prodloc15,tr0,27003,702078).
route(prodloc10,prodloc15,tr13,27003,162018).
route(prodloc10,prodloc16,tr0,14982,389532).
route(prodloc10,prodloc16,tr13,14982,89892).
route(prodloc10,prodloc17,tr0,12461,323986).
route(prodloc10,prodloc17,tr13,12461,74766).
route(prodloc10,prodloc18,tr0,18953,492778).
route(prodloc10,prodloc18,tr13,18953,113718).
route(prodloc10,prodloc19,tr0,13729,356954).
route(prodloc10,prodloc19,tr13,13729,82374).
route(prodloc10,prodloc20,tr0,2677,69602).
route(prodloc10,prodloc20,tr13,2677,16062).
route(prodloc10,prodloc21,tr0,21535,559910).
route(prodloc10,prodloc21,tr13,21535,129210).
route(prodloc10,prodloc22,tr0,17403,452478).
route(prodloc10,prodloc22,tr13,17403,104418).
route(prodloc10,prodloc23,tr0,6014,156364).
route(prodloc10,prodloc23,tr13,6014,36084).
route(prodloc10,prodloc24,tr0,17828,463528).
route(prodloc10,prodloc24,tr13,17828,106968).
route(prodloc10,prodloc25,tr0,15245,396370).
route(prodloc10,prodloc25,tr13,15245,91470).
route(prodloc10,prodloc26,tr0,3921,101946).
route(prodloc10,prodloc26,tr13,3921,23526).
route(prodloc10,prodloc27,tr0,1785,46410).
route(prodloc10,prodloc27,tr13,1785,10710).
route(prodloc10,prodloc28,tr0,25916,673816).
route(prodloc10,prodloc28,tr15,25916,829312).
route(prodloc10,prodloc29,tr0,11514,299364).
route(prodloc10,prodloc29,tr13,11514,69084).
route(prodloc10,prodloc30,tr0,6903,179478).
route(prodloc10,prodloc30,tr13,6903,41418).
route(prodloc10,prodloc31,tr0,28787,748462).
route(prodloc10,prodloc31,tr13,28787,172722).
route(prodloc10,prodloc32,tr0,20108,522808).
route(prodloc10,prodloc32,tr13,20108,120648).
route(prodloc10,prodloc33,tr0,14829,385554).
route(prodloc10,prodloc33,tr13,14829,88974).
route(prodloc11,harbor0,tr0,8132,211432).
route(prodloc11,harbor0,tr13,8132,48792).
route(prodloc11,harbor1,tr0,24889,647114).
route(prodloc11,harbor1,tr13,24889,149334).
route(prodloc11,harbor2,tr0,18626,484276).
route(prodloc11,harbor2,tr13,18626,111756).
route(prodloc11,harbor3,tr0,2418,62868).
route(prodloc11,harbor3,tr13,2418,14508).
route(prodloc11,harbor4,tr0,16998,441948).
route(prodloc11,harbor4,tr13,16998,101988).
route(prodloc11,harbor5,tr0,979,25454).
route(prodloc11,harbor5,tr13,979,5874).
route(prodloc11,harbor6,tr0,5159,134134).
route(prodloc11,harbor6,tr13,5159,30954).
route(prodloc11,harbor7,tr0,21822,567372).
route(prodloc11,harbor7,tr13,21822,130932).
route(prodloc11,harbor8,tr0,5963,155038).
route(prodloc11,harbor8,tr13,5963,35778).
route(prodloc11,harbor9,tr0,4105,106730).
route(prodloc11,harbor9,tr13,4105,24630).
route(prodloc11,harbor10,tr0,16376,425776).
route(prodloc11,harbor10,tr13,16376,98256).
route(prodloc11,harbor11,tr0,28743,747318).
route(prodloc11,harbor11,tr13,28743,172458).
route(prodloc11,harbor12,tr0,13937,362362).
route(prodloc11,harbor12,tr13,13937,83622).
route(prodloc11,harbor13,tr0,8920,231920).
route(prodloc11,harbor13,tr13,8920,53520).
route(prodloc11,harbor14,tr0,8734,227084).
route(prodloc11,harbor14,tr13,8734,52404).
route(prodloc11,harbor15,tr0,804,20904).
route(prodloc11,harbor15,tr13,804,4824).
route(prodloc11,harbor16,tr0,3772,98072).
route(prodloc11,harbor16,tr13,3772,22632).
route(prodloc11,prodloc0,tr0,2509,65234).
route(prodloc11,prodloc0,tr13,2509,15054).
route(prodloc11,prodloc1,tr0,1121,29146).
route(prodloc11,prodloc1,tr13,1121,6726).
route(prodloc11,prodloc2,tr0,2774,72124).
route(prodloc11,prodloc2,tr13,2774,16644).
route(prodloc11,prodloc3,tr0,1702,44252).
route(prodloc11,prodloc3,tr13,1702,10212).
route(prodloc11,prodloc4,tr0,12221,317746).
route(prodloc11,prodloc4,tr13,12221,73326).
route(prodloc11,prodloc5,tr0,20724,538824).
route(prodloc11,prodloc5,tr13,20724,124344).
route(prodloc11,prodloc6,tr0,23756,617656).
route(prodloc11,prodloc6,tr13,23756,142536).
route(prodloc11,prodloc7,tr0,5248,136448).
route(prodloc11,prodloc7,tr13,5248,31488).
route(prodloc11,prodloc8,tr0,21164,550264).
route(prodloc11,prodloc8,tr13,21164,126984).
route(prodloc11,prodloc9,tr0,18535,481910).
route(prodloc11,prodloc9,tr13,18535,111210).
route(prodloc11,prodloc10,tr0,25524,663624).
route(prodloc11,prodloc10,tr13,25524,153144).
route(prodloc11,prodloc12,tr0,3967,103142).
route(prodloc11,prodloc12,tr13,3967,23802).
route(prodloc11,prodloc13,tr0,14383,373958).
route(prodloc11,prodloc13,tr13,14383,86298).
route(prodloc11,prodloc14,tr0,4130,107380).
route(prodloc11,prodloc14,tr13,4130,24780).
route(prodloc11,prodloc15,tr0,21289,553514).
route(prodloc11,prodloc15,tr13,21289,127734).
route(prodloc11,prodloc16,tr0,14937,388362).
route(prodloc11,prodloc16,tr13,14937,89622).
route(prodloc11,prodloc17,tr0,22329,580554).
route(prodloc11,prodloc17,tr13,22329,133974).
route(prodloc11,prodloc18,tr0,4900,127400).
route(prodloc11,prodloc18,tr13,4900,29400).
route(prodloc11,prodloc19,tr0,9401,244426).
route(prodloc11,prodloc19,tr13,9401,56406).
route(prodloc11,prodloc20,tr0,2639,68614).
route(prodloc11,prodloc20,tr13,2639,15834).
route(prodloc11,prodloc21,tr0,1008,26208).
route(prodloc11,prodloc21,tr13,1008,6048).
route(prodloc11,prodloc22,tr0,1088,28288).
route(prodloc11,prodloc22,tr13,1088,6528).
route(prodloc11,prodloc23,tr0,18725,486850).
route(prodloc11,prodloc23,tr13,18725,112350).
route(prodloc11,prodloc24,tr0,12428,323128).
route(prodloc11,prodloc24,tr13,12428,74568).
route(prodloc11,prodloc25,tr0,8998,233948).
route(prodloc11,prodloc25,tr13,8998,53988).
route(prodloc11,prodloc26,tr0,9682,251732).
route(prodloc11,prodloc26,tr13,9682,58092).
route(prodloc11,prodloc27,tr0,9387,244062).
route(prodloc11,prodloc27,tr13,9387,56322).
route(prodloc11,prodloc28,tr0,9809,255034).
route(prodloc11,prodloc28,tr13,9809,58854).
route(prodloc11,prodloc29,tr0,13617,354042).
route(prodloc11,prodloc29,tr13,13617,81702).
route(prodloc11,prodloc30,tr0,13367,347542).
route(prodloc11,prodloc30,tr13,13367,80202).
route(prodloc11,prodloc31,tr0,17165,446290).
route(prodloc11,prodloc31,tr13,17165,102990).
route(prodloc11,prodloc32,tr0,25076,651976).
route(prodloc11,prodloc32,tr13,25076,150456).
route(prodloc11,prodloc33,tr0,15243,396318).
route(prodloc11,prodloc33,tr13,15243,91458).
route(prodloc12,harbor0,tr0,2902,75452).
route(prodloc12,harbor0,tr13,2902,17412).
route(prodloc12,harbor1,tr0,10031,260806).
route(prodloc12,harbor1,tr13,10031,60186).
route(prodloc12,harbor2,tr0,900,23400).
route(prodloc12,harbor2,tr13,900,5400).
route(prodloc12,harbor3,tr0,28751,747526).
route(prodloc12,harbor3,tr13,28751,172506).
route(prodloc12,harbor4,tr0,13256,344656).
route(prodloc12,harbor4,tr13,13256,79536).
route(prodloc12,harbor5,tr0,5930,154180).
route(prodloc12,harbor5,tr13,5930,35580).
route(prodloc12,harbor6,tr0,19940,518440).
route(prodloc12,harbor6,tr13,19940,119640).
route(prodloc12,harbor7,tr0,25558,664508).
route(prodloc12,harbor7,tr13,25558,153348).
route(prodloc12,harbor8,tr0,15663,407238).
route(prodloc12,harbor8,tr13,15663,93978).
route(prodloc12,harbor9,tr0,23026,598676).
route(prodloc12,harbor9,tr13,23026,138156).
route(prodloc12,harbor10,tr0,15443,401518).
route(prodloc12,harbor10,tr13,15443,92658).
route(prodloc12,harbor11,tr0,983,25558).
route(prodloc12,harbor11,tr13,983,5898).
route(prodloc12,harbor12,tr0,12796,332696).
route(prodloc12,harbor12,tr13,12796,76776).
route(prodloc12,harbor13,tr0,21283,553358).
route(prodloc12,harbor13,tr13,21283,127698).
route(prodloc12,harbor14,tr0,15106,392756).
route(prodloc12,harbor14,tr13,15106,90636).
route(prodloc12,harbor15,tr0,16491,428766).
route(prodloc12,harbor15,tr13,16491,98946).
route(prodloc12,harbor16,tr0,21124,549224).
route(prodloc12,harbor16,tr13,21124,126744).
route(prodloc12,prodloc0,tr0,2755,71630).
route(prodloc12,prodloc0,tr13,2755,16530).
route(prodloc12,prodloc1,tr0,404,10504).
route(prodloc12,prodloc1,tr13,404,2424).
route(prodloc12,prodloc2,tr0,25652,666952).
route(prodloc12,prodloc2,tr13,25652,153912).
route(prodloc12,prodloc3,tr0,1382,35932).
route(prodloc12,prodloc3,tr13,1382,8292).
route(prodloc12,prodloc4,tr0,5349,139074).
route(prodloc12,prodloc4,tr13,5349,32094).
route(prodloc12,prodloc5,tr0,1141,29666).
route(prodloc12,prodloc5,tr13,1141,6846).
route(prodloc12,prodloc6,tr0,17360,451360).
route(prodloc12,prodloc6,tr13,17360,104160).
route(prodloc12,prodloc7,tr0,12564,326664).
route(prodloc12,prodloc7,tr13,12564,75384).
route(prodloc12,prodloc8,tr0,24527,637702).
route(prodloc12,prodloc8,tr13,24527,147162).
route(prodloc12,prodloc9,tr0,17118,445068).
route(prodloc12,prodloc9,tr13,17118,102708).
route(prodloc12,prodloc10,tr0,110,2860).
route(prodloc12,prodloc10,tr13,110,660).
route(prodloc12,prodloc11,tr0,26729,694954).
route(prodloc12,prodloc11,tr13,26729,160374).
route(prodloc12,prodloc13,tr0,7687,199862).
route(prodloc12,prodloc13,tr13,7687,46122).
route(prodloc12,prodloc14,tr0,2480,64480).
route(prodloc12,prodloc14,tr13,2480,14880).
route(prodloc12,prodloc15,tr0,15167,394342).
route(prodloc12,prodloc15,tr13,15167,91002).
route(prodloc12,prodloc16,tr0,512,13312).
route(prodloc12,prodloc16,tr13,512,3072).
route(prodloc12,prodloc17,tr0,11796,306696).
route(prodloc12,prodloc17,tr13,11796,70776).
route(prodloc12,prodloc18,tr0,8736,227136).
route(prodloc12,prodloc18,tr13,8736,52416).
route(prodloc12,prodloc19,tr0,7429,193154).
route(prodloc12,prodloc19,tr13,7429,44574).
route(prodloc12,prodloc20,tr0,839,21814).
route(prodloc12,prodloc20,tr13,839,5034).
route(prodloc12,prodloc21,tr0,25673,667498).
route(prodloc12,prodloc21,tr13,25673,154038).
route(prodloc12,prodloc22,tr0,21342,554892).
route(prodloc12,prodloc22,tr13,21342,128052).
route(prodloc12,prodloc23,tr0,16068,417768).
route(prodloc12,prodloc23,tr13,16068,96408).
route(prodloc12,prodloc24,tr0,14162,368212).
route(prodloc12,prodloc24,tr13,14162,84972).
route(prodloc12,prodloc25,tr0,16843,437918).
route(prodloc12,prodloc25,tr13,16843,101058).
route(prodloc12,prodloc26,tr0,5771,150046).
route(prodloc12,prodloc26,tr13,5771,34626).
route(prodloc12,prodloc27,tr0,19009,494234).
route(prodloc12,prodloc27,tr13,19009,114054).
route(prodloc12,prodloc28,tr0,4748,123448).
route(prodloc12,prodloc28,tr13,4748,28488).
route(prodloc12,prodloc29,tr0,2973,77298).
route(prodloc12,prodloc29,tr13,2973,17838).
route(prodloc12,prodloc30,tr0,11685,303810).
route(prodloc12,prodloc30,tr13,11685,70110).
route(prodloc12,prodloc31,tr0,15955,414830).
route(prodloc12,prodloc31,tr13,15955,95730).
route(prodloc12,prodloc32,tr0,27989,727714).
route(prodloc12,prodloc32,tr13,27989,167934).
route(prodloc12,prodloc33,tr0,18058,469508).
route(prodloc12,prodloc33,tr13,18058,108348).
route(prodloc13,harbor0,tr0,13733,357058).
route(prodloc13,harbor0,tr13,13733,82398).
route(prodloc13,harbor1,tr0,16230,421980).
route(prodloc13,harbor1,tr13,16230,97380).
route(prodloc13,harbor2,tr0,11558,300508).
route(prodloc13,harbor2,tr13,11558,69348).
route(prodloc13,harbor3,tr0,26856,698256).
route(prodloc13,harbor3,tr13,26856,161136).
route(prodloc13,harbor4,tr0,3529,91754).
route(prodloc13,harbor4,tr13,3529,21174).
route(prodloc13,harbor5,tr0,22576,586976).
route(prodloc13,harbor5,tr13,22576,135456).
route(prodloc13,harbor6,tr0,1067,27742).
route(prodloc13,harbor6,tr13,1067,6402).
route(prodloc13,harbor7,tr0,2708,70408).
route(prodloc13,harbor7,tr13,2708,16248).
route(prodloc13,harbor8,tr0,13730,356980).
route(prodloc13,harbor8,tr13,13730,82380).
route(prodloc13,harbor9,tr0,20939,544414).
route(prodloc13,harbor9,tr13,20939,125634).
route(prodloc13,harbor10,tr0,9025,234650).
route(prodloc13,harbor10,tr13,9025,54150).
route(prodloc13,harbor11,tr0,24691,641966).
route(prodloc13,harbor11,tr13,24691,148146).
route(prodloc13,harbor12,tr0,27385,712010).
route(prodloc13,harbor12,tr13,27385,164310).
route(prodloc13,harbor13,tr0,21400,556400).
route(prodloc13,harbor13,tr13,21400,128400).
route(prodloc13,harbor14,tr0,20396,530296).
route(prodloc13,harbor14,tr13,20396,122376).
route(prodloc13,harbor15,tr0,22441,583466).
route(prodloc13,harbor15,tr13,22441,134646).
route(prodloc13,harbor16,tr0,18029,468754).
route(prodloc13,harbor16,tr13,18029,108174).
route(prodloc13,prodloc0,tr0,1881,48906).
route(prodloc13,prodloc0,tr13,1881,11286).
route(prodloc13,prodloc1,tr0,11343,294918).
route(prodloc13,prodloc1,tr13,11343,68058).
route(prodloc13,prodloc2,tr0,23241,604266).
route(prodloc13,prodloc2,tr13,23241,139446).
route(prodloc13,prodloc3,tr0,7764,201864).
route(prodloc13,prodloc3,tr13,7764,46584).
route(prodloc13,prodloc4,tr0,17262,448812).
route(prodloc13,prodloc4,tr13,17262,103572).
route(prodloc13,prodloc5,tr0,2013,52338).
route(prodloc13,prodloc5,tr13,2013,12078).
route(prodloc13,prodloc6,tr0,2090,54340).
route(prodloc13,prodloc6,tr13,2090,12540).
route(prodloc13,prodloc7,tr0,14173,368498).
route(prodloc13,prodloc7,tr13,14173,85038).
route(prodloc13,prodloc8,tr0,4401,114426).
route(prodloc13,prodloc8,tr13,4401,26406).
route(prodloc13,prodloc9,tr0,6545,170170).
route(prodloc13,prodloc9,tr13,6545,39270).
route(prodloc13,prodloc10,tr0,6747,175422).
route(prodloc13,prodloc10,tr13,6747,40482).
route(prodloc13,prodloc11,tr0,11626,302276).
route(prodloc13,prodloc11,tr13,11626,69756).
route(prodloc13,prodloc12,tr0,11634,302484).
route(prodloc13,prodloc12,tr13,11634,69804).
route(prodloc13,prodloc14,tr0,11882,308932).
route(prodloc13,prodloc14,tr13,11882,71292).
route(prodloc13,prodloc15,tr0,7290,189540).
route(prodloc13,prodloc15,tr13,7290,43740).
route(prodloc13,prodloc16,tr0,15882,412932).
route(prodloc13,prodloc16,tr13,15882,95292).
route(prodloc13,prodloc17,tr0,21256,552656).
route(prodloc13,prodloc17,tr13,21256,127536).
route(prodloc13,prodloc18,tr0,18373,477698).
route(prodloc13,prodloc18,tr13,18373,110238).
route(prodloc13,prodloc19,tr0,23111,600886).
route(prodloc13,prodloc19,tr13,23111,138666).
route(prodloc13,prodloc20,tr0,19113,496938).
route(prodloc13,prodloc20,tr13,19113,114678).
route(prodloc13,prodloc21,tr0,26581,691106).
route(prodloc13,prodloc21,tr13,26581,159486).
route(prodloc13,prodloc22,tr0,13480,350480).
route(prodloc13,prodloc22,tr13,13480,80880).
route(prodloc13,prodloc23,tr0,19518,507468).
route(prodloc13,prodloc23,tr13,19518,117108).
route(prodloc13,prodloc24,tr0,15793,410618).
route(prodloc13,prodloc24,tr13,15793,94758).
route(prodloc13,prodloc25,tr0,19599,509574).
route(prodloc13,prodloc25,tr13,19599,117594).
route(prodloc13,prodloc26,tr0,15315,398190).
route(prodloc13,prodloc26,tr13,15315,91890).
route(prodloc13,prodloc27,tr0,16505,429130).
route(prodloc13,prodloc27,tr13,16505,99030).
route(prodloc13,prodloc28,tr0,27843,723918).
route(prodloc13,prodloc28,tr13,27843,167058).
route(prodloc13,prodloc29,tr0,22740,591240).
route(prodloc13,prodloc29,tr13,22740,136440).
route(prodloc13,prodloc30,tr0,21899,569374).
route(prodloc13,prodloc30,tr13,21899,131394).
route(prodloc13,prodloc31,tr0,23638,614588).
route(prodloc13,prodloc31,tr13,23638,141828).
route(prodloc13,prodloc32,tr0,2979,77454).
route(prodloc13,prodloc32,tr13,2979,17874).
route(prodloc13,prodloc33,tr0,2471,64246).
route(prodloc13,prodloc33,tr13,2471,14826).
route(prodloc14,harbor0,tr0,12465,324090).
route(prodloc14,harbor0,tr13,12465,74790).
route(prodloc14,harbor1,tr0,26210,681460).
route(prodloc14,harbor1,tr13,26210,157260).
route(prodloc14,harbor2,tr0,21149,549874).
route(prodloc14,harbor2,tr13,21149,126894).
route(prodloc14,harbor3,tr0,8468,220168).
route(prodloc14,harbor3,tr13,8468,50808).
route(prodloc14,harbor4,tr0,13793,358618).
route(prodloc14,harbor4,tr13,13793,82758).
route(prodloc14,harbor5,tr0,9743,253318).
route(prodloc14,harbor5,tr13,9743,58458).
route(prodloc14,harbor6,tr0,496,12896).
route(prodloc14,harbor6,tr13,496,2976).
route(prodloc14,harbor7,tr0,7328,190528).
route(prodloc14,harbor7,tr13,7328,43968).
route(prodloc14,harbor8,tr0,17658,459108).
route(prodloc14,harbor8,tr13,17658,105948).
route(prodloc14,harbor9,tr0,25636,666536).
route(prodloc14,harbor9,tr13,25636,153816).
route(prodloc14,harbor10,tr0,26831,697606).
route(prodloc14,harbor10,tr13,26831,160986).
route(prodloc14,harbor11,tr0,4311,112086).
route(prodloc14,harbor11,tr13,4311,25866).
route(prodloc14,harbor12,tr0,2859,74334).
route(prodloc14,harbor12,tr13,2859,17154).
route(prodloc14,harbor13,tr0,19813,515138).
route(prodloc14,harbor13,tr13,19813,118878).
route(prodloc14,harbor14,tr0,17258,448708).
route(prodloc14,harbor14,tr13,17258,103548).
route(prodloc14,harbor15,tr0,18562,482612).
route(prodloc14,harbor15,tr13,18562,111372).
route(prodloc14,harbor16,tr0,20172,524472).
route(prodloc14,harbor16,tr13,20172,121032).
route(prodloc14,prodloc0,tr0,23843,619918).
route(prodloc14,prodloc0,tr13,23843,143058).
route(prodloc14,prodloc1,tr13,2560,15360).
route(prodloc14,prodloc1,tr15,2560,81920).
route(prodloc14,prodloc2,tr0,13323,346398).
route(prodloc14,prodloc2,tr13,13323,79938).
route(prodloc14,prodloc3,tr0,27394,712244).
route(prodloc14,prodloc3,tr13,27394,164364).
route(prodloc14,prodloc4,tr0,6952,180752).
route(prodloc14,prodloc4,tr13,6952,41712).
route(prodloc14,prodloc5,tr0,18205,473330).
route(prodloc14,prodloc5,tr13,18205,109230).
route(prodloc14,prodloc6,tr0,28707,746382).
route(prodloc14,prodloc6,tr13,28707,172242).
route(prodloc14,prodloc7,tr0,10560,274560).
route(prodloc14,prodloc7,tr13,10560,63360).
route(prodloc14,prodloc8,tr0,6542,170092).
route(prodloc14,prodloc8,tr13,6542,39252).
route(prodloc14,prodloc9,tr0,7789,202514).
route(prodloc14,prodloc9,tr13,7789,46734).
route(prodloc14,prodloc10,tr0,870,22620).
route(prodloc14,prodloc10,tr13,870,5220).
route(prodloc14,prodloc11,tr0,11377,295802).
route(prodloc14,prodloc11,tr13,11377,68262).
route(prodloc14,prodloc12,tr0,7145,185770).
route(prodloc14,prodloc12,tr13,7145,42870).
route(prodloc14,prodloc13,tr0,8626,224276).
route(prodloc14,prodloc13,tr13,8626,51756).
route(prodloc14,prodloc15,tr0,1909,49634).
route(prodloc14,prodloc15,tr13,1909,11454).
route(prodloc14,prodloc16,tr0,4517,117442).
route(prodloc14,prodloc16,tr13,4517,27102).
route(prodloc14,prodloc17,tr0,23304,605904).
route(prodloc14,prodloc17,tr13,23304,139824).
route(prodloc14,prodloc18,tr0,5766,149916).
route(prodloc14,prodloc18,tr13,5766,34596).
route(prodloc14,prodloc19,tr0,19069,495794).
route(prodloc14,prodloc19,tr13,19069,114414).
route(prodloc14,prodloc20,tr0,27601,717626).
route(prodloc14,prodloc20,tr13,27601,165606).
route(prodloc14,prodloc21,tr0,7827,203502).
route(prodloc14,prodloc21,tr13,7827,46962).
route(prodloc14,prodloc22,tr0,1753,45578).
route(prodloc14,prodloc22,tr13,1753,10518).
route(prodloc14,prodloc23,tr0,26121,679146).
route(prodloc14,prodloc23,tr13,26121,156726).
route(prodloc14,prodloc24,tr0,8673,225498).
route(prodloc14,prodloc24,tr13,8673,52038).
route(prodloc14,prodloc25,tr0,9100,236600).
route(prodloc14,prodloc25,tr13,9100,54600).
route(prodloc14,prodloc26,tr0,12209,317434).
route(prodloc14,prodloc26,tr13,12209,73254).
route(prodloc14,prodloc27,tr0,5697,148122).
route(prodloc14,prodloc27,tr13,5697,34182).
route(prodloc14,prodloc28,tr0,8047,209222).
route(prodloc14,prodloc28,tr13,8047,48282).
route(prodloc14,prodloc29,tr0,857,22282).
route(prodloc14,prodloc29,tr13,857,5142).
route(prodloc14,prodloc30,tr0,17877,464802).
route(prodloc14,prodloc30,tr13,17877,107262).
route(prodloc14,prodloc31,tr0,24577,639002).
route(prodloc14,prodloc31,tr13,24577,147462).
route(prodloc14,prodloc32,tr0,16021,416546).
route(prodloc14,prodloc32,tr13,16021,96126).
route(prodloc14,prodloc33,tr0,25983,675558).
route(prodloc14,prodloc33,tr13,25983,155898).
route(prodloc15,harbor0,tr0,8988,233688).
route(prodloc15,harbor0,tr13,8988,53928).
route(prodloc15,harbor1,tr0,27330,710580).
route(prodloc15,harbor1,tr13,27330,163980).
route(prodloc15,harbor2,tr0,1735,45110).
route(prodloc15,harbor2,tr13,1735,10410).
route(prodloc15,harbor3,tr0,28148,731848).
route(prodloc15,harbor3,tr13,28148,168888).
route(prodloc15,harbor4,tr0,24668,641368).
route(prodloc15,harbor4,tr13,24668,148008).
route(prodloc15,harbor5,tr0,22343,580918).
route(prodloc15,harbor5,tr13,22343,134058).
route(prodloc15,harbor6,tr0,8215,213590).
route(prodloc15,harbor6,tr13,8215,49290).
route(prodloc15,harbor7,tr0,15231,396006).
route(prodloc15,harbor7,tr13,15231,91386).
route(prodloc15,harbor8,tr0,17696,460096).
route(prodloc15,harbor8,tr13,17696,106176).
route(prodloc15,harbor9,tr0,11640,302640).
route(prodloc15,harbor9,tr13,11640,69840).
route(prodloc15,harbor10,tr0,13939,362414).
route(prodloc15,harbor10,tr13,13939,83634).
route(prodloc15,harbor11,tr0,15736,409136).
route(prodloc15,harbor11,tr13,15736,94416).
route(prodloc15,harbor12,tr0,17740,461240).
route(prodloc15,harbor12,tr13,17740,106440).
route(prodloc15,harbor13,tr0,18816,489216).
route(prodloc15,harbor13,tr13,18816,112896).
route(prodloc15,harbor14,tr0,11900,309400).
route(prodloc15,harbor14,tr13,11900,71400).
route(prodloc15,harbor15,tr0,20845,541970).
route(prodloc15,harbor15,tr13,20845,125070).
route(prodloc15,harbor16,tr0,5963,155038).
route(prodloc15,harbor16,tr13,5963,35778).
route(prodloc15,prodloc0,tr0,16570,430820).
route(prodloc15,prodloc0,tr13,16570,99420).
route(prodloc15,prodloc1,tr0,28414,738764).
route(prodloc15,prodloc1,tr13,28414,170484).
route(prodloc15,prodloc2,tr0,26946,700596).
route(prodloc15,prodloc2,tr13,26946,161676).
route(prodloc15,prodloc3,tr0,21885,569010).
route(prodloc15,prodloc3,tr13,21885,131310).
route(prodloc15,prodloc4,tr0,11692,303992).
route(prodloc15,prodloc4,tr13,11692,70152).
route(prodloc15,prodloc5,tr0,18962,493012).
route(prodloc15,prodloc5,tr13,18962,113772).
route(prodloc15,prodloc6,tr0,16244,422344).
route(prodloc15,prodloc6,tr13,16244,97464).
route(prodloc15,prodloc7,tr0,16259,422734).
route(prodloc15,prodloc7,tr15,16259,520288).
route(prodloc15,prodloc8,tr0,8025,208650).
route(prodloc15,prodloc8,tr13,8025,48150).
route(prodloc15,prodloc9,tr0,4247,110422).
route(prodloc15,prodloc9,tr15,4247,135904).
route(prodloc15,prodloc10,tr0,14674,381524).
route(prodloc15,prodloc10,tr13,14674,88044).
route(prodloc15,prodloc11,tr0,16085,418210).
route(prodloc15,prodloc11,tr13,16085,96510).
route(prodloc15,prodloc12,tr0,18950,492700).
route(prodloc15,prodloc12,tr13,18950,113700).
route(prodloc15,prodloc13,tr0,1290,33540).
route(prodloc15,prodloc13,tr13,1290,7740).
route(prodloc15,prodloc14,tr0,14223,369798).
route(prodloc15,prodloc14,tr13,14223,85338).
route(prodloc15,prodloc16,tr0,11692,303992).
route(prodloc15,prodloc16,tr13,11692,70152).
route(prodloc15,prodloc17,tr0,27806,722956).
route(prodloc15,prodloc17,tr13,27806,166836).
route(prodloc15,prodloc18,tr0,16403,426478).
route(prodloc15,prodloc18,tr13,16403,98418).
route(prodloc15,prodloc19,tr0,8662,225212).
route(prodloc15,prodloc19,tr13,8662,51972).
route(prodloc15,prodloc20,tr0,20784,540384).
route(prodloc15,prodloc20,tr15,20784,665088).
route(prodloc15,prodloc21,tr0,5079,132054).
route(prodloc15,prodloc21,tr13,5079,30474).
route(prodloc15,prodloc22,tr0,5096,132496).
route(prodloc15,prodloc22,tr13,5096,30576).
route(prodloc15,prodloc23,tr0,14501,377026).
route(prodloc15,prodloc23,tr13,14501,87006).
route(prodloc15,prodloc24,tr0,3662,95212).
route(prodloc15,prodloc24,tr13,3662,21972).
route(prodloc15,prodloc25,tr13,6254,37524).
route(prodloc15,prodloc25,tr15,6254,200128).
route(prodloc15,prodloc26,tr0,4483,116558).
route(prodloc15,prodloc26,tr13,4483,26898).
route(prodloc15,prodloc27,tr0,26563,690638).
route(prodloc15,prodloc27,tr13,26563,159378).
route(prodloc15,prodloc28,tr0,9152,237952).
route(prodloc15,prodloc28,tr13,9152,54912).
route(prodloc15,prodloc29,tr0,15558,404508).
route(prodloc15,prodloc29,tr13,15558,93348).
route(prodloc15,prodloc30,tr0,21850,568100).
route(prodloc15,prodloc30,tr13,21850,131100).
route(prodloc15,prodloc31,tr0,26923,699998).
route(prodloc15,prodloc31,tr13,26923,161538).
route(prodloc15,prodloc32,tr0,5222,135772).
route(prodloc15,prodloc32,tr13,5222,31332).
route(prodloc15,prodloc33,tr0,24236,630136).
route(prodloc15,prodloc33,tr13,24236,145416).
route(prodloc16,harbor0,tr0,14224,369824).
route(prodloc16,harbor0,tr13,14224,85344).
route(prodloc16,harbor1,tr0,23464,610064).
route(prodloc16,harbor1,tr13,23464,140784).
route(prodloc16,harbor2,tr0,1350,35100).
route(prodloc16,harbor2,tr13,1350,8100).
route(prodloc16,harbor3,tr0,11936,310336).
route(prodloc16,harbor3,tr13,11936,71616).
route(prodloc16,harbor4,tr0,27665,719290).
route(prodloc16,harbor4,tr13,27665,165990).
route(prodloc16,harbor5,tr0,4389,114114).
route(prodloc16,harbor5,tr13,4389,26334).
route(prodloc16,harbor6,tr0,3875,100750).
route(prodloc16,harbor6,tr13,3875,23250).
route(prodloc16,harbor7,tr0,16350,425100).
route(prodloc16,harbor7,tr13,16350,98100).
route(prodloc16,harbor8,tr0,27382,711932).
route(prodloc16,harbor8,tr13,27382,164292).
route(prodloc16,harbor9,tr0,3163,82238).
route(prodloc16,harbor9,tr13,3163,18978).
route(prodloc16,harbor10,tr0,19970,519220).
route(prodloc16,harbor10,tr13,19970,119820).
route(prodloc16,harbor11,tr0,14579,379054).
route(prodloc16,harbor11,tr13,14579,87474).
route(prodloc16,harbor12,tr0,1316,34216).
route(prodloc16,harbor12,tr13,1316,7896).
route(prodloc16,harbor13,tr0,9250,240500).
route(prodloc16,harbor13,tr13,9250,55500).
route(prodloc16,harbor14,tr0,12012,312312).
route(prodloc16,harbor14,tr13,12012,72072).
route(prodloc16,harbor15,tr0,5781,150306).
route(prodloc16,harbor15,tr13,5781,34686).
route(prodloc16,harbor16,tr0,18468,480168).
route(prodloc16,harbor16,tr13,18468,110808).
route(prodloc16,prodloc0,tr13,6122,36732).
route(prodloc16,prodloc0,tr15,6122,195904).
route(prodloc16,prodloc1,tr0,26974,701324).
route(prodloc16,prodloc1,tr13,26974,161844).
route(prodloc16,prodloc2,tr0,15835,411710).
route(prodloc16,prodloc2,tr13,15835,95010).
route(prodloc16,prodloc3,tr0,4423,114998).
route(prodloc16,prodloc3,tr13,4423,26538).
route(prodloc16,prodloc4,tr0,16039,417014).
route(prodloc16,prodloc4,tr13,16039,96234).
route(prodloc16,prodloc5,tr0,21762,565812).
route(prodloc16,prodloc5,tr15,21762,696384).
route(prodloc16,prodloc6,tr0,13713,356538).
route(prodloc16,prodloc6,tr13,13713,82278).
route(prodloc16,prodloc7,tr0,24686,641836).
route(prodloc16,prodloc7,tr13,24686,148116).
route(prodloc16,prodloc8,tr0,19144,497744).
route(prodloc16,prodloc8,tr13,19144,114864).
route(prodloc16,prodloc9,tr0,17202,447252).
route(prodloc16,prodloc9,tr13,17202,103212).
route(prodloc16,prodloc10,tr0,7766,201916).
route(prodloc16,prodloc10,tr13,7766,46596).
route(prodloc16,prodloc11,tr0,15351,399126).
route(prodloc16,prodloc11,tr13,15351,92106).
route(prodloc16,prodloc12,tr0,24184,628784).
route(prodloc16,prodloc12,tr13,24184,145104).
route(prodloc16,prodloc13,tr0,16300,423800).
route(prodloc16,prodloc13,tr13,16300,97800).
route(prodloc16,prodloc14,tr13,2242,13452).
route(prodloc16,prodloc14,tr15,2242,71744).
route(prodloc16,prodloc15,tr0,24357,633282).
route(prodloc16,prodloc15,tr13,24357,146142).
route(prodloc16,prodloc17,tr0,6299,163774).
route(prodloc16,prodloc17,tr13,6299,37794).
route(prodloc16,prodloc18,tr0,15602,405652).
route(prodloc16,prodloc18,tr13,15602,93612).
route(prodloc16,prodloc19,tr0,542,14092).
route(prodloc16,prodloc19,tr13,542,3252).
route(prodloc16,prodloc20,tr0,1190,30940).
route(prodloc16,prodloc20,tr13,1190,7140).
route(prodloc16,prodloc21,tr0,11199,291174).
route(prodloc16,prodloc21,tr13,11199,67194).
route(prodloc16,prodloc22,tr0,19909,517634).
route(prodloc16,prodloc22,tr13,19909,119454).
route(prodloc16,prodloc23,tr0,14687,381862).
route(prodloc16,prodloc23,tr13,14687,88122).
route(prodloc16,prodloc24,tr0,10625,276250).
route(prodloc16,prodloc24,tr13,10625,63750).
route(prodloc16,prodloc25,tr0,23230,603980).
route(prodloc16,prodloc25,tr13,23230,139380).
route(prodloc16,prodloc26,tr0,14770,384020).
route(prodloc16,prodloc26,tr13,14770,88620).
route(prodloc16,prodloc27,tr0,7959,206934).
route(prodloc16,prodloc27,tr13,7959,47754).
route(prodloc16,prodloc28,tr0,2124,55224).
route(prodloc16,prodloc28,tr13,2124,12744).
route(prodloc16,prodloc29,tr0,25783,670358).
route(prodloc16,prodloc29,tr13,25783,154698).
route(prodloc16,prodloc30,tr0,18030,468780).
route(prodloc16,prodloc30,tr13,18030,108180).
route(prodloc16,prodloc31,tr0,10778,280228).
route(prodloc16,prodloc31,tr13,10778,64668).
route(prodloc16,prodloc32,tr0,3129,81354).
route(prodloc16,prodloc32,tr13,3129,18774).
route(prodloc16,prodloc33,tr0,8681,225706).
route(prodloc16,prodloc33,tr13,8681,52086).
route(prodloc17,harbor0,tr0,24490,636740).
route(prodloc17,harbor0,tr13,24490,146940).
route(prodloc17,harbor1,tr0,7614,197964).
route(prodloc17,harbor1,tr13,7614,45684).
route(prodloc17,harbor2,tr0,18641,484666).
route(prodloc17,harbor2,tr13,18641,111846).
route(prodloc17,harbor3,tr0,18867,490542).
route(prodloc17,harbor3,tr13,18867,113202).
route(prodloc17,harbor4,tr0,13088,340288).
route(prodloc17,harbor4,tr13,13088,78528).
route(prodloc17,harbor5,tr0,6054,157404).
route(prodloc17,harbor5,tr13,6054,36324).
route(prodloc17,harbor6,tr0,17492,454792).
route(prodloc17,harbor6,tr13,17492,104952).
route(prodloc17,harbor7,tr0,18505,481130).
route(prodloc17,harbor7,tr13,18505,111030).
route(prodloc17,harbor8,tr0,2081,54106).
route(prodloc17,harbor8,tr13,2081,12486).
route(prodloc17,harbor9,tr0,23375,607750).
route(prodloc17,harbor9,tr13,23375,140250).
route(prodloc17,harbor10,tr0,19140,497640).
route(prodloc17,harbor10,tr13,19140,114840).
route(prodloc17,harbor11,tr0,18387,478062).
route(prodloc17,harbor11,tr13,18387,110322).
route(prodloc17,harbor12,tr0,16973,441298).
route(prodloc17,harbor12,tr13,16973,101838).
route(prodloc17,harbor13,tr0,9786,254436).
route(prodloc17,harbor13,tr13,9786,58716).
route(prodloc17,harbor14,tr0,21307,553982).
route(prodloc17,harbor14,tr13,21307,127842).
route(prodloc17,harbor15,tr0,19810,515060).
route(prodloc17,harbor15,tr13,19810,118860).
route(prodloc17,harbor16,tr0,24258,630708).
route(prodloc17,harbor16,tr13,24258,145548).
route(prodloc17,prodloc0,tr0,1398,36348).
route(prodloc17,prodloc0,tr13,1398,8388).
route(prodloc17,prodloc1,tr0,8332,216632).
route(prodloc17,prodloc1,tr13,8332,49992).
route(prodloc17,prodloc2,tr0,7466,194116).
route(prodloc17,prodloc2,tr13,7466,44796).
route(prodloc17,prodloc3,tr0,8015,208390).
route(prodloc17,prodloc3,tr13,8015,48090).
route(prodloc17,prodloc4,tr0,20548,534248).
route(prodloc17,prodloc4,tr13,20548,123288).
route(prodloc17,prodloc5,tr0,15348,399048).
route(prodloc17,prodloc5,tr13,15348,92088).
route(prodloc17,prodloc6,tr0,19088,496288).
route(prodloc17,prodloc6,tr13,19088,114528).
route(prodloc17,prodloc7,tr0,22097,574522).
route(prodloc17,prodloc7,tr13,22097,132582).
route(prodloc17,prodloc8,tr0,21265,552890).
route(prodloc17,prodloc8,tr13,21265,127590).
route(prodloc17,prodloc9,tr0,5450,141700).
route(prodloc17,prodloc9,tr13,5450,32700).
route(prodloc17,prodloc10,tr0,26490,688740).
route(prodloc17,prodloc10,tr13,26490,158940).
route(prodloc17,prodloc11,tr0,12032,312832).
route(prodloc17,prodloc11,tr13,12032,72192).
route(prodloc17,prodloc12,tr0,21712,564512).
route(prodloc17,prodloc12,tr13,21712,130272).
route(prodloc17,prodloc13,tr0,12362,321412).
route(prodloc17,prodloc13,tr13,12362,74172).
route(prodloc17,prodloc14,tr0,7251,188526).
route(prodloc17,prodloc14,tr13,7251,43506).
route(prodloc17,prodloc15,tr0,26717,694642).
route(prodloc17,prodloc15,tr13,26717,160302).
route(prodloc17,prodloc16,tr0,4194,109044).
route(prodloc17,prodloc16,tr13,4194,25164).
route(prodloc17,prodloc18,tr0,6127,159302).
route(prodloc17,prodloc18,tr13,6127,36762).
route(prodloc17,prodloc19,tr0,19270,501020).
route(prodloc17,prodloc19,tr13,19270,115620).
route(prodloc17,prodloc20,tr0,21792,566592).
route(prodloc17,prodloc20,tr13,21792,130752).
route(prodloc17,prodloc21,tr0,18758,487708).
route(prodloc17,prodloc21,tr13,18758,112548).
route(prodloc17,prodloc22,tr0,3266,84916).
route(prodloc17,prodloc22,tr13,3266,19596).
route(prodloc17,prodloc23,tr0,27268,708968).
route(prodloc17,prodloc23,tr13,27268,163608).
route(prodloc17,prodloc24,tr0,25821,671346).
route(prodloc17,prodloc24,tr13,25821,154926).
route(prodloc17,prodloc25,tr0,19909,517634).
route(prodloc17,prodloc25,tr13,19909,119454).
route(prodloc17,prodloc26,tr0,25147,653822).
route(prodloc17,prodloc26,tr13,25147,150882).
route(prodloc17,prodloc27,tr0,21037,546962).
route(prodloc17,prodloc27,tr13,21037,126222).
route(prodloc17,prodloc28,tr0,24806,644956).
route(prodloc17,prodloc28,tr13,24806,148836).
route(prodloc17,prodloc29,tr0,14988,389688).
route(prodloc17,prodloc29,tr13,14988,89928).
route(prodloc17,prodloc30,tr0,17916,465816).
route(prodloc17,prodloc30,tr13,17916,107496).
route(prodloc17,prodloc31,tr0,12496,324896).
route(prodloc17,prodloc31,tr13,12496,74976).
route(prodloc17,prodloc32,tr0,16838,437788).
route(prodloc17,prodloc32,tr13,16838,101028).
route(prodloc17,prodloc33,tr0,7519,195494).
route(prodloc17,prodloc33,tr13,7519,45114).
route(prodloc18,harbor0,tr0,6781,176306).
route(prodloc18,harbor0,tr13,6781,40686).
route(prodloc18,harbor1,tr0,25011,650286).
route(prodloc18,harbor1,tr13,25011,150066).
route(prodloc18,harbor2,tr0,28151,731926).
route(prodloc18,harbor2,tr13,28151,168906).
route(prodloc18,harbor3,tr0,932,24232).
route(prodloc18,harbor3,tr13,932,5592).
route(prodloc18,harbor4,tr0,4069,105794).
route(prodloc18,harbor4,tr13,4069,24414).
route(prodloc18,harbor5,tr0,18216,473616).
route(prodloc18,harbor5,tr13,18216,109296).
route(prodloc18,harbor6,tr0,7393,192218).
route(prodloc18,harbor6,tr13,7393,44358).
route(prodloc18,harbor7,tr0,21755,565630).
route(prodloc18,harbor7,tr13,21755,130530).
route(prodloc18,harbor8,tr0,8896,231296).
route(prodloc18,harbor8,tr13,8896,53376).
route(prodloc18,harbor9,tr0,7965,207090).
route(prodloc18,harbor9,tr13,7965,47790).
route(prodloc18,harbor10,tr0,15059,391534).
route(prodloc18,harbor10,tr13,15059,90354).
route(prodloc18,harbor11,tr0,9366,243516).
route(prodloc18,harbor11,tr13,9366,56196).
route(prodloc18,harbor12,tr0,22913,595738).
route(prodloc18,harbor12,tr13,22913,137478).
route(prodloc18,harbor13,tr0,7584,197184).
route(prodloc18,harbor13,tr13,7584,45504).
route(prodloc18,harbor14,tr0,24902,647452).
route(prodloc18,harbor14,tr13,24902,149412).
route(prodloc18,harbor15,tr0,23035,598910).
route(prodloc18,harbor15,tr13,23035,138210).
route(prodloc18,harbor16,tr0,26361,685386).
route(prodloc18,harbor16,tr13,26361,158166).
route(prodloc18,prodloc0,tr0,20826,541476).
route(prodloc18,prodloc0,tr13,20826,124956).
route(prodloc18,prodloc1,tr13,12825,76950).
route(prodloc18,prodloc1,tr15,12825,410400).
route(prodloc18,prodloc2,tr0,9964,259064).
route(prodloc18,prodloc2,tr13,9964,59784).
route(prodloc18,prodloc3,tr0,10714,278564).
route(prodloc18,prodloc3,tr13,10714,64284).
route(prodloc18,prodloc4,tr0,18257,474682).
route(prodloc18,prodloc4,tr13,18257,109542).
route(prodloc18,prodloc5,tr0,7905,205530).
route(prodloc18,prodloc5,tr13,7905,47430).
route(prodloc18,prodloc6,tr0,9503,247078).
route(prodloc18,prodloc6,tr13,9503,57018).
route(prodloc18,prodloc7,tr0,22066,573716).
route(prodloc18,prodloc7,tr13,22066,132396).
route(prodloc18,prodloc8,tr0,21221,551746).
route(prodloc18,prodloc8,tr13,21221,127326).
route(prodloc18,prodloc9,tr0,14464,376064).
route(prodloc18,prodloc9,tr13,14464,86784).
route(prodloc18,prodloc10,tr0,19516,507416).
route(prodloc18,prodloc10,tr13,19516,117096).
route(prodloc18,prodloc11,tr0,11419,296894).
route(prodloc18,prodloc11,tr13,11419,68514).
route(prodloc18,prodloc12,tr0,28613,743938).
route(prodloc18,prodloc12,tr13,28613,171678).
route(prodloc18,prodloc13,tr0,3180,82680).
route(prodloc18,prodloc13,tr13,3180,19080).
route(prodloc18,prodloc14,tr0,9322,242372).
route(prodloc18,prodloc14,tr15,9322,298304).
route(prodloc18,prodloc15,tr0,19307,501982).
route(prodloc18,prodloc15,tr13,19307,115842).
route(prodloc18,prodloc16,tr0,7859,204334).
route(prodloc18,prodloc16,tr13,7859,47154).
route(prodloc18,prodloc17,tr0,25173,654498).
route(prodloc18,prodloc17,tr13,25173,151038).
route(prodloc18,prodloc19,tr0,18517,481442).
route(prodloc18,prodloc19,tr13,18517,111102).
route(prodloc18,prodloc20,tr0,7964,207064).
route(prodloc18,prodloc20,tr13,7964,47784).
route(prodloc18,prodloc21,tr0,5472,142272).
route(prodloc18,prodloc21,tr15,5472,175104).
route(prodloc18,prodloc22,tr0,8474,220324).
route(prodloc18,prodloc22,tr13,8474,50844).
route(prodloc18,prodloc23,tr0,20609,535834).
route(prodloc18,prodloc23,tr13,20609,123654).
route(prodloc18,prodloc24,tr0,3134,81484).
route(prodloc18,prodloc24,tr13,3134,18804).
route(prodloc18,prodloc25,tr0,24549,638274).
route(prodloc18,prodloc25,tr13,24549,147294).
route(prodloc18,prodloc26,tr0,28856,750256).
route(prodloc18,prodloc26,tr13,28856,173136).
route(prodloc18,prodloc27,tr0,27361,711386).
route(prodloc18,prodloc27,tr13,27361,164166).
route(prodloc18,prodloc28,tr0,13793,358618).
route(prodloc18,prodloc28,tr13,13793,82758).
route(prodloc18,prodloc29,tr0,28539,742014).
route(prodloc18,prodloc29,tr13,28539,171234).
route(prodloc18,prodloc30,tr0,19513,507338).
route(prodloc18,prodloc30,tr13,19513,117078).
route(prodloc18,prodloc31,tr0,20175,524550).
route(prodloc18,prodloc31,tr13,20175,121050).
route(prodloc18,prodloc32,tr0,19314,502164).
route(prodloc18,prodloc32,tr13,19314,115884).
route(prodloc18,prodloc33,tr0,1275,33150).
route(prodloc18,prodloc33,tr13,1275,7650).
route(prodloc19,harbor0,tr0,26127,679302).
route(prodloc19,harbor0,tr13,26127,156762).
route(prodloc19,harbor1,tr0,4113,106938).
route(prodloc19,harbor1,tr13,4113,24678).
route(prodloc19,harbor2,tr0,2271,59046).
route(prodloc19,harbor2,tr13,2271,13626).
route(prodloc19,harbor3,tr0,22079,574054).
route(prodloc19,harbor3,tr13,22079,132474).
route(prodloc19,harbor4,tr0,11904,309504).
route(prodloc19,harbor4,tr13,11904,71424).
route(prodloc19,harbor5,tr0,5503,143078).
route(prodloc19,harbor5,tr13,5503,33018).
route(prodloc19,harbor6,tr0,3744,97344).
route(prodloc19,harbor6,tr13,3744,22464).
route(prodloc19,harbor7,tr0,2864,74464).
route(prodloc19,harbor7,tr13,2864,17184).
route(prodloc19,harbor8,tr0,25411,660686).
route(prodloc19,harbor8,tr13,25411,152466).
route(prodloc19,harbor9,tr0,1551,40326).
route(prodloc19,harbor9,tr13,1551,9306).
route(prodloc19,harbor10,tr0,3083,80158).
route(prodloc19,harbor10,tr13,3083,18498).
route(prodloc19,harbor11,tr0,12919,335894).
route(prodloc19,harbor11,tr13,12919,77514).
route(prodloc19,harbor12,tr0,1212,31512).
route(prodloc19,harbor12,tr13,1212,7272).
route(prodloc19,harbor13,tr0,12847,334022).
route(prodloc19,harbor13,tr13,12847,77082).
route(prodloc19,harbor14,tr0,14962,389012).
route(prodloc19,harbor14,tr13,14962,89772).
route(prodloc19,harbor15,tr0,16409,426634).
route(prodloc19,harbor15,tr13,16409,98454).
route(prodloc19,harbor16,tr0,18323,476398).
route(prodloc19,harbor16,tr13,18323,109938).
route(prodloc19,prodloc0,tr0,9494,246844).
route(prodloc19,prodloc0,tr13,9494,56964).
route(prodloc19,prodloc1,tr0,8590,223340).
route(prodloc19,prodloc1,tr13,8590,51540).
route(prodloc19,prodloc2,tr0,19731,513006).
route(prodloc19,prodloc2,tr13,19731,118386).
route(prodloc19,prodloc3,tr0,6467,168142).
route(prodloc19,prodloc3,tr13,6467,38802).
route(prodloc19,prodloc4,tr0,23946,622596).
route(prodloc19,prodloc4,tr13,23946,143676).
route(prodloc19,prodloc5,tr0,11594,301444).
route(prodloc19,prodloc5,tr13,11594,69564).
route(prodloc19,prodloc6,tr0,17532,455832).
route(prodloc19,prodloc6,tr13,17532,105192).
route(prodloc19,prodloc7,tr0,10188,264888).
route(prodloc19,prodloc7,tr13,10188,61128).
route(prodloc19,prodloc8,tr0,4231,110006).
route(prodloc19,prodloc8,tr13,4231,25386).
route(prodloc19,prodloc9,tr13,614,3684).
route(prodloc19,prodloc9,tr15,614,19648).
route(prodloc19,prodloc10,tr0,949,24674).
route(prodloc19,prodloc10,tr13,949,5694).
route(prodloc19,prodloc11,tr0,24521,637546).
route(prodloc19,prodloc11,tr13,24521,147126).
route(prodloc19,prodloc12,tr0,19719,512694).
route(prodloc19,prodloc12,tr13,19719,118314).
route(prodloc19,prodloc13,tr0,7231,188006).
route(prodloc19,prodloc13,tr13,7231,43386).
route(prodloc19,prodloc14,tr0,10918,283868).
route(prodloc19,prodloc14,tr13,10918,65508).
route(prodloc19,prodloc15,tr0,7745,201370).
route(prodloc19,prodloc15,tr13,7745,46470).
route(prodloc19,prodloc16,tr0,2651,68926).
route(prodloc19,prodloc16,tr13,2651,15906).
route(prodloc19,prodloc17,tr0,21238,552188).
route(prodloc19,prodloc17,tr13,21238,127428).
route(prodloc19,prodloc18,tr0,12003,312078).
route(prodloc19,prodloc18,tr13,12003,72018).
route(prodloc19,prodloc20,tr0,14887,387062).
route(prodloc19,prodloc20,tr13,14887,89322).
route(prodloc19,prodloc21,tr0,26784,696384).
route(prodloc19,prodloc21,tr13,26784,160704).
route(prodloc19,prodloc22,tr0,8638,224588).
route(prodloc19,prodloc22,tr13,8638,51828).
route(prodloc19,prodloc23,tr0,3835,99710).
route(prodloc19,prodloc23,tr13,3835,23010).
route(prodloc19,prodloc24,tr0,2353,61178).
route(prodloc19,prodloc24,tr13,2353,14118).
route(prodloc19,prodloc25,tr0,22716,590616).
route(prodloc19,prodloc25,tr13,22716,136296).
route(prodloc19,prodloc26,tr0,10897,283322).
route(prodloc19,prodloc26,tr13,10897,65382).
route(prodloc19,prodloc27,tr0,759,19734).
route(prodloc19,prodloc27,tr13,759,4554).
route(prodloc19,prodloc28,tr0,14431,375206).
route(prodloc19,prodloc28,tr13,14431,86586).
route(prodloc19,prodloc29,tr0,10498,272948).
route(prodloc19,prodloc29,tr13,10498,62988).
route(prodloc19,prodloc30,tr0,23891,621166).
route(prodloc19,prodloc30,tr13,23891,143346).
route(prodloc19,prodloc31,tr0,22110,574860).
route(prodloc19,prodloc31,tr13,22110,132660).
route(prodloc19,prodloc32,tr0,14419,374894).
route(prodloc19,prodloc32,tr13,14419,86514).
route(prodloc19,prodloc33,tr0,20085,522210).
route(prodloc19,prodloc33,tr13,20085,120510).
route(prodloc20,harbor0,tr0,1855,48230).
route(prodloc20,harbor0,tr13,1855,11130).
route(prodloc20,harbor1,tr0,15497,402922).
route(prodloc20,harbor1,tr13,15497,92982).
route(prodloc20,harbor2,tr0,9246,240396).
route(prodloc20,harbor2,tr13,9246,55476).
route(prodloc20,harbor3,tr0,16674,433524).
route(prodloc20,harbor3,tr13,16674,100044).
route(prodloc20,harbor4,tr0,9499,246974).
route(prodloc20,harbor4,tr13,9499,56994).
route(prodloc20,harbor5,tr0,19339,502814).
route(prodloc20,harbor5,tr13,19339,116034).
route(prodloc20,harbor6,tr0,5038,130988).
route(prodloc20,harbor6,tr13,5038,30228).
route(prodloc20,harbor7,tr0,17942,466492).
route(prodloc20,harbor7,tr13,17942,107652).
route(prodloc20,harbor8,tr0,21720,564720).
route(prodloc20,harbor8,tr13,21720,130320).
route(prodloc20,harbor9,tr0,22943,596518).
route(prodloc20,harbor9,tr13,22943,137658).
route(prodloc20,harbor10,tr0,395,10270).
route(prodloc20,harbor10,tr13,395,2370).
route(prodloc20,harbor11,tr0,15912,413712).
route(prodloc20,harbor11,tr13,15912,95472).
route(prodloc20,harbor12,tr0,26836,697736).
route(prodloc20,harbor12,tr13,26836,161016).
route(prodloc20,harbor13,tr0,13722,356772).
route(prodloc20,harbor13,tr13,13722,82332).
route(prodloc20,harbor14,tr0,21350,555100).
route(prodloc20,harbor14,tr13,21350,128100).
route(prodloc20,harbor15,tr0,15838,411788).
route(prodloc20,harbor15,tr13,15838,95028).
route(prodloc20,harbor16,tr0,24399,634374).
route(prodloc20,harbor16,tr13,24399,146394).
route(prodloc20,prodloc0,tr0,17055,443430).
route(prodloc20,prodloc0,tr13,17055,102330).
route(prodloc20,prodloc1,tr0,25742,669292).
route(prodloc20,prodloc1,tr13,25742,154452).
route(prodloc20,prodloc2,tr0,12616,328016).
route(prodloc20,prodloc2,tr13,12616,75696).
route(prodloc20,prodloc3,tr0,15210,395460).
route(prodloc20,prodloc3,tr13,15210,91260).
route(prodloc20,prodloc4,tr0,23651,614926).
route(prodloc20,prodloc4,tr13,23651,141906).
route(prodloc20,prodloc5,tr0,28407,738582).
route(prodloc20,prodloc5,tr13,28407,170442).
route(prodloc20,prodloc6,tr0,21675,563550).
route(prodloc20,prodloc6,tr13,21675,130050).
route(prodloc20,prodloc7,tr0,12148,315848).
route(prodloc20,prodloc7,tr13,12148,72888).
route(prodloc20,prodloc8,tr0,1742,45292).
route(prodloc20,prodloc8,tr13,1742,10452).
route(prodloc20,prodloc9,tr0,1411,36686).
route(prodloc20,prodloc9,tr13,1411,8466).
route(prodloc20,prodloc10,tr0,21601,561626).
route(prodloc20,prodloc10,tr13,21601,129606).
route(prodloc20,prodloc11,tr0,10,260).
route(prodloc20,prodloc11,tr13,10,60).
route(prodloc20,prodloc12,tr0,17534,455884).
route(prodloc20,prodloc12,tr13,17534,105204).
route(prodloc20,prodloc13,tr0,11323,294398).
route(prodloc20,prodloc13,tr13,11323,67938).
route(prodloc20,prodloc14,tr0,11830,307580).
route(prodloc20,prodloc14,tr13,11830,70980).
route(prodloc20,prodloc15,tr0,12280,319280).
route(prodloc20,prodloc15,tr13,12280,73680).
route(prodloc20,prodloc16,tr0,10954,284804).
route(prodloc20,prodloc16,tr13,10954,65724).
route(prodloc20,prodloc17,tr0,19646,510796).
route(prodloc20,prodloc17,tr13,19646,117876).
route(prodloc20,prodloc18,tr0,3515,91390).
route(prodloc20,prodloc18,tr13,3515,21090).
route(prodloc20,prodloc19,tr0,2638,68588).
route(prodloc20,prodloc19,tr13,2638,15828).
route(prodloc20,prodloc21,tr0,22725,590850).
route(prodloc20,prodloc21,tr13,22725,136350).
route(prodloc20,prodloc22,tr0,8528,221728).
route(prodloc20,prodloc22,tr13,8528,51168).
route(prodloc20,prodloc23,tr0,12481,324506).
route(prodloc20,prodloc23,tr13,12481,74886).
route(prodloc20,prodloc24,tr0,25143,653718).
route(prodloc20,prodloc24,tr13,25143,150858).
route(prodloc20,prodloc25,tr0,26256,682656).
route(prodloc20,prodloc25,tr13,26256,157536).
route(prodloc20,prodloc26,tr0,15558,404508).
route(prodloc20,prodloc26,tr13,15558,93348).
route(prodloc20,prodloc27,tr0,16618,432068).
route(prodloc20,prodloc27,tr13,16618,99708).
route(prodloc20,prodloc28,tr0,19531,507806).
route(prodloc20,prodloc28,tr13,19531,117186).
route(prodloc20,prodloc29,tr0,1621,42146).
route(prodloc20,prodloc29,tr13,1621,9726).
route(prodloc20,prodloc30,tr0,1761,45786).
route(prodloc20,prodloc30,tr13,1761,10566).
route(prodloc20,prodloc31,tr0,3138,81588).
route(prodloc20,prodloc31,tr13,3138,18828).
route(prodloc20,prodloc32,tr0,25389,660114).
route(prodloc20,prodloc32,tr13,25389,152334).
route(prodloc20,prodloc33,tr0,16152,419952).
route(prodloc20,prodloc33,tr13,16152,96912).
route(prodloc21,harbor0,tr0,5001,130026).
route(prodloc21,harbor0,tr13,5001,30006).
route(prodloc21,harbor1,tr0,28499,740974).
route(prodloc21,harbor1,tr13,28499,170994).
route(prodloc21,harbor2,tr0,15886,413036).
route(prodloc21,harbor2,tr13,15886,95316).
route(prodloc21,harbor3,tr0,15396,400296).
route(prodloc21,harbor3,tr13,15396,92376).
route(prodloc21,harbor4,tr0,16284,423384).
route(prodloc21,harbor4,tr13,16284,97704).
route(prodloc21,harbor5,tr0,7688,199888).
route(prodloc21,harbor5,tr13,7688,46128).
route(prodloc21,harbor6,tr0,20900,543400).
route(prodloc21,harbor6,tr13,20900,125400).
route(prodloc21,harbor7,tr0,10854,282204).
route(prodloc21,harbor7,tr13,10854,65124).
route(prodloc21,harbor8,tr0,13781,358306).
route(prodloc21,harbor8,tr13,13781,82686).
route(prodloc21,harbor9,tr0,8339,216814).
route(prodloc21,harbor9,tr13,8339,50034).
route(prodloc21,harbor10,tr0,6690,173940).
route(prodloc21,harbor10,tr13,6690,40140).
route(prodloc21,harbor11,tr0,13332,346632).
route(prodloc21,harbor11,tr13,13332,79992).
route(prodloc21,harbor12,tr0,26260,682760).
route(prodloc21,harbor12,tr13,26260,157560).
route(prodloc21,harbor13,tr0,15042,391092).
route(prodloc21,harbor13,tr13,15042,90252).
route(prodloc21,harbor14,tr0,22609,587834).
route(prodloc21,harbor14,tr13,22609,135654).
route(prodloc21,harbor15,tr0,11225,291850).
route(prodloc21,harbor15,tr13,11225,67350).
route(prodloc21,harbor16,tr0,20998,545948).
route(prodloc21,harbor16,tr13,20998,125988).
route(prodloc21,prodloc0,tr0,11953,310778).
route(prodloc21,prodloc0,tr13,11953,71718).
route(prodloc21,prodloc1,tr0,2171,56446).
route(prodloc21,prodloc1,tr13,2171,13026).
route(prodloc21,prodloc2,tr0,13831,359606).
route(prodloc21,prodloc2,tr13,13831,82986).
route(prodloc21,prodloc3,tr0,240,6240).
route(prodloc21,prodloc3,tr13,240,1440).
route(prodloc21,prodloc4,tr0,13427,349102).
route(prodloc21,prodloc4,tr13,13427,80562).
route(prodloc21,prodloc5,tr0,10558,274508).
route(prodloc21,prodloc5,tr13,10558,63348).
route(prodloc21,prodloc6,tr0,6340,164840).
route(prodloc21,prodloc6,tr13,6340,38040).
route(prodloc21,prodloc7,tr0,5666,147316).
route(prodloc21,prodloc7,tr13,5666,33996).
route(prodloc21,prodloc8,tr0,19282,501332).
route(prodloc21,prodloc8,tr13,19282,115692).
route(prodloc21,prodloc9,tr0,19603,509678).
route(prodloc21,prodloc9,tr13,19603,117618).
route(prodloc21,prodloc10,tr0,12616,328016).
route(prodloc21,prodloc10,tr13,12616,75696).
route(prodloc21,prodloc11,tr0,10204,265304).
route(prodloc21,prodloc11,tr13,10204,61224).
route(prodloc21,prodloc12,tr0,7666,199316).
route(prodloc21,prodloc12,tr13,7666,45996).
route(prodloc21,prodloc13,tr0,14848,386048).
route(prodloc21,prodloc13,tr13,14848,89088).
route(prodloc21,prodloc14,tr0,22691,589966).
route(prodloc21,prodloc14,tr13,22691,136146).
route(prodloc21,prodloc15,tr0,8774,228124).
route(prodloc21,prodloc15,tr13,8774,52644).
route(prodloc21,prodloc16,tr0,7004,182104).
route(prodloc21,prodloc16,tr13,7004,42024).
route(prodloc21,prodloc17,tr0,11048,287248).
route(prodloc21,prodloc17,tr13,11048,66288).
route(prodloc21,prodloc18,tr0,21477,558402).
route(prodloc21,prodloc18,tr13,21477,128862).
route(prodloc21,prodloc19,tr0,3422,88972).
route(prodloc21,prodloc19,tr13,3422,20532).
route(prodloc21,prodloc20,tr0,23393,608218).
route(prodloc21,prodloc20,tr13,23393,140358).
route(prodloc21,prodloc22,tr0,1068,27768).
route(prodloc21,prodloc22,tr13,1068,6408).
route(prodloc21,prodloc23,tr0,9053,235378).
route(prodloc21,prodloc23,tr13,9053,54318).
route(prodloc21,prodloc24,tr0,20789,540514).
route(prodloc21,prodloc24,tr13,20789,124734).
route(prodloc21,prodloc25,tr0,501,13026).
route(prodloc21,prodloc25,tr13,501,3006).
route(prodloc21,prodloc26,tr0,14448,375648).
route(prodloc21,prodloc26,tr13,14448,86688).
route(prodloc21,prodloc27,tr0,21771,566046).
route(prodloc21,prodloc27,tr13,21771,130626).
route(prodloc21,prodloc28,tr0,10163,264238).
route(prodloc21,prodloc28,tr13,10163,60978).
route(prodloc21,prodloc29,tr0,18528,481728).
route(prodloc21,prodloc29,tr13,18528,111168).
route(prodloc21,prodloc30,tr0,5138,133588).
route(prodloc21,prodloc30,tr13,5138,30828).
route(prodloc21,prodloc31,tr0,14614,379964).
route(prodloc21,prodloc31,tr13,14614,87684).
route(prodloc21,prodloc32,tr0,4916,127816).
route(prodloc21,prodloc32,tr13,4916,29496).
route(prodloc21,prodloc33,tr0,25996,675896).
route(prodloc21,prodloc33,tr13,25996,155976).
route(prodloc22,harbor0,tr0,21998,571948).
route(prodloc22,harbor0,tr13,21998,131988).
route(prodloc22,harbor1,tr0,20533,533858).
route(prodloc22,harbor1,tr13,20533,123198).
route(prodloc22,harbor2,tr0,8268,214968).
route(prodloc22,harbor2,tr13,8268,49608).
route(prodloc22,harbor3,tr0,27055,703430).
route(prodloc22,harbor3,tr13,27055,162330).
route(prodloc22,harbor4,tr0,14511,377286).
route(prodloc22,harbor4,tr13,14511,87066).
route(prodloc22,harbor5,tr0,17078,444028).
route(prodloc22,harbor5,tr13,17078,102468).
route(prodloc22,harbor6,tr0,18923,491998).
route(prodloc22,harbor6,tr13,18923,113538).
route(prodloc22,harbor7,tr0,21128,549328).
route(prodloc22,harbor7,tr13,21128,126768).
route(prodloc22,harbor8,tr0,25067,651742).
route(prodloc22,harbor8,tr13,25067,150402).
route(prodloc22,harbor9,tr0,11691,303966).
route(prodloc22,harbor9,tr13,11691,70146).
route(prodloc22,harbor10,tr0,11150,289900).
route(prodloc22,harbor10,tr13,11150,66900).
route(prodloc22,harbor11,tr0,14912,387712).
route(prodloc22,harbor11,tr13,14912,89472).
route(prodloc22,harbor12,tr0,28422,738972).
route(prodloc22,harbor12,tr13,28422,170532).
route(prodloc22,harbor13,tr0,15784,410384).
route(prodloc22,harbor13,tr13,15784,94704).
route(prodloc22,harbor14,tr0,6509,169234).
route(prodloc22,harbor14,tr13,6509,39054).
route(prodloc22,harbor15,tr0,4224,109824).
route(prodloc22,harbor15,tr13,4224,25344).
route(prodloc22,harbor16,tr0,12979,337454).
route(prodloc22,harbor16,tr13,12979,77874).
route(prodloc22,prodloc0,tr0,368,9568).
route(prodloc22,prodloc0,tr13,368,2208).
route(prodloc22,prodloc1,tr0,8177,212602).
route(prodloc22,prodloc1,tr13,8177,49062).
route(prodloc22,prodloc2,tr0,541,14066).
route(prodloc22,prodloc2,tr13,541,3246).
route(prodloc22,prodloc3,tr0,19912,517712).
route(prodloc22,prodloc3,tr13,19912,119472).
route(prodloc22,prodloc4,tr0,1167,30342).
route(prodloc22,prodloc4,tr13,1167,7002).
route(prodloc22,prodloc5,tr0,26975,701350).
route(prodloc22,prodloc5,tr13,26975,161850).
route(prodloc22,prodloc6,tr0,23600,613600).
route(prodloc22,prodloc6,tr13,23600,141600).
route(prodloc22,prodloc7,tr0,27869,724594).
route(prodloc22,prodloc7,tr13,27869,167214).
route(prodloc22,prodloc8,tr0,1447,37622).
route(prodloc22,prodloc8,tr13,1447,8682).
route(prodloc22,prodloc9,tr0,10553,274378).
route(prodloc22,prodloc9,tr13,10553,63318).
route(prodloc22,prodloc10,tr0,24987,649662).
route(prodloc22,prodloc10,tr13,24987,149922).
route(prodloc22,prodloc11,tr0,9524,247624).
route(prodloc22,prodloc11,tr13,9524,57144).
route(prodloc22,prodloc12,tr0,1472,38272).
route(prodloc22,prodloc12,tr13,1472,8832).
route(prodloc22,prodloc13,tr0,1651,42926).
route(prodloc22,prodloc13,tr13,1651,9906).
route(prodloc22,prodloc14,tr0,12392,322192).
route(prodloc22,prodloc14,tr13,12392,74352).
route(prodloc22,prodloc15,tr0,18052,469352).
route(prodloc22,prodloc15,tr13,18052,108312).
route(prodloc22,prodloc16,tr0,18392,478192).
route(prodloc22,prodloc16,tr13,18392,110352).
route(prodloc22,prodloc17,tr0,10257,266682).
route(prodloc22,prodloc17,tr13,10257,61542).
route(prodloc22,prodloc18,tr0,18518,481468).
route(prodloc22,prodloc18,tr13,18518,111108).
route(prodloc22,prodloc19,tr0,11474,298324).
route(prodloc22,prodloc19,tr13,11474,68844).
route(prodloc22,prodloc20,tr0,17267,448942).
route(prodloc22,prodloc20,tr13,17267,103602).
route(prodloc22,prodloc21,tr0,15344,398944).
route(prodloc22,prodloc21,tr13,15344,92064).
route(prodloc22,prodloc23,tr0,19721,512746).
route(prodloc22,prodloc23,tr13,19721,118326).
route(prodloc22,prodloc24,tr0,17893,465218).
route(prodloc22,prodloc24,tr13,17893,107358).
route(prodloc22,prodloc25,tr0,5212,135512).
route(prodloc22,prodloc25,tr13,5212,31272).
route(prodloc22,prodloc26,tr0,8806,228956).
route(prodloc22,prodloc26,tr13,8806,52836).
route(prodloc22,prodloc27,tr0,19028,494728).
route(prodloc22,prodloc27,tr13,19028,114168).
route(prodloc22,prodloc28,tr0,13577,353002).
route(prodloc22,prodloc28,tr13,13577,81462).
route(prodloc22,prodloc29,tr0,22709,590434).
route(prodloc22,prodloc29,tr13,22709,136254).
route(prodloc22,prodloc30,tr0,6597,171522).
route(prodloc22,prodloc30,tr13,6597,39582).
route(prodloc22,prodloc31,tr13,18956,113736).
route(prodloc22,prodloc31,tr15,18956,606592).
route(prodloc22,prodloc32,tr0,23789,618514).
route(prodloc22,prodloc32,tr13,23789,142734).
route(prodloc22,prodloc33,tr0,25523,663598).
route(prodloc22,prodloc33,tr13,25523,153138).
route(prodloc23,harbor0,tr0,7096,184496).
route(prodloc23,harbor0,tr13,7096,42576).
route(prodloc23,harbor1,tr0,10660,277160).
route(prodloc23,harbor1,tr13,10660,63960).
route(prodloc23,harbor2,tr0,6997,181922).
route(prodloc23,harbor2,tr13,6997,41982).
route(prodloc23,harbor3,tr0,18967,493142).
route(prodloc23,harbor3,tr13,18967,113802).
route(prodloc23,harbor4,tr0,20462,532012).
route(prodloc23,harbor4,tr13,20462,122772).
route(prodloc23,harbor5,tr0,18373,477698).
route(prodloc23,harbor5,tr13,18373,110238).
route(prodloc23,harbor6,tr0,13283,345358).
route(prodloc23,harbor6,tr13,13283,79698).
route(prodloc23,harbor7,tr0,14168,368368).
route(prodloc23,harbor7,tr13,14168,85008).
route(prodloc23,harbor8,tr0,19328,502528).
route(prodloc23,harbor8,tr13,19328,115968).
route(prodloc23,harbor9,tr0,16812,437112).
route(prodloc23,harbor9,tr13,16812,100872).
route(prodloc23,harbor10,tr0,19927,518102).
route(prodloc23,harbor10,tr13,19927,119562).
route(prodloc23,harbor11,tr0,20323,528398).
route(prodloc23,harbor11,tr13,20323,121938).
route(prodloc23,harbor12,tr0,17337,450762).
route(prodloc23,harbor12,tr13,17337,104022).
route(prodloc23,harbor13,tr0,22920,595920).
route(prodloc23,harbor13,tr13,22920,137520).
route(prodloc23,harbor14,tr0,1968,51168).
route(prodloc23,harbor14,tr13,1968,11808).
route(prodloc23,harbor15,tr0,25842,671892).
route(prodloc23,harbor15,tr13,25842,155052).
route(prodloc23,harbor16,tr0,9642,250692).
route(prodloc23,harbor16,tr13,9642,57852).
route(prodloc23,prodloc0,tr0,22081,574106).
route(prodloc23,prodloc0,tr13,22081,132486).
route(prodloc23,prodloc1,tr0,17455,453830).
route(prodloc23,prodloc1,tr13,17455,104730).
route(prodloc23,prodloc2,tr0,6089,158314).
route(prodloc23,prodloc2,tr13,6089,36534).
route(prodloc23,prodloc3,tr0,7696,200096).
route(prodloc23,prodloc3,tr13,7696,46176).
route(prodloc23,prodloc4,tr0,27048,703248).
route(prodloc23,prodloc4,tr13,27048,162288).
route(prodloc23,prodloc5,tr0,24533,637858).
route(prodloc23,prodloc5,tr13,24533,147198).
route(prodloc23,prodloc6,tr0,12992,337792).
route(prodloc23,prodloc6,tr13,12992,77952).
route(prodloc23,prodloc7,tr0,26620,692120).
route(prodloc23,prodloc7,tr13,26620,159720).
route(prodloc23,prodloc8,tr0,9668,251368).
route(prodloc23,prodloc8,tr13,9668,58008).
route(prodloc23,prodloc9,tr0,9902,257452).
route(prodloc23,prodloc9,tr13,9902,59412).
route(prodloc23,prodloc10,tr0,20424,531024).
route(prodloc23,prodloc10,tr13,20424,122544).
route(prodloc23,prodloc11,tr0,1079,28054).
route(prodloc23,prodloc11,tr13,1079,6474).
route(prodloc23,prodloc12,tr0,13845,359970).
route(prodloc23,prodloc12,tr13,13845,83070).
route(prodloc23,prodloc13,tr0,25889,673114).
route(prodloc23,prodloc13,tr13,25889,155334).
route(prodloc23,prodloc14,tr0,20916,543816).
route(prodloc23,prodloc14,tr13,20916,125496).
route(prodloc23,prodloc15,tr0,21066,547716).
route(prodloc23,prodloc15,tr13,21066,126396).
route(prodloc23,prodloc16,tr0,26841,697866).
route(prodloc23,prodloc16,tr13,26841,161046).
route(prodloc23,prodloc17,tr0,24525,637650).
route(prodloc23,prodloc17,tr13,24525,147150).
route(prodloc23,prodloc18,tr13,25418,152508).
route(prodloc23,prodloc18,tr15,25418,813376).
route(prodloc23,prodloc19,tr0,21322,554372).
route(prodloc23,prodloc19,tr13,21322,127932).
route(prodloc23,prodloc20,tr0,10895,283270).
route(prodloc23,prodloc20,tr13,10895,65370).
route(prodloc23,prodloc21,tr0,3087,80262).
route(prodloc23,prodloc21,tr13,3087,18522).
route(prodloc23,prodloc22,tr0,26639,692614).
route(prodloc23,prodloc22,tr13,26639,159834).
route(prodloc23,prodloc24,tr0,2452,63752).
route(prodloc23,prodloc24,tr13,2452,14712).
route(prodloc23,prodloc25,tr0,23680,615680).
route(prodloc23,prodloc25,tr13,23680,142080).
route(prodloc23,prodloc27,tr0,2563,66638).
route(prodloc23,prodloc27,tr13,2563,15378).
route(prodloc23,prodloc28,tr0,20827,541502).
route(prodloc23,prodloc28,tr13,20827,124962).
route(prodloc23,prodloc29,tr0,18680,485680).
route(prodloc23,prodloc29,tr13,18680,112080).
route(prodloc23,prodloc30,tr0,23394,608244).
route(prodloc23,prodloc30,tr13,23394,140364).
route(prodloc23,prodloc31,tr0,23970,623220).
route(prodloc23,prodloc31,tr13,23970,143820).
route(prodloc23,prodloc32,tr0,18874,490724).
route(prodloc23,prodloc32,tr13,18874,113244).
route(prodloc23,prodloc33,tr0,8312,216112).
route(prodloc23,prodloc33,tr13,8312,49872).
route(prodloc24,harbor0,tr0,3503,91078).
route(prodloc24,harbor0,tr13,3503,21018).
route(prodloc24,harbor1,tr0,9548,248248).
route(prodloc24,harbor1,tr13,9548,57288).
route(prodloc24,harbor2,tr0,1978,51428).
route(prodloc24,harbor2,tr13,1978,11868).
route(prodloc24,harbor3,tr0,22315,580190).
route(prodloc24,harbor3,tr13,22315,133890).
route(prodloc24,harbor4,tr0,711,18486).
route(prodloc24,harbor4,tr13,711,4266).
route(prodloc24,harbor5,tr0,18913,491738).
route(prodloc24,harbor5,tr13,18913,113478).
route(prodloc24,harbor6,tr0,3449,89674).
route(prodloc24,harbor6,tr13,3449,20694).
route(prodloc24,harbor7,tr0,24615,639990).
route(prodloc24,harbor7,tr13,24615,147690).
route(prodloc24,harbor8,tr0,7141,185666).
route(prodloc24,harbor8,tr13,7141,42846).
route(prodloc24,harbor9,tr0,28123,731198).
route(prodloc24,harbor9,tr13,28123,168738).
route(prodloc24,harbor10,tr0,13331,346606).
route(prodloc24,harbor10,tr13,13331,79986).
route(prodloc24,harbor11,tr0,28594,743444).
route(prodloc24,harbor11,tr13,28594,171564).
route(prodloc24,harbor12,tr0,21876,568776).
route(prodloc24,harbor12,tr13,21876,131256).
route(prodloc24,harbor13,tr0,17695,460070).
route(prodloc24,harbor13,tr13,17695,106170).
route(prodloc24,harbor14,tr0,21258,552708).
route(prodloc24,harbor14,tr13,21258,127548).
route(prodloc24,harbor15,tr0,2114,54964).
route(prodloc24,harbor15,tr13,2114,12684).
route(prodloc24,harbor16,tr0,15757,409682).
route(prodloc24,harbor16,tr13,15757,94542).
route(prodloc24,prodloc0,tr0,14877,386802).
route(prodloc24,prodloc0,tr13,14877,89262).
route(prodloc24,prodloc1,tr0,14368,373568).
route(prodloc24,prodloc1,tr13,14368,86208).
route(prodloc24,prodloc2,tr0,16586,431236).
route(prodloc24,prodloc2,tr13,16586,99516).
route(prodloc24,prodloc3,tr0,1402,36452).
route(prodloc24,prodloc3,tr13,1402,8412).
route(prodloc24,prodloc4,tr0,14188,368888).
route(prodloc24,prodloc4,tr13,14188,85128).
route(prodloc24,prodloc5,tr0,2387,62062).
route(prodloc24,prodloc5,tr13,2387,14322).
route(prodloc24,prodloc6,tr0,19524,507624).
route(prodloc24,prodloc6,tr13,19524,117144).
route(prodloc24,prodloc7,tr0,10433,271258).
route(prodloc24,prodloc7,tr13,10433,62598).
route(prodloc24,prodloc8,tr0,28610,743860).
route(prodloc24,prodloc8,tr13,28610,171660).
route(prodloc24,prodloc9,tr0,16900,439400).
route(prodloc24,prodloc9,tr13,16900,101400).
route(prodloc24,prodloc10,tr0,9006,234156).
route(prodloc24,prodloc10,tr13,9006,54036).
route(prodloc24,prodloc11,tr0,913,23738).
route(prodloc24,prodloc11,tr13,913,5478).
route(prodloc24,prodloc12,tr0,13480,350480).
route(prodloc24,prodloc12,tr13,13480,80880).
route(prodloc24,prodloc13,tr0,25069,651794).
route(prodloc24,prodloc13,tr13,25069,150414).
route(prodloc24,prodloc14,tr0,4030,104780).
route(prodloc24,prodloc14,tr13,4030,24180).
route(prodloc24,prodloc15,tr0,11378,295828).
route(prodloc24,prodloc15,tr13,11378,68268).
route(prodloc24,prodloc16,tr0,19224,499824).
route(prodloc24,prodloc16,tr13,19224,115344).
route(prodloc24,prodloc17,tr0,13567,352742).
route(prodloc24,prodloc17,tr13,13567,81402).
route(prodloc24,prodloc18,tr0,26090,678340).
route(prodloc24,prodloc18,tr13,26090,156540).
route(prodloc24,prodloc19,tr0,6396,166296).
route(prodloc24,prodloc19,tr13,6396,38376).
route(prodloc24,prodloc20,tr0,4578,119028).
route(prodloc24,prodloc20,tr13,4578,27468).
route(prodloc24,prodloc21,tr0,26719,694694).
route(prodloc24,prodloc21,tr13,26719,160314).
route(prodloc24,prodloc22,tr0,12066,313716).
route(prodloc24,prodloc22,tr13,12066,72396).
route(prodloc24,prodloc23,tr0,24947,648622).
route(prodloc24,prodloc23,tr13,24947,149682).
route(prodloc24,prodloc25,tr0,8047,209222).
route(prodloc24,prodloc25,tr13,8047,48282).
route(prodloc24,prodloc26,tr0,22746,591396).
route(prodloc24,prodloc26,tr13,22746,136476).
route(prodloc24,prodloc27,tr0,11373,295698).
route(prodloc24,prodloc27,tr13,11373,68238).
route(prodloc24,prodloc28,tr0,22962,597012).
route(prodloc24,prodloc28,tr13,22962,137772).
route(prodloc24,prodloc29,tr0,4770,124020).
route(prodloc24,prodloc29,tr13,4770,28620).
route(prodloc24,prodloc30,tr0,27885,725010).
route(prodloc24,prodloc30,tr13,27885,167310).
route(prodloc24,prodloc31,tr0,17555,456430).
route(prodloc24,prodloc31,tr13,17555,105330).
route(prodloc24,prodloc32,tr0,21263,552838).
route(prodloc24,prodloc32,tr13,21263,127578).
route(prodloc24,prodloc33,tr0,26587,691262).
route(prodloc24,prodloc33,tr13,26587,159522).
route(prodloc25,harbor0,tr0,266,6916).
route(prodloc25,harbor0,tr13,266,1596).
route(prodloc25,harbor1,tr0,25967,675142).
route(prodloc25,harbor1,tr13,25967,155802).
route(prodloc25,harbor2,tr0,18652,484952).
route(prodloc25,harbor2,tr13,18652,111912).
route(prodloc25,harbor3,tr0,10296,267696).
route(prodloc25,harbor3,tr13,10296,61776).
route(prodloc25,harbor4,tr0,15700,408200).
route(prodloc25,harbor4,tr13,15700,94200).
route(prodloc25,harbor5,tr0,26810,697060).
route(prodloc25,harbor5,tr13,26810,160860).
route(prodloc25,harbor6,tr0,24018,624468).
route(prodloc25,harbor6,tr13,24018,144108).
route(prodloc25,harbor7,tr0,24620,640120).
route(prodloc25,harbor7,tr13,24620,147720).
route(prodloc25,harbor8,tr0,15133,393458).
route(prodloc25,harbor8,tr13,15133,90798).
route(prodloc25,harbor9,tr0,2958,76908).
route(prodloc25,harbor9,tr13,2958,17748).
route(prodloc25,harbor10,tr0,11116,289016).
route(prodloc25,harbor10,tr13,11116,66696).
route(prodloc25,harbor11,tr0,6516,169416).
route(prodloc25,harbor11,tr13,6516,39096).
route(prodloc25,harbor12,tr0,17672,459472).
route(prodloc25,harbor12,tr13,17672,106032).
route(prodloc25,harbor13,tr0,25769,669994).
route(prodloc25,harbor13,tr13,25769,154614).
route(prodloc25,harbor14,tr0,18951,492726).
route(prodloc25,harbor14,tr13,18951,113706).
route(prodloc25,harbor15,tr0,1744,45344).
route(prodloc25,harbor15,tr13,1744,10464).
route(prodloc25,harbor16,tr0,20375,529750).
route(prodloc25,harbor16,tr13,20375,122250).
route(prodloc25,prodloc0,tr0,7061,183586).
route(prodloc25,prodloc0,tr13,7061,42366).
route(prodloc25,prodloc1,tr0,22165,576290).
route(prodloc25,prodloc1,tr13,22165,132990).
route(prodloc25,prodloc2,tr13,28348,170088).
route(prodloc25,prodloc2,tr15,28348,907136).
route(prodloc25,prodloc3,tr0,22738,591188).
route(prodloc25,prodloc3,tr13,22738,136428).
route(prodloc25,prodloc4,tr0,3489,90714).
route(prodloc25,prodloc4,tr13,3489,20934).
route(prodloc25,prodloc5,tr0,14965,389090).
route(prodloc25,prodloc5,tr13,14965,89790).
route(prodloc25,prodloc6,tr0,3767,97942).
route(prodloc25,prodloc6,tr13,3767,22602).
route(prodloc25,prodloc7,tr0,20912,543712).
route(prodloc25,prodloc7,tr13,20912,125472).
route(prodloc25,prodloc8,tr0,2347,61022).
route(prodloc25,prodloc8,tr13,2347,14082).
route(prodloc25,prodloc9,tr0,811,21086).
route(prodloc25,prodloc9,tr13,811,4866).
route(prodloc25,prodloc10,tr0,2480,64480).
route(prodloc25,prodloc10,tr13,2480,14880).
route(prodloc25,prodloc11,tr0,19058,495508).
route(prodloc25,prodloc11,tr13,19058,114348).
route(prodloc25,prodloc12,tr0,16635,432510).
route(prodloc25,prodloc12,tr13,16635,99810).
route(prodloc25,prodloc13,tr0,16951,440726).
route(prodloc25,prodloc13,tr13,16951,101706).
route(prodloc25,prodloc14,tr0,14857,386282).
route(prodloc25,prodloc14,tr13,14857,89142).
route(prodloc25,prodloc15,tr0,21029,546754).
route(prodloc25,prodloc15,tr13,21029,126174).
route(prodloc25,prodloc16,tr0,2131,55406).
route(prodloc25,prodloc16,tr13,2131,12786).
route(prodloc25,prodloc17,tr0,26031,676806).
route(prodloc25,prodloc17,tr13,26031,156186).
route(prodloc25,prodloc18,tr0,23254,604604).
route(prodloc25,prodloc18,tr13,23254,139524).
route(prodloc25,prodloc19,tr0,8478,220428).
route(prodloc25,prodloc19,tr13,8478,50868).
route(prodloc25,prodloc20,tr0,28437,739362).
route(prodloc25,prodloc20,tr13,28437,170622).
route(prodloc25,prodloc21,tr0,8100,210600).
route(prodloc25,prodloc21,tr13,8100,48600).
route(prodloc25,prodloc22,tr0,2420,62920).
route(prodloc25,prodloc22,tr13,2420,14520).
route(prodloc25,prodloc23,tr0,23779,618254).
route(prodloc25,prodloc23,tr13,23779,142674).
route(prodloc25,prodloc24,tr0,10423,270998).
route(prodloc25,prodloc24,tr13,10423,62538).
route(prodloc25,prodloc26,tr0,20024,520624).
route(prodloc25,prodloc26,tr13,20024,120144).
route(prodloc25,prodloc27,tr0,21638,562588).
route(prodloc25,prodloc27,tr13,21638,129828).
route(prodloc25,prodloc28,tr0,21993,571818).
route(prodloc25,prodloc28,tr13,21993,131958).
route(prodloc25,prodloc29,tr0,16217,421642).
route(prodloc25,prodloc29,tr13,16217,97302).
route(prodloc25,prodloc30,tr0,28564,742664).
route(prodloc25,prodloc30,tr13,28564,171384).
route(prodloc25,prodloc31,tr0,2939,76414).
route(prodloc25,prodloc31,tr13,2939,17634).
route(prodloc25,prodloc32,tr0,18254,474604).
route(prodloc25,prodloc32,tr13,18254,109524).
route(prodloc25,prodloc33,tr0,23235,604110).
route(prodloc25,prodloc33,tr13,23235,139410).
route(prodloc26,harbor0,tr0,25877,672802).
route(prodloc26,harbor0,tr13,25877,155262).
route(prodloc26,harbor1,tr0,23672,615472).
route(prodloc26,harbor1,tr13,23672,142032).
route(prodloc26,harbor2,tr0,581,15106).
route(prodloc26,harbor2,tr13,581,3486).
route(prodloc26,harbor3,tr0,22495,584870).
route(prodloc26,harbor3,tr13,22495,134970).
route(prodloc26,harbor4,tr0,1685,43810).
route(prodloc26,harbor4,tr13,1685,10110).
route(prodloc26,harbor5,tr0,14453,375778).
route(prodloc26,harbor5,tr13,14453,86718).
route(prodloc26,harbor6,tr0,6121,159146).
route(prodloc26,harbor6,tr13,6121,36726).
route(prodloc26,harbor7,tr0,1822,47372).
route(prodloc26,harbor7,tr13,1822,10932).
route(prodloc26,harbor8,tr0,6850,178100).
route(prodloc26,harbor8,tr13,6850,41100).
route(prodloc26,harbor9,tr0,22984,597584).
route(prodloc26,harbor9,tr13,22984,137904).
route(prodloc26,harbor10,tr0,3601,93626).
route(prodloc26,harbor10,tr13,3601,21606).
route(prodloc26,harbor11,tr0,1422,36972).
route(prodloc26,harbor11,tr13,1422,8532).
route(prodloc26,harbor12,tr0,11339,294814).
route(prodloc26,harbor12,tr13,11339,68034).
route(prodloc26,harbor13,tr0,26663,693238).
route(prodloc26,harbor13,tr13,26663,159978).
route(prodloc26,harbor14,tr0,1365,35490).
route(prodloc26,harbor14,tr13,1365,8190).
route(prodloc26,harbor15,tr0,26489,688714).
route(prodloc26,harbor15,tr13,26489,158934).
route(prodloc26,harbor16,tr0,28043,729118).
route(prodloc26,harbor16,tr13,28043,168258).
route(prodloc26,prodloc0,tr0,28481,740506).
route(prodloc26,prodloc0,tr13,28481,170886).
route(prodloc26,prodloc1,tr0,6112,158912).
route(prodloc26,prodloc1,tr13,6112,36672).
route(prodloc26,prodloc2,tr0,14981,389506).
route(prodloc26,prodloc2,tr13,14981,89886).
route(prodloc26,prodloc3,tr0,2445,63570).
route(prodloc26,prodloc3,tr13,2445,14670).
route(prodloc26,prodloc4,tr0,26652,692952).
route(prodloc26,prodloc4,tr13,26652,159912).
route(prodloc26,prodloc5,tr0,17999,467974).
route(prodloc26,prodloc5,tr13,17999,107994).
route(prodloc26,prodloc6,tr0,26432,687232).
route(prodloc26,prodloc6,tr13,26432,158592).
route(prodloc26,prodloc7,tr0,12862,334412).
route(prodloc26,prodloc7,tr13,12862,77172).
route(prodloc26,prodloc8,tr0,14236,370136).
route(prodloc26,prodloc8,tr13,14236,85416).
route(prodloc26,prodloc9,tr0,9641,250666).
route(prodloc26,prodloc9,tr13,9641,57846).
route(prodloc26,prodloc10,tr0,24708,642408).
route(prodloc26,prodloc10,tr13,24708,148248).
route(prodloc26,prodloc11,tr0,25469,662194).
route(prodloc26,prodloc11,tr13,25469,152814).
route(prodloc26,prodloc12,tr0,3543,92118).
route(prodloc26,prodloc12,tr13,3543,21258).
route(prodloc26,prodloc13,tr0,24642,640692).
route(prodloc26,prodloc13,tr13,24642,147852).
route(prodloc26,prodloc14,tr0,27935,726310).
route(prodloc26,prodloc14,tr15,27935,893920).
route(prodloc26,prodloc15,tr0,26326,684476).
route(prodloc26,prodloc15,tr13,26326,157956).
route(prodloc26,prodloc16,tr0,5846,151996).
route(prodloc26,prodloc16,tr13,5846,35076).
route(prodloc26,prodloc17,tr0,5817,151242).
route(prodloc26,prodloc17,tr13,5817,34902).
route(prodloc26,prodloc18,tr0,27291,709566).
route(prodloc26,prodloc18,tr13,27291,163746).
route(prodloc26,prodloc19,tr0,21283,553358).
route(prodloc26,prodloc19,tr13,21283,127698).
route(prodloc26,prodloc20,tr0,27581,717106).
route(prodloc26,prodloc20,tr13,27581,165486).
route(prodloc26,prodloc21,tr0,2185,56810).
route(prodloc26,prodloc21,tr13,2185,13110).
route(prodloc26,prodloc22,tr0,12687,329862).
route(prodloc26,prodloc22,tr13,12687,76122).
route(prodloc26,prodloc23,tr0,24703,642278).
route(prodloc26,prodloc23,tr15,24703,790496).
route(prodloc26,prodloc24,tr0,28425,739050).
route(prodloc26,prodloc24,tr13,28425,170550).
route(prodloc26,prodloc25,tr0,17112,444912).
route(prodloc26,prodloc25,tr13,17112,102672).
route(prodloc26,prodloc27,tr0,24755,643630).
route(prodloc26,prodloc27,tr13,24755,148530).
route(prodloc26,prodloc28,tr0,4143,107718).
route(prodloc26,prodloc28,tr15,4143,132576).
route(prodloc26,prodloc29,tr0,8306,215956).
route(prodloc26,prodloc29,tr13,8306,49836).
route(prodloc26,prodloc30,tr0,19279,501254).
route(prodloc26,prodloc30,tr13,19279,115674).
route(prodloc26,prodloc31,tr0,10453,271778).
route(prodloc26,prodloc31,tr13,10453,62718).
route(prodloc26,prodloc32,tr0,21588,561288).
route(prodloc26,prodloc32,tr13,21588,129528).
route(prodloc26,prodloc33,tr0,4702,122252).
route(prodloc26,prodloc33,tr13,4702,28212).
route(prodloc27,harbor0,tr0,311,8086).
route(prodloc27,harbor0,tr13,311,1866).
route(prodloc27,harbor1,tr0,23045,599170).
route(prodloc27,harbor1,tr13,23045,138270).
route(prodloc27,harbor2,tr0,12747,331422).
route(prodloc27,harbor2,tr13,12747,76482).
route(prodloc27,harbor3,tr0,12750,331500).
route(prodloc27,harbor3,tr13,12750,76500).
route(prodloc27,harbor4,tr0,19181,498706).
route(prodloc27,harbor4,tr13,19181,115086).
route(prodloc27,harbor5,tr0,13433,349258).
route(prodloc27,harbor5,tr13,13433,80598).
route(prodloc27,harbor6,tr0,11307,293982).
route(prodloc27,harbor6,tr13,11307,67842).
route(prodloc27,harbor7,tr0,28880,750880).
route(prodloc27,harbor7,tr13,28880,173280).
route(prodloc27,harbor8,tr0,28869,750594).
route(prodloc27,harbor8,tr13,28869,173214).
route(prodloc27,harbor9,tr0,2011,52286).
route(prodloc27,harbor9,tr13,2011,12066).
route(prodloc27,harbor10,tr0,7828,203528).
route(prodloc27,harbor10,tr13,7828,46968).
route(prodloc27,harbor11,tr0,14676,381576).
route(prodloc27,harbor11,tr13,14676,88056).
route(prodloc27,harbor12,tr0,3698,96148).
route(prodloc27,harbor12,tr13,3698,22188).
route(prodloc27,harbor13,tr0,437,11362).
route(prodloc27,harbor13,tr13,437,2622).
route(prodloc27,harbor14,tr0,26765,695890).
route(prodloc27,harbor14,tr13,26765,160590).
route(prodloc27,harbor15,tr0,4158,108108).
route(prodloc27,harbor15,tr13,4158,24948).
route(prodloc27,harbor16,tr0,12207,317382).
route(prodloc27,harbor16,tr13,12207,73242).
route(prodloc27,prodloc0,tr0,619,16094).
route(prodloc27,prodloc0,tr13,619,3714).
route(prodloc27,prodloc1,tr0,17646,458796).
route(prodloc27,prodloc1,tr13,17646,105876).
route(prodloc27,prodloc2,tr0,23178,602628).
route(prodloc27,prodloc2,tr13,23178,139068).
route(prodloc27,prodloc3,tr0,1670,43420).
route(prodloc27,prodloc3,tr13,1670,10020).
route(prodloc27,prodloc4,tr0,13388,348088).
route(prodloc27,prodloc4,tr13,13388,80328).
route(prodloc27,prodloc5,tr0,26303,683878).
route(prodloc27,prodloc5,tr13,26303,157818).
route(prodloc27,prodloc6,tr0,2690,69940).
route(prodloc27,prodloc6,tr13,2690,16140).
route(prodloc27,prodloc7,tr0,17449,453674).
route(prodloc27,prodloc7,tr13,17449,104694).
route(prodloc27,prodloc8,tr0,16927,440102).
route(prodloc27,prodloc8,tr13,16927,101562).
route(prodloc27,prodloc9,tr0,11667,303342).
route(prodloc27,prodloc9,tr13,11667,70002).
route(prodloc27,prodloc10,tr0,22405,582530).
route(prodloc27,prodloc10,tr13,22405,134430).
route(prodloc27,prodloc11,tr0,5371,139646).
route(prodloc27,prodloc11,tr13,5371,32226).
route(prodloc27,prodloc12,tr0,7573,196898).
route(prodloc27,prodloc12,tr13,7573,45438).
route(prodloc27,prodloc13,tr0,16740,435240).
route(prodloc27,prodloc13,tr13,16740,100440).
route(prodloc27,prodloc14,tr0,13130,341380).
route(prodloc27,prodloc14,tr13,13130,78780).
route(prodloc27,prodloc15,tr0,17855,464230).
route(prodloc27,prodloc15,tr13,17855,107130).
route(prodloc27,prodloc16,tr0,8062,209612).
route(prodloc27,prodloc16,tr13,8062,48372).
route(prodloc27,prodloc17,tr0,1577,41002).
route(prodloc27,prodloc17,tr13,1577,9462).
route(prodloc27,prodloc18,tr0,28709,746434).
route(prodloc27,prodloc18,tr13,28709,172254).
route(prodloc27,prodloc19,tr0,21398,556348).
route(prodloc27,prodloc19,tr13,21398,128388).
route(prodloc27,prodloc20,tr0,3730,96980).
route(prodloc27,prodloc20,tr13,3730,22380).
route(prodloc27,prodloc21,tr0,20526,533676).
route(prodloc27,prodloc21,tr13,20526,123156).
route(prodloc27,prodloc22,tr0,6574,170924).
route(prodloc27,prodloc22,tr13,6574,39444).
route(prodloc27,prodloc23,tr0,8578,223028).
route(prodloc27,prodloc23,tr13,8578,51468).
route(prodloc27,prodloc24,tr0,8616,224016).
route(prodloc27,prodloc24,tr13,8616,51696).
route(prodloc27,prodloc25,tr0,28355,737230).
route(prodloc27,prodloc25,tr13,28355,170130).
route(prodloc27,prodloc26,tr0,11856,308256).
route(prodloc27,prodloc26,tr13,11856,71136).
route(prodloc27,prodloc28,tr0,18434,479284).
route(prodloc27,prodloc28,tr13,18434,110604).
route(prodloc27,prodloc29,tr0,13108,340808).
route(prodloc27,prodloc29,tr13,13108,78648).
route(prodloc27,prodloc30,tr0,4414,114764).
route(prodloc27,prodloc30,tr13,4414,26484).
route(prodloc27,prodloc31,tr0,6834,177684).
route(prodloc27,prodloc31,tr13,6834,41004).
route(prodloc27,prodloc32,tr0,23307,605982).
route(prodloc27,prodloc32,tr13,23307,139842).
route(prodloc27,prodloc33,tr0,8851,230126).
route(prodloc27,prodloc33,tr13,8851,53106).
route(prodloc28,harbor0,tr0,3541,92066).
route(prodloc28,harbor0,tr13,3541,21246).
route(prodloc28,harbor1,tr0,5836,151736).
route(prodloc28,harbor1,tr13,5836,35016).
route(prodloc28,harbor2,tr0,14960,388960).
route(prodloc28,harbor2,tr13,14960,89760).
route(prodloc28,harbor3,tr0,15130,393380).
route(prodloc28,harbor3,tr13,15130,90780).
route(prodloc28,harbor4,tr0,22247,578422).
route(prodloc28,harbor4,tr13,22247,133482).
route(prodloc28,harbor5,tr0,25616,666016).
route(prodloc28,harbor5,tr13,25616,153696).
route(prodloc28,harbor6,tr0,23841,619866).
route(prodloc28,harbor6,tr13,23841,143046).
route(prodloc28,harbor7,tr0,5963,155038).
route(prodloc28,harbor7,tr13,5963,35778).
route(prodloc28,harbor8,tr0,12657,329082).
route(prodloc28,harbor8,tr13,12657,75942).
route(prodloc28,harbor9,tr0,12483,324558).
route(prodloc28,harbor9,tr13,12483,74898).
route(prodloc28,harbor10,tr0,23125,601250).
route(prodloc28,harbor10,tr13,23125,138750).
route(prodloc28,harbor11,tr0,2909,75634).
route(prodloc28,harbor11,tr13,2909,17454).
route(prodloc28,harbor12,tr0,11499,298974).
route(prodloc28,harbor12,tr13,11499,68994).
route(prodloc28,harbor13,tr0,5809,151034).
route(prodloc28,harbor13,tr13,5809,34854).
route(prodloc28,harbor14,tr0,14386,374036).
route(prodloc28,harbor14,tr13,14386,86316).
route(prodloc28,harbor15,tr0,25647,666822).
route(prodloc28,harbor15,tr13,25647,153882).
route(prodloc28,harbor16,tr0,4060,105560).
route(prodloc28,harbor16,tr13,4060,24360).
route(prodloc28,prodloc0,tr0,9754,253604).
route(prodloc28,prodloc0,tr13,9754,58524).
route(prodloc28,prodloc1,tr0,12362,321412).
route(prodloc28,prodloc1,tr13,12362,74172).
route(prodloc28,prodloc2,tr0,3444,89544).
route(prodloc28,prodloc2,tr13,3444,20664).
route(prodloc28,prodloc3,tr0,7509,195234).
route(prodloc28,prodloc3,tr13,7509,45054).
route(prodloc28,prodloc4,tr0,11110,288860).
route(prodloc28,prodloc4,tr13,11110,66660).
route(prodloc28,prodloc5,tr0,3300,85800).
route(prodloc28,prodloc5,tr13,3300,19800).
route(prodloc28,prodloc6,tr0,692,17992).
route(prodloc28,prodloc6,tr13,692,4152).
route(prodloc28,prodloc7,tr0,12312,320112).
route(prodloc28,prodloc7,tr13,12312,73872).
route(prodloc28,prodloc8,tr0,22100,574600).
route(prodloc28,prodloc8,tr13,22100,132600).
route(prodloc28,prodloc9,tr0,16544,430144).
route(prodloc28,prodloc9,tr13,16544,99264).
route(prodloc28,prodloc10,tr0,8709,226434).
route(prodloc28,prodloc10,tr13,8709,52254).
route(prodloc28,prodloc11,tr0,3722,96772).
route(prodloc28,prodloc11,tr13,3722,22332).
route(prodloc28,prodloc12,tr0,19846,515996).
route(prodloc28,prodloc12,tr13,19846,119076).
route(prodloc28,prodloc13,tr0,28818,749268).
route(prodloc28,prodloc13,tr13,28818,172908).
route(prodloc28,prodloc14,tr0,5824,151424).
route(prodloc28,prodloc14,tr13,5824,34944).
route(prodloc28,prodloc15,tr0,64,1664).
route(prodloc28,prodloc15,tr13,64,384).
route(prodloc28,prodloc16,tr0,9843,255918).
route(prodloc28,prodloc16,tr13,9843,59058).
route(prodloc28,prodloc17,tr0,22372,581672).
route(prodloc28,prodloc17,tr13,22372,134232).
route(prodloc28,prodloc18,tr0,8012,208312).
route(prodloc28,prodloc18,tr13,8012,48072).
route(prodloc28,prodloc19,tr0,17780,462280).
route(prodloc28,prodloc19,tr13,17780,106680).
route(prodloc28,prodloc20,tr0,8942,232492).
route(prodloc28,prodloc20,tr13,8942,53652).
route(prodloc28,prodloc21,tr0,27918,725868).
route(prodloc28,prodloc21,tr13,27918,167508).
route(prodloc28,prodloc22,tr0,12720,330720).
route(prodloc28,prodloc22,tr13,12720,76320).
route(prodloc28,prodloc23,tr0,7450,193700).
route(prodloc28,prodloc23,tr13,7450,44700).
route(prodloc28,prodloc24,tr0,22831,593606).
route(prodloc28,prodloc24,tr13,22831,136986).
route(prodloc28,prodloc25,tr0,25403,660478).
route(prodloc28,prodloc25,tr13,25403,152418).
route(prodloc28,prodloc26,tr0,23896,621296).
route(prodloc28,prodloc26,tr13,23896,143376).
route(prodloc28,prodloc27,tr0,13061,339586).
route(prodloc28,prodloc27,tr13,13061,78366).
route(prodloc28,prodloc29,tr0,24304,631904).
route(prodloc28,prodloc29,tr13,24304,145824).
route(prodloc28,prodloc30,tr0,620,16120).
route(prodloc28,prodloc30,tr13,620,3720).
route(prodloc28,prodloc31,tr0,27825,723450).
route(prodloc28,prodloc31,tr13,27825,166950).
route(prodloc28,prodloc32,tr0,1474,38324).
route(prodloc28,prodloc32,tr13,1474,8844).
route(prodloc28,prodloc33,tr0,16377,425802).
route(prodloc28,prodloc33,tr13,16377,98262).
route(prodloc29,harbor0,tr0,15158,394108).
route(prodloc29,harbor0,tr13,15158,90948).
route(prodloc29,harbor1,tr0,2941,76466).
route(prodloc29,harbor1,tr13,2941,17646).
route(prodloc29,harbor2,tr0,6506,169156).
route(prodloc29,harbor2,tr13,6506,39036).
route(prodloc29,harbor3,tr0,13357,347282).
route(prodloc29,harbor3,tr13,13357,80142).
route(prodloc29,harbor4,tr0,20492,532792).
route(prodloc29,harbor4,tr13,20492,122952).
route(prodloc29,harbor5,tr0,7233,188058).
route(prodloc29,harbor5,tr13,7233,43398).
route(prodloc29,harbor6,tr0,25307,657982).
route(prodloc29,harbor6,tr13,25307,151842).
route(prodloc29,harbor7,tr0,7662,199212).
route(prodloc29,harbor7,tr13,7662,45972).
route(prodloc29,harbor8,tr0,4516,117416).
route(prodloc29,harbor8,tr13,4516,27096).
route(prodloc29,harbor9,tr0,20935,544310).
route(prodloc29,harbor9,tr13,20935,125610).
route(prodloc29,harbor10,tr0,22010,572260).
route(prodloc29,harbor10,tr13,22010,132060).
route(prodloc29,harbor11,tr0,7871,204646).
route(prodloc29,harbor11,tr13,7871,47226).
route(prodloc29,harbor12,tr0,20880,542880).
route(prodloc29,harbor12,tr13,20880,125280).
route(prodloc29,harbor13,tr0,24708,642408).
route(prodloc29,harbor13,tr13,24708,148248).
route(prodloc29,harbor14,tr0,19780,514280).
route(prodloc29,harbor14,tr13,19780,118680).
route(prodloc29,harbor15,tr0,13243,344318).
route(prodloc29,harbor15,tr13,13243,79458).
route(prodloc29,harbor16,tr0,28836,749736).
route(prodloc29,harbor16,tr13,28836,173016).
route(prodloc29,prodloc0,tr0,15896,413296).
route(prodloc29,prodloc0,tr13,15896,95376).
route(prodloc29,prodloc1,tr0,288,7488).
route(prodloc29,prodloc1,tr13,288,1728).
route(prodloc29,prodloc2,tr0,16368,425568).
route(prodloc29,prodloc2,tr13,16368,98208).
route(prodloc29,prodloc3,tr0,9373,243698).
route(prodloc29,prodloc3,tr13,9373,56238).
route(prodloc29,prodloc4,tr0,7970,207220).
route(prodloc29,prodloc4,tr13,7970,47820).
route(prodloc29,prodloc5,tr0,12629,328354).
route(prodloc29,prodloc5,tr15,12629,404128).
route(prodloc29,prodloc6,tr0,18002,468052).
route(prodloc29,prodloc6,tr13,18002,108012).
route(prodloc29,prodloc7,tr0,5009,130234).
route(prodloc29,prodloc7,tr13,5009,30054).
route(prodloc29,prodloc8,tr0,14886,387036).
route(prodloc29,prodloc8,tr13,14886,89316).
route(prodloc29,prodloc9,tr0,21796,566696).
route(prodloc29,prodloc9,tr13,21796,130776).
route(prodloc29,prodloc10,tr0,12444,323544).
route(prodloc29,prodloc10,tr13,12444,74664).
route(prodloc29,prodloc11,tr0,13690,355940).
route(prodloc29,prodloc11,tr13,13690,82140).
route(prodloc29,prodloc12,tr0,6028,156728).
route(prodloc29,prodloc12,tr13,6028,36168).
route(prodloc29,prodloc13,tr0,8132,211432).
route(prodloc29,prodloc13,tr13,8132,48792).
route(prodloc29,prodloc14,tr0,27908,725608).
route(prodloc29,prodloc14,tr13,27908,167448).
route(prodloc29,prodloc15,tr0,15712,408512).
route(prodloc29,prodloc15,tr13,15712,94272).
route(prodloc29,prodloc16,tr0,13310,346060).
route(prodloc29,prodloc16,tr13,13310,79860).
route(prodloc29,prodloc17,tr0,6042,157092).
route(prodloc29,prodloc17,tr13,6042,36252).
route(prodloc29,prodloc18,tr0,10637,276562).
route(prodloc29,prodloc18,tr13,10637,63822).
route(prodloc29,prodloc19,tr0,14559,378534).
route(prodloc29,prodloc19,tr13,14559,87354).
route(prodloc29,prodloc20,tr0,1192,30992).
route(prodloc29,prodloc20,tr13,1192,7152).
route(prodloc29,prodloc21,tr0,2983,77558).
route(prodloc29,prodloc21,tr13,2983,17898).
route(prodloc29,prodloc22,tr0,22928,596128).
route(prodloc29,prodloc22,tr13,22928,137568).
route(prodloc29,prodloc23,tr0,28092,730392).
route(prodloc29,prodloc23,tr13,28092,168552).
route(prodloc29,prodloc24,tr0,4295,111670).
route(prodloc29,prodloc24,tr13,4295,25770).
route(prodloc29,prodloc25,tr0,20954,544804).
route(prodloc29,prodloc25,tr13,20954,125724).
route(prodloc29,prodloc26,tr0,23443,609518).
route(prodloc29,prodloc26,tr13,23443,140658).
route(prodloc29,prodloc27,tr0,10275,267150).
route(prodloc29,prodloc27,tr13,10275,61650).
route(prodloc29,prodloc28,tr0,14970,389220).
route(prodloc29,prodloc28,tr13,14970,89820).
route(prodloc29,prodloc30,tr0,11002,286052).
route(prodloc29,prodloc30,tr13,11002,66012).
route(prodloc29,prodloc31,tr0,17628,458328).
route(prodloc29,prodloc31,tr13,17628,105768).
route(prodloc29,prodloc32,tr0,13201,343226).
route(prodloc29,prodloc32,tr13,13201,79206).
route(prodloc29,prodloc33,tr0,1407,36582).
route(prodloc29,prodloc33,tr13,1407,8442).
route(prodloc30,harbor0,tr0,17059,443534).
route(prodloc30,harbor0,tr13,17059,102354).
route(prodloc30,harbor1,tr0,17768,461968).
route(prodloc30,harbor1,tr13,17768,106608).
route(prodloc30,harbor2,tr0,21340,554840).
route(prodloc30,harbor2,tr13,21340,128040).
route(prodloc30,harbor3,tr0,26323,684398).
route(prodloc30,harbor3,tr13,26323,157938).
route(prodloc30,harbor4,tr0,16714,434564).
route(prodloc30,harbor4,tr13,16714,100284).
route(prodloc30,harbor5,tr0,25503,663078).
route(prodloc30,harbor5,tr13,25503,153018).
route(prodloc30,harbor6,tr0,15341,398866).
route(prodloc30,harbor6,tr13,15341,92046).
route(prodloc30,harbor7,tr0,26420,686920).
route(prodloc30,harbor7,tr13,26420,158520).
route(prodloc30,harbor8,tr0,26635,692510).
route(prodloc30,harbor8,tr13,26635,159810).
route(prodloc30,harbor9,tr0,28203,733278).
route(prodloc30,harbor9,tr13,28203,169218).
route(prodloc30,harbor10,tr0,27123,705198).
route(prodloc30,harbor10,tr13,27123,162738).
route(prodloc30,harbor11,tr0,12397,322322).
route(prodloc30,harbor11,tr13,12397,74382).
route(prodloc30,harbor12,tr0,19089,496314).
route(prodloc30,harbor12,tr13,19089,114534).
route(prodloc30,harbor13,tr0,20574,534924).
route(prodloc30,harbor13,tr13,20574,123444).
route(prodloc30,harbor14,tr0,12160,316160).
route(prodloc30,harbor14,tr13,12160,72960).
route(prodloc30,harbor15,tr0,12181,316706).
route(prodloc30,harbor15,tr13,12181,73086).
route(prodloc30,harbor16,tr0,25467,662142).
route(prodloc30,harbor16,tr13,25467,152802).
route(prodloc30,prodloc0,tr0,2850,74100).
route(prodloc30,prodloc0,tr13,2850,17100).
route(prodloc30,prodloc1,tr0,10854,282204).
route(prodloc30,prodloc1,tr13,10854,65124).
route(prodloc30,prodloc2,tr0,17363,451438).
route(prodloc30,prodloc2,tr13,17363,104178).
route(prodloc30,prodloc3,tr0,16113,418938).
route(prodloc30,prodloc3,tr13,16113,96678).
route(prodloc30,prodloc4,tr13,26982,161892).
route(prodloc30,prodloc4,tr15,26982,863424).
route(prodloc30,prodloc5,tr0,24061,625586).
route(prodloc30,prodloc5,tr13,24061,144366).
route(prodloc30,prodloc6,tr0,20312,528112).
route(prodloc30,prodloc6,tr13,20312,121872).
route(prodloc30,prodloc7,tr0,19346,502996).
route(prodloc30,prodloc7,tr13,19346,116076).
route(prodloc30,prodloc8,tr0,2347,61022).
route(prodloc30,prodloc8,tr13,2347,14082).
route(prodloc30,prodloc9,tr0,28122,731172).
route(prodloc30,prodloc9,tr13,28122,168732).
route(prodloc30,prodloc10,tr0,18956,492856).
route(prodloc30,prodloc10,tr13,18956,113736).
route(prodloc30,prodloc11,tr0,16134,419484).
route(prodloc30,prodloc11,tr13,16134,96804).
route(prodloc30,prodloc12,tr0,19231,500006).
route(prodloc30,prodloc12,tr13,19231,115386).
route(prodloc30,prodloc13,tr0,4851,126126).
route(prodloc30,prodloc13,tr13,4851,29106).
route(prodloc30,prodloc14,tr13,10407,62442).
route(prodloc30,prodloc14,tr15,10407,333024).
route(prodloc30,prodloc15,tr0,17559,456534).
route(prodloc30,prodloc15,tr13,17559,105354).
route(prodloc30,prodloc16,tr0,20763,539838).
route(prodloc30,prodloc16,tr13,20763,124578).
route(prodloc30,prodloc17,tr0,7811,203086).
route(prodloc30,prodloc17,tr13,7811,46866).
route(prodloc30,prodloc18,tr0,10908,283608).
route(prodloc30,prodloc18,tr13,10908,65448).
route(prodloc30,prodloc19,tr0,10635,276510).
route(prodloc30,prodloc19,tr13,10635,63810).
route(prodloc30,prodloc20,tr0,1297,33722).
route(prodloc30,prodloc20,tr13,1297,7782).
route(prodloc30,prodloc21,tr0,324,8424).
route(prodloc30,prodloc21,tr13,324,1944).
route(prodloc30,prodloc22,tr0,5999,155974).
route(prodloc30,prodloc22,tr13,5999,35994).
route(prodloc30,prodloc23,tr0,15138,393588).
route(prodloc30,prodloc23,tr13,15138,90828).
route(prodloc30,prodloc24,tr0,19179,498654).
route(prodloc30,prodloc24,tr13,19179,115074).
route(prodloc30,prodloc25,tr0,9164,238264).
route(prodloc30,prodloc25,tr13,9164,54984).
route(prodloc30,prodloc26,tr13,27559,165354).
route(prodloc30,prodloc26,tr15,27559,881888).
route(prodloc30,prodloc27,tr0,21046,547196).
route(prodloc30,prodloc27,tr13,21046,126276).
route(prodloc30,prodloc28,tr0,15443,401518).
route(prodloc30,prodloc28,tr13,15443,92658).
route(prodloc30,prodloc29,tr0,4444,115544).
route(prodloc30,prodloc29,tr13,4444,26664).
route(prodloc30,prodloc31,tr0,2643,68718).
route(prodloc30,prodloc31,tr13,2643,15858).
route(prodloc30,prodloc32,tr0,27673,719498).
route(prodloc30,prodloc32,tr13,27673,166038).
route(prodloc30,prodloc33,tr0,8530,221780).
route(prodloc30,prodloc33,tr13,8530,51180).
route(prodloc31,harbor0,tr0,27938,726388).
route(prodloc31,harbor0,tr13,27938,167628).
route(prodloc31,harbor1,tr0,27522,715572).
route(prodloc31,harbor1,tr13,27522,165132).
route(prodloc31,harbor2,tr0,1892,49192).
route(prodloc31,harbor2,tr13,1892,11352).
route(prodloc31,harbor3,tr0,22531,585806).
route(prodloc31,harbor3,tr13,22531,135186).
route(prodloc31,harbor4,tr0,19973,519298).
route(prodloc31,harbor4,tr13,19973,119838).
route(prodloc31,harbor5,tr0,3802,98852).
route(prodloc31,harbor5,tr13,3802,22812).
route(prodloc31,harbor6,tr0,3362,87412).
route(prodloc31,harbor6,tr13,3362,20172).
route(prodloc31,harbor7,tr0,5808,151008).
route(prodloc31,harbor7,tr13,5808,34848).
route(prodloc31,harbor8,tr0,1254,32604).
route(prodloc31,harbor8,tr13,1254,7524).
route(prodloc31,harbor9,tr0,4838,125788).
route(prodloc31,harbor9,tr13,4838,29028).
route(prodloc31,harbor10,tr0,28063,729638).
route(prodloc31,harbor10,tr13,28063,168378).
route(prodloc31,harbor11,tr0,27287,709462).
route(prodloc31,harbor11,tr13,27287,163722).
route(prodloc31,harbor12,tr0,10788,280488).
route(prodloc31,harbor12,tr13,10788,64728).
route(prodloc31,harbor13,tr0,19551,508326).
route(prodloc31,harbor13,tr13,19551,117306).
route(prodloc31,harbor14,tr0,1778,46228).
route(prodloc31,harbor14,tr13,1778,10668).
route(prodloc31,harbor15,tr0,21622,562172).
route(prodloc31,harbor15,tr13,21622,129732).
route(prodloc31,harbor16,tr0,19727,512902).
route(prodloc31,harbor16,tr13,19727,118362).
route(prodloc31,prodloc0,tr0,28135,731510).
route(prodloc31,prodloc0,tr13,28135,168810).
route(prodloc31,prodloc1,tr0,28340,736840).
route(prodloc31,prodloc1,tr13,28340,170040).
route(prodloc31,prodloc2,tr0,19920,517920).
route(prodloc31,prodloc2,tr13,19920,119520).
route(prodloc31,prodloc3,tr0,20814,541164).
route(prodloc31,prodloc3,tr13,20814,124884).
route(prodloc31,prodloc4,tr0,18078,470028).
route(prodloc31,prodloc4,tr13,18078,108468).
route(prodloc31,prodloc5,tr0,19832,515632).
route(prodloc31,prodloc5,tr13,19832,118992).
route(prodloc31,prodloc6,tr0,19624,510224).
route(prodloc31,prodloc6,tr13,19624,117744).
route(prodloc31,prodloc7,tr0,12953,336778).
route(prodloc31,prodloc7,tr13,12953,77718).
route(prodloc31,prodloc8,tr0,28015,728390).
route(prodloc31,prodloc8,tr13,28015,168090).
route(prodloc31,prodloc10,tr0,6256,162656).
route(prodloc31,prodloc10,tr13,6256,37536).
route(prodloc31,prodloc11,tr0,384,9984).
route(prodloc31,prodloc11,tr13,384,2304).
route(prodloc31,prodloc12,tr0,20819,541294).
route(prodloc31,prodloc12,tr13,20819,124914).
route(prodloc31,prodloc13,tr0,12192,316992).
route(prodloc31,prodloc13,tr13,12192,73152).
route(prodloc31,prodloc14,tr0,12863,334438).
route(prodloc31,prodloc14,tr13,12863,77178).
route(prodloc31,prodloc15,tr0,17869,464594).
route(prodloc31,prodloc15,tr13,17869,107214).
route(prodloc31,prodloc16,tr0,8589,223314).
route(prodloc31,prodloc16,tr13,8589,51534).
route(prodloc31,prodloc17,tr0,5174,134524).
route(prodloc31,prodloc17,tr13,5174,31044).
route(prodloc31,prodloc18,tr0,7225,187850).
route(prodloc31,prodloc18,tr13,7225,43350).
route(prodloc31,prodloc19,tr0,22273,579098).
route(prodloc31,prodloc19,tr15,22273,712736).
route(prodloc31,prodloc20,tr0,22201,577226).
route(prodloc31,prodloc20,tr13,22201,133206).
route(prodloc31,prodloc21,tr0,21729,564954).
route(prodloc31,prodloc21,tr13,21729,130374).
route(prodloc31,prodloc22,tr0,19554,508404).
route(prodloc31,prodloc22,tr13,19554,117324).
route(prodloc31,prodloc23,tr0,6791,176566).
route(prodloc31,prodloc23,tr13,6791,40746).
route(prodloc31,prodloc24,tr0,11944,310544).
route(prodloc31,prodloc24,tr13,11944,71664).
route(prodloc31,prodloc25,tr0,19859,516334).
route(prodloc31,prodloc25,tr13,19859,119154).
route(prodloc31,prodloc26,tr0,1142,29692).
route(prodloc31,prodloc26,tr13,1142,6852).
route(prodloc31,prodloc27,tr0,10949,284674).
route(prodloc31,prodloc27,tr13,10949,65694).
route(prodloc31,prodloc28,tr0,1449,37674).
route(prodloc31,prodloc28,tr13,1449,8694).
route(prodloc31,prodloc29,tr0,4903,127478).
route(prodloc31,prodloc29,tr13,4903,29418).
route(prodloc31,prodloc30,tr13,20672,124032).
route(prodloc31,prodloc30,tr15,20672,661504).
route(prodloc31,prodloc32,tr0,8596,223496).
route(prodloc31,prodloc32,tr13,8596,51576).
route(prodloc31,prodloc33,tr0,5240,136240).
route(prodloc31,prodloc33,tr13,5240,31440).
route(prodloc32,harbor0,tr0,24095,626470).
route(prodloc32,harbor0,tr13,24095,144570).
route(prodloc32,harbor1,tr0,24100,626600).
route(prodloc32,harbor1,tr13,24100,144600).
route(prodloc32,harbor2,tr0,18967,493142).
route(prodloc32,harbor2,tr13,18967,113802).
route(prodloc32,harbor3,tr0,27388,712088).
route(prodloc32,harbor3,tr13,27388,164328).
route(prodloc32,harbor4,tr0,16890,439140).
route(prodloc32,harbor4,tr13,16890,101340).
route(prodloc32,harbor5,tr0,26112,678912).
route(prodloc32,harbor5,tr13,26112,156672).
route(prodloc32,harbor6,tr0,4035,104910).
route(prodloc32,harbor6,tr13,4035,24210).
route(prodloc32,harbor7,tr0,25589,665314).
route(prodloc32,harbor7,tr13,25589,153534).
route(prodloc32,harbor8,tr0,18808,489008).
route(prodloc32,harbor8,tr13,18808,112848).
route(prodloc32,harbor9,tr0,5843,151918).
route(prodloc32,harbor9,tr13,5843,35058).
route(prodloc32,harbor10,tr0,924,24024).
route(prodloc32,harbor10,tr13,924,5544).
route(prodloc32,harbor11,tr0,12764,331864).
route(prodloc32,harbor11,tr13,12764,76584).
route(prodloc32,harbor12,tr0,28814,749164).
route(prodloc32,harbor12,tr13,28814,172884).
route(prodloc32,harbor13,tr0,22525,585650).
route(prodloc32,harbor13,tr13,22525,135150).
route(prodloc32,harbor14,tr0,15585,405210).
route(prodloc32,harbor14,tr13,15585,93510).
route(prodloc32,harbor15,tr0,12583,327158).
route(prodloc32,harbor15,tr13,12583,75498).
route(prodloc32,harbor16,tr0,6441,167466).
route(prodloc32,harbor16,tr13,6441,38646).
route(prodloc32,prodloc0,tr0,6985,181610).
route(prodloc32,prodloc0,tr13,6985,41910).
route(prodloc32,prodloc1,tr0,2782,72332).
route(prodloc32,prodloc1,tr13,2782,16692).
route(prodloc32,prodloc2,tr0,19305,501930).
route(prodloc32,prodloc2,tr13,19305,115830).
route(prodloc32,prodloc3,tr0,27345,710970).
route(prodloc32,prodloc3,tr13,27345,164070).
route(prodloc32,prodloc4,tr13,27032,162192).
route(prodloc32,prodloc4,tr15,27032,865024).
route(prodloc32,prodloc5,tr0,8136,211536).
route(prodloc32,prodloc5,tr13,8136,48816).
route(prodloc32,prodloc6,tr0,10328,268528).
route(prodloc32,prodloc6,tr13,10328,61968).
route(prodloc32,prodloc7,tr0,23460,609960).
route(prodloc32,prodloc7,tr13,23460,140760).
route(prodloc32,prodloc8,tr0,20054,521404).
route(prodloc32,prodloc8,tr13,20054,120324).
route(prodloc32,prodloc9,tr0,11585,301210).
route(prodloc32,prodloc9,tr13,11585,69510).
route(prodloc32,prodloc10,tr0,6005,156130).
route(prodloc32,prodloc10,tr13,6005,36030).
route(prodloc32,prodloc11,tr0,5110,132860).
route(prodloc32,prodloc11,tr13,5110,30660).
route(prodloc32,prodloc12,tr0,15384,399984).
route(prodloc32,prodloc12,tr13,15384,92304).
route(prodloc32,prodloc13,tr0,10112,262912).
route(prodloc32,prodloc13,tr13,10112,60672).
route(prodloc32,prodloc14,tr13,6194,37164).
route(prodloc32,prodloc14,tr15,6194,198208).
route(prodloc32,prodloc15,tr0,2159,56134).
route(prodloc32,prodloc15,tr13,2159,12954).
route(prodloc32,prodloc16,tr0,4142,107692).
route(prodloc32,prodloc16,tr13,4142,24852).
route(prodloc32,prodloc17,tr0,16237,422162).
route(prodloc32,prodloc17,tr13,16237,97422).
route(prodloc32,prodloc18,tr0,3410,88660).
route(prodloc32,prodloc18,tr13,3410,20460).
route(prodloc32,prodloc19,tr0,1214,31564).
route(prodloc32,prodloc19,tr13,1214,7284).
route(prodloc32,prodloc20,tr0,15312,398112).
route(prodloc32,prodloc20,tr13,15312,91872).
route(prodloc32,prodloc21,tr0,2017,52442).
route(prodloc32,prodloc21,tr13,2017,12102).
route(prodloc32,prodloc22,tr0,9020,234520).
route(prodloc32,prodloc22,tr13,9020,54120).
route(prodloc32,prodloc23,tr0,2613,67938).
route(prodloc32,prodloc23,tr13,2613,15678).
route(prodloc32,prodloc24,tr0,28930,752180).
route(prodloc32,prodloc24,tr13,28930,173580).
route(prodloc32,prodloc25,tr0,6918,179868).
route(prodloc32,prodloc25,tr13,6918,41508).
route(prodloc32,prodloc26,tr0,342,8892).
route(prodloc32,prodloc26,tr13,342,2052).
route(prodloc32,prodloc27,tr0,18087,470262).
route(prodloc32,prodloc27,tr13,18087,108522).
route(prodloc32,prodloc28,tr0,21832,567632).
route(prodloc32,prodloc28,tr13,21832,130992).
route(prodloc32,prodloc29,tr0,13797,358722).
route(prodloc32,prodloc29,tr13,13797,82782).
route(prodloc32,prodloc30,tr0,17899,465374).
route(prodloc32,prodloc30,tr13,17899,107394).
route(prodloc32,prodloc31,tr0,6705,174330).
route(prodloc32,prodloc31,tr13,6705,40230).
route(prodloc32,prodloc33,tr0,3076,79976).
route(prodloc32,prodloc33,tr13,3076,18456).
route(prodloc33,harbor0,tr0,28046,729196).
route(prodloc33,harbor0,tr13,28046,168276).
route(prodloc33,harbor1,tr0,4807,124982).
route(prodloc33,harbor1,tr13,4807,28842).
route(prodloc33,harbor2,tr0,9256,240656).
route(prodloc33,harbor2,tr13,9256,55536).
route(prodloc33,harbor3,tr0,20555,534430).
route(prodloc33,harbor3,tr13,20555,123330).
route(prodloc33,harbor4,tr0,18493,480818).
route(prodloc33,harbor4,tr13,18493,110958).
route(prodloc33,harbor5,tr0,23035,598910).
route(prodloc33,harbor5,tr13,23035,138210).
route(prodloc33,harbor6,tr0,9209,239434).
route(prodloc33,harbor6,tr13,9209,55254).
route(prodloc33,harbor7,tr0,14164,368264).
route(prodloc33,harbor7,tr13,14164,84984).
route(prodloc33,harbor8,tr0,23078,600028).
route(prodloc33,harbor8,tr13,23078,138468).
route(prodloc33,harbor9,tr0,12028,312728).
route(prodloc33,harbor9,tr13,12028,72168).
route(prodloc33,harbor10,tr0,19646,510796).
route(prodloc33,harbor10,tr13,19646,117876).
route(prodloc33,harbor11,tr0,17483,454558).
route(prodloc33,harbor11,tr13,17483,104898).
route(prodloc33,harbor12,tr0,6592,171392).
route(prodloc33,harbor12,tr13,6592,39552).
route(prodloc33,harbor13,tr0,7211,187486).
route(prodloc33,harbor13,tr13,7211,43266).
route(prodloc33,harbor14,tr0,26580,691080).
route(prodloc33,harbor14,tr13,26580,159480).
route(prodloc33,harbor15,tr0,5582,145132).
route(prodloc33,harbor15,tr13,5582,33492).
route(prodloc33,harbor16,tr0,8245,214370).
route(prodloc33,harbor16,tr13,8245,49470).
route(prodloc33,prodloc0,tr0,27803,722878).
route(prodloc33,prodloc0,tr13,27803,166818).
route(prodloc33,prodloc1,tr0,22416,582816).
route(prodloc33,prodloc1,tr13,22416,134496).
route(prodloc33,prodloc2,tr0,23386,608036).
route(prodloc33,prodloc2,tr13,23386,140316).
route(prodloc33,prodloc3,tr0,657,17082).
route(prodloc33,prodloc3,tr13,657,3942).
route(prodloc33,prodloc4,tr0,23119,601094).
route(prodloc33,prodloc4,tr13,23119,138714).
route(prodloc33,prodloc5,tr0,26881,698906).
route(prodloc33,prodloc5,tr13,26881,161286).
route(prodloc33,prodloc6,tr0,24074,625924).
route(prodloc33,prodloc6,tr13,24074,144444).
route(prodloc33,prodloc7,tr0,8360,217360).
route(prodloc33,prodloc7,tr13,8360,50160).
route(prodloc33,prodloc8,tr0,26100,678600).
route(prodloc33,prodloc8,tr13,26100,156600).
route(prodloc33,prodloc9,tr0,27065,703690).
route(prodloc33,prodloc9,tr13,27065,162390).
route(prodloc33,prodloc10,tr0,25340,658840).
route(prodloc33,prodloc10,tr13,25340,152040).
route(prodloc33,prodloc11,tr0,18214,473564).
route(prodloc33,prodloc11,tr13,18214,109284).
route(prodloc33,prodloc12,tr0,16603,431678).
route(prodloc33,prodloc12,tr13,16603,99618).
route(prodloc33,prodloc13,tr0,24525,637650).
route(prodloc33,prodloc13,tr13,24525,147150).
route(prodloc33,prodloc14,tr0,11815,307190).
route(prodloc33,prodloc14,tr13,11815,70890).
route(prodloc33,prodloc15,tr0,679,17654).
route(prodloc33,prodloc15,tr13,679,4074).
route(prodloc33,prodloc16,tr0,5959,154934).
route(prodloc33,prodloc16,tr13,5959,35754).
route(prodloc33,prodloc17,tr0,3342,86892).
route(prodloc33,prodloc17,tr13,3342,20052).
route(prodloc33,prodloc18,tr0,12013,312338).
route(prodloc33,prodloc18,tr13,12013,72078).
route(prodloc33,prodloc19,tr0,20609,535834).
route(prodloc33,prodloc19,tr13,20609,123654).
route(prodloc33,prodloc20,tr0,7282,189332).
route(prodloc33,prodloc20,tr13,7282,43692).
route(prodloc33,prodloc21,tr0,18956,492856).
route(prodloc33,prodloc21,tr13,18956,113736).
route(prodloc33,prodloc22,tr0,6571,170846).
route(prodloc33,prodloc22,tr13,6571,39426).
route(prodloc33,prodloc23,tr0,1156,30056).
route(prodloc33,prodloc23,tr13,1156,6936).
route(prodloc33,prodloc24,tr0,2111,54886).
route(prodloc33,prodloc24,tr13,2111,12666).
route(prodloc33,prodloc25,tr0,17180,446680).
route(prodloc33,prodloc25,tr13,17180,103080).
route(prodloc33,prodloc26,tr0,19579,509054).
route(prodloc33,prodloc26,tr13,19579,117474).
route(prodloc33,prodloc27,tr0,74,1924).
route(prodloc33,prodloc27,tr13,74,444).
route(prodloc33,prodloc28,tr0,9105,236730).
route(prodloc33,prodloc28,tr13,9105,54630).
route(prodloc33,prodloc29,tr0,5512,143312).
route(prodloc33,prodloc29,tr13,5512,33072).
route(prodloc33,prodloc30,tr0,2011,52286).
route(prodloc33,prodloc30,tr13,2011,12066).
route(prodloc33,prodloc31,tr0,2858,74308).
route(prodloc33,prodloc31,tr13,2858,17148).
route(prodloc33,prodloc32,tr0,24677,641602).
route(prodloc33,prodloc32,tr13,24677,148062).
hub(harbor2).
hub(harbor9).
hub(harbor11).
hub(harbor13).
hub(prodloc0).
hub(prodloc4).
hub(prodloc5).
hub(prodloc7).
hub(prodloc26).
hub(prodloc30).
