% Multibatching benchmark instance
% Source: instances.lp
% seed=6  harbors=17  prodlocs=34  hubs=10  disruptions=2

% ---- locations ----
location(harbor0).
location(harbor1).
location(harbor2).
location(harbor3).
location(harbor4).
location(harbor5).
location(harbor6).
location(harbor7).
location(harbor8).
location(harbor9).
location(harbor10).
location(harbor11).
location(harbor12).
location(harbor13).
location(harbor14).
location(harbor15).
location(harbor16).
location(prodloc0).
location(prodloc1).
location(prodloc2).
location(prodloc3).
location(prodloc4).
location(prodloc5).
location(prodloc6).
location(prodloc7).
location(prodloc8).
location(prodloc9).
location(prodloc10).
location(prodloc11).
location(prodloc12).
location(prodloc13).
location(prodloc14).
location(prodloc15).
location(prodloc16).
location(prodloc17).
location(prodloc18).
location(prodloc19).
location(prodloc20).
location(prodloc21).
location(prodloc22).
location(prodloc23).
location(prodloc24).
location(prodloc25).
location(prodloc26).
location(prodloc27).
location(prodloc28).
location(prodloc29).
location(prodloc30).
location(prodloc31).
location(prodloc32).
location(prodloc33).

% ---- transport resources ----
transportCapacity(tr0,1800).
transportCO2(tr0,1680).
transportCost(tr0,26).
transportSpeed(tr0,12).
transportCapacity(tr1,65).
transportCO2(tr1,90).
transportCost(tr1,1).
transportSpeed(tr1,35).
transportCapacity(tr10,1).
transportCO2(tr10,700).
transportCost(tr10,4).
transportSpeed(tr10,40).
transportCapacity(tr11,65).
transportCO2(tr11,62).
transportCost(tr11,1).
transportSpeed(tr11,25).
transportCapacity(tr12,65).
transportCO2(tr12,709).
transportCost(tr12,3).
transportSpeed(tr12,55).
transportCapacity(tr13,68).
transportCO2(tr13,160).
transportCost(tr13,6).
transportSpeed(tr13,25).
transportCapacity(tr14,146).
transportCO2(tr14,780).
transportCost(tr14,4).
transportSpeed(tr14,50).
transportCapacity(tr15,2217).
transportCO2(tr15,49470).
transportCost(tr15,32).
transportSpeed(tr15,625).
transportCapacity(tr2,96).
transportCO2(tr2,709).
transportCost(tr2,3).
transportSpeed(tr2,55).
transportCapacity(tr3,1).
transportCO2(tr3,6250).
transportCost(tr3,108).
transportSpeed(tr3,25).
transportCapacity(tr4,148).
transportCO2(tr4,780).
transportCost(tr4,4).
transportSpeed(tr4,50).
transportCapacity(tr5,65).
transportCO2(tr5,780).
transportCost(tr5,3).
transportSpeed(tr5,50).
transportCapacity(tr6,1).
transportCO2(tr6,100).
transportCost(tr6,40).
transportSpeed(tr6,25).
transportCapacity(tr7,1).
transportCO2(tr7,18000).
transportCost(tr7,278).
transportSpeed(tr7,10).
transportCapacity(tr8,1).
transportCO2(tr8,14400).
transportCost(tr8,107).
transportSpeed(tr8,25).
transportCapacity(tr9,65).
transportCO2(tr9,708).
transportCost(tr9,2).
transportSpeed(tr9,60).

% ---- parts ----
part(part0).
partSize(part0,21).
valid_transport(part0,tr0).
valid_transport(part0,tr15).
valid_transport(part0,tr14).
valid_transport(part0,tr13).
valid_transport(part0,tr4).
part(part1).
partSize(part1,1).
valid_transport(part1,tr0).
valid_transport(part1,tr2).
valid_transport(part1,tr15).
valid_transport(part1,tr9).
valid_transport(part1,tr12).
valid_transport(part1,tr13).
valid_transport(part1,tr11).
part(part10).
partSize(part10,1).
valid_transport(part10,tr0).
valid_transport(part10,tr2).
valid_transport(part10,tr15).
valid_transport(part10,tr9).
valid_transport(part10,tr12).
valid_transport(part10,tr13).
valid_transport(part10,tr11).
part(part11).
partSize(part11,83).
valid_transport(part11,tr0).
valid_transport(part11,tr7).
valid_transport(part11,tr8).
valid_transport(part11,tr15).
valid_transport(part11,tr3).
valid_transport(part11,tr13).
part(part12).
partSize(part12,273).
valid_transport(part12,tr0).
valid_transport(part12,tr7).
valid_transport(part12,tr8).
valid_transport(part12,tr15).
valid_transport(part12,tr3).
valid_transport(part12,tr13).
part(part13).
partSize(part13,1).
valid_transport(part13,tr0).
valid_transport(part13,tr2).
valid_transport(part13,tr15).
valid_transport(part13,tr9).
valid_transport(part13,tr12).
valid_transport(part13,tr13).
valid_transport(part13,tr11).
part(part14).
partSize(part14,68).
valid_transport(part14,tr0).
valid_transport(part14,tr15).
valid_transport(part14,tr13).
part(part15).
partSize(part15,4).
valid_transport(part15,tr0).
valid_transport(part15,tr2).
valid_transport(part15,tr15).
valid_transport(part15,tr9).
valid_transport(part15,tr12).
valid_transport(part15,tr13).
valid_transport(part15,tr11).
part(part16).
partSize(part16,4).
valid_transport(part16,tr0).
valid_transport(part16,tr2).
valid_transport(part16,tr15).
valid_transport(part16,tr9).
valid_transport(part16,tr12).
valid_transport(part16,tr13).
valid_transport(part16,tr11).
part(part17).
partSize(part17,8).
valid_transport(part17,tr0).
valid_transport(part17,tr15).
valid_transport(part17,tr14).
valid_transport(part17,tr13).
valid_transport(part17,tr4).
part(part18).
partSize(part18,24).
valid_transport(part18,tr0).
valid_transport(part18,tr15).
valid_transport(part18,tr14).
valid_transport(part18,tr13).
valid_transport(part18,tr4).
part(part19).
partSize(part19,6).
valid_transport(part19,tr0).
valid_transport(part19,tr2).
valid_transport(part19,tr15).
valid_transport(part19,tr9).
valid_transport(part19,tr12).
valid_transport(part19,tr13).
valid_transport(part19,tr11).
part(part2).
partSize(part2,19).
valid_transport(part2,tr0).
valid_transport(part2,tr15).
valid_transport(part2,tr14).
valid_transport(part2,tr13).
valid_transport(part2,tr4).
part(part20).
partSize(part20,128).
valid_transport(part20,tr0).
valid_transport(part20,tr7).
valid_transport(part20,tr8).
valid_transport(part20,tr15).
valid_transport(part20,tr3).
valid_transport(part20,tr13).
part(part21).
partSize(part21,25).
valid_transport(part21,tr0).
valid_transport(part21,tr15).
valid_transport(part21,tr14).
valid_transport(part21,tr13).
valid_transport(part21,tr4).
part(part22).
partSize(part22,7).
valid_transport(part22,tr0).
valid_transport(part22,tr2).
valid_transport(part22,tr15).
valid_transport(part22,tr9).
valid_transport(part22,tr12).
valid_transport(part22,tr13).
valid_transport(part22,tr11).
part(part23).
partSize(part23,5).
valid_transport(part23,tr0).
valid_transport(part23,tr15).
valid_transport(part23,tr14).
valid_transport(part23,tr13).
valid_transport(part23,tr4).
part(part24).
partSize(part24,55).
valid_transport(part24,tr0).
valid_transport(part24,tr7).
valid_transport(part24,tr8).
valid_transport(part24,tr15).
valid_transport(part24,tr3).
valid_transport(part24,tr13).
part(part25).
partSize(part25,5).
valid_transport(part25,tr0).
valid_transport(part25,tr4).
valid_transport(part25,tr2).
valid_transport(part25,tr15).
valid_transport(part25,tr13).
part(part26).
partSize(part26,32).
valid_transport(part26,tr0).
valid_transport(part26,tr7).
valid_transport(part26,tr8).
valid_transport(part26,tr15).
valid_transport(part26,tr3).
valid_transport(part26,tr13).
part(part27).
partSize(part27,5).
valid_transport(part27,tr0).
valid_transport(part27,tr2).
valid_transport(part27,tr15).
valid_transport(part27,tr9).
valid_transport(part27,tr12).
valid_transport(part27,tr13).
valid_transport(part27,tr11).
part(part28).
partSize(part28,3).
valid_transport(part28,tr0).
valid_transport(part28,tr4).
valid_transport(part28,tr2).
valid_transport(part28,tr15).
valid_transport(part28,tr14).
valid_transport(part28,tr13).
part(part29).
partSize(part29,627).
part(part3).
partSize(part3,48).
valid_transport(part3,tr0).
valid_transport(part3,tr7).
valid_transport(part3,tr8).
valid_transport(part3,tr15).
valid_transport(part3,tr3).
valid_transport(part3,tr13).
part(part30).
partSize(part30,2).
valid_transport(part30,tr0).
valid_transport(part30,tr2).
valid_transport(part30,tr15).
valid_transport(part30,tr9).
valid_transport(part30,tr12).
valid_transport(part30,tr13).
valid_transport(part30,tr11).
part(part31).
partSize(part31,144).
valid_transport(part31,tr0).
valid_transport(part31,tr7).
valid_transport(part31,tr8).
valid_transport(part31,tr15).
valid_transport(part31,tr3).
valid_transport(part31,tr13).
part(part32).
partSize(part32,16).
valid_transport(part32,tr0).
valid_transport(part32,tr4).
valid_transport(part32,tr2).
valid_transport(part32,tr15).
valid_transport(part32,tr14).
valid_transport(part32,tr13).
part(part33).
partSize(part33,7).
valid_transport(part33,tr0).
valid_transport(part33,tr2).
valid_transport(part33,tr15).
valid_transport(part33,tr9).
valid_transport(part33,tr12).
valid_transport(part33,tr13).
valid_transport(part33,tr11).
part(part3345).
partSize(part3345,353).
valid_transport(part3345,tr0).
valid_transport(part3345,tr7).
valid_transport(part3345,tr8).
valid_transport(part3345,tr15).
valid_transport(part3345,tr3).
valid_transport(part3345,tr13).
part(part34).
partSize(part34,2).
valid_transport(part34,tr0).
valid_transport(part34,tr2).
valid_transport(part34,tr15).
valid_transport(part34,tr9).
valid_transport(part34,tr12).
valid_transport(part34,tr13).
valid_transport(part34,tr11).
part(part4).
partSize(part4,2).
valid_transport(part4,tr0).
valid_transport(part4,tr2).
valid_transport(part4,tr15).
valid_transport(part4,tr9).
valid_transport(part4,tr12).
valid_transport(part4,tr13).
valid_transport(part4,tr11).
part(part5).
partSize(part5,2).
valid_transport(part5,tr0).
valid_transport(part5,tr2).
valid_transport(part5,tr15).
valid_transport(part5,tr9).
valid_transport(part5,tr12).
valid_transport(part5,tr14).
valid_transport(part5,tr13).
valid_transport(part5,tr11).
part(part6).
partSize(part6,111).
valid_transport(part6,tr0).
valid_transport(part6,tr7).
valid_transport(part6,tr8).
valid_transport(part6,tr15).
valid_transport(part6,tr3).
valid_transport(part6,tr13).
part(part8).
partSize(part8,163).
valid_transport(part8,tr0).
valid_transport(part8,tr7).
valid_transport(part8,tr8).
valid_transport(part8,tr15).
valid_transport(part8,tr3).
valid_transport(part8,tr13).
part(part9).
partSize(part9,2).
valid_transport(part9,tr0).
valid_transport(part9,tr2).
valid_transport(part9,tr15).
valid_transport(part9,tr9).
valid_transport(part9,tr12).
valid_transport(part9,tr13).
valid_transport(part9,tr11).

% ---- demand ----
demandOffer(part0,prodloc5,40).
demandOffer(part0,prodloc31,40).
demandOffer(part0,prodloc16,-27).
demandOffer(part0,prodloc2,-53).
demandOffer(part1,prodloc0,20).
demandOffer(part1,prodloc9,20).
demandOffer(part1,prodloc30,-20).
demandOffer(part1,prodloc23,-20).
demandOffer(part10,prodloc20,20).
demandOffer(part10,prodloc1,20).
demandOffer(part10,prodloc17,-20).
demandOffer(part10,prodloc31,-20).
demandOffer(part12,prodloc12,10).
demandOffer(part12,prodloc26,20).
demandOffer(part12,prodloc6,-10).
demandOffer(part12,prodloc16,-10).
demandOffer(part12,prodloc5,-10).
demandOffer(part13,prodloc27,20).
demandOffer(part13,prodloc21,20).
demandOffer(part13,prodloc5,-20).
demandOffer(part13,prodloc23,-20).
demandOffer(part14,prodloc26,26).
demandOffer(part14,prodloc16,-26).
demandOffer(part15,prodloc28,53).
demandOffer(part15,prodloc6,27).
demandOffer(part15,prodloc12,-53).
demandOffer(part15,prodloc18,-27).
demandOffer(part16,prodloc6,53).
demandOffer(part16,prodloc2,27).
demandOffer(part16,prodloc12,-53).
demandOffer(part16,prodloc23,-27).
demandOffer(part17,prodloc31,20).
demandOffer(part17,prodloc12,-20).
demandOffer(part18,prodloc32,40).
demandOffer(part18,prodloc1,40).
demandOffer(part18,prodloc23,-27).
demandOffer(part18,prodloc15,-53).
demandOffer(part19,prodloc27,26).
demandOffer(part19,prodloc19,-26).
demandOffer(part2,prodloc22,40).
demandOffer(part2,prodloc7,40).
demandOffer(part2,prodloc5,-27).
demandOffer(part2,prodloc32,-53).
demandOffer(part20,prodloc33,53).
demandOffer(part20,prodloc12,27).
demandOffer(part20,prodloc7,-14).
demandOffer(part20,prodloc17,-46).
demandOffer(part20,prodloc19,-20).
demandOffer(part21,prodloc12,26).
demandOffer(part21,prodloc24,-26).
demandOffer(part22,prodloc30,53).
demandOffer(part22,prodloc14,27).
demandOffer(part22,prodloc8,-53).
demandOffer(part22,prodloc13,-27).
demandOffer(part23,prodloc33,20).
demandOffer(part23,prodloc0,20).
demandOffer(part23,prodloc12,-20).
demandOffer(part23,prodloc10,-20).
demandOffer(part25,prodloc1,20).
demandOffer(part25,prodloc21,-20).
demandOffer(part26,prodloc19,20).
demandOffer(part26,prodloc23,20).
demandOffer(part26,prodloc24,-14).
demandOffer(part26,prodloc33,-26).
demandOffer(part27,prodloc24,53).
demandOffer(part27,prodloc18,27).
demandOffer(part27,prodloc8,-53).
demandOffer(part27,prodloc31,-27).
demandOffer(part28,prodloc3,20).
demandOffer(part28,prodloc11,20).
demandOffer(part28,prodloc27,-20).
demandOffer(part28,prodloc25,-20).
demandOffer(part3,prodloc6,40).
demandOffer(part3,prodloc28,-14).
demandOffer(part3,prodloc15,-26).
demandOffer(part30,prodloc5,40).
demandOffer(part30,prodloc28,40).
demandOffer(part30,prodloc24,-27).
demandOffer(part30,prodloc4,-53).
demandOffer(part31,prodloc33,7).
demandOffer(part31,prodloc27,7).
demandOffer(part31,prodloc30,-14).
demandOffer(part32,prodloc19,53).
demandOffer(part32,prodloc26,27).
demandOffer(part32,prodloc5,-53).
demandOffer(part32,prodloc12,-27).
demandOffer(part33,prodloc17,53).
demandOffer(part33,prodloc28,27).
demandOffer(part33,prodloc31,-53).
demandOffer(part33,prodloc11,-27).
demandOffer(part34,prodloc1,20).
demandOffer(part34,prodloc7,-20).
demandOffer(part4,prodloc16,26).
demandOffer(part4,prodloc23,-26).
demandOffer(part5,prodloc12,20).
demandOffer(part5,prodloc16,-20).
demandOffer(part6,prodloc32,27).
demandOffer(part6,prodloc28,53).
demandOffer(part6,prodloc21,-24).
demandOffer(part6,prodloc29,-36).
demandOffer(part6,prodloc16,-10).
demandOffer(part6,prodloc8,-10).
demandOffer(part8,prodloc26,3).
demandOffer(part8,prodloc31,17).
demandOffer(part8,prodloc17,-10).
demandOffer(part8,prodloc30,-10).
demandOffer(part9,prodloc30,20).
demandOffer(part9,prodloc31,-20).

% ---- network (ASP-generated) ----
route(harbor0,harbor1,tr13,4689,28134).
route(harbor0,harbor1,tr2,4689,14067).
route(harbor0,harbor2,tr13,23664,141984).
route(harbor0,harbor2,tr2,23664,70992).
route(harbor0,harbor3,tr13,12399,74394).
route(harbor0,harbor3,tr2,12399,37197).
route(harbor0,harbor4,tr13,16304,97824).
route(harbor0,harbor4,tr2,16304,48912).
route(harbor0,harbor5,tr13,10046,60276).
route(harbor0,harbor5,tr2,10046,30138).
route(harbor0,harbor6,tr13,20820,124920).
route(harbor0,harbor6,tr2,20820,62460).
route(harbor0,harbor7,tr13,26399,158394).
route(harbor0,harbor7,tr2,26399,79197).
route(harbor0,harbor8,tr13,15341,92046).
route(harbor0,harbor8,tr2,15341,46023).
route(harbor0,harbor9,tr13,10626,63756).
route(harbor0,harbor9,tr2,10626,31878).
route(harbor0,harbor10,tr13,12038,72228).
route(harbor0,harbor10,tr2,12038,36114).
route(harbor0,harbor11,tr13,21632,129792).
route(harbor0,harbor11,tr2,21632,64896).
route(harbor0,harbor12,tr13,5372,32232).
route(harbor0,harbor12,tr2,5372,16116).
route(harbor0,harbor13,tr13,20327,121962).
route(harbor0,harbor13,tr2,20327,60981).
route(harbor0,harbor14,tr13,12352,74112).
route(harbor0,harbor14,tr2,12352,37056).
route(harbor0,harbor15,tr13,22785,136710).
route(harbor0,harbor15,tr2,22785,68355).
route(harbor0,harbor16,tr13,19790,118740).
route(harbor0,harbor16,tr2,19790,59370).
route(harbor0,prodloc0,tr0,8711,226486).
route(harbor0,prodloc0,tr13,8711,52266).
route(harbor0,prodloc1,tr0,10491,272766).
route(harbor0,prodloc1,tr13,10491,62946).
route(harbor0,prodloc2,tr0,21173,550498).
route(harbor0,prodloc2,tr13,21173,127038).
route(harbor0,prodloc3,tr0,13052,339352).
route(harbor0,prodloc3,tr13,13052,78312).
route(harbor0,prodloc4,tr0,15992,415792).
route(harbor0,prodloc4,tr13,15992,95952).
route(harbor0,prodloc5,tr0,23899,621374).
route(harbor0,prodloc5,tr13,23899,143394).
route(harbor0,prodloc6,tr0,26001,676026).
route(harbor0,prodloc6,tr13,26001,156006).
route(harbor0,prodloc7,tr0,5185,134810).
route(harbor0,prodloc7,tr13,5185,31110).
route(harbor0,prodloc8,tr0,27123,705198).
route(harbor0,prodloc8,tr13,27123,162738).
route(harbor0,prodloc9,tr0,9530,247780).
route(harbor0,prodloc9,tr13,9530,57180).
route(harbor0,prodloc10,tr0,18347,477022).
route(harbor0,prodloc10,tr13,18347,110082).
route(harbor0,prodloc11,tr0,204,5304).
route(harbor0,prodloc11,tr13,204,1224).
route(harbor0,prodloc12,tr0,20442,531492).
route(harbor0,prodloc12,tr13,20442,122652).
route(harbor0,prodloc13,tr0,14726,382876).
route(harbor0,prodloc13,tr13,14726,88356).
route(harbor0,prodloc14,tr0,1873,48698).
route(harbor0,prodloc14,tr13,1873,11238).
route(harbor0,prodloc15,tr0,5984,155584).
route(harbor0,prodloc15,tr13,5984,35904).
route(harbor0,prodloc16,tr0,988,25688).
route(harbor0,prodloc16,tr13,988,5928).
route(harbor0,prodloc17,tr0,19989,519714).
route(harbor0,prodloc17,tr13,19989,119934).
route(harbor0,prodloc18,tr0,25350,659100).
route(harbor0,prodloc18,tr13,25350,152100).
route(harbor0,prodloc19,tr0,18672,485472).
route(harbor0,prodloc19,tr13,18672,112032).
route(harbor0,prodloc20,tr0,3676,95576).
route(harbor0,prodloc20,tr13,3676,22056).
route(harbor0,prodloc21,tr0,22352,581152).
route(harbor0,prodloc21,tr13,22352,134112).
route(harbor0,prodloc22,tr0,23546,612196).
route(harbor0,prodloc22,tr13,23546,141276).
route(harbor0,prodloc23,tr0,12155,316030).
route(harbor0,prodloc23,tr13,12155,72930).
route(harbor0,prodloc24,tr0,11864,308464).
route(harbor0,prodloc24,tr13,11864,71184).
route(harbor0,prodloc25,tr0,16302,423852).
route(harbor0,prodloc25,tr13,16302,97812).
route(harbor0,prodloc26,tr0,27969,727194).
route(harbor0,prodloc26,tr13,27969,167814).
route(harbor0,prodloc27,tr0,19326,502476).
route(harbor0,prodloc27,tr13,19326,115956).
route(harbor0,prodloc28,tr0,2042,53092).
route(harbor0,prodloc28,tr13,2042,12252).
route(harbor0,prodloc29,tr0,6314,164164).
route(harbor0,prodloc29,tr13,6314,37884).
route(harbor0,prodloc30,tr0,5060,131560).
route(harbor0,prodloc30,tr13,5060,30360).
route(harbor0,prodloc31,tr0,8824,229424).
route(harbor0,prodloc31,tr13,8824,52944).
route(harbor0,prodloc32,tr0,20102,522652).
route(harbor0,prodloc32,tr13,20102,120612).
route(harbor0,prodloc33,tr0,487,12662).
route(harbor0,prodloc33,tr13,487,2922).
route(harbor1,harbor0,tr13,13861,83166).
route(harbor1,harbor0,tr2,13861,41583).
route(harbor1,harbor2,tr13,26448,158688).
route(harbor1,harbor2,tr2,26448,79344).
route(harbor1,harbor3,tr13,25664,153984).
route(harbor1,harbor3,tr2,25664,76992).
route(harbor1,harbor4,tr13,26249,157494).
route(harbor1,harbor4,tr2,26249,78747).
route(harbor1,harbor5,tr13,26687,160122).
route(harbor1,harbor5,tr2,26687,80061).
route(harbor1,harbor6,tr13,17228,103368).
route(harbor1,harbor6,tr2,17228,51684).
route(harbor1,harbor7,tr13,16141,96846).
route(harbor1,harbor7,tr2,16141,48423).
route(harbor1,harbor8,tr13,2514,15084).
route(harbor1,harbor8,tr2,2514,7542).
route(harbor1,harbor9,tr13,15394,92364).
route(harbor1,harbor9,tr2,15394,46182).
route(harbor1,harbor10,tr13,7634,45804).
route(harbor1,harbor10,tr2,7634,22902).
route(harbor1,harbor11,tr13,3311,19866).
route(harbor1,harbor11,tr2,3311,9933).
route(harbor1,harbor12,tr13,12184,73104).
route(harbor1,harbor12,tr2,12184,36552).
route(harbor1,harbor13,tr13,11891,71346).
route(harbor1,harbor13,tr2,11891,35673).
route(harbor1,harbor14,tr13,4780,28680).
route(harbor1,harbor14,tr2,4780,14340).
route(harbor1,harbor15,tr13,22342,134052).
route(harbor1,harbor15,tr2,22342,67026).
route(harbor1,harbor16,tr13,20529,123174).
route(harbor1,harbor16,tr2,20529,61587).
route(harbor1,prodloc0,tr0,7976,207376).
route(harbor1,prodloc0,tr13,7976,47856).
route(harbor1,prodloc1,tr0,19878,516828).
route(harbor1,prodloc1,tr13,19878,119268).
route(harbor1,prodloc2,tr0,10432,271232).
route(harbor1,prodloc2,tr13,10432,62592).
route(harbor1,prodloc3,tr0,4729,122954).
route(harbor1,prodloc3,tr13,4729,28374).
route(harbor1,prodloc4,tr0,1236,32136).
route(harbor1,prodloc4,tr13,1236,7416).
route(harbor1,prodloc5,tr0,20580,535080).
route(harbor1,prodloc5,tr13,20580,123480).
route(harbor1,prodloc6,tr0,21896,569296).
route(harbor1,prodloc6,tr13,21896,131376).
route(harbor1,prodloc7,tr0,3191,82966).
route(harbor1,prodloc7,tr13,3191,19146).
route(harbor1,prodloc8,tr0,23396,608296).
route(harbor1,prodloc8,tr13,23396,140376).
route(harbor1,prodloc9,tr0,3456,89856).
route(harbor1,prodloc9,tr13,3456,20736).
route(harbor1,prodloc10,tr0,1485,38610).
route(harbor1,prodloc10,tr13,1485,8910).
route(harbor1,prodloc11,tr0,21156,550056).
route(harbor1,prodloc11,tr13,21156,126936).
route(harbor1,prodloc12,tr0,15661,407186).
route(harbor1,prodloc12,tr13,15661,93966).
route(harbor1,prodloc13,tr0,15164,394264).
route(harbor1,prodloc13,tr13,15164,90984).
route(harbor1,prodloc14,tr0,23729,616954).
route(harbor1,prodloc14,tr13,23729,142374).
route(harbor1,prodloc15,tr0,2262,58812).
route(harbor1,prodloc15,tr13,2262,13572).
route(harbor1,prodloc16,tr0,20619,536094).
route(harbor1,prodloc16,tr13,20619,123714).
route(harbor1,prodloc17,tr0,1012,26312).
route(harbor1,prodloc17,tr13,1012,6072).
route(harbor1,prodloc18,tr0,22984,597584).
route(harbor1,prodloc18,tr13,22984,137904).
route(harbor1,prodloc19,tr0,18071,469846).
route(harbor1,prodloc19,tr13,18071,108426).
route(harbor1,prodloc20,tr0,4163,108238).
route(harbor1,prodloc20,tr13,4163,24978).
route(harbor1,prodloc21,tr0,20207,525382).
route(harbor1,prodloc21,tr13,20207,121242).
route(harbor1,prodloc22,tr0,27286,709436).
route(harbor1,prodloc22,tr13,27286,163716).
route(harbor1,prodloc23,tr0,2739,71214).
route(harbor1,prodloc23,tr13,2739,16434).
route(harbor1,prodloc24,tr0,5279,137254).
route(harbor1,prodloc24,tr13,5279,31674).
route(harbor1,prodloc25,tr0,20256,526656).
route(harbor1,prodloc25,tr13,20256,121536).
route(harbor1,prodloc26,tr0,20684,537784).
route(harbor1,prodloc26,tr13,20684,124104).
route(harbor1,prodloc27,tr0,8691,225966).
route(harbor1,prodloc27,tr13,8691,52146).
route(harbor1,prodloc28,tr0,27474,714324).
route(harbor1,prodloc28,tr13,27474,164844).
route(harbor1,prodloc29,tr0,21441,557466).
route(harbor1,prodloc29,tr13,21441,128646).
route(harbor1,prodloc30,tr0,14812,385112).
route(harbor1,prodloc30,tr13,14812,88872).
route(harbor1,prodloc31,tr0,16375,425750).
route(harbor1,prodloc31,tr13,16375,98250).
route(harbor1,prodloc32,tr0,22736,591136).
route(harbor1,prodloc32,tr13,22736,136416).
route(harbor1,prodloc33,tr0,666,17316).
route(harbor1,prodloc33,tr13,666,3996).
route(harbor2,harbor0,tr13,25960,155760).
route(harbor2,harbor0,tr2,25960,77880).
route(harbor2,harbor1,tr13,20917,125502).
route(harbor2,harbor1,tr2,20917,62751).
route(harbor2,harbor3,tr13,4521,27126).
route(harbor2,harbor3,tr2,4521,13563).
route(harbor2,harbor4,tr13,26842,161052).
route(harbor2,harbor4,tr2,26842,80526).
route(harbor2,harbor5,tr13,6216,37296).
route(harbor2,harbor5,tr2,6216,18648).
route(harbor2,harbor6,tr13,14476,86856).
route(harbor2,harbor6,tr2,14476,43428).
route(harbor2,harbor7,tr13,15731,94386).
route(harbor2,harbor7,tr2,15731,47193).
route(harbor2,harbor8,tr13,25539,153234).
route(harbor2,harbor8,tr2,25539,76617).
route(harbor2,harbor9,tr13,14430,86580).
route(harbor2,harbor9,tr2,14430,43290).
route(harbor2,harbor10,tr13,14679,88074).
route(harbor2,harbor10,tr2,14679,44037).
route(harbor2,harbor11,tr13,18333,109998).
route(harbor2,harbor11,tr2,18333,54999).
route(harbor2,harbor12,tr13,9087,54522).
route(harbor2,harbor12,tr2,9087,27261).
route(harbor2,harbor13,tr13,15674,94044).
route(harbor2,harbor13,tr2,15674,47022).
route(harbor2,harbor14,tr13,23376,140256).
route(harbor2,harbor14,tr2,23376,70128).
route(harbor2,harbor15,tr13,19013,114078).
route(harbor2,harbor15,tr2,19013,57039).
route(harbor2,harbor16,tr13,2116,12696).
route(harbor2,harbor16,tr2,2116,6348).
route(harbor2,prodloc0,tr0,27246,708396).
route(harbor2,prodloc0,tr13,27246,163476).
route(harbor2,prodloc1,tr0,26222,681772).
route(harbor2,prodloc1,tr13,26222,157332).
route(harbor2,prodloc2,tr0,9562,248612).
route(harbor2,prodloc2,tr13,9562,57372).
route(harbor2,prodloc3,tr0,11911,309686).
route(harbor2,prodloc3,tr13,11911,71466).
route(harbor2,prodloc4,tr0,9375,243750).
route(harbor2,prodloc4,tr13,9375,56250).
route(harbor2,prodloc5,tr0,11803,306878).
route(harbor2,prodloc5,tr13,11803,70818).
route(harbor2,prodloc6,tr0,1111,28886).
route(harbor2,prodloc6,tr13,1111,6666).
route(harbor2,prodloc7,tr0,2744,71344).
route(harbor2,prodloc7,tr13,2744,16464).
route(harbor2,prodloc8,tr0,16464,428064).
route(harbor2,prodloc8,tr13,16464,98784).
route(harbor2,prodloc9,tr0,28119,731094).
route(harbor2,prodloc9,tr13,28119,168714).
route(harbor2,prodloc10,tr0,9038,234988).
route(harbor2,prodloc10,tr13,9038,54228).
route(harbor2,prodloc11,tr0,9170,238420).
route(harbor2,prodloc11,tr13,9170,55020).
route(harbor2,prodloc12,tr0,8984,233584).
route(harbor2,prodloc12,tr13,8984,53904).
route(harbor2,prodloc13,tr0,15504,403104).
route(harbor2,prodloc13,tr13,15504,93024).
route(harbor2,prodloc14,tr0,14115,366990).
route(harbor2,prodloc14,tr13,14115,84690).
route(harbor2,prodloc15,tr0,14558,378508).
route(harbor2,prodloc15,tr13,14558,87348).
route(harbor2,prodloc16,tr0,12173,316498).
route(harbor2,prodloc16,tr13,12173,73038).
route(harbor2,prodloc17,tr0,1047,27222).
route(harbor2,prodloc17,tr13,1047,6282).
route(harbor2,prodloc18,tr0,23391,608166).
route(harbor2,prodloc18,tr13,23391,140346).
route(harbor2,prodloc19,tr0,2808,73008).
route(harbor2,prodloc19,tr13,2808,16848).
route(harbor2,prodloc20,tr0,8180,212680).
route(harbor2,prodloc20,tr13,8180,49080).
route(harbor2,prodloc21,tr0,26752,695552).
route(harbor2,prodloc21,tr13,26752,160512).
route(harbor2,prodloc22,tr0,19815,515190).
route(harbor2,prodloc22,tr13,19815,118890).
route(harbor2,prodloc23,tr0,20926,544076).
route(harbor2,prodloc23,tr13,20926,125556).
route(harbor2,prodloc24,tr0,7815,203190).
route(harbor2,prodloc24,tr13,7815,46890).
route(harbor2,prodloc25,tr0,17549,456274).
route(harbor2,prodloc25,tr13,17549,105294).
route(harbor2,prodloc26,tr0,24429,635154).
route(harbor2,prodloc26,tr13,24429,146574).
route(harbor2,prodloc27,tr0,1073,27898).
route(harbor2,prodloc27,tr13,1073,6438).
route(harbor2,prodloc28,tr0,24219,629694).
route(harbor2,prodloc28,tr13,24219,145314).
route(harbor2,prodloc29,tr0,5680,147680).
route(harbor2,prodloc29,tr13,5680,34080).
route(harbor2,prodloc30,tr0,11024,286624).
route(harbor2,prodloc30,tr13,11024,66144).
route(harbor2,prodloc31,tr0,12142,315692).
route(harbor2,prodloc31,tr13,12142,72852).
route(harbor2,prodloc32,tr0,1049,27274).
route(harbor2,prodloc32,tr13,1049,6294).
route(harbor2,prodloc33,tr0,1708,44408).
route(harbor2,prodloc33,tr13,1708,10248).
route(harbor3,harbor0,tr13,24273,145638).
route(harbor3,harbor0,tr2,24273,72819).
route(harbor3,harbor1,tr13,25103,150618).
route(harbor3,harbor1,tr2,25103,75309).
route(harbor3,harbor2,tr13,24646,147876).
route(harbor3,harbor2,tr2,24646,73938).
route(harbor3,harbor4,tr13,6884,41304).
route(harbor3,harbor4,tr2,6884,20652).
route(harbor3,harbor5,tr13,22990,137940).
route(harbor3,harbor5,tr2,22990,68970).
route(harbor3,harbor6,tr13,14219,85314).
route(harbor3,harbor6,tr2,14219,42657).
route(harbor3,harbor7,tr13,11285,67710).
route(harbor3,harbor7,tr2,11285,33855).
route(harbor3,harbor8,tr13,29034,174204).
route(harbor3,harbor8,tr2,29034,87102).
route(harbor3,harbor9,tr13,2572,15432).
route(harbor3,harbor9,tr2,2572,7716).
route(harbor3,harbor10,tr13,5195,31170).
route(harbor3,harbor10,tr2,5195,15585).
route(harbor3,harbor11,tr13,24000,144000).
route(harbor3,harbor11,tr2,24000,72000).
route(harbor3,harbor12,tr13,22175,133050).
route(harbor3,harbor12,tr2,22175,66525).
route(harbor3,harbor13,tr13,3766,22596).
route(harbor3,harbor13,tr2,3766,11298).
route(harbor3,harbor14,tr13,13125,78750).
route(harbor3,harbor14,tr2,13125,39375).
route(harbor3,harbor15,tr13,17958,107748).
route(harbor3,harbor15,tr2,17958,53874).
route(harbor3,harbor16,tr13,4476,26856).
route(harbor3,harbor16,tr2,4476,13428).
route(harbor3,prodloc0,tr0,15208,395408).
route(harbor3,prodloc0,tr13,15208,91248).
route(harbor3,prodloc1,tr0,24349,633074).
route(harbor3,prodloc1,tr13,24349,146094).
route(harbor3,prodloc2,tr0,16206,421356).
route(harbor3,prodloc2,tr13,16206,97236).
route(harbor3,prodloc3,tr0,20953,544778).
route(harbor3,prodloc3,tr13,20953,125718).
route(harbor3,prodloc4,tr0,2465,64090).
route(harbor3,prodloc4,tr13,2465,14790).
route(harbor3,prodloc5,tr0,4197,109122).
route(harbor3,prodloc5,tr13,4197,25182).
route(harbor3,prodloc6,tr0,2425,63050).
route(harbor3,prodloc6,tr13,2425,14550).
route(harbor3,prodloc7,tr0,11483,298558).
route(harbor3,prodloc7,tr13,11483,68898).
route(harbor3,prodloc8,tr0,17050,443300).
route(harbor3,prodloc8,tr13,17050,102300).
route(harbor3,prodloc9,tr0,1000,26000).
route(harbor3,prodloc9,tr13,1000,6000).
route(harbor3,prodloc10,tr0,6086,158236).
route(harbor3,prodloc10,tr13,6086,36516).
route(harbor3,prodloc11,tr0,17219,447694).
route(harbor3,prodloc11,tr13,17219,103314).
route(harbor3,prodloc12,tr0,23204,603304).
route(harbor3,prodloc12,tr13,23204,139224).
route(harbor3,prodloc13,tr0,4927,128102).
route(harbor3,prodloc13,tr13,4927,29562).
route(harbor3,prodloc14,tr0,6021,156546).
route(harbor3,prodloc14,tr13,6021,36126).
route(harbor3,prodloc15,tr0,9232,240032).
route(harbor3,prodloc15,tr13,9232,55392).
route(harbor3,prodloc16,tr0,24217,629642).
route(harbor3,prodloc16,tr13,24217,145302).
route(harbor3,prodloc17,tr0,4950,128700).
route(harbor3,prodloc17,tr13,4950,29700).
route(harbor3,prodloc18,tr0,16625,432250).
route(harbor3,prodloc18,tr13,16625,99750).
route(harbor3,prodloc19,tr0,18628,484328).
route(harbor3,prodloc19,tr13,18628,111768).
route(harbor3,prodloc20,tr0,27857,724282).
route(harbor3,prodloc20,tr13,27857,167142).
route(harbor3,prodloc21,tr0,12726,330876).
route(harbor3,prodloc21,tr13,12726,76356).
route(harbor3,prodloc22,tr0,26107,678782).
route(harbor3,prodloc22,tr13,26107,156642).
route(harbor3,prodloc23,tr0,7311,190086).
route(harbor3,prodloc23,tr13,7311,43866).
route(harbor3,prodloc24,tr0,7263,188838).
route(harbor3,prodloc24,tr13,7263,43578).
route(harbor3,prodloc25,tr0,22794,592644).
route(harbor3,prodloc25,tr13,22794,136764).
route(harbor3,prodloc26,tr0,18485,480610).
route(harbor3,prodloc26,tr13,18485,110910).
route(harbor3,prodloc27,tr0,23438,609388).
route(harbor3,prodloc27,tr13,23438,140628).
route(harbor3,prodloc28,tr0,4125,107250).
route(harbor3,prodloc28,tr13,4125,24750).
route(harbor3,prodloc29,tr0,13736,357136).
route(harbor3,prodloc29,tr13,13736,82416).
route(harbor3,prodloc30,tr0,22639,588614).
route(harbor3,prodloc30,tr13,22639,135834).
route(harbor3,prodloc31,tr0,5349,139074).
route(harbor3,prodloc31,tr13,5349,32094).
route(harbor3,prodloc32,tr0,24816,645216).
route(harbor3,prodloc32,tr13,24816,148896).
route(harbor3,prodloc33,tr0,10373,269698).
route(harbor3,prodloc33,tr13,10373,62238).
route(harbor4,harbor0,tr13,7905,47430).
route(harbor4,harbor0,tr2,7905,23715).
route(harbor4,harbor1,tr13,18413,110478).
route(harbor4,harbor1,tr2,18413,55239).
route(harbor4,harbor2,tr13,18785,112710).
route(harbor4,harbor2,tr2,18785,56355).
route(harbor4,harbor3,tr13,186,1116).
route(harbor4,harbor3,tr2,186,558).
route(harbor4,harbor5,tr13,25799,154794).
route(harbor4,harbor5,tr2,25799,77397).
route(harbor4,harbor6,tr13,26411,158466).
route(harbor4,harbor6,tr2,26411,79233).
route(harbor4,harbor7,tr13,18672,112032).
route(harbor4,harbor7,tr2,18672,56016).
route(harbor4,harbor8,tr13,12700,76200).
route(harbor4,harbor8,tr2,12700,38100).
route(harbor4,harbor9,tr13,6195,37170).
route(harbor4,harbor9,tr2,6195,18585).
route(harbor4,harbor10,tr13,24941,149646).
route(harbor4,harbor10,tr2,24941,74823).
route(harbor4,harbor11,tr13,10688,64128).
route(harbor4,harbor11,tr2,10688,32064).
route(harbor4,harbor12,tr13,28044,168264).
route(harbor4,harbor12,tr2,28044,84132).
route(harbor4,harbor13,tr13,12517,75102).
route(harbor4,harbor13,tr2,12517,37551).
route(harbor4,harbor14,tr13,17275,103650).
route(harbor4,harbor14,tr2,17275,51825).
route(harbor4,harbor15,tr13,14478,86868).
route(harbor4,harbor15,tr2,14478,43434).
route(harbor4,harbor16,tr13,347,2082).
route(harbor4,harbor16,tr2,347,1041).
route(harbor4,prodloc0,tr0,13027,338702).
route(harbor4,prodloc0,tr13,13027,78162).
route(harbor4,prodloc1,tr0,27686,719836).
route(harbor4,prodloc1,tr13,27686,166116).
route(harbor4,prodloc2,tr0,17394,452244).
route(harbor4,prodloc2,tr13,17394,104364).
route(harbor4,prodloc3,tr0,18059,469534).
route(harbor4,prodloc3,tr13,18059,108354).
route(harbor4,prodloc4,tr0,27855,724230).
route(harbor4,prodloc4,tr13,27855,167130).
route(harbor4,prodloc5,tr0,21696,564096).
route(harbor4,prodloc5,tr13,21696,130176).
route(harbor4,prodloc6,tr0,4467,116142).
route(harbor4,prodloc6,tr13,4467,26802).
route(harbor4,prodloc7,tr0,23476,610376).
route(harbor4,prodloc7,tr13,23476,140856).
route(harbor4,prodloc8,tr0,7659,199134).
route(harbor4,prodloc8,tr13,7659,45954).
route(harbor4,prodloc9,tr0,21142,549692).
route(harbor4,prodloc9,tr13,21142,126852).
route(harbor4,prodloc10,tr0,17825,463450).
route(harbor4,prodloc10,tr13,17825,106950).
route(harbor4,prodloc11,tr0,26388,686088).
route(harbor4,prodloc11,tr13,26388,158328).
route(harbor4,prodloc12,tr0,24344,632944).
route(harbor4,prodloc12,tr13,24344,146064).
route(harbor4,prodloc13,tr0,12199,317174).
route(harbor4,prodloc13,tr13,12199,73194).
route(harbor4,prodloc14,tr0,8911,231686).
route(harbor4,prodloc14,tr13,8911,53466).
route(harbor4,prodloc15,tr0,21843,567918).
route(harbor4,prodloc15,tr13,21843,131058).
route(harbor4,prodloc16,tr0,6068,157768).
route(harbor4,prodloc16,tr13,6068,36408).
route(harbor4,prodloc17,tr0,4897,127322).
route(harbor4,prodloc17,tr13,4897,29382).
route(harbor4,prodloc18,tr0,5380,139880).
route(harbor4,prodloc18,tr13,5380,32280).
route(harbor4,prodloc19,tr0,22619,588094).
route(harbor4,prodloc19,tr13,22619,135714).
route(harbor4,prodloc20,tr0,20497,532922).
route(harbor4,prodloc20,tr13,20497,122982).
route(harbor4,prodloc21,tr0,4403,114478).
route(harbor4,prodloc21,tr13,4403,26418).
route(harbor4,prodloc22,tr0,12607,327782).
route(harbor4,prodloc22,tr13,12607,75642).
route(harbor4,prodloc23,tr0,2435,63310).
route(harbor4,prodloc23,tr13,2435,14610).
route(harbor4,prodloc24,tr0,2003,52078).
route(harbor4,prodloc24,tr13,2003,12018).
route(harbor4,prodloc25,tr0,403,10478).
route(harbor4,prodloc25,tr13,403,2418).
route(harbor4,prodloc26,tr0,1308,34008).
route(harbor4,prodloc26,tr13,1308,7848).
route(harbor4,prodloc27,tr0,15475,402350).
route(harbor4,prodloc27,tr13,15475,92850).
route(harbor4,prodloc28,tr0,24871,646646).
route(harbor4,prodloc28,tr13,24871,149226).
route(harbor4,prodloc29,tr0,1942,50492).
route(harbor4,prodloc29,tr13,1942,11652).
route(harbor4,prodloc30,tr0,3756,97656).
route(harbor4,prodloc30,tr13,3756,22536).
route(harbor4,prodloc31,tr0,21329,554554).
route(harbor4,prodloc31,tr13,21329,127974).
route(harbor4,prodloc32,tr0,23301,605826).
route(harbor4,prodloc32,tr13,23301,139806).
route(harbor4,prodloc33,tr0,17705,460330).
route(harbor4,prodloc33,tr13,17705,106230).
route(harbor5,harbor0,tr13,3311,19866).
route(harbor5,harbor0,tr2,3311,9933).
route(harbor5,harbor1,tr13,22106,132636).
route(harbor5,harbor1,tr2,22106,66318).
route(harbor5,harbor2,tr13,12076,72456).
route(harbor5,harbor2,tr2,12076,36228).
route(harbor5,harbor3,tr13,19547,117282).
route(harbor5,harbor3,tr2,19547,58641).
route(harbor5,harbor4,tr13,1084,6504).
route(harbor5,harbor4,tr2,1084,3252).
route(harbor5,harbor6,tr13,1992,11952).
route(harbor5,harbor6,tr2,1992,5976).
route(harbor5,harbor7,tr13,17815,106890).
route(harbor5,harbor7,tr2,17815,53445).
route(harbor5,harbor8,tr13,7395,44370).
route(harbor5,harbor8,tr2,7395,22185).
route(harbor5,harbor9,tr13,25799,154794).
route(harbor5,harbor9,tr2,25799,77397).
route(harbor5,harbor10,tr13,13361,80166).
route(harbor5,harbor10,tr2,13361,40083).
route(harbor5,harbor11,tr13,7421,44526).
route(harbor5,harbor11,tr2,7421,22263).
route(harbor5,harbor12,tr13,25053,150318).
route(harbor5,harbor12,tr2,25053,75159).
route(harbor5,harbor13,tr13,18553,111318).
route(harbor5,harbor13,tr2,18553,55659).
route(harbor5,harbor14,tr13,22563,135378).
route(harbor5,harbor14,tr2,22563,67689).
route(harbor5,harbor15,tr13,9647,57882).
route(harbor5,harbor15,tr2,9647,28941).
route(harbor5,harbor16,tr13,3068,18408).
route(harbor5,harbor16,tr2,3068,9204).
route(harbor5,prodloc0,tr0,15437,401362).
route(harbor5,prodloc0,tr13,15437,92622).
route(harbor5,prodloc1,tr0,2534,65884).
route(harbor5,prodloc1,tr13,2534,15204).
route(harbor5,prodloc2,tr0,23730,616980).
route(harbor5,prodloc2,tr13,23730,142380).
route(harbor5,prodloc3,tr0,18791,488566).
route(harbor5,prodloc3,tr13,18791,112746).
route(harbor5,prodloc4,tr0,28320,736320).
route(harbor5,prodloc4,tr13,28320,169920).
route(harbor5,prodloc5,tr0,1929,50154).
route(harbor5,prodloc5,tr13,1929,11574).
route(harbor5,prodloc6,tr0,5527,143702).
route(harbor5,prodloc6,tr13,5527,33162).
route(harbor5,prodloc7,tr0,21673,563498).
route(harbor5,prodloc7,tr13,21673,130038).
route(harbor5,prodloc8,tr0,14352,373152).
route(harbor5,prodloc8,tr13,14352,86112).
route(harbor5,prodloc9,tr0,3936,102336).
route(harbor5,prodloc9,tr13,3936,23616).
route(harbor5,prodloc10,tr0,3679,95654).
route(harbor5,prodloc10,tr13,3679,22074).
route(harbor5,prodloc11,tr0,23003,598078).
route(harbor5,prodloc11,tr13,23003,138018).
route(harbor5,prodloc12,tr0,5828,151528).
route(harbor5,prodloc12,tr13,5828,34968).
route(harbor5,prodloc13,tr0,1640,42640).
route(harbor5,prodloc13,tr13,1640,9840).
route(harbor5,prodloc14,tr0,22413,582738).
route(harbor5,prodloc14,tr13,22413,134478).
route(harbor5,prodloc15,tr0,997,25922).
route(harbor5,prodloc15,tr13,997,5982).
route(harbor5,prodloc16,tr0,24581,639106).
route(harbor5,prodloc16,tr13,24581,147486).
route(harbor5,prodloc17,tr0,27552,716352).
route(harbor5,prodloc17,tr13,27552,165312).
route(harbor5,prodloc18,tr0,22151,575926).
route(harbor5,prodloc18,tr13,22151,132906).
route(harbor5,prodloc19,tr0,23904,621504).
route(harbor5,prodloc19,tr13,23904,143424).
route(harbor5,prodloc20,tr0,13939,362414).
route(harbor5,prodloc20,tr13,13939,83634).
route(harbor5,prodloc21,tr0,21332,554632).
route(harbor5,prodloc21,tr13,21332,127992).
route(harbor5,prodloc22,tr0,23212,603512).
route(harbor5,prodloc22,tr13,23212,139272).
route(harbor5,prodloc23,tr0,9407,244582).
route(harbor5,prodloc23,tr13,9407,56442).
route(harbor5,prodloc24,tr0,8380,217880).
route(harbor5,prodloc24,tr13,8380,50280).
route(harbor5,prodloc25,tr0,14530,377780).
route(harbor5,prodloc25,tr13,14530,87180).
route(harbor5,prodloc26,tr0,7602,197652).
route(harbor5,prodloc26,tr13,7602,45612).
route(harbor5,prodloc27,tr0,6625,172250).
route(harbor5,prodloc27,tr13,6625,39750).
route(harbor5,prodloc28,tr0,26734,695084).
route(harbor5,prodloc28,tr13,26734,160404).
route(harbor5,prodloc29,tr0,28158,732108).
route(harbor5,prodloc29,tr13,28158,168948).
route(harbor5,prodloc30,tr0,21441,557466).
route(harbor5,prodloc30,tr13,21441,128646).
route(harbor5,prodloc31,tr0,25522,663572).
route(harbor5,prodloc31,tr13,25522,153132).
route(harbor5,prodloc32,tr0,17552,456352).
route(harbor5,prodloc32,tr13,17552,105312).
route(harbor5,prodloc33,tr0,25808,671008).
route(harbor5,prodloc33,tr13,25808,154848).
route(harbor6,harbor0,tr13,21156,126936).
route(harbor6,harbor0,tr2,21156,63468).
route(harbor6,harbor1,tr13,7040,42240).
route(harbor6,harbor1,tr2,7040,21120).
route(harbor6,harbor2,tr13,9133,54798).
route(harbor6,harbor2,tr2,9133,27399).
route(harbor6,harbor3,tr13,19435,116610).
route(harbor6,harbor3,tr2,19435,58305).
route(harbor6,harbor4,tr13,459,2754).
route(harbor6,harbor4,tr2,459,1377).
route(harbor6,harbor5,tr13,8383,50298).
route(harbor6,harbor5,tr2,8383,25149).
route(harbor6,harbor7,tr13,17300,103800).
route(harbor6,harbor7,tr2,17300,51900).
route(harbor6,harbor8,tr13,25934,155604).
route(harbor6,harbor8,tr2,25934,77802).
route(harbor6,harbor9,tr13,24010,144060).
route(harbor6,harbor9,tr2,24010,72030).
route(harbor6,harbor10,tr13,24434,146604).
route(harbor6,harbor10,tr2,24434,73302).
route(harbor6,harbor11,tr13,23236,139416).
route(harbor6,harbor11,tr2,23236,69708).
route(harbor6,harbor12,tr13,28583,171498).
route(harbor6,harbor12,tr2,28583,85749).
route(harbor6,harbor13,tr13,22439,134634).
route(harbor6,harbor13,tr2,22439,67317).
route(harbor6,harbor14,tr13,10875,65250).
route(harbor6,harbor14,tr2,10875,32625).
route(harbor6,harbor15,tr13,25491,152946).
route(harbor6,harbor15,tr2,25491,76473).
route(harbor6,harbor16,tr13,16984,101904).
route(harbor6,harbor16,tr2,16984,50952).
route(harbor6,prodloc0,tr0,3071,79846).
route(harbor6,prodloc0,tr13,3071,18426).
route(harbor6,prodloc1,tr0,19167,498342).
route(harbor6,prodloc1,tr13,19167,115002).
route(harbor6,prodloc2,tr0,19510,507260).
route(harbor6,prodloc2,tr13,19510,117060).
route(harbor6,prodloc3,tr0,21150,549900).
route(harbor6,prodloc3,tr13,21150,126900).
route(harbor6,prodloc4,tr0,1074,27924).
route(harbor6,prodloc4,tr13,1074,6444).
route(harbor6,prodloc5,tr0,11865,308490).
route(harbor6,prodloc5,tr13,11865,71190).
route(harbor6,prodloc6,tr0,12032,312832).
route(harbor6,prodloc6,tr13,12032,72192).
route(harbor6,prodloc7,tr0,22654,589004).
route(harbor6,prodloc7,tr13,22654,135924).
route(harbor6,prodloc8,tr0,3839,99814).
route(harbor6,prodloc8,tr13,3839,23034).
route(harbor6,prodloc9,tr0,7415,192790).
route(harbor6,prodloc9,tr13,7415,44490).
route(harbor6,prodloc10,tr0,24998,649948).
route(harbor6,prodloc10,tr13,24998,149988).
route(harbor6,prodloc11,tr0,919,23894).
route(harbor6,prodloc11,tr13,919,5514).
route(harbor6,prodloc12,tr0,11810,307060).
route(harbor6,prodloc12,tr13,11810,70860).
route(harbor6,prodloc13,tr0,22684,589784).
route(harbor6,prodloc13,tr13,22684,136104).
route(harbor6,prodloc14,tr0,11162,290212).
route(harbor6,prodloc14,tr13,11162,66972).
route(harbor6,prodloc15,tr0,14276,371176).
route(harbor6,prodloc15,tr13,14276,85656).
route(harbor6,prodloc16,tr0,22470,584220).
route(harbor6,prodloc16,tr13,22470,134820).
route(harbor6,prodloc17,tr0,27280,709280).
route(harbor6,prodloc17,tr13,27280,163680).
route(harbor6,prodloc18,tr0,1697,44122).
route(harbor6,prodloc18,tr13,1697,10182).
route(harbor6,prodloc19,tr0,11274,293124).
route(harbor6,prodloc19,tr13,11274,67644).
route(harbor6,prodloc20,tr0,4569,118794).
route(harbor6,prodloc20,tr13,4569,27414).
route(harbor6,prodloc21,tr0,998,25948).
route(harbor6,prodloc21,tr13,998,5988).
route(harbor6,prodloc22,tr0,324,8424).
route(harbor6,prodloc22,tr13,324,1944).
route(harbor6,prodloc23,tr0,11018,286468).
route(harbor6,prodloc23,tr13,11018,66108).
route(harbor6,prodloc24,tr0,2233,58058).
route(harbor6,prodloc24,tr13,2233,13398).
route(harbor6,prodloc25,tr0,15892,413192).
route(harbor6,prodloc25,tr13,15892,95352).
route(harbor6,prodloc26,tr0,86,2236).
route(harbor6,prodloc26,tr13,86,516).
route(harbor6,prodloc27,tr0,15194,395044).
route(harbor6,prodloc27,tr13,15194,91164).
route(harbor6,prodloc28,tr0,27144,705744).
route(harbor6,prodloc28,tr13,27144,162864).
route(harbor6,prodloc29,tr0,8642,224692).
route(harbor6,prodloc29,tr13,8642,51852).
route(harbor6,prodloc30,tr0,2869,74594).
route(harbor6,prodloc30,tr13,2869,17214).
route(harbor6,prodloc31,tr0,22189,576914).
route(harbor6,prodloc31,tr13,22189,133134).
route(harbor6,prodloc32,tr0,19359,503334).
route(harbor6,prodloc32,tr13,19359,116154).
route(harbor6,prodloc33,tr0,20193,525018).
route(harbor6,prodloc33,tr13,20193,121158).
route(harbor7,harbor0,tr13,8983,53898).
route(harbor7,harbor0,tr2,8983,26949).
route(harbor7,harbor1,tr13,7573,45438).
route(harbor7,harbor1,tr2,7573,22719).
route(harbor7,harbor2,tr13,4367,26202).
route(harbor7,harbor2,tr2,4367,13101).
route(harbor7,harbor3,tr13,4156,24936).
route(harbor7,harbor3,tr2,4156,12468).
route(harbor7,harbor4,tr13,13766,82596).
route(harbor7,harbor4,tr2,13766,41298).
route(harbor7,harbor5,tr13,17913,107478).
route(harbor7,harbor5,tr2,17913,53739).
route(harbor7,harbor6,tr13,5988,35928).
route(harbor7,harbor6,tr2,5988,17964).
route(harbor7,harbor8,tr13,7991,47946).
route(harbor7,harbor8,tr2,7991,23973).
route(harbor7,harbor9,tr13,21752,130512).
route(harbor7,harbor9,tr2,21752,65256).
route(harbor7,harbor10,tr13,12609,75654).
route(harbor7,harbor10,tr2,12609,37827).
route(harbor7,harbor11,tr13,19488,116928).
route(harbor7,harbor11,tr2,19488,58464).
route(harbor7,harbor12,tr13,14090,84540).
route(harbor7,harbor12,tr2,14090,42270).
route(harbor7,harbor13,tr13,18496,110976).
route(harbor7,harbor13,tr2,18496,55488).
route(harbor7,harbor14,tr13,16989,101934).
route(harbor7,harbor14,tr2,16989,50967).
route(harbor7,harbor15,tr13,20571,123426).
route(harbor7,harbor15,tr2,20571,61713).
route(harbor7,harbor16,tr13,27245,163470).
route(harbor7,harbor16,tr2,27245,81735).
route(harbor7,prodloc0,tr0,15744,409344).
route(harbor7,prodloc0,tr13,15744,94464).
route(harbor7,prodloc1,tr0,8854,230204).
route(harbor7,prodloc1,tr13,8854,53124).
route(harbor7,prodloc2,tr0,8297,215722).
route(harbor7,prodloc2,tr13,8297,49782).
route(harbor7,prodloc3,tr0,4483,116558).
route(harbor7,prodloc3,tr13,4483,26898).
route(harbor7,prodloc4,tr0,9801,254826).
route(harbor7,prodloc4,tr13,9801,58806).
route(harbor7,prodloc5,tr0,1078,28028).
route(harbor7,prodloc5,tr13,1078,6468).
route(harbor7,prodloc6,tr0,6310,164060).
route(harbor7,prodloc6,tr13,6310,37860).
route(harbor7,prodloc7,tr0,24842,645892).
route(harbor7,prodloc7,tr13,24842,149052).
route(harbor7,prodloc8,tr0,14695,382070).
route(harbor7,prodloc8,tr13,14695,88170).
route(harbor7,prodloc9,tr0,3433,89258).
route(harbor7,prodloc9,tr13,3433,20598).
route(harbor7,prodloc10,tr0,26490,688740).
route(harbor7,prodloc10,tr13,26490,158940).
route(harbor7,prodloc11,tr0,5772,150072).
route(harbor7,prodloc11,tr13,5772,34632).
route(harbor7,prodloc12,tr0,18878,490828).
route(harbor7,prodloc12,tr13,18878,113268).
route(harbor7,prodloc13,tr0,3555,92430).
route(harbor7,prodloc13,tr13,3555,21330).
route(harbor7,prodloc14,tr0,26528,689728).
route(harbor7,prodloc14,tr13,26528,159168).
route(harbor7,prodloc15,tr0,86,2236).
route(harbor7,prodloc15,tr13,86,516).
route(harbor7,prodloc16,tr0,16830,437580).
route(harbor7,prodloc16,tr13,16830,100980).
route(harbor7,prodloc17,tr0,5260,136760).
route(harbor7,prodloc17,tr13,5260,31560).
route(harbor7,prodloc18,tr0,3931,102206).
route(harbor7,prodloc18,tr13,3931,23586).
route(harbor7,prodloc19,tr0,4982,129532).
route(harbor7,prodloc19,tr13,4982,29892).
route(harbor7,prodloc20,tr0,19423,504998).
route(harbor7,prodloc20,tr13,19423,116538).
route(harbor7,prodloc21,tr0,12884,334984).
route(harbor7,prodloc21,tr13,12884,77304).
route(harbor7,prodloc22,tr0,15524,403624).
route(harbor7,prodloc22,tr13,15524,93144).
route(harbor7,prodloc23,tr0,15934,414284).
route(harbor7,prodloc23,tr13,15934,95604).
route(harbor7,prodloc24,tr0,28240,734240).
route(harbor7,prodloc24,tr13,28240,169440).
route(harbor7,prodloc25,tr0,28495,740870).
route(harbor7,prodloc25,tr13,28495,170970).
route(harbor7,prodloc26,tr0,17395,452270).
route(harbor7,prodloc26,tr13,17395,104370).
route(harbor7,prodloc27,tr0,25142,653692).
route(harbor7,prodloc27,tr13,25142,150852).
route(harbor7,prodloc28,tr0,22751,591526).
route(harbor7,prodloc28,tr13,22751,136506).
route(harbor7,prodloc29,tr0,17745,461370).
route(harbor7,prodloc29,tr13,17745,106470).
route(harbor7,prodloc30,tr0,26597,691522).
route(harbor7,prodloc30,tr13,26597,159582).
route(harbor7,prodloc31,tr0,26065,677690).
route(harbor7,prodloc31,tr13,26065,156390).
route(harbor7,prodloc32,tr0,15417,400842).
route(harbor7,prodloc32,tr13,15417,92502).
route(harbor7,prodloc33,tr0,7059,183534).
route(harbor7,prodloc33,tr13,7059,42354).
route(harbor8,harbor0,tr13,27617,165702).
route(harbor8,harbor0,tr2,27617,82851).
route(harbor8,harbor1,tr13,21139,126834).
route(harbor8,harbor1,tr2,21139,63417).
route(harbor8,harbor2,tr13,12755,76530).
route(harbor8,harbor2,tr2,12755,38265).
route(harbor8,harbor3,tr13,5087,30522).
route(harbor8,harbor3,tr2,5087,15261).
route(harbor8,harbor4,tr13,25277,151662).
route(harbor8,harbor4,tr2,25277,75831).
route(harbor8,harbor5,tr13,15040,90240).
route(harbor8,harbor5,tr2,15040,45120).
route(harbor8,harbor6,tr13,28529,171174).
route(harbor8,harbor6,tr2,28529,85587).
route(harbor8,harbor7,tr13,28046,168276).
route(harbor8,harbor7,tr2,28046,84138).
route(harbor8,harbor9,tr13,379,2274).
route(harbor8,harbor9,tr2,379,1137).
route(harbor8,harbor10,tr13,11097,66582).
route(harbor8,harbor10,tr2,11097,33291).
route(harbor8,harbor11,tr13,13713,82278).
route(harbor8,harbor11,tr2,13713,41139).
route(harbor8,harbor12,tr13,8281,49686).
route(harbor8,harbor12,tr2,8281,24843).
route(harbor8,harbor13,tr13,10494,62964).
route(harbor8,harbor13,tr2,10494,31482).
route(harbor8,harbor14,tr13,4382,26292).
route(harbor8,harbor14,tr2,4382,13146).
route(harbor8,harbor15,tr13,9394,56364).
route(harbor8,harbor15,tr2,9394,28182).
route(harbor8,harbor16,tr13,12186,73116).
route(harbor8,harbor16,tr2,12186,36558).
route(harbor8,prodloc0,tr0,19281,501306).
route(harbor8,prodloc0,tr13,19281,115686).
route(harbor8,prodloc1,tr0,28019,728494).
route(harbor8,prodloc1,tr13,28019,168114).
route(harbor8,prodloc2,tr0,22237,578162).
route(harbor8,prodloc2,tr13,22237,133422).
route(harbor8,prodloc3,tr0,11892,309192).
route(harbor8,prodloc3,tr13,11892,71352).
route(harbor8,prodloc4,tr0,7319,190294).
route(harbor8,prodloc4,tr13,7319,43914).
route(harbor8,prodloc5,tr0,177,4602).
route(harbor8,prodloc5,tr13,177,1062).
route(harbor8,prodloc6,tr0,25562,664612).
route(harbor8,prodloc6,tr13,25562,153372).
route(harbor8,prodloc7,tr0,9993,259818).
route(harbor8,prodloc7,tr13,9993,59958).
route(harbor8,prodloc8,tr0,5790,150540).
route(harbor8,prodloc8,tr13,5790,34740).
route(harbor8,prodloc9,tr0,2706,70356).
route(harbor8,prodloc9,tr13,2706,16236).
route(harbor8,prodloc10,tr0,13359,347334).
route(harbor8,prodloc10,tr13,13359,80154).
route(harbor8,prodloc11,tr0,20400,530400).
route(harbor8,prodloc11,tr13,20400,122400).
route(harbor8,prodloc12,tr0,20329,528554).
route(harbor8,prodloc12,tr13,20329,121974).
route(harbor8,prodloc13,tr0,25175,654550).
route(harbor8,prodloc13,tr13,25175,151050).
route(harbor8,prodloc14,tr0,7588,197288).
route(harbor8,prodloc14,tr13,7588,45528).
route(harbor8,prodloc15,tr0,21041,547066).
route(harbor8,prodloc15,tr13,21041,126246).
route(harbor8,prodloc16,tr0,2925,76050).
route(harbor8,prodloc16,tr13,2925,17550).
route(harbor8,prodloc17,tr0,6366,165516).
route(harbor8,prodloc17,tr13,6366,38196).
route(harbor8,prodloc18,tr0,12467,324142).
route(harbor8,prodloc18,tr13,12467,74802).
route(harbor8,prodloc19,tr0,13497,350922).
route(harbor8,prodloc19,tr13,13497,80982).
route(harbor8,prodloc20,tr0,4126,107276).
route(harbor8,prodloc20,tr13,4126,24756).
route(harbor8,prodloc21,tr0,24679,641654).
route(harbor8,prodloc21,tr13,24679,148074).
route(harbor8,prodloc22,tr0,27427,713102).
route(harbor8,prodloc22,tr13,27427,164562).
route(harbor8,prodloc23,tr0,4836,125736).
route(harbor8,prodloc23,tr13,4836,29016).
route(harbor8,prodloc24,tr0,17034,442884).
route(harbor8,prodloc24,tr13,17034,102204).
route(harbor8,prodloc25,tr0,1651,42926).
route(harbor8,prodloc25,tr13,1651,9906).
route(harbor8,prodloc26,tr0,17050,443300).
route(harbor8,prodloc26,tr13,17050,102300).
route(harbor8,prodloc27,tr0,17200,447200).
route(harbor8,prodloc27,tr13,17200,103200).
route(harbor8,prodloc28,tr0,25443,661518).
route(harbor8,prodloc28,tr13,25443,152658).
route(harbor8,prodloc29,tr0,15994,415844).
route(harbor8,prodloc29,tr13,15994,95964).
route(harbor8,prodloc30,tr0,11938,310388).
route(harbor8,prodloc30,tr13,11938,71628).
route(harbor8,prodloc31,tr0,28935,752310).
route(harbor8,prodloc31,tr13,28935,173610).
route(harbor8,prodloc32,tr0,10772,280072).
route(harbor8,prodloc32,tr13,10772,64632).
route(harbor8,prodloc33,tr0,27582,717132).
route(harbor8,prodloc33,tr13,27582,165492).
route(harbor9,harbor0,tr13,23373,140238).
route(harbor9,harbor0,tr2,23373,70119).
route(harbor9,harbor1,tr13,19418,116508).
route(harbor9,harbor1,tr2,19418,58254).
route(harbor9,harbor2,tr13,12798,76788).
route(harbor9,harbor2,tr2,12798,38394).
route(harbor9,harbor3,tr13,28447,170682).
route(harbor9,harbor3,tr2,28447,85341).
route(harbor9,harbor4,tr13,8975,53850).
route(harbor9,harbor4,tr2,8975,26925).
route(harbor9,harbor5,tr13,21310,127860).
route(harbor9,harbor5,tr2,21310,63930).
route(harbor9,harbor6,tr13,21780,130680).
route(harbor9,harbor6,tr2,21780,65340).
route(harbor9,harbor7,tr13,26171,157026).
route(harbor9,harbor7,tr2,26171,78513).
route(harbor9,harbor8,tr13,2216,13296).
route(harbor9,harbor8,tr2,2216,6648).
route(harbor9,harbor10,tr13,8601,51606).
route(harbor9,harbor10,tr2,8601,25803).
route(harbor9,harbor11,tr13,4338,26028).
route(harbor9,harbor11,tr2,4338,13014).
route(harbor9,harbor12,tr13,1380,8280).
route(harbor9,harbor12,tr2,1380,4140).
route(harbor9,harbor13,tr13,3615,21690).
route(harbor9,harbor13,tr2,3615,10845).
route(harbor9,harbor14,tr13,19329,115974).
route(harbor9,harbor14,tr2,19329,57987).
route(harbor9,harbor15,tr13,19792,118752).
route(harbor9,harbor15,tr2,19792,59376).
route(harbor9,harbor16,tr13,20064,120384).
route(harbor9,harbor16,tr2,20064,60192).
route(harbor9,prodloc0,tr0,23583,613158).
route(harbor9,prodloc0,tr13,23583,141498).
route(harbor9,prodloc1,tr0,5084,132184).
route(harbor9,prodloc1,tr13,5084,30504).
route(harbor9,prodloc2,tr0,26870,698620).
route(harbor9,prodloc2,tr13,26870,161220).
route(harbor9,prodloc3,tr0,16554,430404).
route(harbor9,prodloc3,tr13,16554,99324).
route(harbor9,prodloc4,tr0,16599,431574).
route(harbor9,prodloc4,tr13,16599,99594).
route(harbor9,prodloc5,tr0,3724,96824).
route(harbor9,prodloc5,tr13,3724,22344).
route(harbor9,prodloc6,tr0,25635,666510).
route(harbor9,prodloc6,tr13,25635,153810).
route(harbor9,prodloc7,tr0,22532,585832).
route(harbor9,prodloc7,tr13,22532,135192).
route(harbor9,prodloc8,tr0,25084,652184).
route(harbor9,prodloc8,tr13,25084,150504).
route(harbor9,prodloc9,tr0,25529,663754).
route(harbor9,prodloc9,tr13,25529,153174).
route(harbor9,prodloc10,tr0,2841,73866).
route(harbor9,prodloc10,tr13,2841,17046).
route(harbor9,prodloc11,tr0,2836,73736).
route(harbor9,prodloc11,tr13,2836,17016).
route(harbor9,prodloc12,tr0,27290,709540).
route(harbor9,prodloc12,tr13,27290,163740).
route(harbor9,prodloc13,tr0,21789,566514).
route(harbor9,prodloc13,tr13,21789,130734).
route(harbor9,prodloc14,tr0,24740,643240).
route(harbor9,prodloc14,tr13,24740,148440).
route(harbor9,prodloc15,tr0,4094,106444).
route(harbor9,prodloc15,tr13,4094,24564).
route(harbor9,prodloc16,tr0,7083,184158).
route(harbor9,prodloc16,tr13,7083,42498).
route(harbor9,prodloc17,tr0,11504,299104).
route(harbor9,prodloc17,tr13,11504,69024).
route(harbor9,prodloc18,tr0,11089,288314).
route(harbor9,prodloc18,tr13,11089,66534).
route(harbor9,prodloc19,tr0,5187,134862).
route(harbor9,prodloc19,tr13,5187,31122).
route(harbor9,prodloc20,tr0,23855,620230).
route(harbor9,prodloc20,tr13,23855,143130).
route(harbor9,prodloc21,tr0,26825,697450).
route(harbor9,prodloc21,tr13,26825,160950).
route(harbor9,prodloc22,tr0,8004,208104).
route(harbor9,prodloc22,tr13,8004,48024).
route(harbor9,prodloc23,tr0,5740,149240).
route(harbor9,prodloc23,tr13,5740,34440).
route(harbor9,prodloc24,tr0,6032,156832).
route(harbor9,prodloc24,tr13,6032,36192).
route(harbor9,prodloc25,tr0,7393,192218).
route(harbor9,prodloc25,tr13,7393,44358).
route(harbor9,prodloc26,tr0,20609,535834).
route(harbor9,prodloc26,tr13,20609,123654).
route(harbor9,prodloc27,tr0,4114,106964).
route(harbor9,prodloc27,tr13,4114,24684).
route(harbor9,prodloc28,tr0,28166,732316).
route(harbor9,prodloc28,tr13,28166,168996).
route(harbor9,prodloc29,tr0,15700,408200).
route(harbor9,prodloc29,tr13,15700,94200).
route(harbor9,prodloc30,tr0,24216,629616).
route(harbor9,prodloc30,tr13,24216,145296).
route(harbor9,prodloc31,tr0,15002,390052).
route(harbor9,prodloc31,tr13,15002,90012).
route(harbor9,prodloc32,tr0,20394,530244).
route(harbor9,prodloc32,tr13,20394,122364).
route(harbor9,prodloc33,tr0,3623,94198).
route(harbor9,prodloc33,tr13,3623,21738).
route(harbor10,harbor0,tr13,23834,143004).
route(harbor10,harbor0,tr2,23834,71502).
route(harbor10,harbor1,tr13,20153,120918).
route(harbor10,harbor1,tr2,20153,60459).
route(harbor10,harbor2,tr13,4509,27054).
route(harbor10,harbor2,tr2,4509,13527).
route(harbor10,harbor3,tr13,14957,89742).
route(harbor10,harbor3,tr2,14957,44871).
route(harbor10,harbor4,tr13,26368,158208).
route(harbor10,harbor4,tr2,26368,79104).
route(harbor10,harbor5,tr13,6462,38772).
route(harbor10,harbor5,tr2,6462,19386).
route(harbor10,harbor6,tr13,18770,112620).
route(harbor10,harbor6,tr2,18770,56310).
route(harbor10,harbor7,tr13,12190,73140).
route(harbor10,harbor7,tr2,12190,36570).
route(harbor10,harbor8,tr13,24081,144486).
route(harbor10,harbor8,tr2,24081,72243).
route(harbor10,harbor9,tr13,4768,28608).
route(harbor10,harbor9,tr2,4768,14304).
route(harbor10,harbor11,tr13,10917,65502).
route(harbor10,harbor11,tr2,10917,32751).
route(harbor10,harbor12,tr13,20542,123252).
route(harbor10,harbor12,tr2,20542,61626).
route(harbor10,harbor13,tr13,8668,52008).
route(harbor10,harbor13,tr2,8668,26004).
route(harbor10,harbor14,tr13,2267,13602).
route(harbor10,harbor14,tr2,2267,6801).
route(harbor10,harbor15,tr13,9007,54042).
route(harbor10,harbor15,tr2,9007,27021).
route(harbor10,harbor16,tr13,24695,148170).
route(harbor10,harbor16,tr2,24695,74085).
route(harbor10,prodloc0,tr0,52,1352).
route(harbor10,prodloc0,tr13,52,312).
route(harbor10,prodloc1,tr0,2004,52104).
route(harbor10,prodloc1,tr13,2004,12024).
route(harbor10,prodloc2,tr0,28916,751816).
route(harbor10,prodloc2,tr13,28916,173496).
route(harbor10,prodloc3,tr0,21442,557492).
route(harbor10,prodloc3,tr13,21442,128652).
route(harbor10,prodloc4,tr0,980,25480).
route(harbor10,prodloc4,tr13,980,5880).
route(harbor10,prodloc5,tr0,15719,408694).
route(harbor10,prodloc5,tr13,15719,94314).
route(harbor10,prodloc6,tr0,20673,537498).
route(harbor10,prodloc6,tr13,20673,124038).
route(harbor10,prodloc7,tr0,14935,388310).
route(harbor10,prodloc7,tr13,14935,89610).
route(harbor10,prodloc8,tr0,10425,271050).
route(harbor10,prodloc8,tr13,10425,62550).
route(harbor10,prodloc9,tr0,2010,52260).
route(harbor10,prodloc9,tr13,2010,12060).
route(harbor10,prodloc10,tr0,371,9646).
route(harbor10,prodloc10,tr13,371,2226).
route(harbor10,prodloc11,tr0,9001,234026).
route(harbor10,prodloc11,tr13,9001,54006).
route(harbor10,prodloc12,tr0,23637,614562).
route(harbor10,prodloc12,tr13,23637,141822).
route(harbor10,prodloc13,tr0,3324,86424).
route(harbor10,prodloc13,tr13,3324,19944).
route(harbor10,prodloc14,tr0,12587,327262).
route(harbor10,prodloc14,tr13,12587,75522).
route(harbor10,prodloc15,tr0,20443,531518).
route(harbor10,prodloc15,tr13,20443,122658).
route(harbor10,prodloc16,tr0,11010,286260).
route(harbor10,prodloc16,tr13,11010,66060).
route(harbor10,prodloc17,tr0,3342,86892).
route(harbor10,prodloc17,tr13,3342,20052).
route(harbor10,prodloc18,tr0,24168,628368).
route(harbor10,prodloc18,tr13,24168,145008).
route(harbor10,prodloc19,tr0,27384,711984).
route(harbor10,prodloc19,tr13,27384,164304).
route(harbor10,prodloc20,tr0,28148,731848).
route(harbor10,prodloc20,tr13,28148,168888).
route(harbor10,prodloc21,tr0,12229,317954).
route(harbor10,prodloc21,tr13,12229,73374).
route(harbor10,prodloc22,tr0,4653,120978).
route(harbor10,prodloc22,tr13,4653,27918).
route(harbor10,prodloc23,tr0,27290,709540).
route(harbor10,prodloc23,tr13,27290,163740).
route(harbor10,prodloc24,tr0,24767,643942).
route(harbor10,prodloc24,tr13,24767,148602).
route(harbor10,prodloc25,tr0,4828,125528).
route(harbor10,prodloc25,tr13,4828,28968).
route(harbor10,prodloc26,tr0,12138,315588).
route(harbor10,prodloc26,tr13,12138,72828).
route(harbor10,prodloc27,tr0,21868,568568).
route(harbor10,prodloc27,tr13,21868,131208).
route(harbor10,prodloc28,tr0,24968,649168).
route(harbor10,prodloc28,tr13,24968,149808).
route(harbor10,prodloc29,tr0,15370,399620).
route(harbor10,prodloc29,tr13,15370,92220).
route(harbor10,prodloc30,tr0,24378,633828).
route(harbor10,prodloc30,tr13,24378,146268).
route(harbor10,prodloc31,tr0,13254,344604).
route(harbor10,prodloc31,tr13,13254,79524).
route(harbor10,prodloc32,tr0,25807,670982).
route(harbor10,prodloc32,tr13,25807,154842).
route(harbor10,prodloc33,tr0,635,16510).
route(harbor10,prodloc33,tr13,635,3810).
route(harbor11,harbor0,tr13,17453,104718).
route(harbor11,harbor0,tr2,17453,52359).
route(harbor11,harbor1,tr13,29157,174942).
route(harbor11,harbor1,tr2,29157,87471).
route(harbor11,harbor2,tr13,27491,164946).
route(harbor11,harbor2,tr2,27491,82473).
route(harbor11,harbor3,tr13,4973,29838).
route(harbor11,harbor3,tr2,4973,14919).
route(harbor11,harbor4,tr13,3433,20598).
route(harbor11,harbor4,tr2,3433,10299).
route(harbor11,harbor5,tr13,14636,87816).
route(harbor11,harbor5,tr2,14636,43908).
route(harbor11,harbor6,tr13,12269,73614).
route(harbor11,harbor6,tr2,12269,36807).
route(harbor11,harbor7,tr13,438,2628).
route(harbor11,harbor7,tr2,438,1314).
route(harbor11,harbor8,tr13,29283,175698).
route(harbor11,harbor8,tr2,29283,87849).
route(harbor11,harbor9,tr13,4208,25248).
route(harbor11,harbor9,tr2,4208,12624).
route(harbor11,harbor10,tr13,22260,133560).
route(harbor11,harbor10,tr2,22260,66780).
route(harbor11,harbor12,tr13,18095,108570).
route(harbor11,harbor12,tr2,18095,54285).
route(harbor11,harbor13,tr13,15762,94572).
route(harbor11,harbor13,tr2,15762,47286).
route(harbor11,harbor14,tr13,8723,52338).
route(harbor11,harbor14,tr2,8723,26169).
route(harbor11,harbor15,tr13,2336,14016).
route(harbor11,harbor15,tr2,2336,7008).
route(harbor11,harbor16,tr13,15700,94200).
route(harbor11,harbor16,tr2,15700,47100).
route(harbor11,prodloc0,tr0,3969,103194).
route(harbor11,prodloc0,tr13,3969,23814).
route(harbor11,prodloc1,tr0,13083,340158).
route(harbor11,prodloc1,tr13,13083,78498).
route(harbor11,prodloc2,tr0,23103,600678).
route(harbor11,prodloc2,tr13,23103,138618).
route(harbor11,prodloc3,tr0,6508,169208).
route(harbor11,prodloc3,tr13,6508,39048).
route(harbor11,prodloc4,tr0,26036,676936).
route(harbor11,prodloc4,tr13,26036,156216).
route(harbor11,prodloc5,tr0,17805,462930).
route(harbor11,prodloc5,tr13,17805,106830).
route(harbor11,prodloc6,tr0,28239,734214).
route(harbor11,prodloc6,tr13,28239,169434).
route(harbor11,prodloc7,tr0,5570,144820).
route(harbor11,prodloc7,tr13,5570,33420).
route(harbor11,prodloc8,tr0,14351,373126).
route(harbor11,prodloc8,tr13,14351,86106).
route(harbor11,prodloc9,tr0,10844,281944).
route(harbor11,prodloc9,tr13,10844,65064).
route(harbor11,prodloc10,tr0,8367,217542).
route(harbor11,prodloc10,tr13,8367,50202).
route(harbor11,prodloc11,tr0,26266,682916).
route(harbor11,prodloc11,tr13,26266,157596).
route(harbor11,prodloc12,tr0,17757,461682).
route(harbor11,prodloc12,tr13,17757,106542).
route(harbor11,prodloc13,tr0,25407,660582).
route(harbor11,prodloc13,tr13,25407,152442).
route(harbor11,prodloc14,tr0,11336,294736).
route(harbor11,prodloc14,tr13,11336,68016).
route(harbor11,prodloc15,tr0,9645,250770).
route(harbor11,prodloc15,tr13,9645,57870).
route(harbor11,prodloc16,tr0,17854,464204).
route(harbor11,prodloc16,tr13,17854,107124).
route(harbor11,prodloc17,tr0,22570,586820).
route(harbor11,prodloc17,tr13,22570,135420).
route(harbor11,prodloc18,tr0,8957,232882).
route(harbor11,prodloc18,tr13,8957,53742).
route(harbor11,prodloc19,tr0,14844,385944).
route(harbor11,prodloc19,tr13,14844,89064).
route(harbor11,prodloc20,tr0,18212,473512).
route(harbor11,prodloc20,tr13,18212,109272).
route(harbor11,prodloc21,tr0,23541,612066).
route(harbor11,prodloc21,tr13,23541,141246).
route(harbor11,prodloc22,tr0,25217,655642).
route(harbor11,prodloc22,tr13,25217,151302).
route(harbor11,prodloc23,tr0,1500,39000).
route(harbor11,prodloc23,tr13,1500,9000).
route(harbor11,prodloc24,tr0,16402,426452).
route(harbor11,prodloc24,tr13,16402,98412).
route(harbor11,prodloc25,tr0,24475,636350).
route(harbor11,prodloc25,tr13,24475,146850).
route(harbor11,prodloc26,tr0,8183,212758).
route(harbor11,prodloc26,tr13,8183,49098).
route(harbor11,prodloc27,tr0,21679,563654).
route(harbor11,prodloc27,tr13,21679,130074).
route(harbor11,prodloc28,tr0,20384,529984).
route(harbor11,prodloc28,tr13,20384,122304).
route(harbor11,prodloc29,tr0,109,2834).
route(harbor11,prodloc29,tr13,109,654).
route(harbor11,prodloc30,tr0,17269,448994).
route(harbor11,prodloc30,tr13,17269,103614).
route(harbor11,prodloc31,tr0,28801,748826).
route(harbor11,prodloc31,tr13,28801,172806).
route(harbor11,prodloc32,tr0,26789,696514).
route(harbor11,prodloc32,tr13,26789,160734).
route(harbor11,prodloc33,tr0,16232,422032).
route(harbor11,prodloc33,tr13,16232,97392).
route(harbor12,harbor0,tr13,18279,109674).
route(harbor12,harbor0,tr2,18279,54837).
route(harbor12,harbor1,tr13,17619,105714).
route(harbor12,harbor1,tr2,17619,52857).
route(harbor12,harbor2,tr13,8378,50268).
route(harbor12,harbor2,tr2,8378,25134).
route(harbor12,harbor3,tr13,5609,33654).
route(harbor12,harbor3,tr2,5609,16827).
route(harbor12,harbor4,tr13,27693,166158).
route(harbor12,harbor4,tr2,27693,83079).
route(harbor12,harbor5,tr13,1191,7146).
route(harbor12,harbor5,tr2,1191,3573).
route(harbor12,harbor6,tr13,10541,63246).
route(harbor12,harbor6,tr2,10541,31623).
route(harbor12,harbor7,tr13,486,2916).
route(harbor12,harbor7,tr2,486,1458).
route(harbor12,harbor8,tr13,28179,169074).
route(harbor12,harbor8,tr2,28179,84537).
route(harbor12,harbor9,tr13,6906,41436).
route(harbor12,harbor9,tr2,6906,20718).
route(harbor12,harbor10,tr13,18727,112362).
route(harbor12,harbor10,tr2,18727,56181).
route(harbor12,harbor11,tr13,9996,59976).
route(harbor12,harbor11,tr2,9996,29988).
route(harbor12,harbor13,tr13,6277,37662).
route(harbor12,harbor13,tr2,6277,18831).
route(harbor12,harbor14,tr13,5076,30456).
route(harbor12,harbor14,tr2,5076,15228).
route(harbor12,harbor15,tr13,9141,54846).
route(harbor12,harbor15,tr2,9141,27423).
route(harbor12,harbor16,tr13,1937,11622).
route(harbor12,harbor16,tr2,1937,5811).
route(harbor12,prodloc0,tr0,8936,232336).
route(harbor12,prodloc0,tr13,8936,53616).
route(harbor12,prodloc1,tr0,23837,619762).
route(harbor12,prodloc1,tr13,23837,143022).
route(harbor12,prodloc2,tr0,9916,257816).
route(harbor12,prodloc2,tr13,9916,59496).
route(harbor12,prodloc3,tr0,23021,598546).
route(harbor12,prodloc3,tr13,23021,138126).
route(harbor12,prodloc4,tr0,28905,751530).
route(harbor12,prodloc4,tr13,28905,173430).
route(harbor12,prodloc5,tr0,12264,318864).
route(harbor12,prodloc5,tr13,12264,73584).
route(harbor12,prodloc6,tr0,7133,185458).
route(harbor12,prodloc6,tr13,7133,42798).
route(harbor12,prodloc7,tr0,23183,602758).
route(harbor12,prodloc7,tr13,23183,139098).
route(harbor12,prodloc8,tr0,23870,620620).
route(harbor12,prodloc8,tr13,23870,143220).
route(harbor12,prodloc9,tr0,5624,146224).
route(harbor12,prodloc9,tr13,5624,33744).
route(harbor12,prodloc10,tr0,19481,506506).
route(harbor12,prodloc10,tr13,19481,116886).
route(harbor12,prodloc11,tr0,91,2366).
route(harbor12,prodloc11,tr13,91,546).
route(harbor12,prodloc12,tr0,2954,76804).
route(harbor12,prodloc12,tr13,2954,17724).
route(harbor12,prodloc13,tr0,26712,694512).
route(harbor12,prodloc13,tr13,26712,160272).
route(harbor12,prodloc14,tr0,28674,745524).
route(harbor12,prodloc14,tr13,28674,172044).
route(harbor12,prodloc15,tr0,27125,705250).
route(harbor12,prodloc15,tr13,27125,162750).
route(harbor12,prodloc16,tr0,11709,304434).
route(harbor12,prodloc16,tr13,11709,70254).
route(harbor12,prodloc17,tr0,18910,491660).
route(harbor12,prodloc17,tr13,18910,113460).
route(harbor12,prodloc18,tr0,6061,157586).
route(harbor12,prodloc18,tr13,6061,36366).
route(harbor12,prodloc19,tr0,11464,298064).
route(harbor12,prodloc19,tr13,11464,68784).
route(harbor12,prodloc20,tr0,6007,156182).
route(harbor12,prodloc20,tr13,6007,36042).
route(harbor12,prodloc21,tr0,15648,406848).
route(harbor12,prodloc21,tr13,15648,93888).
route(harbor12,prodloc22,tr0,20949,544674).
route(harbor12,prodloc22,tr13,20949,125694).
route(harbor12,prodloc23,tr0,7236,188136).
route(harbor12,prodloc23,tr13,7236,43416).
route(harbor12,prodloc24,tr0,15588,405288).
route(harbor12,prodloc24,tr13,15588,93528).
route(harbor12,prodloc25,tr0,12595,327470).
route(harbor12,prodloc25,tr13,12595,75570).
route(harbor12,prodloc26,tr0,17925,466050).
route(harbor12,prodloc26,tr13,17925,107550).
route(harbor12,prodloc27,tr0,20393,530218).
route(harbor12,prodloc27,tr13,20393,122358).
route(harbor12,prodloc28,tr0,11770,306020).
route(harbor12,prodloc28,tr13,11770,70620).
route(harbor12,prodloc29,tr0,4028,104728).
route(harbor12,prodloc29,tr13,4028,24168).
route(harbor12,prodloc30,tr0,21496,558896).
route(harbor12,prodloc30,tr13,21496,128976).
route(harbor12,prodloc31,tr0,24036,624936).
route(harbor12,prodloc31,tr13,24036,144216).
route(harbor12,prodloc32,tr0,2874,74724).
route(harbor12,prodloc32,tr13,2874,17244).
route(harbor12,prodloc33,tr0,14090,366340).
route(harbor12,prodloc33,tr13,14090,84540).
route(harbor13,harbor0,tr13,1814,10884).
route(harbor13,harbor0,tr2,1814,5442).
route(harbor13,harbor1,tr13,19184,115104).
route(harbor13,harbor1,tr2,19184,57552).
route(harbor13,harbor2,tr13,29219,175314).
route(harbor13,harbor2,tr2,29219,87657).
route(harbor13,harbor3,tr13,20312,121872).
route(harbor13,harbor3,tr2,20312,60936).
route(harbor13,harbor4,tr13,6707,40242).
route(harbor13,harbor4,tr2,6707,20121).
route(harbor13,harbor5,tr13,19984,119904).
route(harbor13,harbor5,tr2,19984,59952).
route(harbor13,harbor6,tr13,14418,86508).
route(harbor13,harbor6,tr2,14418,43254).
route(harbor13,harbor7,tr13,8852,53112).
route(harbor13,harbor7,tr2,8852,26556).
route(harbor13,harbor8,tr13,7202,43212).
route(harbor13,harbor8,tr2,7202,21606).
route(harbor13,harbor9,tr13,20941,125646).
route(harbor13,harbor9,tr2,20941,62823).
route(harbor13,harbor10,tr13,1878,11268).
route(harbor13,harbor10,tr2,1878,5634).
route(harbor13,harbor11,tr13,15838,95028).
route(harbor13,harbor11,tr2,15838,47514).
route(harbor13,harbor12,tr13,21738,130428).
route(harbor13,harbor12,tr2,21738,65214).
route(harbor13,harbor14,tr13,21132,126792).
route(harbor13,harbor14,tr2,21132,63396).
route(harbor13,harbor15,tr13,16536,99216).
route(harbor13,harbor15,tr2,16536,49608).
route(harbor13,harbor16,tr13,27455,164730).
route(harbor13,harbor16,tr2,27455,82365).
route(harbor13,prodloc0,tr0,17276,449176).
route(harbor13,prodloc0,tr13,17276,103656).
route(harbor13,prodloc1,tr0,8270,215020).
route(harbor13,prodloc1,tr13,8270,49620).
route(harbor13,prodloc2,tr0,17077,444002).
route(harbor13,prodloc2,tr13,17077,102462).
route(harbor13,prodloc3,tr0,8706,226356).
route(harbor13,prodloc3,tr13,8706,52236).
route(harbor13,prodloc4,tr0,20987,545662).
route(harbor13,prodloc4,tr13,20987,125922).
route(harbor13,prodloc5,tr0,11834,307684).
route(harbor13,prodloc5,tr13,11834,71004).
route(harbor13,prodloc6,tr0,9855,256230).
route(harbor13,prodloc6,tr13,9855,59130).
route(harbor13,prodloc7,tr0,25764,669864).
route(harbor13,prodloc7,tr13,25764,154584).
route(harbor13,prodloc8,tr0,13964,363064).
route(harbor13,prodloc8,tr13,13964,83784).
route(harbor13,prodloc9,tr0,24544,638144).
route(harbor13,prodloc9,tr13,24544,147264).
route(harbor13,prodloc10,tr0,12156,316056).
route(harbor13,prodloc10,tr13,12156,72936).
route(harbor13,prodloc11,tr0,3097,80522).
route(harbor13,prodloc11,tr13,3097,18582).
route(harbor13,prodloc12,tr0,25070,651820).
route(harbor13,prodloc12,tr13,25070,150420).
route(harbor13,prodloc13,tr0,17863,464438).
route(harbor13,prodloc13,tr13,17863,107178).
route(harbor13,prodloc14,tr0,13574,352924).
route(harbor13,prodloc14,tr13,13574,81444).
route(harbor13,prodloc15,tr0,21060,547560).
route(harbor13,prodloc15,tr13,21060,126360).
route(harbor13,prodloc16,tr0,5325,138450).
route(harbor13,prodloc16,tr13,5325,31950).
route(harbor13,prodloc17,tr0,9099,236574).
route(harbor13,prodloc17,tr13,9099,54594).
route(harbor13,prodloc18,tr0,2001,52026).
route(harbor13,prodloc18,tr13,2001,12006).
route(harbor13,prodloc19,tr0,21292,553592).
route(harbor13,prodloc19,tr13,21292,127752).
route(harbor13,prodloc20,tr0,16520,429520).
route(harbor13,prodloc20,tr13,16520,99120).
route(harbor13,prodloc21,tr0,10430,271180).
route(harbor13,prodloc21,tr13,10430,62580).
route(harbor13,prodloc22,tr0,26786,696436).
route(harbor13,prodloc22,tr13,26786,160716).
route(harbor13,prodloc23,tr0,21735,565110).
route(harbor13,prodloc23,tr13,21735,130410).
route(harbor13,prodloc24,tr0,16639,432614).
route(harbor13,prodloc24,tr13,16639,99834).
route(harbor13,prodloc25,tr0,1883,48958).
route(harbor13,prodloc25,tr13,1883,11298).
route(harbor13,prodloc26,tr0,2562,66612).
route(harbor13,prodloc26,tr13,2562,15372).
route(harbor13,prodloc27,tr0,21791,566566).
route(harbor13,prodloc27,tr13,21791,130746).
route(harbor13,prodloc28,tr0,3665,95290).
route(harbor13,prodloc28,tr13,3665,21990).
route(harbor13,prodloc29,tr0,1993,51818).
route(harbor13,prodloc29,tr13,1993,11958).
route(harbor13,prodloc30,tr0,14374,373724).
route(harbor13,prodloc30,tr13,14374,86244).
route(harbor13,prodloc31,tr0,14110,366860).
route(harbor13,prodloc31,tr13,14110,84660).
route(harbor13,prodloc32,tr0,17487,454662).
route(harbor13,prodloc32,tr13,17487,104922).
route(harbor13,prodloc33,tr0,2970,77220).
route(harbor13,prodloc33,tr13,2970,17820).
route(harbor14,harbor0,tr13,5815,34890).
route(harbor14,harbor0,tr2,5815,17445).
route(harbor14,harbor1,tr13,22512,135072).
route(harbor14,harbor1,tr2,22512,67536).
route(harbor14,harbor2,tr13,8653,51918).
route(harbor14,harbor2,tr2,8653,25959).
route(harbor14,harbor3,tr13,11552,69312).
route(harbor14,harbor3,tr2,11552,34656).
route(harbor14,harbor4,tr13,69,414).
route(harbor14,harbor4,tr2,69,207).
route(harbor14,harbor5,tr13,2104,12624).
route(harbor14,harbor5,tr2,2104,6312).
route(harbor14,harbor6,tr13,8743,52458).
route(harbor14,harbor6,tr2,8743,26229).
route(harbor14,harbor7,tr13,23456,140736).
route(harbor14,harbor7,tr2,23456,70368).
route(harbor14,harbor8,tr13,10162,60972).
route(harbor14,harbor8,tr2,10162,30486).
route(harbor14,harbor9,tr13,11361,68166).
route(harbor14,harbor9,tr2,11361,34083).
route(harbor14,harbor10,tr13,12755,76530).
route(harbor14,harbor10,tr2,12755,38265).
route(harbor14,harbor11,tr13,13251,79506).
route(harbor14,harbor11,tr2,13251,39753).
route(harbor14,harbor12,tr13,19468,116808).
route(harbor14,harbor12,tr2,19468,58404).
route(harbor14,harbor13,tr13,23092,138552).
route(harbor14,harbor13,tr2,23092,69276).
route(harbor14,harbor15,tr13,27971,167826).
route(harbor14,harbor15,tr2,27971,83913).
route(harbor14,harbor16,tr13,27320,163920).
route(harbor14,harbor16,tr2,27320,81960).
route(harbor14,prodloc0,tr0,23507,611182).
route(harbor14,prodloc0,tr13,23507,141042).
route(harbor14,prodloc1,tr0,2554,66404).
route(harbor14,prodloc1,tr13,2554,15324).
route(harbor14,prodloc2,tr0,24275,631150).
route(harbor14,prodloc2,tr13,24275,145650).
route(harbor14,prodloc3,tr0,3765,97890).
route(harbor14,prodloc3,tr13,3765,22590).
route(harbor14,prodloc4,tr0,9273,241098).
route(harbor14,prodloc4,tr13,9273,55638).
route(harbor14,prodloc5,tr0,26273,683098).
route(harbor14,prodloc5,tr13,26273,157638).
route(harbor14,prodloc6,tr0,16240,422240).
route(harbor14,prodloc6,tr13,16240,97440).
route(harbor14,prodloc7,tr0,14644,380744).
route(harbor14,prodloc7,tr13,14644,87864).
route(harbor14,prodloc8,tr0,23818,619268).
route(harbor14,prodloc8,tr13,23818,142908).
route(harbor14,prodloc9,tr0,8425,219050).
route(harbor14,prodloc9,tr13,8425,50550).
route(harbor14,prodloc10,tr0,10165,264290).
route(harbor14,prodloc10,tr13,10165,60990).
route(harbor14,prodloc11,tr0,7880,204880).
route(harbor14,prodloc11,tr13,7880,47280).
route(harbor14,prodloc12,tr0,25133,653458).
route(harbor14,prodloc12,tr13,25133,150798).
route(harbor14,prodloc13,tr0,495,12870).
route(harbor14,prodloc13,tr13,495,2970).
route(harbor14,prodloc14,tr0,1669,43394).
route(harbor14,prodloc14,tr13,1669,10014).
route(harbor14,prodloc15,tr0,25401,660426).
route(harbor14,prodloc15,tr13,25401,152406).
route(harbor14,prodloc16,tr0,16889,439114).
route(harbor14,prodloc16,tr13,16889,101334).
route(harbor14,prodloc17,tr0,17761,461786).
route(harbor14,prodloc17,tr13,17761,106566).
route(harbor14,prodloc18,tr0,28583,743158).
route(harbor14,prodloc18,tr13,28583,171498).
route(harbor14,prodloc19,tr0,12475,324350).
route(harbor14,prodloc19,tr13,12475,74850).
route(harbor14,prodloc20,tr0,5027,130702).
route(harbor14,prodloc20,tr13,5027,30162).
route(harbor14,prodloc21,tr0,7199,187174).
route(harbor14,prodloc21,tr13,7199,43194).
route(harbor14,prodloc22,tr0,25685,667810).
route(harbor14,prodloc22,tr13,25685,154110).
route(harbor14,prodloc23,tr0,9656,251056).
route(harbor14,prodloc23,tr13,9656,57936).
route(harbor14,prodloc24,tr0,21009,546234).
route(harbor14,prodloc24,tr13,21009,126054).
route(harbor14,prodloc25,tr0,21352,555152).
route(harbor14,prodloc25,tr13,21352,128112).
route(harbor14,prodloc26,tr0,28308,736008).
route(harbor14,prodloc26,tr13,28308,169848).
route(harbor14,prodloc27,tr0,24408,634608).
route(harbor14,prodloc27,tr13,24408,146448).
route(harbor14,prodloc28,tr0,403,10478).
route(harbor14,prodloc28,tr13,403,2418).
route(harbor14,prodloc29,tr0,3518,91468).
route(harbor14,prodloc29,tr13,3518,21108).
route(harbor14,prodloc30,tr0,8637,224562).
route(harbor14,prodloc30,tr13,8637,51822).
route(harbor14,prodloc31,tr0,26010,676260).
route(harbor14,prodloc31,tr13,26010,156060).
route(harbor14,prodloc32,tr0,4435,115310).
route(harbor14,prodloc32,tr13,4435,26610).
route(harbor14,prodloc33,tr0,18306,475956).
route(harbor14,prodloc33,tr13,18306,109836).
route(harbor15,harbor0,tr13,3919,23514).
route(harbor15,harbor0,tr2,3919,11757).
route(harbor15,harbor1,tr13,1044,6264).
route(harbor15,harbor1,tr2,1044,3132).
route(harbor15,harbor2,tr13,13092,78552).
route(harbor15,harbor2,tr2,13092,39276).
route(harbor15,harbor3,tr13,8459,50754).
route(harbor15,harbor3,tr2,8459,25377).
route(harbor15,harbor4,tr13,16046,96276).
route(harbor15,harbor4,tr2,16046,48138).
route(harbor15,harbor5,tr13,6997,41982).
route(harbor15,harbor5,tr2,6997,20991).
route(harbor15,harbor6,tr13,2315,13890).
route(harbor15,harbor6,tr2,2315,6945).
route(harbor15,harbor7,tr13,23895,143370).
route(harbor15,harbor7,tr2,23895,71685).
route(harbor15,harbor8,tr13,9062,54372).
route(harbor15,harbor8,tr2,9062,27186).
route(harbor15,harbor9,tr13,25065,150390).
route(harbor15,harbor9,tr2,25065,75195).
route(harbor15,harbor10,tr13,5780,34680).
route(harbor15,harbor10,tr2,5780,17340).
route(harbor15,harbor11,tr13,29200,175200).
route(harbor15,harbor11,tr2,29200,87600).
route(harbor15,harbor12,tr13,4451,26706).
route(harbor15,harbor12,tr2,4451,13353).
route(harbor15,harbor13,tr13,5068,30408).
route(harbor15,harbor13,tr2,5068,15204).
route(harbor15,harbor14,tr13,3268,19608).
route(harbor15,harbor14,tr2,3268,9804).
route(harbor15,harbor16,tr13,28030,168180).
route(harbor15,harbor16,tr2,28030,84090).
route(harbor15,prodloc0,tr0,780,20280).
route(harbor15,prodloc0,tr13,780,4680).
route(harbor15,prodloc1,tr0,25992,675792).
route(harbor15,prodloc1,tr13,25992,155952).
route(harbor15,prodloc2,tr0,7130,185380).
route(harbor15,prodloc2,tr13,7130,42780).
route(harbor15,prodloc3,tr0,19496,506896).
route(harbor15,prodloc3,tr13,19496,116976).
route(harbor15,prodloc4,tr0,10726,278876).
route(harbor15,prodloc4,tr13,10726,64356).
route(harbor15,prodloc5,tr0,13760,357760).
route(harbor15,prodloc5,tr13,13760,82560).
route(harbor15,prodloc6,tr0,22757,591682).
route(harbor15,prodloc6,tr13,22757,136542).
route(harbor15,prodloc7,tr0,15580,405080).
route(harbor15,prodloc7,tr13,15580,93480).
route(harbor15,prodloc8,tr0,20055,521430).
route(harbor15,prodloc8,tr13,20055,120330).
route(harbor15,prodloc9,tr0,18780,488280).
route(harbor15,prodloc9,tr13,18780,112680).
route(harbor15,prodloc10,tr0,15986,415636).
route(harbor15,prodloc10,tr13,15986,95916).
route(harbor15,prodloc11,tr0,14791,384566).
route(harbor15,prodloc11,tr13,14791,88746).
route(harbor15,prodloc12,tr0,10582,275132).
route(harbor15,prodloc12,tr13,10582,63492).
route(harbor15,prodloc13,tr0,20142,523692).
route(harbor15,prodloc13,tr13,20142,120852).
route(harbor15,prodloc14,tr0,14880,386880).
route(harbor15,prodloc14,tr13,14880,89280).
route(harbor15,prodloc15,tr0,6322,164372).
route(harbor15,prodloc15,tr13,6322,37932).
route(harbor15,prodloc16,tr0,26237,682162).
route(harbor15,prodloc16,tr13,26237,157422).
route(harbor15,prodloc17,tr0,5813,151138).
route(harbor15,prodloc17,tr13,5813,34878).
route(harbor15,prodloc18,tr0,17432,453232).
route(harbor15,prodloc18,tr13,17432,104592).
route(harbor15,prodloc19,tr0,3704,96304).
route(harbor15,prodloc19,tr13,3704,22224).
route(harbor15,prodloc20,tr0,7244,188344).
route(harbor15,prodloc20,tr13,7244,43464).
route(harbor15,prodloc21,tr0,21932,570232).
route(harbor15,prodloc21,tr13,21932,131592).
route(harbor15,prodloc22,tr0,26940,700440).
route(harbor15,prodloc22,tr13,26940,161640).
route(harbor15,prodloc23,tr0,4565,118690).
route(harbor15,prodloc23,tr13,4565,27390).
route(harbor15,prodloc24,tr0,12818,333268).
route(harbor15,prodloc24,tr13,12818,76908).
route(harbor15,prodloc25,tr0,7304,189904).
route(harbor15,prodloc25,tr13,7304,43824).
route(harbor15,prodloc26,tr0,19253,500578).
route(harbor15,prodloc26,tr13,19253,115518).
route(harbor15,prodloc27,tr0,11522,299572).
route(harbor15,prodloc27,tr13,11522,69132).
route(harbor15,prodloc28,tr0,15261,396786).
route(harbor15,prodloc28,tr13,15261,91566).
route(harbor15,prodloc29,tr0,18481,480506).
route(harbor15,prodloc29,tr13,18481,110886).
route(harbor15,prodloc30,tr0,25229,655954).
route(harbor15,prodloc30,tr13,25229,151374).
route(harbor15,prodloc31,tr0,21220,551720).
route(harbor15,prodloc31,tr13,21220,127320).
route(harbor15,prodloc32,tr0,9002,234052).
route(harbor15,prodloc32,tr13,9002,54012).
route(harbor15,prodloc33,tr0,19411,504686).
route(harbor15,prodloc33,tr13,19411,116466).
route(harbor16,harbor0,tr13,27492,164952).
route(harbor16,harbor0,tr2,27492,82476).
route(harbor16,harbor1,tr13,19563,117378).
route(harbor16,harbor1,tr2,19563,58689).
route(harbor16,harbor2,tr13,28030,168180).
route(harbor16,harbor2,tr2,28030,84090).
route(harbor16,harbor3,tr13,6342,38052).
route(harbor16,harbor3,tr2,6342,19026).
route(harbor16,harbor4,tr13,18691,112146).
route(harbor16,harbor4,tr2,18691,56073).
route(harbor16,harbor5,tr13,7429,44574).
route(harbor16,harbor5,tr2,7429,22287).
route(harbor16,harbor6,tr13,24183,145098).
route(harbor16,harbor6,tr2,24183,72549).
route(harbor16,harbor7,tr13,917,5502).
route(harbor16,harbor7,tr2,917,2751).
route(harbor16,harbor8,tr13,13362,80172).
route(harbor16,harbor8,tr2,13362,40086).
route(harbor16,harbor9,tr13,8026,48156).
route(harbor16,harbor9,tr2,8026,24078).
route(harbor16,harbor10,tr13,13024,78144).
route(harbor16,harbor10,tr2,13024,39072).
route(harbor16,harbor11,tr13,18937,113622).
route(harbor16,harbor11,tr2,18937,56811).
route(harbor16,harbor12,tr13,24562,147372).
route(harbor16,harbor12,tr2,24562,73686).
route(harbor16,harbor13,tr13,3945,23670).
route(harbor16,harbor13,tr2,3945,11835).
route(harbor16,harbor14,tr13,21138,126828).
route(harbor16,harbor14,tr2,21138,63414).
route(harbor16,harbor15,tr13,1153,6918).
route(harbor16,harbor15,tr2,1153,3459).
route(harbor16,prodloc0,tr0,10324,268424).
route(harbor16,prodloc0,tr13,10324,61944).
route(harbor16,prodloc1,tr0,11927,310102).
route(harbor16,prodloc1,tr13,11927,71562).
route(harbor16,prodloc2,tr0,26337,684762).
route(harbor16,prodloc2,tr13,26337,158022).
route(harbor16,prodloc3,tr0,16352,425152).
route(harbor16,prodloc3,tr13,16352,98112).
route(harbor16,prodloc4,tr0,21141,549666).
route(harbor16,prodloc4,tr13,21141,126846).
route(harbor16,prodloc5,tr0,8295,215670).
route(harbor16,prodloc5,tr13,8295,49770).
route(harbor16,prodloc6,tr0,14290,371540).
route(harbor16,prodloc6,tr13,14290,85740).
route(harbor16,prodloc7,tr0,12345,320970).
route(harbor16,prodloc7,tr13,12345,74070).
route(harbor16,prodloc8,tr0,9941,258466).
route(harbor16,prodloc8,tr13,9941,59646).
route(harbor16,prodloc9,tr0,11819,307294).
route(harbor16,prodloc9,tr13,11819,70914).
route(harbor16,prodloc10,tr0,17189,446914).
route(harbor16,prodloc10,tr13,17189,103134).
route(harbor16,prodloc11,tr0,23355,607230).
route(harbor16,prodloc11,tr13,23355,140130).
route(harbor16,prodloc12,tr0,19256,500656).
route(harbor16,prodloc12,tr13,19256,115536).
route(harbor16,prodloc13,tr0,12207,317382).
route(harbor16,prodloc13,tr13,12207,73242).
route(harbor16,prodloc14,tr0,19126,497276).
route(harbor16,prodloc14,tr13,19126,114756).
route(harbor16,prodloc15,tr0,1874,48724).
route(harbor16,prodloc15,tr13,1874,11244).
route(harbor16,prodloc16,tr0,13477,350402).
route(harbor16,prodloc16,tr13,13477,80862).
route(harbor16,prodloc17,tr0,20947,544622).
route(harbor16,prodloc17,tr13,20947,125682).
route(harbor16,prodloc18,tr0,19303,501878).
route(harbor16,prodloc18,tr13,19303,115818).
route(harbor16,prodloc19,tr0,5892,153192).
route(harbor16,prodloc19,tr13,5892,35352).
route(harbor16,prodloc20,tr0,9993,259818).
route(harbor16,prodloc20,tr13,9993,59958).
route(harbor16,prodloc21,tr0,9499,246974).
route(harbor16,prodloc21,tr13,9499,56994).
route(harbor16,prodloc22,tr0,19315,502190).
route(harbor16,prodloc22,tr13,19315,115890).
route(harbor16,prodloc23,tr0,21777,566202).
route(harbor16,prodloc23,tr13,21777,130662).
route(harbor16,prodloc24,tr0,15475,402350).
route(harbor16,prodloc24,tr13,15475,92850).
route(harbor16,prodloc25,tr0,7885,205010).
route(harbor16,prodloc25,tr13,7885,47310).
route(harbor16,prodloc26,tr0,3411,88686).
route(harbor16,prodloc26,tr13,3411,20466).
route(harbor16,prodloc27,tr0,15104,392704).
route(harbor16,prodloc27,tr13,15104,90624).
route(harbor16,prodloc28,tr0,18879,490854).
route(harbor16,prodloc28,tr13,18879,113274).
route(harbor16,prodloc29,tr0,5258,136708).
route(harbor16,prodloc29,tr13,5258,31548).
route(harbor16,prodloc30,tr0,12009,312234).
route(harbor16,prodloc30,tr13,12009,72054).
route(harbor16,prodloc31,tr0,18868,490568).
route(harbor16,prodloc31,tr13,18868,113208).
route(harbor16,prodloc32,tr0,14047,365222).
route(harbor16,prodloc32,tr13,14047,84282).
route(harbor16,prodloc33,tr0,22191,576966).
route(harbor16,prodloc33,tr13,22191,133146).
route(prodloc0,harbor0,tr0,15359,399334).
route(prodloc0,harbor0,tr13,15359,92154).
route(prodloc0,harbor1,tr0,26237,682162).
route(prodloc0,harbor1,tr13,26237,157422).
route(prodloc0,harbor2,tr0,10738,279188).
route(prodloc0,harbor2,tr13,10738,64428).
route(prodloc0,harbor3,tr0,2346,60996).
route(prodloc0,harbor3,tr13,2346,14076).
route(prodloc0,harbor4,tr0,14867,386542).
route(prodloc0,harbor4,tr13,14867,89202).
route(prodloc0,harbor5,tr0,14185,368810).
route(prodloc0,harbor5,tr13,14185,85110).
route(prodloc0,harbor6,tr0,15906,413556).
route(prodloc0,harbor6,tr13,15906,95436).
route(prodloc0,harbor7,tr0,391,10166).
route(prodloc0,harbor7,tr13,391,2346).
route(prodloc0,harbor8,tr0,28128,731328).
route(prodloc0,harbor8,tr13,28128,168768).
route(prodloc0,harbor9,tr0,3557,92482).
route(prodloc0,harbor9,tr13,3557,21342).
route(prodloc0,harbor10,tr0,19900,517400).
route(prodloc0,harbor10,tr13,19900,119400).
route(prodloc0,harbor11,tr0,2123,55198).
route(prodloc0,harbor11,tr13,2123,12738).
route(prodloc0,harbor12,tr0,15765,409890).
route(prodloc0,harbor12,tr13,15765,94590).
route(prodloc0,harbor13,tr0,14224,369824).
route(prodloc0,harbor13,tr13,14224,85344).
route(prodloc0,harbor14,tr0,20902,543452).
route(prodloc0,harbor14,tr13,20902,125412).
route(prodloc0,harbor15,tr0,1928,50128).
route(prodloc0,harbor15,tr13,1928,11568).
route(prodloc0,harbor16,tr0,20964,545064).
route(prodloc0,harbor16,tr13,20964,125784).
route(prodloc0,prodloc1,tr0,851,22126).
route(prodloc0,prodloc1,tr13,851,5106).
route(prodloc0,prodloc2,tr0,27209,707434).
route(prodloc0,prodloc2,tr13,27209,163254).
route(prodloc0,prodloc3,tr0,23990,623740).
route(prodloc0,prodloc3,tr13,23990,143940).
route(prodloc0,prodloc4,tr0,27058,703508).
route(prodloc0,prodloc4,tr13,27058,162348).
route(prodloc0,prodloc5,tr0,16881,438906).
route(prodloc0,prodloc5,tr13,16881,101286).
route(prodloc0,prodloc6,tr0,17277,449202).
route(prodloc0,prodloc6,tr13,17277,103662).
route(prodloc0,prodloc7,tr0,11513,299338).
route(prodloc0,prodloc7,tr13,11513,69078).
route(prodloc0,prodloc8,tr0,11878,308828).
route(prodloc0,prodloc8,tr13,11878,71268).
route(prodloc0,prodloc9,tr0,5264,136864).
route(prodloc0,prodloc9,tr13,5264,31584).
route(prodloc0,prodloc10,tr0,5889,153114).
route(prodloc0,prodloc10,tr13,5889,35334).
route(prodloc0,prodloc11,tr0,15731,409006).
route(prodloc0,prodloc11,tr13,15731,94386).
route(prodloc0,prodloc12,tr0,17417,452842).
route(prodloc0,prodloc12,tr15,17417,557344).
route(prodloc0,prodloc13,tr0,2315,60190).
route(prodloc0,prodloc13,tr13,2315,13890).
route(prodloc0,prodloc14,tr0,13309,346034).
route(prodloc0,prodloc14,tr13,13309,79854).
route(prodloc0,prodloc15,tr0,19225,499850).
route(prodloc0,prodloc15,tr13,19225,115350).
route(prodloc0,prodloc16,tr0,19649,510874).
route(prodloc0,prodloc16,tr13,19649,117894).
route(prodloc0,prodloc17,tr0,3767,97942).
route(prodloc0,prodloc17,tr13,3767,22602).
route(prodloc0,prodloc18,tr0,976,25376).
route(prodloc0,prodloc18,tr13,976,5856).
route(prodloc0,prodloc19,tr0,11364,295464).
route(prodloc0,prodloc19,tr13,11364,68184).
route(prodloc0,prodloc20,tr0,26756,695656).
route(prodloc0,prodloc20,tr13,26756,160536).
route(prodloc0,prodloc21,tr0,21327,554502).
route(prodloc0,prodloc21,tr13,21327,127962).
route(prodloc0,prodloc22,tr0,7633,198458).
route(prodloc0,prodloc22,tr13,7633,45798).
route(prodloc0,prodloc23,tr13,20073,120438).
route(prodloc0,prodloc23,tr15,20073,642336).
route(prodloc0,prodloc24,tr0,24095,626470).
route(prodloc0,prodloc24,tr13,24095,144570).
route(prodloc0,prodloc25,tr0,17581,457106).
route(prodloc0,prodloc25,tr13,17581,105486).
route(prodloc0,prodloc26,tr0,8257,214682).
route(prodloc0,prodloc26,tr13,8257,49542).
route(prodloc0,prodloc27,tr0,27184,706784).
route(prodloc0,prodloc27,tr13,27184,163104).
route(prodloc0,prodloc28,tr0,19938,518388).
route(prodloc0,prodloc28,tr13,19938,119628).
route(prodloc0,prodloc29,tr0,17105,444730).
route(prodloc0,prodloc29,tr13,17105,102630).
route(prodloc0,prodloc30,tr0,28677,745602).
route(prodloc0,prodloc30,tr13,28677,172062).
route(prodloc0,prodloc31,tr0,26592,691392).
route(prodloc0,prodloc31,tr13,26592,159552).
route(prodloc0,prodloc32,tr0,8659,225134).
route(prodloc0,prodloc32,tr13,8659,51954).
route(prodloc0,prodloc33,tr0,27261,708786).
route(prodloc0,prodloc33,tr13,27261,163566).
route(prodloc1,harbor0,tr0,25610,665860).
route(prodloc1,harbor0,tr13,25610,153660).
route(prodloc1,harbor1,tr0,12657,329082).
route(prodloc1,harbor1,tr13,12657,75942).
route(prodloc1,harbor2,tr0,11830,307580).
route(prodloc1,harbor2,tr13,11830,70980).
route(prodloc1,harbor3,tr0,23284,605384).
route(prodloc1,harbor3,tr13,23284,139704).
route(prodloc1,harbor4,tr0,98,2548).
route(prodloc1,harbor4,tr13,98,588).
route(prodloc1,harbor5,tr0,20291,527566).
route(prodloc1,harbor5,tr13,20291,121746).
route(prodloc1,harbor6,tr0,11275,293150).
route(prodloc1,harbor6,tr13,11275,67650).
route(prodloc1,harbor7,tr0,13703,356278).
route(prodloc1,harbor7,tr13,13703,82218).
route(prodloc1,harbor8,tr0,9828,255528).
route(prodloc1,harbor8,tr13,9828,58968).
route(prodloc1,harbor9,tr0,5736,149136).
route(prodloc1,harbor9,tr13,5736,34416).
route(prodloc1,harbor10,tr0,16186,420836).
route(prodloc1,harbor10,tr13,16186,97116).
route(prodloc1,harbor11,tr0,27786,722436).
route(prodloc1,harbor11,tr13,27786,166716).
route(prodloc1,harbor12,tr0,25731,669006).
route(prodloc1,harbor12,tr13,25731,154386).
route(prodloc1,harbor13,tr0,11558,300508).
route(prodloc1,harbor13,tr13,11558,69348).
route(prodloc1,harbor14,tr0,1239,32214).
route(prodloc1,harbor14,tr13,1239,7434).
route(prodloc1,harbor15,tr0,516,13416).
route(prodloc1,harbor15,tr13,516,3096).
route(prodloc1,harbor16,tr0,17773,462098).
route(prodloc1,harbor16,tr13,17773,106638).
route(prodloc1,prodloc0,tr0,26320,684320).
route(prodloc1,prodloc0,tr13,26320,157920).
route(prodloc1,prodloc2,tr0,6706,174356).
route(prodloc1,prodloc2,tr13,6706,40236).
route(prodloc1,prodloc3,tr0,215,5590).
route(prodloc1,prodloc3,tr13,215,1290).
route(prodloc1,prodloc4,tr0,25391,660166).
route(prodloc1,prodloc4,tr13,25391,152346).
route(prodloc1,prodloc5,tr0,1466,38116).
route(prodloc1,prodloc5,tr13,1466,8796).
route(prodloc1,prodloc6,tr0,26931,700206).
route(prodloc1,prodloc6,tr13,26931,161586).
route(prodloc1,prodloc7,tr13,997,5982).
route(prodloc1,prodloc7,tr15,997,31904).
route(prodloc1,prodloc8,tr0,15579,405054).
route(prodloc1,prodloc8,tr13,15579,93474).
route(prodloc1,prodloc9,tr0,21124,549224).
route(prodloc1,prodloc9,tr13,21124,126744).
route(prodloc1,prodloc10,tr0,3371,87646).
route(prodloc1,prodloc10,tr13,3371,20226).
route(prodloc1,prodloc11,tr0,18420,478920).
route(prodloc1,prodloc11,tr13,18420,110520).
route(prodloc1,prodloc12,tr0,13615,353990).
route(prodloc1,prodloc12,tr13,13615,81690).
route(prodloc1,prodloc13,tr0,15845,411970).
route(prodloc1,prodloc13,tr13,15845,95070).
route(prodloc1,prodloc14,tr0,10704,278304).
route(prodloc1,prodloc14,tr13,10704,64224).
route(prodloc1,prodloc15,tr13,28715,172290).
route(prodloc1,prodloc15,tr15,28715,918880).
route(prodloc1,prodloc16,tr0,15418,400868).
route(prodloc1,prodloc16,tr13,15418,92508).
route(prodloc1,prodloc17,tr0,6632,172432).
route(prodloc1,prodloc17,tr13,6632,39792).
route(prodloc1,prodloc18,tr0,6742,175292).
route(prodloc1,prodloc18,tr13,6742,40452).
route(prodloc1,prodloc19,tr0,12265,318890).
route(prodloc1,prodloc19,tr13,12265,73590).
route(prodloc1,prodloc20,tr0,4718,122668).
route(prodloc1,prodloc20,tr13,4718,28308).
route(prodloc1,prodloc21,tr0,3613,93938).
route(prodloc1,prodloc21,tr13,3613,21678).
route(prodloc1,prodloc22,tr0,6936,180336).
route(prodloc1,prodloc22,tr13,6936,41616).
route(prodloc1,prodloc23,tr0,1628,42328).
route(prodloc1,prodloc23,tr15,1628,52096).
route(prodloc1,prodloc24,tr0,7302,189852).
route(prodloc1,prodloc24,tr13,7302,43812).
route(prodloc1,prodloc25,tr0,28423,738998).
route(prodloc1,prodloc25,tr13,28423,170538).
route(prodloc1,prodloc26,tr0,8830,229580).
route(prodloc1,prodloc26,tr13,8830,52980).
route(prodloc1,prodloc27,tr0,13687,355862).
route(prodloc1,prodloc27,tr13,13687,82122).
route(prodloc1,prodloc28,tr0,7224,187824).
route(prodloc1,prodloc28,tr13,7224,43344).
route(prodloc1,prodloc29,tr0,11695,304070).
route(prodloc1,prodloc29,tr13,11695,70170).
route(prodloc1,prodloc30,tr0,15570,404820).
route(prodloc1,prodloc30,tr13,15570,93420).
route(prodloc1,prodloc31,tr0,12113,314938).
route(prodloc1,prodloc31,tr13,12113,72678).
route(prodloc1,prodloc32,tr0,4920,127920).
route(prodloc1,prodloc32,tr13,4920,29520).
route(prodloc1,prodloc33,tr0,12138,315588).
route(prodloc1,prodloc33,tr13,12138,72828).
route(prodloc2,harbor0,tr0,22737,591162).
route(prodloc2,harbor0,tr13,22737,136422).
route(prodloc2,harbor1,tr0,24763,643838).
route(prodloc2,harbor1,tr13,24763,148578).
route(prodloc2,harbor2,tr0,20906,543556).
route(prodloc2,harbor2,tr13,20906,125436).
route(prodloc2,harbor3,tr0,23752,617552).
route(prodloc2,harbor3,tr13,23752,142512).
route(prodloc2,harbor4,tr0,9156,238056).
route(prodloc2,harbor4,tr13,9156,54936).
route(prodloc2,harbor5,tr0,27547,716222).
route(prodloc2,harbor5,tr13,27547,165282).
route(prodloc2,harbor6,tr0,6240,162240).
route(prodloc2,harbor6,tr13,6240,37440).
route(prodloc2,harbor7,tr0,24341,632866).
route(prodloc2,harbor7,tr13,24341,146046).
route(prodloc2,harbor8,tr0,26744,695344).
route(prodloc2,harbor8,tr13,26744,160464).
route(prodloc2,harbor9,tr0,18402,478452).
route(prodloc2,harbor9,tr13,18402,110412).
route(prodloc2,harbor10,tr0,1818,47268).
route(prodloc2,harbor10,tr13,1818,10908).
route(prodloc2,harbor11,tr0,16442,427492).
route(prodloc2,harbor11,tr13,16442,98652).
route(prodloc2,harbor12,tr0,6534,169884).
route(prodloc2,harbor12,tr13,6534,39204).
route(prodloc2,harbor13,tr0,6581,171106).
route(prodloc2,harbor13,tr13,6581,39486).
route(prodloc2,harbor14,tr0,13147,341822).
route(prodloc2,harbor14,tr13,13147,78882).
route(prodloc2,harbor15,tr0,17320,450320).
route(prodloc2,harbor15,tr13,17320,103920).
route(prodloc2,harbor16,tr0,1532,39832).
route(prodloc2,harbor16,tr13,1532,9192).
route(prodloc2,prodloc0,tr0,22084,574184).
route(prodloc2,prodloc0,tr13,22084,132504).
route(prodloc2,prodloc1,tr0,13924,362024).
route(prodloc2,prodloc1,tr13,13924,83544).
route(prodloc2,prodloc3,tr0,20935,544310).
route(prodloc2,prodloc3,tr13,20935,125610).
route(prodloc2,prodloc4,tr0,801,20826).
route(prodloc2,prodloc4,tr13,801,4806).
route(prodloc2,prodloc5,tr0,28005,728130).
route(prodloc2,prodloc5,tr13,28005,168030).
route(prodloc2,prodloc6,tr0,20947,544622).
route(prodloc2,prodloc6,tr13,20947,125682).
route(prodloc2,prodloc7,tr0,2506,65156).
route(prodloc2,prodloc7,tr13,2506,15036).
route(prodloc2,prodloc8,tr0,23991,623766).
route(prodloc2,prodloc8,tr13,23991,143946).
route(prodloc2,prodloc9,tr0,2677,69602).
route(prodloc2,prodloc9,tr13,2677,16062).
route(prodloc2,prodloc10,tr0,3896,101296).
route(prodloc2,prodloc10,tr13,3896,23376).
route(prodloc2,prodloc11,tr0,22126,575276).
route(prodloc2,prodloc11,tr13,22126,132756).
route(prodloc2,prodloc12,tr0,19887,517062).
route(prodloc2,prodloc12,tr13,19887,119322).
route(prodloc2,prodloc13,tr0,21881,568906).
route(prodloc2,prodloc13,tr13,21881,131286).
route(prodloc2,prodloc14,tr0,25912,673712).
route(prodloc2,prodloc14,tr13,25912,155472).
route(prodloc2,prodloc15,tr0,6327,164502).
route(prodloc2,prodloc15,tr13,6327,37962).
route(prodloc2,prodloc16,tr0,16569,430794).
route(prodloc2,prodloc16,tr13,16569,99414).
route(prodloc2,prodloc17,tr0,24810,645060).
route(prodloc2,prodloc17,tr13,24810,148860).
route(prodloc2,prodloc18,tr0,3240,84240).
route(prodloc2,prodloc18,tr13,3240,19440).
route(prodloc2,prodloc19,tr0,16986,441636).
route(prodloc2,prodloc19,tr13,16986,101916).
route(prodloc2,prodloc20,tr0,18643,484718).
route(prodloc2,prodloc20,tr13,18643,111858).
route(prodloc2,prodloc21,tr0,18652,484952).
route(prodloc2,prodloc21,tr13,18652,111912).
route(prodloc2,prodloc22,tr0,15794,410644).
route(prodloc2,prodloc22,tr13,15794,94764).
route(prodloc2,prodloc23,tr0,10821,281346).
route(prodloc2,prodloc23,tr13,10821,64926).
route(prodloc2,prodloc24,tr0,21920,569920).
route(prodloc2,prodloc24,tr13,21920,131520).
route(prodloc2,prodloc25,tr0,6098,158548).
route(prodloc2,prodloc25,tr13,6098,36588).
route(prodloc2,prodloc26,tr0,14449,375674).
route(prodloc2,prodloc26,tr13,14449,86694).
route(prodloc2,prodloc27,tr0,6900,179400).
route(prodloc2,prodloc27,tr13,6900,41400).
route(prodloc2,prodloc28,tr0,25141,653666).
route(prodloc2,prodloc28,tr13,25141,150846).
route(prodloc2,prodloc29,tr0,28037,728962).
route(prodloc2,prodloc29,tr13,28037,168222).
route(prodloc2,prodloc30,tr0,25256,656656).
route(prodloc2,prodloc30,tr13,25256,151536).
route(prodloc2,prodloc31,tr0,308,8008).
route(prodloc2,prodloc31,tr13,308,1848).
route(prodloc2,prodloc32,tr0,7223,187798).
route(prodloc2,prodloc32,tr13,7223,43338).
route(prodloc2,prodloc33,tr0,10691,277966).
route(prodloc2,prodloc33,tr13,10691,64146).
route(prodloc3,harbor0,tr0,7015,182390).
route(prodloc3,harbor0,tr13,7015,42090).
route(prodloc3,harbor1,tr0,17775,462150).
route(prodloc3,harbor1,tr13,17775,106650).
route(prodloc3,harbor2,tr0,18591,483366).
route(prodloc3,harbor2,tr13,18591,111546).
route(prodloc3,harbor3,tr0,9713,252538).
route(prodloc3,harbor3,tr13,9713,58278).
route(prodloc3,harbor4,tr0,4923,127998).
route(prodloc3,harbor4,tr13,4923,29538).
route(prodloc3,harbor5,tr0,19668,511368).
route(prodloc3,harbor5,tr13,19668,118008).
route(prodloc3,harbor6,tr0,234,6084).
route(prodloc3,harbor6,tr13,234,1404).
route(prodloc3,harbor7,tr0,956,24856).
route(prodloc3,harbor7,tr13,956,5736).
route(prodloc3,harbor8,tr0,9578,249028).
route(prodloc3,harbor8,tr13,9578,57468).
route(prodloc3,harbor9,tr0,3446,89596).
route(prodloc3,harbor9,tr13,3446,20676).
route(prodloc3,harbor10,tr0,13273,345098).
route(prodloc3,harbor10,tr13,13273,79638).
route(prodloc3,harbor11,tr0,16777,436202).
route(prodloc3,harbor11,tr13,16777,100662).
route(prodloc3,harbor12,tr0,28842,749892).
route(prodloc3,harbor12,tr13,28842,173052).
route(prodloc3,harbor13,tr0,7047,183222).
route(prodloc3,harbor13,tr13,7047,42282).
route(prodloc3,harbor14,tr0,21793,566618).
route(prodloc3,harbor14,tr13,21793,130758).
route(prodloc3,harbor15,tr0,6807,176982).
route(prodloc3,harbor15,tr13,6807,40842).
route(prodloc3,harbor16,tr0,23895,621270).
route(prodloc3,harbor16,tr13,23895,143370).
route(prodloc3,prodloc0,tr0,13535,351910).
route(prodloc3,prodloc0,tr13,13535,81210).
route(prodloc3,prodloc1,tr0,18254,474604).
route(prodloc3,prodloc1,tr13,18254,109524).
route(prodloc3,prodloc2,tr0,19476,506376).
route(prodloc3,prodloc2,tr13,19476,116856).
route(prodloc3,prodloc4,tr0,17797,462722).
route(prodloc3,prodloc4,tr13,17797,106782).
route(prodloc3,prodloc5,tr0,21437,557362).
route(prodloc3,prodloc5,tr13,21437,128622).
route(prodloc3,prodloc6,tr0,24623,640198).
route(prodloc3,prodloc6,tr13,24623,147738).
route(prodloc3,prodloc7,tr0,19615,509990).
route(prodloc3,prodloc7,tr13,19615,117690).
route(prodloc3,prodloc8,tr0,16326,424476).
route(prodloc3,prodloc8,tr13,16326,97956).
route(prodloc3,prodloc9,tr0,2918,75868).
route(prodloc3,prodloc9,tr13,2918,17508).
route(prodloc3,prodloc10,tr0,14203,369278).
route(prodloc3,prodloc10,tr13,14203,85218).
route(prodloc3,prodloc11,tr0,28414,738764).
route(prodloc3,prodloc11,tr13,28414,170484).
route(prodloc3,prodloc12,tr0,28487,740662).
route(prodloc3,prodloc12,tr13,28487,170922).
route(prodloc3,prodloc13,tr0,19476,506376).
route(prodloc3,prodloc13,tr13,19476,116856).
route(prodloc3,prodloc14,tr0,28296,735696).
route(prodloc3,prodloc14,tr13,28296,169776).
route(prodloc3,prodloc15,tr0,17678,459628).
route(prodloc3,prodloc15,tr13,17678,106068).
route(prodloc3,prodloc16,tr0,5596,145496).
route(prodloc3,prodloc16,tr13,5596,33576).
route(prodloc3,prodloc17,tr0,4524,117624).
route(prodloc3,prodloc17,tr13,4524,27144).
route(prodloc3,prodloc18,tr0,22013,572338).
route(prodloc3,prodloc18,tr13,22013,132078).
route(prodloc3,prodloc19,tr0,19878,516828).
route(prodloc3,prodloc19,tr13,19878,119268).
route(prodloc3,prodloc20,tr0,6535,169910).
route(prodloc3,prodloc20,tr13,6535,39210).
route(prodloc3,prodloc21,tr0,20665,537290).
route(prodloc3,prodloc21,tr13,20665,123990).
route(prodloc3,prodloc22,tr0,22996,597896).
route(prodloc3,prodloc22,tr13,22996,137976).
route(prodloc3,prodloc23,tr0,27826,723476).
route(prodloc3,prodloc23,tr13,27826,166956).
route(prodloc3,prodloc24,tr0,9268,240968).
route(prodloc3,prodloc24,tr13,9268,55608).
route(prodloc3,prodloc25,tr0,13806,358956).
route(prodloc3,prodloc25,tr13,13806,82836).
route(prodloc3,prodloc26,tr0,9854,256204).
route(prodloc3,prodloc26,tr13,9854,59124).
route(prodloc3,prodloc27,tr0,22846,593996).
route(prodloc3,prodloc27,tr13,22846,137076).
route(prodloc3,prodloc28,tr0,13130,341380).
route(prodloc3,prodloc28,tr13,13130,78780).
route(prodloc3,prodloc29,tr0,21589,561314).
route(prodloc3,prodloc29,tr13,21589,129534).
route(prodloc3,prodloc30,tr0,1074,27924).
route(prodloc3,prodloc30,tr13,1074,6444).
route(prodloc3,prodloc31,tr0,14366,373516).
route(prodloc3,prodloc31,tr13,14366,86196).
route(prodloc3,prodloc32,tr0,7047,183222).
route(prodloc3,prodloc32,tr13,7047,42282).
route(prodloc3,prodloc33,tr0,6435,167310).
route(prodloc3,prodloc33,tr13,6435,38610).
route(prodloc4,harbor0,tr0,9754,253604).
route(prodloc4,harbor0,tr13,9754,58524).
route(prodloc4,harbor1,tr0,7631,198406).
route(prodloc4,harbor1,tr13,7631,45786).
route(prodloc4,harbor2,tr0,24179,628654).
route(prodloc4,harbor2,tr13,24179,145074).
route(prodloc4,harbor3,tr0,14131,367406).
route(prodloc4,harbor3,tr13,14131,84786).
route(prodloc4,harbor4,tr0,11900,309400).
route(prodloc4,harbor4,tr13,11900,71400).
route(prodloc4,harbor5,tr0,24761,643786).
route(prodloc4,harbor5,tr13,24761,148566).
route(prodloc4,harbor6,tr0,1562,40612).
route(prodloc4,harbor6,tr13,1562,9372).
route(prodloc4,harbor7,tr0,21372,555672).
route(prodloc4,harbor7,tr13,21372,128232).
route(prodloc4,harbor8,tr0,10321,268346).
route(prodloc4,harbor8,tr13,10321,61926).
route(prodloc4,harbor9,tr0,11884,308984).
route(prodloc4,harbor9,tr13,11884,71304).
route(prodloc4,harbor10,tr0,23694,616044).
route(prodloc4,harbor10,tr13,23694,142164).
route(prodloc4,harbor11,tr0,11716,304616).
route(prodloc4,harbor11,tr13,11716,70296).
route(prodloc4,harbor12,tr0,13311,346086).
route(prodloc4,harbor12,tr13,13311,79866).
route(prodloc4,harbor13,tr0,14136,367536).
route(prodloc4,harbor13,tr13,14136,84816).
route(prodloc4,harbor14,tr0,11738,305188).
route(prodloc4,harbor14,tr13,11738,70428).
route(prodloc4,harbor15,tr0,17351,451126).
route(prodloc4,harbor15,tr13,17351,104106).
route(prodloc4,harbor16,tr0,13391,348166).
route(prodloc4,harbor16,tr13,13391,80346).
route(prodloc4,prodloc0,tr0,27384,711984).
route(prodloc4,prodloc0,tr13,27384,164304).
route(prodloc4,prodloc1,tr0,9374,243724).
route(prodloc4,prodloc1,tr13,9374,56244).
route(prodloc4,prodloc2,tr0,25648,666848).
route(prodloc4,prodloc2,tr13,25648,153888).
route(prodloc4,prodloc3,tr0,5033,130858).
route(prodloc4,prodloc3,tr13,5033,30198).
route(prodloc4,prodloc5,tr0,19827,515502).
route(prodloc4,prodloc5,tr13,19827,118962).
route(prodloc4,prodloc6,tr0,21401,556426).
route(prodloc4,prodloc6,tr13,21401,128406).
route(prodloc4,prodloc7,tr0,19531,507806).
route(prodloc4,prodloc7,tr13,19531,117186).
route(prodloc4,prodloc8,tr0,8445,219570).
route(prodloc4,prodloc8,tr13,8445,50670).
route(prodloc4,prodloc9,tr0,21497,558922).
route(prodloc4,prodloc9,tr13,21497,128982).
route(prodloc4,prodloc10,tr0,6478,168428).
route(prodloc4,prodloc10,tr13,6478,38868).
route(prodloc4,prodloc11,tr0,19985,519610).
route(prodloc4,prodloc11,tr13,19985,119910).
route(prodloc4,prodloc12,tr0,15292,397592).
route(prodloc4,prodloc12,tr13,15292,91752).
route(prodloc4,prodloc13,tr0,16429,427154).
route(prodloc4,prodloc13,tr13,16429,98574).
route(prodloc4,prodloc14,tr0,5682,147732).
route(prodloc4,prodloc14,tr13,5682,34092).
route(prodloc4,prodloc15,tr0,20626,536276).
route(prodloc4,prodloc15,tr13,20626,123756).
route(prodloc4,prodloc16,tr0,18102,470652).
route(prodloc4,prodloc16,tr13,18102,108612).
route(prodloc4,prodloc17,tr0,247,6422).
route(prodloc4,prodloc17,tr13,247,1482).
route(prodloc4,prodloc18,tr0,4908,127608).
route(prodloc4,prodloc18,tr13,4908,29448).
route(prodloc4,prodloc19,tr0,2144,55744).
route(prodloc4,prodloc19,tr13,2144,12864).
route(prodloc4,prodloc20,tr0,7331,190606).
route(prodloc4,prodloc20,tr13,7331,43986).
route(prodloc4,prodloc21,tr0,17520,455520).
route(prodloc4,prodloc21,tr13,17520,105120).
route(prodloc4,prodloc22,tr0,8365,217490).
route(prodloc4,prodloc22,tr13,8365,50190).
route(prodloc4,prodloc23,tr0,15227,395902).
route(prodloc4,prodloc23,tr13,15227,91362).
route(prodloc4,prodloc24,tr0,19800,514800).
route(prodloc4,prodloc24,tr13,19800,118800).
route(prodloc4,prodloc25,tr0,401,10426).
route(prodloc4,prodloc25,tr13,401,2406).
route(prodloc4,prodloc26,tr0,6919,179894).
route(prodloc4,prodloc26,tr13,6919,41514).
route(prodloc4,prodloc27,tr0,17867,464542).
route(prodloc4,prodloc27,tr13,17867,107202).
route(prodloc4,prodloc28,tr0,9999,259974).
route(prodloc4,prodloc28,tr13,9999,59994).
route(prodloc4,prodloc29,tr0,1910,49660).
route(prodloc4,prodloc29,tr13,1910,11460).
route(prodloc4,prodloc30,tr0,28339,736814).
route(prodloc4,prodloc30,tr13,28339,170034).
route(prodloc4,prodloc31,tr0,27418,712868).
route(prodloc4,prodloc31,tr13,27418,164508).
route(prodloc4,prodloc32,tr0,18417,478842).
route(prodloc4,prodloc32,tr13,18417,110502).
route(prodloc4,prodloc33,tr0,1313,34138).
route(prodloc4,prodloc33,tr13,1313,7878).
route(prodloc5,harbor0,tr0,16052,417352).
route(prodloc5,harbor0,tr13,16052,96312).
route(prodloc5,harbor1,tr0,12738,331188).
route(prodloc5,harbor1,tr13,12738,76428).
route(prodloc5,harbor2,tr0,4078,106028).
route(prodloc5,harbor2,tr13,4078,24468).
route(prodloc5,harbor3,tr0,11473,298298).
route(prodloc5,harbor3,tr13,11473,68838).
route(prodloc5,harbor4,tr0,10624,276224).
route(prodloc5,harbor4,tr13,10624,63744).
route(prodloc5,harbor5,tr0,4499,116974).
route(prodloc5,harbor5,tr13,4499,26994).
route(prodloc5,harbor6,tr0,28480,740480).
route(prodloc5,harbor6,tr13,28480,170880).
route(prodloc5,harbor7,tr0,9506,247156).
route(prodloc5,harbor7,tr13,9506,57036).
route(prodloc5,harbor8,tr0,17679,459654).
route(prodloc5,harbor8,tr13,17679,106074).
route(prodloc5,harbor9,tr0,115,2990).
route(prodloc5,harbor9,tr13,115,690).
route(prodloc5,harbor10,tr0,19093,496418).
route(prodloc5,harbor10,tr13,19093,114558).
route(prodloc5,harbor11,tr0,8854,230204).
route(prodloc5,harbor11,tr13,8854,53124).
route(prodloc5,harbor12,tr0,26030,676780).
route(prodloc5,harbor12,tr13,26030,156180).
route(prodloc5,harbor13,tr0,25583,665158).
route(prodloc5,harbor13,tr13,25583,153498).
route(prodloc5,harbor14,tr0,28228,733928).
route(prodloc5,harbor14,tr13,28228,169368).
route(prodloc5,harbor15,tr0,4260,110760).
route(prodloc5,harbor15,tr13,4260,25560).
route(prodloc5,harbor16,tr0,8819,229294).
route(prodloc5,harbor16,tr13,8819,52914).
route(prodloc5,prodloc0,tr0,20714,538564).
route(prodloc5,prodloc0,tr13,20714,124284).
route(prodloc5,prodloc1,tr0,10519,273494).
route(prodloc5,prodloc1,tr13,10519,63114).
route(prodloc5,prodloc2,tr0,2829,73554).
route(prodloc5,prodloc2,tr13,2829,16974).
route(prodloc5,prodloc3,tr0,24337,632762).
route(prodloc5,prodloc3,tr13,24337,146022).
route(prodloc5,prodloc4,tr0,21029,546754).
route(prodloc5,prodloc4,tr13,21029,126174).
route(prodloc5,prodloc6,tr0,17350,451100).
route(prodloc5,prodloc6,tr13,17350,104100).
route(prodloc5,prodloc7,tr0,19601,509626).
route(prodloc5,prodloc7,tr13,19601,117606).
route(prodloc5,prodloc8,tr0,11486,298636).
route(prodloc5,prodloc8,tr13,11486,68916).
route(prodloc5,prodloc9,tr0,3932,102232).
route(prodloc5,prodloc9,tr13,3932,23592).
route(prodloc5,prodloc10,tr0,18955,492830).
route(prodloc5,prodloc10,tr13,18955,113730).
route(prodloc5,prodloc11,tr0,19915,517790).
route(prodloc5,prodloc11,tr13,19915,119490).
route(prodloc5,prodloc12,tr0,8,208).
route(prodloc5,prodloc12,tr13,8,48).
route(prodloc5,prodloc13,tr0,7944,206544).
route(prodloc5,prodloc13,tr13,7944,47664).
route(prodloc5,prodloc14,tr0,10049,261274).
route(prodloc5,prodloc14,tr13,10049,60294).
route(prodloc5,prodloc15,tr0,20467,532142).
route(prodloc5,prodloc15,tr13,20467,122802).
route(prodloc5,prodloc16,tr0,6839,177814).
route(prodloc5,prodloc16,tr13,6839,41034).
route(prodloc5,prodloc17,tr0,6860,178360).
route(prodloc5,prodloc17,tr13,6860,41160).
route(prodloc5,prodloc18,tr0,2264,58864).
route(prodloc5,prodloc18,tr13,2264,13584).
route(prodloc5,prodloc19,tr0,14116,367016).
route(prodloc5,prodloc19,tr13,14116,84696).
route(prodloc5,prodloc20,tr0,889,23114).
route(prodloc5,prodloc20,tr13,889,5334).
route(prodloc5,prodloc21,tr0,20155,524030).
route(prodloc5,prodloc21,tr13,20155,120930).
route(prodloc5,prodloc22,tr0,11575,300950).
route(prodloc5,prodloc22,tr13,11575,69450).
route(prodloc5,prodloc23,tr0,25980,675480).
route(prodloc5,prodloc23,tr13,25980,155880).
route(prodloc5,prodloc24,tr0,10368,269568).
route(prodloc5,prodloc24,tr13,10368,62208).
route(prodloc5,prodloc25,tr0,6604,171704).
route(prodloc5,prodloc25,tr13,6604,39624).
route(prodloc5,prodloc26,tr0,28066,729716).
route(prodloc5,prodloc26,tr13,28066,168396).
route(prodloc5,prodloc27,tr0,18896,491296).
route(prodloc5,prodloc27,tr13,18896,113376).
route(prodloc5,prodloc28,tr0,24710,642460).
route(prodloc5,prodloc28,tr13,24710,148260).
route(prodloc5,prodloc29,tr0,13377,347802).
route(prodloc5,prodloc29,tr13,13377,80262).
route(prodloc5,prodloc30,tr0,12541,326066).
route(prodloc5,prodloc30,tr13,12541,75246).
route(prodloc5,prodloc31,tr0,25908,673608).
route(prodloc5,prodloc31,tr13,25908,155448).
route(prodloc5,prodloc32,tr0,18465,480090).
route(prodloc5,prodloc32,tr13,18465,110790).
route(prodloc5,prodloc33,tr0,24397,634322).
route(prodloc5,prodloc33,tr13,24397,146382).
route(prodloc6,harbor0,tr0,27192,706992).
route(prodloc6,harbor0,tr13,27192,163152).
route(prodloc6,harbor1,tr0,1782,46332).
route(prodloc6,harbor1,tr13,1782,10692).
route(prodloc6,harbor2,tr0,1936,50336).
route(prodloc6,harbor2,tr13,1936,11616).
route(prodloc6,harbor3,tr0,6106,158756).
route(prodloc6,harbor3,tr13,6106,36636).
route(prodloc6,harbor4,tr0,21478,558428).
route(prodloc6,harbor4,tr13,21478,128868).
route(prodloc6,harbor5,tr0,18358,477308).
route(prodloc6,harbor5,tr13,18358,110148).
route(prodloc6,harbor6,tr0,27939,726414).
route(prodloc6,harbor6,tr13,27939,167634).
route(prodloc6,harbor7,tr0,19847,516022).
route(prodloc6,harbor7,tr13,19847,119082).
route(prodloc6,harbor8,tr0,7703,200278).
route(prodloc6,harbor8,tr13,7703,46218).
route(prodloc6,harbor9,tr0,17167,446342).
route(prodloc6,harbor9,tr13,17167,103002).
route(prodloc6,harbor10,tr0,8139,211614).
route(prodloc6,harbor10,tr13,8139,48834).
route(prodloc6,harbor11,tr0,9562,248612).
route(prodloc6,harbor11,tr13,9562,57372).
route(prodloc6,harbor12,tr0,5523,143598).
route(prodloc6,harbor12,tr13,5523,33138).
route(prodloc6,harbor13,tr0,8399,218374).
route(prodloc6,harbor13,tr13,8399,50394).
route(prodloc6,harbor14,tr0,5789,150514).
route(prodloc6,harbor14,tr13,5789,34734).
route(prodloc6,harbor15,tr0,19878,516828).
route(prodloc6,harbor15,tr13,19878,119268).
route(prodloc6,harbor16,tr0,11715,304590).
route(prodloc6,harbor16,tr13,11715,70290).
route(prodloc6,prodloc0,tr0,11584,301184).
route(prodloc6,prodloc0,tr13,11584,69504).
route(prodloc6,prodloc1,tr0,9360,243360).
route(prodloc6,prodloc1,tr13,9360,56160).
route(prodloc6,prodloc2,tr0,18486,480636).
route(prodloc6,prodloc2,tr13,18486,110916).
route(prodloc6,prodloc3,tr0,25554,664404).
route(prodloc6,prodloc3,tr13,25554,153324).
route(prodloc6,prodloc4,tr0,7361,191386).
route(prodloc6,prodloc4,tr13,7361,44166).
route(prodloc6,prodloc5,tr0,5247,136422).
route(prodloc6,prodloc5,tr13,5247,31482).
route(prodloc6,prodloc7,tr0,2342,60892).
route(prodloc6,prodloc7,tr13,2342,14052).
route(prodloc6,prodloc8,tr0,4136,107536).
route(prodloc6,prodloc8,tr13,4136,24816).
route(prodloc6,prodloc9,tr0,18830,489580).
route(prodloc6,prodloc9,tr13,18830,112980).
route(prodloc6,prodloc10,tr0,26152,679952).
route(prodloc6,prodloc10,tr13,26152,156912).
route(prodloc6,prodloc11,tr0,18258,474708).
route(prodloc6,prodloc11,tr13,18258,109548).
route(prodloc6,prodloc12,tr0,14832,385632).
route(prodloc6,prodloc12,tr13,14832,88992).
route(prodloc6,prodloc13,tr0,1799,46774).
route(prodloc6,prodloc13,tr13,1799,10794).
route(prodloc6,prodloc14,tr0,3752,97552).
route(prodloc6,prodloc14,tr13,3752,22512).
route(prodloc6,prodloc15,tr0,2633,68458).
route(prodloc6,prodloc15,tr13,2633,15798).
route(prodloc6,prodloc16,tr0,26728,694928).
route(prodloc6,prodloc16,tr13,26728,160368).
route(prodloc6,prodloc17,tr0,18166,472316).
route(prodloc6,prodloc17,tr13,18166,108996).
route(prodloc6,prodloc18,tr0,1304,33904).
route(prodloc6,prodloc18,tr15,1304,41728).
route(prodloc6,prodloc19,tr0,11733,305058).
route(prodloc6,prodloc19,tr13,11733,70398).
route(prodloc6,prodloc20,tr0,12225,317850).
route(prodloc6,prodloc20,tr13,12225,73350).
route(prodloc6,prodloc21,tr0,14627,380302).
route(prodloc6,prodloc21,tr13,14627,87762).
route(prodloc6,prodloc22,tr0,13287,345462).
route(prodloc6,prodloc22,tr13,13287,79722).
route(prodloc6,prodloc23,tr0,9082,236132).
route(prodloc6,prodloc23,tr13,9082,54492).
route(prodloc6,prodloc24,tr0,16979,441454).
route(prodloc6,prodloc24,tr13,16979,101874).
route(prodloc6,prodloc25,tr0,24886,647036).
route(prodloc6,prodloc25,tr13,24886,149316).
route(prodloc6,prodloc26,tr0,7819,203294).
route(prodloc6,prodloc26,tr13,7819,46914).
route(prodloc6,prodloc27,tr0,13640,354640).
route(prodloc6,prodloc27,tr13,13640,81840).
route(prodloc6,prodloc28,tr0,19381,503906).
route(prodloc6,prodloc28,tr15,19381,620192).
route(prodloc6,prodloc29,tr0,19036,494936).
route(prodloc6,prodloc29,tr13,19036,114216).
route(prodloc6,prodloc30,tr0,13867,360542).
route(prodloc6,prodloc30,tr13,13867,83202).
route(prodloc6,prodloc31,tr0,10718,278668).
route(prodloc6,prodloc31,tr13,10718,64308).
route(prodloc6,prodloc32,tr0,20918,543868).
route(prodloc6,prodloc32,tr13,20918,125508).
route(prodloc6,prodloc33,tr0,14628,380328).
route(prodloc6,prodloc33,tr13,14628,87768).
route(prodloc7,harbor0,tr0,12484,324584).
route(prodloc7,harbor0,tr13,12484,74904).
route(prodloc7,harbor1,tr0,26401,686426).
route(prodloc7,harbor1,tr13,26401,158406).
route(prodloc7,harbor2,tr0,18365,477490).
route(prodloc7,harbor2,tr13,18365,110190).
route(prodloc7,harbor3,tr0,17675,459550).
route(prodloc7,harbor3,tr13,17675,106050).
route(prodloc7,harbor4,tr0,19559,508534).
route(prodloc7,harbor4,tr13,19559,117354).
route(prodloc7,harbor5,tr0,26291,683566).
route(prodloc7,harbor5,tr13,26291,157746).
route(prodloc7,harbor6,tr0,8090,210340).
route(prodloc7,harbor6,tr13,8090,48540).
route(prodloc7,harbor7,tr0,1634,42484).
route(prodloc7,harbor7,tr13,1634,9804).
route(prodloc7,harbor8,tr0,28542,742092).
route(prodloc7,harbor8,tr13,28542,171252).
route(prodloc7,harbor9,tr0,23990,623740).
route(prodloc7,harbor9,tr13,23990,143940).
route(prodloc7,harbor10,tr0,3062,79612).
route(prodloc7,harbor10,tr13,3062,18372).
route(prodloc7,harbor11,tr0,28290,735540).
route(prodloc7,harbor11,tr13,28290,169740).
route(prodloc7,harbor12,tr0,13891,361166).
route(prodloc7,harbor12,tr13,13891,83346).
route(prodloc7,harbor13,tr0,21683,563758).
route(prodloc7,harbor13,tr13,21683,130098).
route(prodloc7,harbor14,tr0,16664,433264).
route(prodloc7,harbor14,tr13,16664,99984).
route(prodloc7,harbor15,tr0,12822,333372).
route(prodloc7,harbor15,tr13,12822,76932).
route(prodloc7,harbor16,tr0,3508,91208).
route(prodloc7,harbor16,tr13,3508,21048).
route(prodloc7,prodloc0,tr0,20220,525720).
route(prodloc7,prodloc0,tr13,20220,121320).
route(prodloc7,prodloc1,tr0,16766,435916).
route(prodloc7,prodloc1,tr13,16766,100596).
route(prodloc7,prodloc2,tr0,14722,382772).
route(prodloc7,prodloc2,tr13,14722,88332).
route(prodloc7,prodloc3,tr0,10885,283010).
route(prodloc7,prodloc3,tr13,10885,65310).
route(prodloc7,prodloc4,tr0,18986,493636).
route(prodloc7,prodloc4,tr13,18986,113916).
route(prodloc7,prodloc5,tr0,20068,521768).
route(prodloc7,prodloc5,tr13,20068,120408).
route(prodloc7,prodloc6,tr0,22490,584740).
route(prodloc7,prodloc6,tr13,22490,134940).
route(prodloc7,prodloc8,tr0,5673,147498).
route(prodloc7,prodloc8,tr13,5673,34038).
route(prodloc7,prodloc9,tr0,3295,85670).
route(prodloc7,prodloc9,tr13,3295,19770).
route(prodloc7,prodloc10,tr0,23139,601614).
route(prodloc7,prodloc10,tr13,23139,138834).
route(prodloc7,prodloc11,tr0,2384,61984).
route(prodloc7,prodloc11,tr13,2384,14304).
route(prodloc7,prodloc12,tr0,3247,84422).
route(prodloc7,prodloc12,tr13,3247,19482).
route(prodloc7,prodloc13,tr0,6159,160134).
route(prodloc7,prodloc13,tr13,6159,36954).
route(prodloc7,prodloc14,tr0,6733,175058).
route(prodloc7,prodloc14,tr13,6733,40398).
route(prodloc7,prodloc15,tr0,16283,423358).
route(prodloc7,prodloc15,tr13,16283,97698).
route(prodloc7,prodloc16,tr0,22219,577694).
route(prodloc7,prodloc16,tr13,22219,133314).
route(prodloc7,prodloc17,tr0,23936,622336).
route(prodloc7,prodloc17,tr13,23936,143616).
route(prodloc7,prodloc18,tr0,7962,207012).
route(prodloc7,prodloc18,tr13,7962,47772).
route(prodloc7,prodloc19,tr0,25618,666068).
route(prodloc7,prodloc19,tr13,25618,153708).
route(prodloc7,prodloc20,tr0,17730,460980).
route(prodloc7,prodloc20,tr13,17730,106380).
route(prodloc7,prodloc21,tr0,183,4758).
route(prodloc7,prodloc21,tr13,183,1098).
route(prodloc7,prodloc22,tr0,11728,304928).
route(prodloc7,prodloc22,tr13,11728,70368).
route(prodloc7,prodloc23,tr0,20919,543894).
route(prodloc7,prodloc23,tr13,20919,125514).
route(prodloc7,prodloc24,tr0,6115,158990).
route(prodloc7,prodloc24,tr13,6115,36690).
route(prodloc7,prodloc25,tr0,27594,717444).
route(prodloc7,prodloc25,tr13,27594,165564).
route(prodloc7,prodloc26,tr0,1470,38220).
route(prodloc7,prodloc26,tr13,1470,8820).
route(prodloc7,prodloc27,tr0,1145,29770).
route(prodloc7,prodloc27,tr13,1145,6870).
route(prodloc7,prodloc28,tr0,12869,334594).
route(prodloc7,prodloc28,tr13,12869,77214).
route(prodloc7,prodloc29,tr0,238,6188).
route(prodloc7,prodloc29,tr13,238,1428).
route(prodloc7,prodloc30,tr0,9268,240968).
route(prodloc7,prodloc30,tr13,9268,55608).
route(prodloc7,prodloc31,tr0,14498,376948).
route(prodloc7,prodloc31,tr13,14498,86988).
route(prodloc7,prodloc32,tr0,22745,591370).
route(prodloc7,prodloc32,tr13,22745,136470).
route(prodloc7,prodloc33,tr0,25275,657150).
route(prodloc7,prodloc33,tr13,25275,151650).
route(prodloc8,harbor0,tr0,23138,601588).
route(prodloc8,harbor0,tr13,23138,138828).
route(prodloc8,harbor1,tr0,25192,654992).
route(prodloc8,harbor1,tr13,25192,151152).
route(prodloc8,harbor2,tr0,20020,520520).
route(prodloc8,harbor2,tr13,20020,120120).
route(prodloc8,harbor3,tr0,3853,100178).
route(prodloc8,harbor3,tr13,3853,23118).
route(prodloc8,harbor4,tr0,6584,171184).
route(prodloc8,harbor4,tr13,6584,39504).
route(prodloc8,harbor5,tr0,15755,409630).
route(prodloc8,harbor5,tr13,15755,94530).
route(prodloc8,harbor6,tr0,5230,135980).
route(prodloc8,harbor6,tr13,5230,31380).
route(prodloc8,harbor7,tr0,127,3302).
route(prodloc8,harbor7,tr13,127,762).
route(prodloc8,harbor8,tr0,492,12792).
route(prodloc8,harbor8,tr13,492,2952).
route(prodloc8,harbor9,tr0,15547,404222).
route(prodloc8,harbor9,tr13,15547,93282).
route(prodloc8,harbor10,tr0,21608,561808).
route(prodloc8,harbor10,tr13,21608,129648).
route(prodloc8,harbor11,tr0,21046,547196).
route(prodloc8,harbor11,tr13,21046,126276).
route(prodloc8,harbor12,tr0,21767,565942).
route(prodloc8,harbor12,tr13,21767,130602).
route(prodloc8,harbor13,tr0,11548,300248).
route(prodloc8,harbor13,tr13,11548,69288).
route(prodloc8,harbor14,tr0,8036,208936).
route(prodloc8,harbor14,tr13,8036,48216).
route(prodloc8,harbor15,tr0,4763,123838).
route(prodloc8,harbor15,tr13,4763,28578).
route(prodloc8,harbor16,tr0,14504,377104).
route(prodloc8,harbor16,tr13,14504,87024).
route(prodloc8,prodloc0,tr0,12404,322504).
route(prodloc8,prodloc0,tr13,12404,74424).
route(prodloc8,prodloc1,tr0,13575,352950).
route(prodloc8,prodloc1,tr13,13575,81450).
route(prodloc8,prodloc2,tr0,18313,476138).
route(prodloc8,prodloc2,tr13,18313,109878).
route(prodloc8,prodloc3,tr0,7765,201890).
route(prodloc8,prodloc3,tr13,7765,46590).
route(prodloc8,prodloc4,tr0,10740,279240).
route(prodloc8,prodloc4,tr13,10740,64440).
route(prodloc8,prodloc5,tr0,28859,750334).
route(prodloc8,prodloc5,tr13,28859,173154).
route(prodloc8,prodloc6,tr0,22987,597662).
route(prodloc8,prodloc6,tr13,22987,137922).
route(prodloc8,prodloc7,tr0,20889,543114).
route(prodloc8,prodloc7,tr13,20889,125334).
route(prodloc8,prodloc9,tr0,7102,184652).
route(prodloc8,prodloc9,tr13,7102,42612).
route(prodloc8,prodloc10,tr0,25171,654446).
route(prodloc8,prodloc10,tr13,25171,151026).
route(prodloc8,prodloc11,tr0,27330,710580).
route(prodloc8,prodloc11,tr13,27330,163980).
route(prodloc8,prodloc12,tr0,3783,98358).
route(prodloc8,prodloc12,tr13,3783,22698).
route(prodloc8,prodloc13,tr0,26361,685386).
route(prodloc8,prodloc13,tr13,26361,158166).
route(prodloc8,prodloc14,tr0,20710,538460).
route(prodloc8,prodloc14,tr13,20710,124260).
route(prodloc8,prodloc15,tr0,13114,340964).
route(prodloc8,prodloc15,tr13,13114,78684).
route(prodloc8,prodloc16,tr0,15212,395512).
route(prodloc8,prodloc16,tr13,15212,91272).
route(prodloc8,prodloc17,tr0,24305,631930).
route(prodloc8,prodloc17,tr13,24305,145830).
route(prodloc8,prodloc18,tr0,22362,581412).
route(prodloc8,prodloc18,tr13,22362,134172).
route(prodloc8,prodloc19,tr0,1578,41028).
route(prodloc8,prodloc19,tr13,1578,9468).
route(prodloc8,prodloc20,tr0,7087,184262).
route(prodloc8,prodloc20,tr13,7087,42522).
route(prodloc8,prodloc21,tr0,9696,252096).
route(prodloc8,prodloc21,tr13,9696,58176).
route(prodloc8,prodloc22,tr0,18560,482560).
route(prodloc8,prodloc22,tr13,18560,111360).
route(prodloc8,prodloc23,tr0,18550,482300).
route(prodloc8,prodloc23,tr13,18550,111300).
route(prodloc8,prodloc24,tr0,20633,536458).
route(prodloc8,prodloc24,tr13,20633,123798).
route(prodloc8,prodloc25,tr0,8931,232206).
route(prodloc8,prodloc25,tr13,8931,53586).
route(prodloc8,prodloc26,tr0,27497,714922).
route(prodloc8,prodloc26,tr13,27497,164982).
route(prodloc8,prodloc27,tr0,17646,458796).
route(prodloc8,prodloc27,tr13,17646,105876).
route(prodloc8,prodloc28,tr0,24017,624442).
route(prodloc8,prodloc28,tr13,24017,144102).
route(prodloc8,prodloc29,tr0,3487,90662).
route(prodloc8,prodloc29,tr13,3487,20922).
route(prodloc8,prodloc30,tr0,18594,483444).
route(prodloc8,prodloc30,tr13,18594,111564).
route(prodloc8,prodloc31,tr0,8421,218946).
route(prodloc8,prodloc31,tr13,8421,50526).
route(prodloc8,prodloc32,tr0,7419,192894).
route(prodloc8,prodloc32,tr13,7419,44514).
route(prodloc8,prodloc33,tr0,20780,540280).
route(prodloc8,prodloc33,tr13,20780,124680).
route(prodloc9,harbor0,tr0,25344,658944).
route(prodloc9,harbor0,tr13,25344,152064).
route(prodloc9,harbor1,tr0,10773,280098).
route(prodloc9,harbor1,tr13,10773,64638).
route(prodloc9,harbor2,tr0,25291,657566).
route(prodloc9,harbor2,tr13,25291,151746).
route(prodloc9,harbor3,tr0,19562,508612).
route(prodloc9,harbor3,tr13,19562,117372).
route(prodloc9,harbor4,tr0,11988,311688).
route(prodloc9,harbor4,tr13,11988,71928).
route(prodloc9,harbor5,tr0,28199,733174).
route(prodloc9,harbor5,tr13,28199,169194).
route(prodloc9,harbor6,tr0,9997,259922).
route(prodloc9,harbor6,tr13,9997,59982).
route(prodloc9,harbor7,tr0,8999,233974).
route(prodloc9,harbor7,tr13,8999,53994).
route(prodloc9,harbor8,tr0,13149,341874).
route(prodloc9,harbor8,tr13,13149,78894).
route(prodloc9,harbor9,tr0,14163,368238).
route(prodloc9,harbor9,tr13,14163,84978).
route(prodloc9,harbor10,tr0,20903,543478).
route(prodloc9,harbor10,tr13,20903,125418).
route(prodloc9,harbor11,tr0,10335,268710).
route(prodloc9,harbor11,tr13,10335,62010).
route(prodloc9,harbor12,tr0,14689,381914).
route(prodloc9,harbor12,tr13,14689,88134).
route(prodloc9,harbor13,tr0,11415,296790).
route(prodloc9,harbor13,tr13,11415,68490).
route(prodloc9,harbor14,tr0,6556,170456).
route(prodloc9,harbor14,tr13,6556,39336).
route(prodloc9,harbor15,tr0,3839,99814).
route(prodloc9,harbor15,tr13,3839,23034).
route(prodloc9,harbor16,tr0,19203,499278).
route(prodloc9,harbor16,tr13,19203,115218).
route(prodloc9,prodloc0,tr0,13597,353522).
route(prodloc9,prodloc0,tr13,13597,81582).
route(prodloc9,prodloc1,tr0,28567,742742).
route(prodloc9,prodloc1,tr13,28567,171402).
route(prodloc9,prodloc2,tr0,26555,690430).
route(prodloc9,prodloc2,tr13,26555,159330).
route(prodloc9,prodloc3,tr0,8827,229502).
route(prodloc9,prodloc3,tr13,8827,52962).
route(prodloc9,prodloc4,tr0,2689,69914).
route(prodloc9,prodloc4,tr13,2689,16134).
route(prodloc9,prodloc5,tr0,7639,198614).
route(prodloc9,prodloc5,tr13,7639,45834).
route(prodloc9,prodloc6,tr0,11454,297804).
route(prodloc9,prodloc6,tr13,11454,68724).
route(prodloc9,prodloc7,tr0,16754,435604).
route(prodloc9,prodloc7,tr13,16754,100524).
route(prodloc9,prodloc8,tr0,27196,707096).
route(prodloc9,prodloc8,tr13,27196,163176).
route(prodloc9,prodloc10,tr0,27828,723528).
route(prodloc9,prodloc10,tr13,27828,166968).
route(prodloc9,prodloc11,tr0,27824,723424).
route(prodloc9,prodloc11,tr13,27824,166944).
route(prodloc9,prodloc12,tr0,27090,704340).
route(prodloc9,prodloc12,tr13,27090,162540).
route(prodloc9,prodloc13,tr0,28067,729742).
route(prodloc9,prodloc13,tr13,28067,168402).
route(prodloc9,prodloc14,tr0,23359,607334).
route(prodloc9,prodloc14,tr13,23359,140154).
route(prodloc9,prodloc15,tr0,1362,35412).
route(prodloc9,prodloc15,tr13,1362,8172).
route(prodloc9,prodloc16,tr0,2556,66456).
route(prodloc9,prodloc16,tr13,2556,15336).
route(prodloc9,prodloc17,tr0,23741,617266).
route(prodloc9,prodloc17,tr13,23741,142446).
route(prodloc9,prodloc18,tr0,3737,97162).
route(prodloc9,prodloc18,tr13,3737,22422).
route(prodloc9,prodloc19,tr0,5153,133978).
route(prodloc9,prodloc19,tr13,5153,30918).
route(prodloc9,prodloc20,tr0,27772,722072).
route(prodloc9,prodloc20,tr13,27772,166632).
route(prodloc9,prodloc21,tr0,486,12636).
route(prodloc9,prodloc21,tr13,486,2916).
route(prodloc9,prodloc22,tr0,26880,698880).
route(prodloc9,prodloc22,tr13,26880,161280).
route(prodloc9,prodloc23,tr0,16572,430872).
route(prodloc9,prodloc23,tr15,16572,530304).
route(prodloc9,prodloc24,tr0,11185,290810).
route(prodloc9,prodloc24,tr13,11185,67110).
route(prodloc9,prodloc25,tr0,578,15028).
route(prodloc9,prodloc25,tr13,578,3468).
route(prodloc9,prodloc26,tr0,13854,360204).
route(prodloc9,prodloc26,tr13,13854,83124).
route(prodloc9,prodloc27,tr0,1423,36998).
route(prodloc9,prodloc27,tr13,1423,8538).
route(prodloc9,prodloc28,tr0,4129,107354).
route(prodloc9,prodloc28,tr13,4129,24774).
route(prodloc9,prodloc29,tr0,6323,164398).
route(prodloc9,prodloc29,tr13,6323,37938).
route(prodloc9,prodloc30,tr0,406,10556).
route(prodloc9,prodloc30,tr15,406,12992).
route(prodloc9,prodloc31,tr0,3823,99398).
route(prodloc9,prodloc31,tr13,3823,22938).
route(prodloc9,prodloc32,tr0,9014,234364).
route(prodloc9,prodloc32,tr13,9014,54084).
route(prodloc9,prodloc33,tr0,5603,145678).
route(prodloc9,prodloc33,tr13,5603,33618).
route(prodloc10,harbor0,tr0,27912,725712).
route(prodloc10,harbor0,tr13,27912,167472).
route(prodloc10,harbor1,tr0,27363,711438).
route(prodloc10,harbor1,tr13,27363,164178).
route(prodloc10,harbor2,tr0,6914,179764).
route(prodloc10,harbor2,tr13,6914,41484).
route(prodloc10,harbor3,tr0,7289,189514).
route(prodloc10,harbor3,tr13,7289,43734).
route(prodloc10,harbor4,tr0,24863,646438).
route(prodloc10,harbor4,tr13,24863,149178).
route(prodloc10,harbor5,tr0,3431,89206).
route(prodloc10,harbor5,tr13,3431,20586).
route(prodloc10,harbor6,tr0,19255,500630).
route(prodloc10,harbor6,tr13,19255,115530).
route(prodloc10,harbor7,tr0,7088,184288).
route(prodloc10,harbor7,tr13,7088,42528).
route(prodloc10,harbor8,tr0,22636,588536).
route(prodloc10,harbor8,tr13,22636,135816).
route(prodloc10,harbor9,tr0,20940,544440).
route(prodloc10,harbor9,tr13,20940,125640).
route(prodloc10,harbor10,tr0,356,9256).
route(prodloc10,harbor10,tr13,356,2136).
route(prodloc10,harbor11,tr0,22628,588328).
route(prodloc10,harbor11,tr13,22628,135768).
route(prodloc10,harbor12,tr0,23873,620698).
route(prodloc10,harbor12,tr13,23873,143238).
route(prodloc10,harbor13,tr0,10618,276068).
route(prodloc10,harbor13,tr13,10618,63708).
route(prodloc10,harbor14,tr0,21343,554918).
route(prodloc10,harbor14,tr13,21343,128058).
route(prodloc10,harbor15,tr0,25558,664508).
route(prodloc10,harbor15,tr13,25558,153348).
route(prodloc10,harbor16,tr0,13054,339404).
route(prodloc10,harbor16,tr13,13054,78324).
route(prodloc10,prodloc0,tr0,2336,60736).
route(prodloc10,prodloc0,tr13,2336,14016).
route(prodloc10,prodloc1,tr0,799,20774).
route(prodloc10,prodloc1,tr13,799,4794).
route(prodloc10,prodloc2,tr0,23752,617552).
route(prodloc10,prodloc2,tr13,23752,142512).
route(prodloc10,prodloc3,tr0,11897,309322).
route(prodloc10,prodloc3,tr13,11897,71382).
route(prodloc10,prodloc4,tr0,18043,469118).
route(prodloc10,prodloc4,tr13,18043,108258).
route(prodloc10,prodloc5,tr0,21599,561574).
route(prodloc10,prodloc5,tr13,21599,129594).
route(prodloc10,prodloc6,tr0,5172,134472).
route(prodloc10,prodloc6,tr13,5172,31032).
route(prodloc10,prodloc7,tr0,27728,720928).
route(prodloc10,prodloc7,tr13,27728,166368).
route(prodloc10,prodloc8,tr0,14719,382694).
route(prodloc10,prodloc8,tr13,14719,88314).
route(prodloc10,prodloc9,tr0,4839,125814).
route(prodloc10,prodloc9,tr13,4839,29034).
route(prodloc10,prodloc11,tr0,20055,521430).
route(prodloc10,prodloc11,tr13,20055,120330).
route(prodloc10,prodloc12,tr0,25269,656994).
route(prodloc10,prodloc12,tr13,25269,151614).
route(prodloc10,prodloc13,tr0,14232,370032).
route(prodloc10,prodloc13,tr13,14232,85392).
route(prodloc10,prodloc14,tr0,9105,236730).
route(prodloc10,prodloc14,tr13,9105,54630).
route(prodloc10,prodloc15,tr0,1711,44486).
route(prodloc10,prodloc15,tr13,1711,10266).
route(prodloc10,prodloc16,tr0,18487,480662).
route(prodloc10,prodloc16,tr13,18487,110922).
route(prodloc10,prodloc17,tr0,18645,484770).
route(prodloc10,prodloc17,tr13,18645,111870).
route(prodloc10,prodloc18,tr0,12578,327028).
route(prodloc10,prodloc18,tr13,12578,75468).
route(prodloc10,prodloc19,tr0,9840,255840).
route(prodloc10,prodloc19,tr13,9840,59040).
route(prodloc10,prodloc20,tr0,25805,670930).
route(prodloc10,prodloc20,tr13,25805,154830).
route(prodloc10,prodloc21,tr0,19573,508898).
route(prodloc10,prodloc21,tr13,19573,117438).
route(prodloc10,prodloc22,tr0,15377,399802).
route(prodloc10,prodloc22,tr13,15377,92262).
route(prodloc10,prodloc23,tr0,20756,539656).
route(prodloc10,prodloc23,tr13,20756,124536).
route(prodloc10,prodloc24,tr0,21022,546572).
route(prodloc10,prodloc24,tr13,21022,126132).
route(prodloc10,prodloc25,tr0,19871,516646).
route(prodloc10,prodloc25,tr13,19871,119226).
route(prodloc10,prodloc26,tr0,25253,656578).
route(prodloc10,prodloc26,tr13,25253,151518).
route(prodloc10,prodloc27,tr0,25665,667290).
route(prodloc10,prodloc27,tr13,25665,153990).
route(prodloc10,prodloc28,tr0,25955,674830).
route(prodloc10,prodloc28,tr13,25955,155730).
route(prodloc10,prodloc29,tr0,23536,611936).
route(prodloc10,prodloc29,tr13,23536,141216).
route(prodloc10,prodloc30,tr0,20681,537706).
route(prodloc10,prodloc30,tr13,20681,124086).
route(prodloc10,prodloc31,tr0,19347,503022).
route(prodloc10,prodloc31,tr13,19347,116082).
route(prodloc10,prodloc32,tr0,19843,515918).
route(prodloc10,prodloc32,tr13,19843,119058).
route(prodloc10,prodloc33,tr0,14,364).
route(prodloc10,prodloc33,tr13,14,84).
route(prodloc11,harbor0,tr0,20845,541970).
route(prodloc11,harbor0,tr13,20845,125070).
route(prodloc11,harbor1,tr0,9827,255502).
route(prodloc11,harbor1,tr13,9827,58962).
route(prodloc11,harbor2,tr0,9589,249314).
route(prodloc11,harbor2,tr13,9589,57534).
route(prodloc11,harbor3,tr0,4849,126074).
route(prodloc11,harbor3,tr13,4849,29094).
route(prodloc11,harbor4,tr0,42,1092).
route(prodloc11,harbor4,tr13,42,252).
route(prodloc11,harbor5,tr0,6977,181402).
route(prodloc11,harbor5,tr13,6977,41862).
route(prodloc11,harbor6,tr0,9746,253396).
route(prodloc11,harbor6,tr13,9746,58476).
route(prodloc11,harbor7,tr0,3597,93522).
route(prodloc11,harbor7,tr13,3597,21582).
route(prodloc11,harbor8,tr0,4218,109668).
route(prodloc11,harbor8,tr13,4218,25308).
route(prodloc11,harbor9,tr0,20609,535834).
route(prodloc11,harbor9,tr13,20609,123654).
route(prodloc11,harbor10,tr0,104,2704).
route(prodloc11,harbor10,tr13,104,624).
route(prodloc11,harbor11,tr0,18622,484172).
route(prodloc11,harbor11,tr13,18622,111732).
route(prodloc11,harbor12,tr0,26335,684710).
route(prodloc11,harbor12,tr13,26335,158010).
route(prodloc11,harbor13,tr0,24246,630396).
route(prodloc11,harbor13,tr13,24246,145476).
route(prodloc11,harbor14,tr0,12218,317668).
route(prodloc11,harbor14,tr13,12218,73308).
route(prodloc11,harbor15,tr0,11681,303706).
route(prodloc11,harbor15,tr13,11681,70086).
route(prodloc11,harbor16,tr0,3716,96616).
route(prodloc11,harbor16,tr13,3716,22296).
route(prodloc11,prodloc0,tr0,23417,608842).
route(prodloc11,prodloc0,tr13,23417,140502).
route(prodloc11,prodloc1,tr0,23682,615732).
route(prodloc11,prodloc1,tr13,23682,142092).
route(prodloc11,prodloc2,tr0,17974,467324).
route(prodloc11,prodloc2,tr13,17974,107844).
route(prodloc11,prodloc3,tr0,6585,171210).
route(prodloc11,prodloc3,tr13,6585,39510).
route(prodloc11,prodloc4,tr0,26983,701558).
route(prodloc11,prodloc4,tr13,26983,161898).
route(prodloc11,prodloc5,tr0,11353,295178).
route(prodloc11,prodloc5,tr13,11353,68118).
route(prodloc11,prodloc6,tr0,20849,542074).
route(prodloc11,prodloc6,tr13,20849,125094).
route(prodloc11,prodloc7,tr0,13338,346788).
route(prodloc11,prodloc7,tr13,13338,80028).
route(prodloc11,prodloc8,tr0,27041,703066).
route(prodloc11,prodloc8,tr13,27041,162246).
route(prodloc11,prodloc9,tr0,10567,274742).
route(prodloc11,prodloc9,tr13,10567,63402).
route(prodloc11,prodloc10,tr0,25115,652990).
route(prodloc11,prodloc10,tr13,25115,150690).
route(prodloc11,prodloc12,tr0,24057,625482).
route(prodloc11,prodloc12,tr13,24057,144342).
route(prodloc11,prodloc13,tr0,3641,94666).
route(prodloc11,prodloc13,tr13,3641,21846).
route(prodloc11,prodloc14,tr0,6293,163618).
route(prodloc11,prodloc14,tr13,6293,37758).
route(prodloc11,prodloc15,tr0,8260,214760).
route(prodloc11,prodloc15,tr13,8260,49560).
route(prodloc11,prodloc16,tr0,26612,691912).
route(prodloc11,prodloc16,tr13,26612,159672).
route(prodloc11,prodloc17,tr0,3921,101946).
route(prodloc11,prodloc17,tr13,3921,23526).
route(prodloc11,prodloc18,tr0,15020,390520).
route(prodloc11,prodloc18,tr13,15020,90120).
route(prodloc11,prodloc19,tr0,19028,494728).
route(prodloc11,prodloc19,tr13,19028,114168).
route(prodloc11,prodloc20,tr0,14079,366054).
route(prodloc11,prodloc20,tr13,14079,84474).
route(prodloc11,prodloc21,tr0,3852,100152).
route(prodloc11,prodloc21,tr13,3852,23112).
route(prodloc11,prodloc22,tr0,10823,281398).
route(prodloc11,prodloc22,tr13,10823,64938).
route(prodloc11,prodloc23,tr0,11887,309062).
route(prodloc11,prodloc23,tr13,11887,71322).
route(prodloc11,prodloc24,tr0,21916,569816).
route(prodloc11,prodloc24,tr13,21916,131496).
route(prodloc11,prodloc25,tr0,7922,205972).
route(prodloc11,prodloc25,tr13,7922,47532).
route(prodloc11,prodloc26,tr0,436,11336).
route(prodloc11,prodloc26,tr13,436,2616).
route(prodloc11,prodloc27,tr0,13615,353990).
route(prodloc11,prodloc27,tr13,13615,81690).
route(prodloc11,prodloc28,tr0,28676,745576).
route(prodloc11,prodloc28,tr13,28676,172056).
route(prodloc11,prodloc29,tr0,8566,222716).
route(prodloc11,prodloc29,tr13,8566,51396).
route(prodloc11,prodloc30,tr0,23044,599144).
route(prodloc11,prodloc30,tr13,23044,138264).
route(prodloc11,prodloc31,tr0,4011,104286).
route(prodloc11,prodloc31,tr13,4011,24066).
route(prodloc11,prodloc32,tr0,5650,146900).
route(prodloc11,prodloc32,tr13,5650,33900).
route(prodloc11,prodloc33,tr0,711,18486).
route(prodloc11,prodloc33,tr13,711,4266).
route(prodloc12,harbor0,tr0,1060,27560).
route(prodloc12,harbor0,tr13,1060,6360).
route(prodloc12,harbor1,tr0,22324,580424).
route(prodloc12,harbor1,tr13,22324,133944).
route(prodloc12,harbor2,tr0,474,12324).
route(prodloc12,harbor2,tr13,474,2844).
route(prodloc12,harbor3,tr0,26669,693394).
route(prodloc12,harbor3,tr13,26669,160014).
route(prodloc12,harbor4,tr0,409,10634).
route(prodloc12,harbor4,tr13,409,2454).
route(prodloc12,harbor5,tr0,10399,270374).
route(prodloc12,harbor5,tr13,10399,62394).
route(prodloc12,harbor6,tr0,2461,63986).
route(prodloc12,harbor6,tr13,2461,14766).
route(prodloc12,harbor7,tr0,14419,374894).
route(prodloc12,harbor7,tr13,14419,86514).
route(prodloc12,harbor8,tr0,26758,695708).
route(prodloc12,harbor8,tr13,26758,160548).
route(prodloc12,harbor9,tr0,1772,46072).
route(prodloc12,harbor9,tr13,1772,10632).
route(prodloc12,harbor10,tr0,5024,130624).
route(prodloc12,harbor10,tr13,5024,30144).
route(prodloc12,harbor11,tr0,8983,233558).
route(prodloc12,harbor11,tr13,8983,53898).
route(prodloc12,harbor12,tr0,9070,235820).
route(prodloc12,harbor12,tr13,9070,54420).
route(prodloc12,harbor13,tr0,24106,626756).
route(prodloc12,harbor13,tr13,24106,144636).
route(prodloc12,harbor14,tr0,9749,253474).
route(prodloc12,harbor14,tr13,9749,58494).
route(prodloc12,harbor15,tr0,8116,211016).
route(prodloc12,harbor15,tr13,8116,48696).
route(prodloc12,harbor16,tr0,7232,188032).
route(prodloc12,harbor16,tr13,7232,43392).
route(prodloc12,prodloc0,tr0,8167,212342).
route(prodloc12,prodloc0,tr13,8167,49002).
route(prodloc12,prodloc1,tr0,10824,281424).
route(prodloc12,prodloc1,tr13,10824,64944).
route(prodloc12,prodloc2,tr0,17360,451360).
route(prodloc12,prodloc2,tr13,17360,104160).
route(prodloc12,prodloc3,tr0,18851,490126).
route(prodloc12,prodloc3,tr13,18851,113106).
route(prodloc12,prodloc4,tr0,8946,232596).
route(prodloc12,prodloc4,tr13,8946,53676).
route(prodloc12,prodloc5,tr0,5141,133666).
route(prodloc12,prodloc5,tr13,5141,30846).
route(prodloc12,prodloc6,tr0,1721,44746).
route(prodloc12,prodloc6,tr13,1721,10326).
route(prodloc12,prodloc7,tr0,25221,655746).
route(prodloc12,prodloc7,tr15,25221,807072).
route(prodloc12,prodloc8,tr0,26570,690820).
route(prodloc12,prodloc8,tr13,26570,159420).
route(prodloc12,prodloc9,tr0,2933,76258).
route(prodloc12,prodloc9,tr13,2933,17598).
route(prodloc12,prodloc10,tr0,7911,205686).
route(prodloc12,prodloc10,tr13,7911,47466).
route(prodloc12,prodloc11,tr0,15289,397514).
route(prodloc12,prodloc11,tr13,15289,91734).
route(prodloc12,prodloc13,tr0,3820,99320).
route(prodloc12,prodloc13,tr13,3820,22920).
route(prodloc12,prodloc14,tr0,17051,443326).
route(prodloc12,prodloc14,tr13,17051,102306).
route(prodloc12,prodloc15,tr0,12968,337168).
route(prodloc12,prodloc15,tr13,12968,77808).
route(prodloc12,prodloc16,tr0,17623,458198).
route(prodloc12,prodloc16,tr13,17623,105738).
route(prodloc12,prodloc17,tr13,15940,95640).
route(prodloc12,prodloc17,tr15,15940,510080).
route(prodloc12,prodloc18,tr0,12585,327210).
route(prodloc12,prodloc18,tr13,12585,75510).
route(prodloc12,prodloc19,tr0,10894,283244).
route(prodloc12,prodloc19,tr13,10894,65364).
route(prodloc12,prodloc20,tr0,4298,111748).
route(prodloc12,prodloc20,tr13,4298,25788).
route(prodloc12,prodloc21,tr0,17143,445718).
route(prodloc12,prodloc21,tr13,17143,102858).
route(prodloc12,prodloc22,tr0,27746,721396).
route(prodloc12,prodloc22,tr13,27746,166476).
route(prodloc12,prodloc23,tr0,2432,63232).
route(prodloc12,prodloc23,tr13,2432,14592).
route(prodloc12,prodloc24,tr0,4854,126204).
route(prodloc12,prodloc24,tr13,4854,29124).
route(prodloc12,prodloc25,tr0,9015,234390).
route(prodloc12,prodloc25,tr13,9015,54090).
route(prodloc12,prodloc26,tr0,8013,208338).
route(prodloc12,prodloc26,tr13,8013,48078).
route(prodloc12,prodloc27,tr0,1388,36088).
route(prodloc12,prodloc27,tr13,1388,8328).
route(prodloc12,prodloc28,tr0,7199,187174).
route(prodloc12,prodloc28,tr13,7199,43194).
route(prodloc12,prodloc29,tr0,23707,616382).
route(prodloc12,prodloc29,tr13,23707,142242).
route(prodloc12,prodloc30,tr0,28520,741520).
route(prodloc12,prodloc30,tr13,28520,171120).
route(prodloc12,prodloc31,tr0,10425,271050).
route(prodloc12,prodloc31,tr13,10425,62550).
route(prodloc12,prodloc32,tr0,799,20774).
route(prodloc12,prodloc32,tr13,799,4794).
route(prodloc12,prodloc33,tr0,12487,324662).
route(prodloc12,prodloc33,tr13,12487,74922).
route(prodloc13,harbor0,tr0,11429,297154).
route(prodloc13,harbor0,tr13,11429,68574).
route(prodloc13,harbor1,tr0,20681,537706).
route(prodloc13,harbor1,tr13,20681,124086).
route(prodloc13,harbor2,tr0,11003,286078).
route(prodloc13,harbor2,tr13,11003,66018).
route(prodloc13,harbor3,tr0,23070,599820).
route(prodloc13,harbor3,tr13,23070,138420).
route(prodloc13,harbor4,tr0,5790,150540).
route(prodloc13,harbor4,tr13,5790,34740).
route(prodloc13,harbor5,tr0,14862,386412).
route(prodloc13,harbor5,tr13,14862,89172).
route(prodloc13,harbor6,tr0,6948,180648).
route(prodloc13,harbor6,tr13,6948,41688).
route(prodloc13,harbor7,tr0,26497,688922).
route(prodloc13,harbor7,tr13,26497,158982).
route(prodloc13,harbor8,tr0,3727,96902).
route(prodloc13,harbor8,tr13,3727,22362).
route(prodloc13,harbor9,tr0,10328,268528).
route(prodloc13,harbor9,tr13,10328,61968).
route(prodloc13,harbor10,tr0,27612,717912).
route(prodloc13,harbor10,tr13,27612,165672).
route(prodloc13,harbor11,tr0,24068,625768).
route(prodloc13,harbor11,tr13,24068,144408).
route(prodloc13,harbor12,tr0,25745,669370).
route(prodloc13,harbor12,tr13,25745,154470).
route(prodloc13,harbor13,tr0,5402,140452).
route(prodloc13,harbor13,tr13,5402,32412).
route(prodloc13,harbor14,tr0,22889,595114).
route(prodloc13,harbor14,tr13,22889,137334).
route(prodloc13,harbor15,tr0,4654,121004).
route(prodloc13,harbor15,tr13,4654,27924).
route(prodloc13,harbor16,tr0,6305,163930).
route(prodloc13,harbor16,tr13,6305,37830).
route(prodloc13,prodloc0,tr0,5105,132730).
route(prodloc13,prodloc0,tr13,5105,30630).
route(prodloc13,prodloc1,tr0,2734,71084).
route(prodloc13,prodloc1,tr13,2734,16404).
route(prodloc13,prodloc2,tr0,5836,151736).
route(prodloc13,prodloc2,tr13,5836,35016).
route(prodloc13,prodloc3,tr0,15759,409734).
route(prodloc13,prodloc3,tr13,15759,94554).
route(prodloc13,prodloc4,tr0,19083,496158).
route(prodloc13,prodloc4,tr13,19083,114498).
route(prodloc13,prodloc5,tr0,8057,209482).
route(prodloc13,prodloc5,tr13,8057,48342).
route(prodloc13,prodloc6,tr0,13491,350766).
route(prodloc13,prodloc6,tr13,13491,80946).
route(prodloc13,prodloc7,tr0,21438,557388).
route(prodloc13,prodloc7,tr13,21438,128628).
route(prodloc13,prodloc8,tr0,16413,426738).
route(prodloc13,prodloc8,tr13,16413,98478).
route(prodloc13,prodloc9,tr0,438,11388).
route(prodloc13,prodloc9,tr13,438,2628).
route(prodloc13,prodloc10,tr0,14509,377234).
route(prodloc13,prodloc10,tr13,14509,87054).
route(prodloc13,prodloc11,tr0,28478,740428).
route(prodloc13,prodloc11,tr13,28478,170868).
route(prodloc13,prodloc12,tr0,14854,386204).
route(prodloc13,prodloc12,tr13,14854,89124).
route(prodloc13,prodloc14,tr0,24432,635232).
route(prodloc13,prodloc14,tr13,24432,146592).
route(prodloc13,prodloc15,tr0,18263,474838).
route(prodloc13,prodloc15,tr13,18263,109578).
route(prodloc13,prodloc16,tr0,21856,568256).
route(prodloc13,prodloc16,tr13,21856,131136).
route(prodloc13,prodloc17,tr0,28074,729924).
route(prodloc13,prodloc17,tr13,28074,168444).
route(prodloc13,prodloc18,tr0,1063,27638).
route(prodloc13,prodloc18,tr13,1063,6378).
route(prodloc13,prodloc19,tr0,27714,720564).
route(prodloc13,prodloc19,tr13,27714,166284).
route(prodloc13,prodloc20,tr0,24953,648778).
route(prodloc13,prodloc20,tr13,24953,149718).
route(prodloc13,prodloc21,tr0,21867,568542).
route(prodloc13,prodloc21,tr13,21867,131202).
route(prodloc13,prodloc22,tr0,3939,102414).
route(prodloc13,prodloc22,tr13,3939,23634).
route(prodloc13,prodloc23,tr0,10954,284804).
route(prodloc13,prodloc23,tr13,10954,65724).
route(prodloc13,prodloc24,tr0,283,7358).
route(prodloc13,prodloc24,tr13,283,1698).
route(prodloc13,prodloc25,tr0,17985,467610).
route(prodloc13,prodloc25,tr13,17985,107910).
route(prodloc13,prodloc26,tr0,10278,267228).
route(prodloc13,prodloc26,tr13,10278,61668).
route(prodloc13,prodloc27,tr0,28243,734318).
route(prodloc13,prodloc27,tr13,28243,169458).
route(prodloc13,prodloc28,tr0,18044,469144).
route(prodloc13,prodloc28,tr13,18044,108264).
route(prodloc13,prodloc29,tr0,23178,602628).
route(prodloc13,prodloc29,tr13,23178,139068).
route(prodloc13,prodloc30,tr0,15462,402012).
route(prodloc13,prodloc30,tr13,15462,92772).
route(prodloc13,prodloc31,tr0,15350,399100).
route(prodloc13,prodloc31,tr13,15350,92100).
route(prodloc13,prodloc32,tr0,26182,680732).
route(prodloc13,prodloc32,tr13,26182,157092).
route(prodloc13,prodloc33,tr0,8141,211666).
route(prodloc13,prodloc33,tr13,8141,48846).
route(prodloc14,harbor0,tr0,2221,57746).
route(prodloc14,harbor0,tr13,2221,13326).
route(prodloc14,harbor1,tr0,13728,356928).
route(prodloc14,harbor1,tr13,13728,82368).
route(prodloc14,harbor2,tr0,13036,338936).
route(prodloc14,harbor2,tr13,13036,78216).
route(prodloc14,harbor3,tr0,562,14612).
route(prodloc14,harbor3,tr13,562,3372).
route(prodloc14,harbor4,tr0,15364,399464).
route(prodloc14,harbor4,tr13,15364,92184).
route(prodloc14,harbor5,tr0,25767,669942).
route(prodloc14,harbor5,tr13,25767,154602).
route(prodloc14,harbor6,tr0,4730,122980).
route(prodloc14,harbor6,tr13,4730,28380).
route(prodloc14,harbor7,tr0,558,14508).
route(prodloc14,harbor7,tr13,558,3348).
route(prodloc14,harbor8,tr0,15251,396526).
route(prodloc14,harbor8,tr13,15251,91506).
route(prodloc14,harbor9,tr0,1817,47242).
route(prodloc14,harbor9,tr13,1817,10902).
route(prodloc14,harbor10,tr0,47,1222).
route(prodloc14,harbor10,tr13,47,282).
route(prodloc14,harbor11,tr0,3885,101010).
route(prodloc14,harbor11,tr13,3885,23310).
route(prodloc14,harbor12,tr0,26846,697996).
route(prodloc14,harbor12,tr13,26846,161076).
route(prodloc14,harbor13,tr0,2997,77922).
route(prodloc14,harbor13,tr13,2997,17982).
route(prodloc14,harbor14,tr0,2299,59774).
route(prodloc14,harbor14,tr13,2299,13794).
route(prodloc14,harbor15,tr0,5459,141934).
route(prodloc14,harbor15,tr13,5459,32754).
route(prodloc14,harbor16,tr0,7070,183820).
route(prodloc14,harbor16,tr13,7070,42420).
route(prodloc14,prodloc0,tr0,6611,171886).
route(prodloc14,prodloc0,tr13,6611,39666).
route(prodloc14,prodloc1,tr0,17143,445718).
route(prodloc14,prodloc1,tr13,17143,102858).
route(prodloc14,prodloc2,tr0,6380,165880).
route(prodloc14,prodloc2,tr13,6380,38280).
route(prodloc14,prodloc3,tr0,16171,420446).
route(prodloc14,prodloc3,tr13,16171,97026).
route(prodloc14,prodloc4,tr0,20808,541008).
route(prodloc14,prodloc4,tr13,20808,124848).
route(prodloc14,prodloc5,tr0,8181,212706).
route(prodloc14,prodloc5,tr13,8181,49086).
route(prodloc14,prodloc6,tr0,3006,78156).
route(prodloc14,prodloc6,tr13,3006,18036).
route(prodloc14,prodloc7,tr0,3076,79976).
route(prodloc14,prodloc7,tr13,3076,18456).
route(prodloc14,prodloc8,tr0,19461,505986).
route(prodloc14,prodloc8,tr13,19461,116766).
route(prodloc14,prodloc9,tr0,26525,689650).
route(prodloc14,prodloc9,tr13,26525,159150).
route(prodloc14,prodloc10,tr0,16751,435526).
route(prodloc14,prodloc10,tr13,16751,100506).
route(prodloc14,prodloc11,tr0,24818,645268).
route(prodloc14,prodloc11,tr13,24818,148908).
route(prodloc14,prodloc12,tr0,27215,707590).
route(prodloc14,prodloc12,tr13,27215,163290).
route(prodloc14,prodloc13,tr0,18722,486772).
route(prodloc14,prodloc13,tr13,18722,112332).
route(prodloc14,prodloc15,tr0,20223,525798).
route(prodloc14,prodloc15,tr13,20223,121338).
route(prodloc14,prodloc16,tr0,21340,554840).
route(prodloc14,prodloc16,tr13,21340,128040).
route(prodloc14,prodloc17,tr0,28628,744328).
route(prodloc14,prodloc17,tr13,28628,171768).
route(prodloc14,prodloc18,tr0,26338,684788).
route(prodloc14,prodloc18,tr13,26338,158028).
route(prodloc14,prodloc19,tr0,27194,707044).
route(prodloc14,prodloc19,tr13,27194,163164).
route(prodloc14,prodloc20,tr0,21600,561600).
route(prodloc14,prodloc20,tr13,21600,129600).
route(prodloc14,prodloc21,tr0,11748,305448).
route(prodloc14,prodloc21,tr13,11748,70488).
route(prodloc14,prodloc22,tr0,4021,104546).
route(prodloc14,prodloc22,tr13,4021,24126).
route(prodloc14,prodloc23,tr0,28687,745862).
route(prodloc14,prodloc23,tr13,28687,172122).
route(prodloc14,prodloc24,tr0,3565,92690).
route(prodloc14,prodloc24,tr13,3565,21390).
route(prodloc14,prodloc25,tr0,20383,529958).
route(prodloc14,prodloc25,tr13,20383,122298).
route(prodloc14,prodloc26,tr0,15413,400738).
route(prodloc14,prodloc26,tr13,15413,92478).
route(prodloc14,prodloc27,tr0,710,18460).
route(prodloc14,prodloc27,tr13,710,4260).
route(prodloc14,prodloc28,tr0,28482,740532).
route(prodloc14,prodloc28,tr13,28482,170892).
route(prodloc14,prodloc29,tr0,10889,283114).
route(prodloc14,prodloc29,tr13,10889,65334).
route(prodloc14,prodloc30,tr0,20739,539214).
route(prodloc14,prodloc30,tr13,20739,124434).
route(prodloc14,prodloc31,tr0,22461,583986).
route(prodloc14,prodloc31,tr13,22461,134766).
route(prodloc14,prodloc32,tr0,7687,199862).
route(prodloc14,prodloc32,tr13,7687,46122).
route(prodloc14,prodloc33,tr0,22886,595036).
route(prodloc14,prodloc33,tr13,22886,137316).
route(prodloc15,harbor0,tr0,6070,157820).
route(prodloc15,harbor0,tr13,6070,36420).
route(prodloc15,harbor1,tr0,22975,597350).
route(prodloc15,harbor1,tr13,22975,137850).
route(prodloc15,harbor2,tr0,3608,93808).
route(prodloc15,harbor2,tr13,3608,21648).
route(prodloc15,harbor3,tr0,25322,658372).
route(prodloc15,harbor3,tr13,25322,151932).
route(prodloc15,harbor4,tr0,18319,476294).
route(prodloc15,harbor4,tr13,18319,109914).
route(prodloc15,harbor5,tr0,23806,618956).
route(prodloc15,harbor5,tr13,23806,142836).
route(prodloc15,harbor6,tr0,23488,610688).
route(prodloc15,harbor6,tr13,23488,140928).
route(prodloc15,harbor7,tr0,15645,406770).
route(prodloc15,harbor7,tr13,15645,93870).
route(prodloc15,harbor8,tr0,8411,218686).
route(prodloc15,harbor8,tr13,8411,50466).
route(prodloc15,harbor9,tr0,24406,634556).
route(prodloc15,harbor9,tr13,24406,146436).
route(prodloc15,harbor10,tr0,26575,690950).
route(prodloc15,harbor10,tr13,26575,159450).
route(prodloc15,harbor11,tr0,23643,614718).
route(prodloc15,harbor11,tr13,23643,141858).
route(prodloc15,harbor12,tr0,7507,195182).
route(prodloc15,harbor12,tr13,7507,45042).
route(prodloc15,harbor13,tr0,19521,507546).
route(prodloc15,harbor13,tr13,19521,117126).
route(prodloc15,harbor14,tr0,19738,513188).
route(prodloc15,harbor14,tr13,19738,118428).
route(prodloc15,harbor15,tr0,28265,734890).
route(prodloc15,harbor15,tr13,28265,169590).
route(prodloc15,harbor16,tr0,28171,732446).
route(prodloc15,harbor16,tr13,28171,169026).
route(prodloc15,prodloc0,tr0,10692,277992).
route(prodloc15,prodloc0,tr13,10692,64152).
route(prodloc15,prodloc1,tr0,27802,722852).
route(prodloc15,prodloc1,tr13,27802,166812).
route(prodloc15,prodloc2,tr0,3278,85228).
route(prodloc15,prodloc2,tr13,3278,19668).
route(prodloc15,prodloc3,tr0,7008,182208).
route(prodloc15,prodloc3,tr13,7008,42048).
route(prodloc15,prodloc4,tr0,14148,367848).
route(prodloc15,prodloc4,tr13,14148,84888).
route(prodloc15,prodloc5,tr0,1345,34970).
route(prodloc15,prodloc5,tr13,1345,8070).
route(prodloc15,prodloc6,tr0,11049,287274).
route(prodloc15,prodloc6,tr13,11049,66294).
route(prodloc15,prodloc7,tr0,17986,467636).
route(prodloc15,prodloc7,tr13,17986,107916).
route(prodloc15,prodloc8,tr0,2680,69680).
route(prodloc15,prodloc8,tr13,2680,16080).
route(prodloc15,prodloc9,tr0,28262,734812).
route(prodloc15,prodloc9,tr13,28262,169572).
route(prodloc15,prodloc10,tr0,17125,445250).
route(prodloc15,prodloc10,tr13,17125,102750).
route(prodloc15,prodloc11,tr0,3991,103766).
route(prodloc15,prodloc11,tr13,3991,23946).
route(prodloc15,prodloc12,tr0,3921,101946).
route(prodloc15,prodloc12,tr13,3921,23526).
route(prodloc15,prodloc13,tr0,11514,299364).
route(prodloc15,prodloc13,tr13,11514,69084).
route(prodloc15,prodloc14,tr0,4081,106106).
route(prodloc15,prodloc14,tr13,4081,24486).
route(prodloc15,prodloc16,tr0,3352,87152).
route(prodloc15,prodloc16,tr13,3352,20112).
route(prodloc15,prodloc17,tr0,28764,747864).
route(prodloc15,prodloc17,tr13,28764,172584).
route(prodloc15,prodloc18,tr0,12385,322010).
route(prodloc15,prodloc18,tr13,12385,74310).
route(prodloc15,prodloc19,tr0,20346,528996).
route(prodloc15,prodloc19,tr13,20346,122076).
route(prodloc15,prodloc20,tr0,26909,699634).
route(prodloc15,prodloc20,tr13,26909,161454).
route(prodloc15,prodloc21,tr0,2051,53326).
route(prodloc15,prodloc21,tr13,2051,12306).
route(prodloc15,prodloc22,tr0,13153,341978).
route(prodloc15,prodloc22,tr13,13153,78918).
route(prodloc15,prodloc23,tr0,17566,456716).
route(prodloc15,prodloc23,tr13,17566,105396).
route(prodloc15,prodloc24,tr0,4297,111722).
route(prodloc15,prodloc24,tr13,4297,25782).
route(prodloc15,prodloc25,tr0,9584,249184).
route(prodloc15,prodloc25,tr13,9584,57504).
route(prodloc15,prodloc26,tr0,21349,555074).
route(prodloc15,prodloc26,tr13,21349,128094).
route(prodloc15,prodloc27,tr0,14776,384176).
route(prodloc15,prodloc27,tr13,14776,88656).
route(prodloc15,prodloc28,tr0,20757,539682).
route(prodloc15,prodloc28,tr13,20757,124542).
route(prodloc15,prodloc29,tr0,24733,643058).
route(prodloc15,prodloc29,tr13,24733,148398).
route(prodloc15,prodloc30,tr0,21380,555880).
route(prodloc15,prodloc30,tr13,21380,128280).
route(prodloc15,prodloc31,tr0,5201,135226).
route(prodloc15,prodloc31,tr13,5201,31206).
route(prodloc15,prodloc32,tr0,851,22126).
route(prodloc15,prodloc32,tr13,851,5106).
route(prodloc15,prodloc33,tr0,7646,198796).
route(prodloc15,prodloc33,tr13,7646,45876).
route(prodloc16,harbor0,tr0,361,9386).
route(prodloc16,harbor0,tr13,361,2166).
route(prodloc16,harbor1,tr0,5853,152178).
route(prodloc16,harbor1,tr13,5853,35118).
route(prodloc16,harbor2,tr0,3654,95004).
route(prodloc16,harbor2,tr13,3654,21924).
route(prodloc16,harbor3,tr0,4541,118066).
route(prodloc16,harbor3,tr13,4541,27246).
route(prodloc16,harbor4,tr0,27221,707746).
route(prodloc16,harbor4,tr13,27221,163326).
route(prodloc16,harbor5,tr0,9978,259428).
route(prodloc16,harbor5,tr13,9978,59868).
route(prodloc16,harbor6,tr0,20775,540150).
route(prodloc16,harbor6,tr13,20775,124650).
route(prodloc16,harbor7,tr0,14296,371696).
route(prodloc16,harbor7,tr13,14296,85776).
route(prodloc16,harbor8,tr0,19080,496080).
route(prodloc16,harbor8,tr13,19080,114480).
route(prodloc16,harbor9,tr0,18020,468520).
route(prodloc16,harbor9,tr13,18020,108120).
route(prodloc16,harbor10,tr0,20755,539630).
route(prodloc16,harbor10,tr13,20755,124530).
route(prodloc16,harbor11,tr0,13315,346190).
route(prodloc16,harbor11,tr13,13315,79890).
route(prodloc16,harbor12,tr0,2754,71604).
route(prodloc16,harbor12,tr13,2754,16524).
route(prodloc16,harbor13,tr0,27632,718432).
route(prodloc16,harbor13,tr13,27632,165792).
route(prodloc16,harbor14,tr0,11387,296062).
route(prodloc16,harbor14,tr13,11387,68322).
route(prodloc16,harbor15,tr0,2461,63986).
route(prodloc16,harbor15,tr13,2461,14766).
route(prodloc16,harbor16,tr0,9181,238706).
route(prodloc16,harbor16,tr13,9181,55086).
route(prodloc16,prodloc0,tr0,17899,465374).
route(prodloc16,prodloc0,tr13,17899,107394).
route(prodloc16,prodloc1,tr0,7896,205296).
route(prodloc16,prodloc1,tr13,7896,47376).
route(prodloc16,prodloc2,tr0,9021,234546).
route(prodloc16,prodloc2,tr13,9021,54126).
route(prodloc16,prodloc3,tr0,13946,362596).
route(prodloc16,prodloc3,tr13,13946,83676).
route(prodloc16,prodloc4,tr0,23216,603616).
route(prodloc16,prodloc4,tr13,23216,139296).
route(prodloc16,prodloc5,tr0,12181,316706).
route(prodloc16,prodloc5,tr13,12181,73086).
route(prodloc16,prodloc6,tr0,7097,184522).
route(prodloc16,prodloc6,tr13,7097,42582).
route(prodloc16,prodloc7,tr0,18083,470158).
route(prodloc16,prodloc7,tr13,18083,108498).
route(prodloc16,prodloc8,tr0,22672,589472).
route(prodloc16,prodloc8,tr13,22672,136032).
route(prodloc16,prodloc9,tr0,24049,625274).
route(prodloc16,prodloc9,tr13,24049,144294).
route(prodloc16,prodloc10,tr0,10607,275782).
route(prodloc16,prodloc10,tr13,10607,63642).
route(prodloc16,prodloc11,tr0,25449,661674).
route(prodloc16,prodloc11,tr13,25449,152694).
route(prodloc16,prodloc12,tr0,27205,707330).
route(prodloc16,prodloc12,tr13,27205,163230).
route(prodloc16,prodloc13,tr0,9021,234546).
route(prodloc16,prodloc13,tr13,9021,54126).
route(prodloc16,prodloc14,tr0,12168,316368).
route(prodloc16,prodloc14,tr13,12168,73008).
route(prodloc16,prodloc15,tr0,3882,100932).
route(prodloc16,prodloc15,tr13,3882,23292).
route(prodloc16,prodloc17,tr0,24565,638690).
route(prodloc16,prodloc17,tr13,24565,147390).
route(prodloc16,prodloc18,tr0,12593,327418).
route(prodloc16,prodloc18,tr13,12593,75558).
route(prodloc16,prodloc19,tr0,22231,578006).
route(prodloc16,prodloc19,tr13,22231,133386).
route(prodloc16,prodloc20,tr0,20170,524420).
route(prodloc16,prodloc20,tr13,20170,121020).
route(prodloc16,prodloc21,tr0,9719,252694).
route(prodloc16,prodloc21,tr13,9719,58314).
route(prodloc16,prodloc22,tr0,5321,138346).
route(prodloc16,prodloc22,tr13,5321,31926).
route(prodloc16,prodloc23,tr13,26421,158526).
route(prodloc16,prodloc23,tr15,26421,845472).
route(prodloc16,prodloc24,tr0,8227,213902).
route(prodloc16,prodloc24,tr13,8227,49362).
route(prodloc16,prodloc25,tr0,13397,348322).
route(prodloc16,prodloc25,tr13,13397,80382).
route(prodloc16,prodloc26,tr0,683,17758).
route(prodloc16,prodloc26,tr13,683,4098).
route(prodloc16,prodloc27,tr0,5752,149552).
route(prodloc16,prodloc27,tr13,5752,34512).
route(prodloc16,prodloc28,tr0,10826,281476).
route(prodloc16,prodloc28,tr13,10826,64956).
route(prodloc16,prodloc29,tr0,13762,357812).
route(prodloc16,prodloc29,tr13,13762,82572).
route(prodloc16,prodloc30,tr0,9245,240370).
route(prodloc16,prodloc30,tr13,9245,55470).
route(prodloc16,prodloc31,tr0,445,11570).
route(prodloc16,prodloc31,tr13,445,2670).
route(prodloc16,prodloc32,tr0,13924,362024).
route(prodloc16,prodloc32,tr13,13924,83544).
route(prodloc16,prodloc33,tr0,28146,731796).
route(prodloc16,prodloc33,tr13,28146,168876).
route(prodloc17,harbor0,tr0,9404,244504).
route(prodloc17,harbor0,tr13,9404,56424).
route(prodloc17,harbor1,tr0,22896,595296).
route(prodloc17,harbor1,tr13,22896,137376).
route(prodloc17,harbor2,tr0,7050,183300).
route(prodloc17,harbor2,tr13,7050,42300).
route(prodloc17,harbor3,tr0,21739,565214).
route(prodloc17,harbor3,tr13,21739,130434).
route(prodloc17,harbor4,tr0,26948,700648).
route(prodloc17,harbor4,tr13,26948,161688).
route(prodloc17,harbor5,tr0,20075,521950).
route(prodloc17,harbor5,tr13,20075,120450).
route(prodloc17,harbor6,tr0,9269,240994).
route(prodloc17,harbor6,tr13,9269,55614).
route(prodloc17,harbor7,tr0,6580,171080).
route(prodloc17,harbor7,tr13,6580,39480).
route(prodloc17,harbor8,tr0,7373,191698).
route(prodloc17,harbor8,tr13,7373,44238).
route(prodloc17,harbor9,tr0,15724,408824).
route(prodloc17,harbor9,tr13,15724,94344).
route(prodloc17,harbor10,tr0,19,494).
route(prodloc17,harbor10,tr13,19,114).
route(prodloc17,harbor11,tr0,1014,26364).
route(prodloc17,harbor11,tr13,1014,6084).
route(prodloc17,harbor12,tr0,27353,711178).
route(prodloc17,harbor12,tr13,27353,164118).
route(prodloc17,harbor13,tr0,24432,635232).
route(prodloc17,harbor13,tr13,24432,146592).
route(prodloc17,harbor14,tr0,13885,361010).
route(prodloc17,harbor14,tr13,13885,83310).
route(prodloc17,harbor15,tr0,6012,156312).
route(prodloc17,harbor15,tr13,6012,36072).
route(prodloc17,harbor16,tr0,14626,380276).
route(prodloc17,harbor16,tr13,14626,87756).
route(prodloc17,prodloc0,tr0,7759,201734).
route(prodloc17,prodloc0,tr13,7759,46554).
route(prodloc17,prodloc1,tr0,13891,361166).
route(prodloc17,prodloc1,tr13,13891,83346).
route(prodloc17,prodloc2,tr0,18283,475358).
route(prodloc17,prodloc2,tr13,18283,109698).
route(prodloc17,prodloc3,tr0,11932,310232).
route(prodloc17,prodloc3,tr13,11932,71592).
route(prodloc17,prodloc4,tr0,15912,413712).
route(prodloc17,prodloc4,tr13,15912,95472).
route(prodloc17,prodloc5,tr0,12154,316004).
route(prodloc17,prodloc5,tr13,12154,72924).
route(prodloc17,prodloc6,tr0,6515,169390).
route(prodloc17,prodloc6,tr13,6515,39090).
route(prodloc17,prodloc7,tr0,6845,177970).
route(prodloc17,prodloc7,tr13,6845,41070).
route(prodloc17,prodloc8,tr0,17542,456092).
route(prodloc17,prodloc8,tr13,17542,105252).
route(prodloc17,prodloc9,tr0,877,22802).
route(prodloc17,prodloc9,tr13,877,5262).
route(prodloc17,prodloc10,tr0,3712,96512).
route(prodloc17,prodloc10,tr13,3712,22272).
route(prodloc17,prodloc11,tr0,4857,126282).
route(prodloc17,prodloc11,tr13,4857,29142).
route(prodloc17,prodloc12,tr0,16668,433368).
route(prodloc17,prodloc12,tr13,16668,100008).
route(prodloc17,prodloc13,tr0,19959,518934).
route(prodloc17,prodloc13,tr13,19959,119754).
route(prodloc17,prodloc14,tr0,20976,545376).
route(prodloc17,prodloc14,tr13,20976,125856).
route(prodloc17,prodloc15,tr0,27796,722696).
route(prodloc17,prodloc15,tr13,27796,166776).
route(prodloc17,prodloc16,tr0,15016,390416).
route(prodloc17,prodloc16,tr13,15016,90096).
route(prodloc17,prodloc18,tr0,22445,583570).
route(prodloc17,prodloc18,tr13,22445,134670).
route(prodloc17,prodloc19,tr0,6948,180648).
route(prodloc17,prodloc19,tr13,6948,41688).
route(prodloc17,prodloc20,tr0,4609,119834).
route(prodloc17,prodloc20,tr13,4609,27654).
route(prodloc17,prodloc21,tr0,16158,420108).
route(prodloc17,prodloc21,tr13,16158,96948).
route(prodloc17,prodloc22,tr0,21359,555334).
route(prodloc17,prodloc22,tr13,21359,128154).
route(prodloc17,prodloc23,tr0,12081,314106).
route(prodloc17,prodloc23,tr13,12081,72486).
route(prodloc17,prodloc24,tr0,28486,740636).
route(prodloc17,prodloc24,tr13,28486,170916).
route(prodloc17,prodloc25,tr0,9088,236288).
route(prodloc17,prodloc25,tr13,9088,54528).
route(prodloc17,prodloc26,tr0,7595,197470).
route(prodloc17,prodloc26,tr13,7595,45570).
route(prodloc17,prodloc27,tr0,19935,518310).
route(prodloc17,prodloc27,tr13,19935,119610).
route(prodloc17,prodloc28,tr0,23664,615264).
route(prodloc17,prodloc28,tr13,23664,141984).
route(prodloc17,prodloc29,tr0,15462,402012).
route(prodloc17,prodloc29,tr13,15462,92772).
route(prodloc17,prodloc30,tr0,5020,130520).
route(prodloc17,prodloc30,tr13,5020,30120).
route(prodloc17,prodloc31,tr0,7952,206752).
route(prodloc17,prodloc31,tr13,7952,47712).
route(prodloc17,prodloc32,tr0,27987,727662).
route(prodloc17,prodloc32,tr13,27987,167922).
route(prodloc17,prodloc33,tr0,2799,72774).
route(prodloc17,prodloc33,tr13,2799,16794).
route(prodloc18,harbor0,tr0,6479,168454).
route(prodloc18,harbor0,tr13,6479,38874).
route(prodloc18,harbor1,tr0,1457,37882).
route(prodloc18,harbor1,tr13,1457,8742).
route(prodloc18,harbor2,tr0,9506,247156).
route(prodloc18,harbor2,tr13,9506,57036).
route(prodloc18,harbor3,tr0,13308,346008).
route(prodloc18,harbor3,tr13,13308,79848).
route(prodloc18,harbor4,tr0,10223,265798).
route(prodloc18,harbor4,tr13,10223,61338).
route(prodloc18,harbor5,tr0,23672,615472).
route(prodloc18,harbor5,tr13,23672,142032).
route(prodloc18,harbor6,tr0,6716,174616).
route(prodloc18,harbor6,tr13,6716,40296).
route(prodloc18,harbor7,tr0,5960,154960).
route(prodloc18,harbor7,tr13,5960,35760).
route(prodloc18,harbor8,tr0,19760,513760).
route(prodloc18,harbor8,tr13,19760,118560).
route(prodloc18,harbor9,tr0,27842,723892).
route(prodloc18,harbor9,tr13,27842,167052).
route(prodloc18,harbor10,tr0,27290,709540).
route(prodloc18,harbor10,tr13,27290,163740).
route(prodloc18,harbor11,tr0,9938,258388).
route(prodloc18,harbor11,tr13,9938,59628).
route(prodloc18,harbor12,tr0,27307,709982).
route(prodloc18,harbor12,tr13,27307,163842).
route(prodloc18,harbor13,tr0,25813,671138).
route(prodloc18,harbor13,tr13,25813,154878).
route(prodloc18,harbor14,tr0,3157,82082).
route(prodloc18,harbor14,tr13,3157,18942).
route(prodloc18,harbor15,tr0,17793,462618).
route(prodloc18,harbor15,tr13,17793,106758).
route(prodloc18,harbor16,tr0,21493,558818).
route(prodloc18,harbor16,tr13,21493,128958).
route(prodloc18,prodloc0,tr0,26154,680004).
route(prodloc18,prodloc0,tr13,26154,156924).
route(prodloc18,prodloc1,tr0,16303,423878).
route(prodloc18,prodloc1,tr13,16303,97818).
route(prodloc18,prodloc2,tr0,20995,545870).
route(prodloc18,prodloc2,tr13,20995,125970).
route(prodloc18,prodloc3,tr0,8782,228332).
route(prodloc18,prodloc3,tr13,8782,52692).
route(prodloc18,prodloc4,tr0,19698,512148).
route(prodloc18,prodloc4,tr13,19698,118188).
route(prodloc18,prodloc5,tr0,7094,184444).
route(prodloc18,prodloc5,tr13,7094,42564).
route(prodloc18,prodloc6,tr0,16243,422318).
route(prodloc18,prodloc6,tr13,16243,97458).
route(prodloc18,prodloc7,tr0,7380,191880).
route(prodloc18,prodloc7,tr13,7380,44280).
route(prodloc18,prodloc8,tr0,27742,721292).
route(prodloc18,prodloc8,tr13,27742,166452).
route(prodloc18,prodloc9,tr0,1504,39104).
route(prodloc18,prodloc9,tr13,1504,9024).
route(prodloc18,prodloc10,tr0,16826,437476).
route(prodloc18,prodloc10,tr13,16826,100956).
route(prodloc18,prodloc11,tr0,7649,198874).
route(prodloc18,prodloc11,tr13,7649,45894).
route(prodloc18,prodloc12,tr0,2915,75790).
route(prodloc18,prodloc12,tr13,2915,17490).
route(prodloc18,prodloc13,tr0,20086,522236).
route(prodloc18,prodloc13,tr13,20086,120516).
route(prodloc18,prodloc14,tr0,25150,653900).
route(prodloc18,prodloc14,tr13,25150,150900).
route(prodloc18,prodloc15,tr0,28662,745212).
route(prodloc18,prodloc15,tr13,28662,171972).
route(prodloc18,prodloc16,tr0,1616,42016).
route(prodloc18,prodloc16,tr13,1616,9696).
route(prodloc18,prodloc17,tr0,13968,363168).
route(prodloc18,prodloc17,tr13,13968,83808).
route(prodloc18,prodloc19,tr0,26785,696410).
route(prodloc18,prodloc19,tr13,26785,160710).
route(prodloc18,prodloc20,tr0,13911,361686).
route(prodloc18,prodloc20,tr13,13911,83466).
route(prodloc18,prodloc21,tr0,9083,236158).
route(prodloc18,prodloc21,tr13,9083,54498).
route(prodloc18,prodloc22,tr0,20503,533078).
route(prodloc18,prodloc22,tr13,20503,123018).
route(prodloc18,prodloc23,tr0,24053,625378).
route(prodloc18,prodloc23,tr13,24053,144318).
route(prodloc18,prodloc24,tr0,8455,219830).
route(prodloc18,prodloc24,tr13,8455,50730).
route(prodloc18,prodloc25,tr0,17908,465608).
route(prodloc18,prodloc25,tr13,17908,107448).
route(prodloc18,prodloc26,tr0,7321,190346).
route(prodloc18,prodloc26,tr13,7321,43926).
route(prodloc18,prodloc27,tr0,23811,619086).
route(prodloc18,prodloc27,tr13,23811,142866).
route(prodloc18,prodloc28,tr0,16413,426738).
route(prodloc18,prodloc28,tr13,16413,98478).
route(prodloc18,prodloc29,tr0,6755,175630).
route(prodloc18,prodloc29,tr13,6755,40530).
route(prodloc18,prodloc30,tr0,3461,89986).
route(prodloc18,prodloc30,tr13,3461,20766).
route(prodloc18,prodloc31,tr0,20179,524654).
route(prodloc18,prodloc31,tr13,20179,121074).
route(prodloc18,prodloc32,tr0,15182,394732).
route(prodloc18,prodloc32,tr13,15182,91092).
route(prodloc18,prodloc33,tr0,26629,692354).
route(prodloc18,prodloc33,tr13,26629,159774).
route(prodloc19,harbor0,tr0,14561,378586).
route(prodloc19,harbor0,tr13,14561,87366).
route(prodloc19,harbor1,tr0,7687,199862).
route(prodloc19,harbor1,tr13,7687,46122).
route(prodloc19,harbor2,tr0,15436,401336).
route(prodloc19,harbor2,tr13,15436,92616).
route(prodloc19,harbor3,tr0,16869,438594).
route(prodloc19,harbor3,tr13,16869,101214).
route(prodloc19,harbor4,tr0,14798,384748).
route(prodloc19,harbor4,tr13,14798,88788).
route(prodloc19,harbor5,tr0,18290,475540).
route(prodloc19,harbor5,tr13,18290,109740).
route(prodloc19,harbor6,tr0,1476,38376).
route(prodloc19,harbor6,tr13,1476,8856).
route(prodloc19,harbor7,tr0,25485,662610).
route(prodloc19,harbor7,tr13,25485,152910).
route(prodloc19,harbor8,tr0,19859,516334).
route(prodloc19,harbor8,tr13,19859,119154).
route(prodloc19,harbor9,tr0,28811,749086).
route(prodloc19,harbor9,tr13,28811,172866).
route(prodloc19,harbor10,tr0,18279,475254).
route(prodloc19,harbor10,tr13,18279,109674).
route(prodloc19,harbor11,tr0,14174,368524).
route(prodloc19,harbor11,tr13,14174,85044).
route(prodloc19,harbor12,tr0,11600,301600).
route(prodloc19,harbor12,tr13,11600,69600).
route(prodloc19,harbor13,tr0,22193,577018).
route(prodloc19,harbor13,tr13,22193,133158).
route(prodloc19,harbor14,tr0,6299,163774).
route(prodloc19,harbor14,tr13,6299,37794).
route(prodloc19,harbor15,tr0,9322,242372).
route(prodloc19,harbor15,tr13,9322,55932).
route(prodloc19,harbor16,tr0,6655,173030).
route(prodloc19,harbor16,tr13,6655,39930).
route(prodloc19,prodloc0,tr0,15754,409604).
route(prodloc19,prodloc0,tr13,15754,94524).
route(prodloc19,prodloc1,tr0,5287,137462).
route(prodloc19,prodloc1,tr13,5287,31722).
route(prodloc19,prodloc2,tr0,9329,242554).
route(prodloc19,prodloc2,tr13,9329,55974).
route(prodloc19,prodloc3,tr0,9917,257842).
route(prodloc19,prodloc3,tr13,9917,59502).
route(prodloc19,prodloc4,tr0,10145,263770).
route(prodloc19,prodloc4,tr13,10145,60870).
route(prodloc19,prodloc5,tr0,18608,483808).
route(prodloc19,prodloc5,tr13,18608,111648).
route(prodloc19,prodloc6,tr0,21554,560404).
route(prodloc19,prodloc6,tr13,21554,129324).
route(prodloc19,prodloc7,tr0,18046,469196).
route(prodloc19,prodloc7,tr13,18046,108276).
route(prodloc19,prodloc8,tr0,16721,434746).
route(prodloc19,prodloc8,tr13,16721,100326).
route(prodloc19,prodloc9,tr0,5582,145132).
route(prodloc19,prodloc9,tr13,5582,33492).
route(prodloc19,prodloc10,tr0,15002,390052).
route(prodloc19,prodloc10,tr13,15002,90012).
route(prodloc19,prodloc11,tr0,19259,500734).
route(prodloc19,prodloc11,tr13,19259,115554).
route(prodloc19,prodloc12,tr0,20406,530556).
route(prodloc19,prodloc12,tr15,20406,652992).
route(prodloc19,prodloc13,tr0,8141,211666).
route(prodloc19,prodloc13,tr13,8141,48846).
route(prodloc19,prodloc14,tr0,8302,215852).
route(prodloc19,prodloc14,tr13,8302,49812).
route(prodloc19,prodloc15,tr0,23623,614198).
route(prodloc19,prodloc15,tr13,23623,141738).
route(prodloc19,prodloc16,tr0,1521,39546).
route(prodloc19,prodloc16,tr13,1521,9126).
route(prodloc19,prodloc17,tr0,10942,284492).
route(prodloc19,prodloc17,tr13,10942,65652).
route(prodloc19,prodloc18,tr0,14518,377468).
route(prodloc19,prodloc18,tr13,14518,87108).
route(prodloc19,prodloc20,tr0,23368,607568).
route(prodloc19,prodloc20,tr13,23368,140208).
route(prodloc19,prodloc21,tr0,11132,289432).
route(prodloc19,prodloc21,tr13,11132,66792).
route(prodloc19,prodloc22,tr0,12173,316498).
route(prodloc19,prodloc22,tr13,12173,73038).
route(prodloc19,prodloc23,tr0,4446,115596).
route(prodloc19,prodloc23,tr13,4446,26676).
route(prodloc19,prodloc24,tr0,27797,722722).
route(prodloc19,prodloc24,tr13,27797,166782).
route(prodloc19,prodloc25,tr0,7618,198068).
route(prodloc19,prodloc25,tr13,7618,45708).
route(prodloc19,prodloc26,tr0,9227,239902).
route(prodloc19,prodloc26,tr13,9227,55362).
route(prodloc19,prodloc27,tr0,16109,418834).
route(prodloc19,prodloc27,tr13,16109,96654).
route(prodloc19,prodloc28,tr0,27785,722410).
route(prodloc19,prodloc28,tr13,27785,166710).
route(prodloc19,prodloc29,tr0,18082,470132).
route(prodloc19,prodloc29,tr13,18082,108492).
route(prodloc19,prodloc30,tr0,3906,101556).
route(prodloc19,prodloc30,tr13,3906,23436).
route(prodloc19,prodloc31,tr0,2908,75608).
route(prodloc19,prodloc31,tr13,2908,17448).
route(prodloc19,prodloc32,tr0,26700,694200).
route(prodloc19,prodloc32,tr13,26700,160200).
route(prodloc19,prodloc33,tr0,2347,61022).
route(prodloc19,prodloc33,tr13,2347,14082).
route(prodloc20,harbor0,tr0,21912,569712).
route(prodloc20,harbor0,tr13,21912,131472).
route(prodloc20,harbor1,tr0,2143,55718).
route(prodloc20,harbor1,tr13,2143,12858).
route(prodloc20,harbor2,tr0,23118,601068).
route(prodloc20,harbor2,tr13,23118,138708).
route(prodloc20,harbor3,tr0,12740,331240).
route(prodloc20,harbor3,tr13,12740,76440).
route(prodloc20,harbor4,tr0,11730,304980).
route(prodloc20,harbor4,tr13,11730,70380).
route(prodloc20,harbor5,tr0,22956,596856).
route(prodloc20,harbor5,tr13,22956,137736).
route(prodloc20,harbor6,tr0,15767,409942).
route(prodloc20,harbor6,tr13,15767,94602).
route(prodloc20,harbor7,tr0,2774,72124).
route(prodloc20,harbor7,tr13,2774,16644).
route(prodloc20,harbor8,tr0,24388,634088).
route(prodloc20,harbor8,tr13,24388,146328).
route(prodloc20,harbor9,tr0,25051,651326).
route(prodloc20,harbor9,tr13,25051,150306).
route(prodloc20,harbor10,tr0,5196,135096).
route(prodloc20,harbor10,tr13,5196,31176).
route(prodloc20,harbor11,tr0,25523,663598).
route(prodloc20,harbor11,tr13,25523,153138).
route(prodloc20,harbor12,tr0,21094,548444).
route(prodloc20,harbor12,tr13,21094,126564).
route(prodloc20,harbor13,tr0,9237,240162).
route(prodloc20,harbor13,tr13,9237,55422).
route(prodloc20,harbor14,tr0,22503,585078).
route(prodloc20,harbor14,tr13,22503,135018).
route(prodloc20,harbor15,tr0,1682,43732).
route(prodloc20,harbor15,tr13,1682,10092).
route(prodloc20,harbor16,tr0,21967,571142).
route(prodloc20,harbor16,tr13,21967,131802).
route(prodloc20,prodloc0,tr0,7851,204126).
route(prodloc20,prodloc0,tr13,7851,47106).
route(prodloc20,prodloc1,tr0,21409,556634).
route(prodloc20,prodloc1,tr13,21409,128454).
route(prodloc20,prodloc2,tr0,360,9360).
route(prodloc20,prodloc2,tr13,360,2160).
route(prodloc20,prodloc3,tr0,13709,356434).
route(prodloc20,prodloc3,tr13,13709,82254).
route(prodloc20,prodloc4,tr0,22365,581490).
route(prodloc20,prodloc4,tr13,22365,134190).
route(prodloc20,prodloc5,tr0,23875,620750).
route(prodloc20,prodloc5,tr13,23875,143250).
route(prodloc20,prodloc6,tr0,1759,45734).
route(prodloc20,prodloc6,tr13,1759,10554).
route(prodloc20,prodloc7,tr0,26756,695656).
route(prodloc20,prodloc7,tr13,26756,160536).
route(prodloc20,prodloc8,tr0,18530,481780).
route(prodloc20,prodloc8,tr13,18530,111180).
route(prodloc20,prodloc9,tr0,247,6422).
route(prodloc20,prodloc9,tr13,247,1482).
route(prodloc20,prodloc10,tr0,23116,601016).
route(prodloc20,prodloc10,tr13,23116,138696).
route(prodloc20,prodloc11,tr0,26331,684606).
route(prodloc20,prodloc11,tr13,26331,157986).
route(prodloc20,prodloc12,tr0,14477,376402).
route(prodloc20,prodloc12,tr13,14477,86862).
route(prodloc20,prodloc13,tr0,9537,247962).
route(prodloc20,prodloc13,tr13,9537,57222).
route(prodloc20,prodloc14,tr0,17616,458016).
route(prodloc20,prodloc14,tr13,17616,105696).
route(prodloc20,prodloc15,tr0,16447,427622).
route(prodloc20,prodloc15,tr13,16447,98682).
route(prodloc20,prodloc16,tr0,24649,640874).
route(prodloc20,prodloc16,tr13,24649,147894).
route(prodloc20,prodloc17,tr13,28177,169062).
route(prodloc20,prodloc17,tr15,28177,901664).
route(prodloc20,prodloc18,tr0,25818,671268).
route(prodloc20,prodloc18,tr13,25818,154908).
route(prodloc20,prodloc19,tr0,10371,269646).
route(prodloc20,prodloc19,tr13,10371,62226).
route(prodloc20,prodloc21,tr0,1464,38064).
route(prodloc20,prodloc21,tr13,1464,8784).
route(prodloc20,prodloc22,tr0,17256,448656).
route(prodloc20,prodloc22,tr13,17256,103536).
route(prodloc20,prodloc23,tr0,9203,239278).
route(prodloc20,prodloc23,tr13,9203,55218).
route(prodloc20,prodloc24,tr0,23516,611416).
route(prodloc20,prodloc24,tr13,23516,141096).
route(prodloc20,prodloc25,tr0,12864,334464).
route(prodloc20,prodloc25,tr13,12864,77184).
route(prodloc20,prodloc26,tr0,465,12090).
route(prodloc20,prodloc26,tr13,465,2790).
route(prodloc20,prodloc27,tr0,18415,478790).
route(prodloc20,prodloc27,tr13,18415,110490).
route(prodloc20,prodloc28,tr0,21279,553254).
route(prodloc20,prodloc28,tr13,21279,127674).
route(prodloc20,prodloc29,tr0,6028,156728).
route(prodloc20,prodloc29,tr13,6028,36168).
route(prodloc20,prodloc30,tr0,20100,522600).
route(prodloc20,prodloc30,tr13,20100,120600).
route(prodloc20,prodloc31,tr0,7430,193180).
route(prodloc20,prodloc31,tr13,7430,44580).
route(prodloc20,prodloc32,tr0,9050,235300).
route(prodloc20,prodloc32,tr13,9050,54300).
route(prodloc20,prodloc33,tr0,701,18226).
route(prodloc20,prodloc33,tr13,701,4206).
route(prodloc21,harbor0,tr0,19456,505856).
route(prodloc21,harbor0,tr13,19456,116736).
route(prodloc21,harbor1,tr0,253,6578).
route(prodloc21,harbor1,tr13,253,1518).
route(prodloc21,harbor2,tr0,15184,394784).
route(prodloc21,harbor2,tr13,15184,91104).
route(prodloc21,harbor3,tr0,28191,732966).
route(prodloc21,harbor3,tr13,28191,169146).
route(prodloc21,harbor4,tr0,6314,164164).
route(prodloc21,harbor4,tr13,6314,37884).
route(prodloc21,harbor5,tr0,6084,158184).
route(prodloc21,harbor5,tr13,6084,36504).
route(prodloc21,harbor6,tr0,14929,388154).
route(prodloc21,harbor6,tr13,14929,89574).
route(prodloc21,harbor7,tr0,4264,110864).
route(prodloc21,harbor7,tr13,4264,25584).
route(prodloc21,harbor8,tr0,22158,576108).
route(prodloc21,harbor8,tr13,22158,132948).
route(prodloc21,harbor9,tr0,8563,222638).
route(prodloc21,harbor9,tr13,8563,51378).
route(prodloc21,harbor10,tr0,5608,145808).
route(prodloc21,harbor10,tr13,5608,33648).
route(prodloc21,harbor11,tr0,28706,746356).
route(prodloc21,harbor11,tr13,28706,172236).
route(prodloc21,harbor12,tr0,21398,556348).
route(prodloc21,harbor12,tr13,21398,128388).
route(prodloc21,harbor13,tr0,21501,559026).
route(prodloc21,harbor13,tr13,21501,129006).
route(prodloc21,harbor14,tr0,20334,528684).
route(prodloc21,harbor14,tr13,20334,122004).
route(prodloc21,harbor15,tr0,20800,540800).
route(prodloc21,harbor15,tr13,20800,124800).
route(prodloc21,harbor16,tr0,289,7514).
route(prodloc21,harbor16,tr13,289,1734).
route(prodloc21,prodloc0,tr0,15746,409396).
route(prodloc21,prodloc0,tr13,15746,94476).
route(prodloc21,prodloc1,tr0,16371,425646).
route(prodloc21,prodloc1,tr13,16371,98226).
route(prodloc21,prodloc2,tr0,4909,127634).
route(prodloc21,prodloc2,tr13,4909,29454).
route(prodloc21,prodloc3,tr0,827,21502).
route(prodloc21,prodloc3,tr13,827,4962).
route(prodloc21,prodloc4,tr0,7187,186862).
route(prodloc21,prodloc4,tr13,7187,43122).
route(prodloc21,prodloc5,tr0,18485,480610).
route(prodloc21,prodloc5,tr13,18485,110910).
route(prodloc21,prodloc6,tr0,28623,744198).
route(prodloc21,prodloc6,tr13,28623,171738).
route(prodloc21,prodloc7,tr0,7627,198302).
route(prodloc21,prodloc7,tr13,7627,45762).
route(prodloc21,prodloc8,tr0,19365,503490).
route(prodloc21,prodloc8,tr13,19365,116190).
route(prodloc21,prodloc9,tr0,3855,100230).
route(prodloc21,prodloc9,tr13,3855,23130).
route(prodloc21,prodloc10,tr0,13758,357708).
route(prodloc21,prodloc10,tr13,13758,82548).
route(prodloc21,prodloc11,tr0,5232,136032).
route(prodloc21,prodloc11,tr13,5232,31392).
route(prodloc21,prodloc12,tr0,21203,551278).
route(prodloc21,prodloc12,tr13,21203,127218).
route(prodloc21,prodloc13,tr0,3749,97474).
route(prodloc21,prodloc13,tr13,3749,22494).
route(prodloc21,prodloc14,tr0,1423,36998).
route(prodloc21,prodloc14,tr13,1423,8538).
route(prodloc21,prodloc15,tr0,18842,489892).
route(prodloc21,prodloc15,tr13,18842,113052).
route(prodloc21,prodloc16,tr0,25640,666640).
route(prodloc21,prodloc16,tr13,25640,153840).
route(prodloc21,prodloc17,tr0,6303,163878).
route(prodloc21,prodloc17,tr13,6303,37818).
route(prodloc21,prodloc18,tr0,12848,334048).
route(prodloc21,prodloc18,tr13,12848,77088).
route(prodloc21,prodloc19,tr0,5034,130884).
route(prodloc21,prodloc19,tr13,5034,30204).
route(prodloc21,prodloc20,tr0,18445,479570).
route(prodloc21,prodloc20,tr13,18445,110670).
route(prodloc21,prodloc22,tr0,26321,684346).
route(prodloc21,prodloc22,tr13,26321,157926).
route(prodloc21,prodloc23,tr0,18167,472342).
route(prodloc21,prodloc23,tr13,18167,109002).
route(prodloc21,prodloc24,tr0,6100,158600).
route(prodloc21,prodloc24,tr13,6100,36600).
route(prodloc21,prodloc25,tr0,16057,417482).
route(prodloc21,prodloc25,tr13,16057,96342).
route(prodloc21,prodloc26,tr0,28353,737178).
route(prodloc21,prodloc26,tr13,28353,170118).
route(prodloc21,prodloc27,tr0,3440,89440).
route(prodloc21,prodloc27,tr13,3440,20640).
route(prodloc21,prodloc28,tr0,19810,515060).
route(prodloc21,prodloc28,tr13,19810,118860).
route(prodloc21,prodloc29,tr0,1914,49764).
route(prodloc21,prodloc29,tr13,1914,11484).
route(prodloc21,prodloc30,tr0,9208,239408).
route(prodloc21,prodloc30,tr13,9208,55248).
route(prodloc21,prodloc31,tr0,25992,675792).
route(prodloc21,prodloc31,tr13,25992,155952).
route(prodloc21,prodloc32,tr0,20362,529412).
route(prodloc21,prodloc32,tr13,20362,122172).
route(prodloc21,prodloc33,tr0,28682,745732).
route(prodloc21,prodloc33,tr13,28682,172092).
route(prodloc22,harbor0,tr0,2825,73450).
route(prodloc22,harbor0,tr13,2825,16950).
route(prodloc22,harbor1,tr0,16438,427388).
route(prodloc22,harbor1,tr13,16438,98628).
route(prodloc22,harbor2,tr0,19514,507364).
route(prodloc22,harbor2,tr13,19514,117084).
route(prodloc22,harbor3,tr0,6627,172302).
route(prodloc22,harbor3,tr13,6627,39762).
route(prodloc22,harbor4,tr0,16905,439530).
route(prodloc22,harbor4,tr13,16905,101430).
route(prodloc22,harbor5,tr0,9746,253396).
route(prodloc22,harbor5,tr13,9746,58476).
route(prodloc22,harbor6,tr0,7595,197470).
route(prodloc22,harbor6,tr13,7595,45570).
route(prodloc22,harbor7,tr0,22539,586014).
route(prodloc22,harbor7,tr13,22539,135234).
route(prodloc22,harbor8,tr0,8618,224068).
route(prodloc22,harbor8,tr13,8618,51708).
route(prodloc22,harbor9,tr0,4825,125450).
route(prodloc22,harbor9,tr13,4825,28950).
route(prodloc22,harbor10,tr0,17660,459160).
route(prodloc22,harbor10,tr13,17660,105960).
route(prodloc22,harbor11,tr0,24400,634400).
route(prodloc22,harbor11,tr13,24400,146400).
route(prodloc22,harbor12,tr0,28831,749606).
route(prodloc22,harbor12,tr13,28831,172986).
route(prodloc22,harbor13,tr0,12229,317954).
route(prodloc22,harbor13,tr13,12229,73374).
route(prodloc22,harbor14,tr0,3588,93288).
route(prodloc22,harbor14,tr13,3588,21528).
route(prodloc22,harbor15,tr0,9838,255788).
route(prodloc22,harbor15,tr13,9838,59028).
route(prodloc22,harbor16,tr0,24460,635960).
route(prodloc22,harbor16,tr13,24460,146760).
route(prodloc22,prodloc0,tr0,16355,425230).
route(prodloc22,prodloc0,tr13,16355,98130).
route(prodloc22,prodloc1,tr0,7585,197210).
route(prodloc22,prodloc1,tr13,7585,45510).
route(prodloc22,prodloc2,tr0,6318,164268).
route(prodloc22,prodloc2,tr13,6318,37908).
route(prodloc22,prodloc3,tr0,25097,652522).
route(prodloc22,prodloc3,tr13,25097,150582).
route(prodloc22,prodloc4,tr0,25438,661388).
route(prodloc22,prodloc4,tr13,25438,152628).
route(prodloc22,prodloc5,tr0,4042,105092).
route(prodloc22,prodloc5,tr15,4042,129344).
route(prodloc22,prodloc6,tr0,19757,513682).
route(prodloc22,prodloc6,tr13,19757,118542).
route(prodloc22,prodloc7,tr0,23344,606944).
route(prodloc22,prodloc7,tr13,23344,140064).
route(prodloc22,prodloc8,tr0,10065,261690).
route(prodloc22,prodloc8,tr13,10065,60390).
route(prodloc22,prodloc9,tr0,11231,292006).
route(prodloc22,prodloc9,tr13,11231,67386).
route(prodloc22,prodloc10,tr0,22411,582686).
route(prodloc22,prodloc10,tr13,22411,134466).
route(prodloc22,prodloc11,tr0,25312,658112).
route(prodloc22,prodloc11,tr13,25312,151872).
route(prodloc22,prodloc12,tr0,98,2548).
route(prodloc22,prodloc12,tr13,98,588).
route(prodloc22,prodloc13,tr0,12923,335998).
route(prodloc22,prodloc13,tr13,12923,77538).
route(prodloc22,prodloc14,tr0,16141,419666).
route(prodloc22,prodloc14,tr13,16141,96846).
route(prodloc22,prodloc15,tr0,5989,155714).
route(prodloc22,prodloc15,tr13,5989,35934).
route(prodloc22,prodloc16,tr0,12488,324688).
route(prodloc22,prodloc16,tr13,12488,74928).
route(prodloc22,prodloc17,tr0,14111,366886).
route(prodloc22,prodloc17,tr13,14111,84666).
route(prodloc22,prodloc18,tr0,8172,212472).
route(prodloc22,prodloc18,tr13,8172,49032).
route(prodloc22,prodloc19,tr0,14332,372632).
route(prodloc22,prodloc19,tr13,14332,85992).
route(prodloc22,prodloc20,tr0,27029,702754).
route(prodloc22,prodloc20,tr13,27029,162174).
route(prodloc22,prodloc21,tr0,613,15938).
route(prodloc22,prodloc21,tr13,613,3678).
route(prodloc22,prodloc23,tr0,17503,455078).
route(prodloc22,prodloc23,tr13,17503,105018).
route(prodloc22,prodloc24,tr0,27378,711828).
route(prodloc22,prodloc24,tr13,27378,164268).
route(prodloc22,prodloc25,tr0,22545,586170).
route(prodloc22,prodloc25,tr13,22545,135270).
route(prodloc22,prodloc26,tr0,13908,361608).
route(prodloc22,prodloc26,tr13,13908,83448).
route(prodloc22,prodloc27,tr0,21205,551330).
route(prodloc22,prodloc27,tr13,21205,127230).
route(prodloc22,prodloc28,tr0,666,17316).
route(prodloc22,prodloc28,tr13,666,3996).
route(prodloc22,prodloc29,tr0,14893,387218).
route(prodloc22,prodloc29,tr13,14893,89358).
route(prodloc22,prodloc30,tr0,27525,715650).
route(prodloc22,prodloc30,tr13,27525,165150).
route(prodloc22,prodloc31,tr0,2002,52052).
route(prodloc22,prodloc31,tr13,2002,12012).
route(prodloc22,prodloc32,tr0,12101,314626).
route(prodloc22,prodloc32,tr13,12101,72606).
route(prodloc22,prodloc33,tr0,1481,38506).
route(prodloc22,prodloc33,tr13,1481,8886).
route(prodloc23,harbor0,tr0,4369,113594).
route(prodloc23,harbor0,tr13,4369,26214).
route(prodloc23,harbor1,tr0,21578,561028).
route(prodloc23,harbor1,tr13,21578,129468).
route(prodloc23,harbor2,tr0,16925,440050).
route(prodloc23,harbor2,tr13,16925,101550).
route(prodloc23,harbor3,tr0,15594,405444).
route(prodloc23,harbor3,tr13,15594,93564).
route(prodloc23,harbor4,tr0,19039,495014).
route(prodloc23,harbor4,tr13,19039,114234).
route(prodloc23,harbor5,tr0,14715,382590).
route(prodloc23,harbor5,tr13,14715,88290).
route(prodloc23,harbor6,tr0,15825,411450).
route(prodloc23,harbor6,tr13,15825,94950).
route(prodloc23,harbor7,tr0,11032,286832).
route(prodloc23,harbor7,tr13,11032,66192).
route(prodloc23,harbor8,tr0,14768,383968).
route(prodloc23,harbor8,tr13,14768,88608).
route(prodloc23,harbor9,tr0,5562,144612).
route(prodloc23,harbor9,tr13,5562,33372).
route(prodloc23,harbor10,tr0,23357,607282).
route(prodloc23,harbor10,tr13,23357,140142).
route(prodloc23,harbor11,tr0,26026,676676).
route(prodloc23,harbor11,tr13,26026,156156).
route(prodloc23,harbor12,tr0,3475,90350).
route(prodloc23,harbor12,tr13,3475,20850).
route(prodloc23,harbor13,tr0,19502,507052).
route(prodloc23,harbor13,tr13,19502,117012).
route(prodloc23,harbor14,tr0,2415,62790).
route(prodloc23,harbor14,tr13,2415,14490).
route(prodloc23,harbor15,tr0,15348,399048).
route(prodloc23,harbor15,tr13,15348,92088).
route(prodloc23,harbor16,tr0,15015,390390).
route(prodloc23,harbor16,tr13,15015,90090).
route(prodloc23,prodloc0,tr0,22671,589446).
route(prodloc23,prodloc0,tr13,22671,136026).
route(prodloc23,prodloc1,tr0,10776,280176).
route(prodloc23,prodloc1,tr13,10776,64656).
route(prodloc23,prodloc2,tr0,11702,304252).
route(prodloc23,prodloc2,tr13,11702,70212).
route(prodloc23,prodloc3,tr0,7698,200148).
route(prodloc23,prodloc3,tr13,7698,46188).
route(prodloc23,prodloc4,tr0,13879,360854).
route(prodloc23,prodloc4,tr13,13879,83274).
route(prodloc23,prodloc5,tr0,28257,734682).
route(prodloc23,prodloc5,tr13,28257,169542).
route(prodloc23,prodloc6,tr0,16485,428610).
route(prodloc23,prodloc6,tr13,16485,98910).
route(prodloc23,prodloc7,tr0,18543,482118).
route(prodloc23,prodloc7,tr13,18543,111258).
route(prodloc23,prodloc8,tr0,15661,407186).
route(prodloc23,prodloc8,tr13,15661,93966).
route(prodloc23,prodloc9,tr0,28881,750906).
route(prodloc23,prodloc9,tr13,28881,173286).
route(prodloc23,prodloc10,tr0,18019,468494).
route(prodloc23,prodloc10,tr13,18019,108114).
route(prodloc23,prodloc11,tr0,13769,357994).
route(prodloc23,prodloc11,tr13,13769,82614).
route(prodloc23,prodloc12,tr0,6225,161850).
route(prodloc23,prodloc12,tr13,6225,37350).
route(prodloc23,prodloc13,tr0,27024,702624).
route(prodloc23,prodloc13,tr13,27024,162144).
route(prodloc23,prodloc14,tr0,8294,215644).
route(prodloc23,prodloc14,tr13,8294,49764).
route(prodloc23,prodloc15,tr0,4768,123968).
route(prodloc23,prodloc15,tr13,4768,28608).
route(prodloc23,prodloc16,tr0,23244,604344).
route(prodloc23,prodloc16,tr13,23244,139464).
route(prodloc23,prodloc17,tr0,11086,288236).
route(prodloc23,prodloc17,tr13,11086,66516).
route(prodloc23,prodloc18,tr0,23323,606398).
route(prodloc23,prodloc18,tr13,23323,139938).
route(prodloc23,prodloc19,tr0,21418,556868).
route(prodloc23,prodloc19,tr13,21418,128508).
route(prodloc23,prodloc20,tr0,24912,647712).
route(prodloc23,prodloc20,tr13,24912,149472).
route(prodloc23,prodloc21,tr0,25938,674388).
route(prodloc23,prodloc21,tr13,25938,155628).
route(prodloc23,prodloc22,tr0,21412,556712).
route(prodloc23,prodloc22,tr13,21412,128472).
route(prodloc23,prodloc24,tr0,21773,566098).
route(prodloc23,prodloc24,tr13,21773,130638).
route(prodloc23,prodloc25,tr0,12569,326794).
route(prodloc23,prodloc25,tr13,12569,75414).
route(prodloc23,prodloc26,tr0,23024,598624).
route(prodloc23,prodloc26,tr13,23024,138144).
route(prodloc23,prodloc27,tr0,21070,547820).
route(prodloc23,prodloc27,tr13,21070,126420).
route(prodloc23,prodloc28,tr0,27660,719160).
route(prodloc23,prodloc28,tr13,27660,165960).
route(prodloc23,prodloc29,tr0,26160,680160).
route(prodloc23,prodloc29,tr13,26160,156960).
route(prodloc23,prodloc30,tr0,20462,532012).
route(prodloc23,prodloc30,tr13,20462,122772).
route(prodloc23,prodloc31,tr0,15376,399776).
route(prodloc23,prodloc31,tr13,15376,92256).
route(prodloc23,prodloc32,tr0,3800,98800).
route(prodloc23,prodloc32,tr13,3800,22800).
route(prodloc23,prodloc33,tr0,7058,183508).
route(prodloc23,prodloc33,tr13,7058,42348).
route(prodloc24,harbor0,tr0,1989,51714).
route(prodloc24,harbor0,tr13,1989,11934).
route(prodloc24,harbor1,tr0,28065,729690).
route(prodloc24,harbor1,tr13,28065,168390).
route(prodloc24,harbor2,tr0,4382,113932).
route(prodloc24,harbor2,tr13,4382,26292).
route(prodloc24,harbor3,tr0,15527,403702).
route(prodloc24,harbor3,tr13,15527,93162).
route(prodloc24,harbor4,tr0,24902,647452).
route(prodloc24,harbor4,tr13,24902,149412).
route(prodloc24,harbor5,tr0,7139,185614).
route(prodloc24,harbor5,tr13,7139,42834).
route(prodloc24,harbor6,tr0,5065,131690).
route(prodloc24,harbor6,tr13,5065,30390).
route(prodloc24,harbor7,tr0,12452,323752).
route(prodloc24,harbor7,tr13,12452,74712).
route(prodloc24,harbor8,tr0,375,9750).
route(prodloc24,harbor8,tr13,375,2250).
route(prodloc24,harbor9,tr0,21876,568776).
route(prodloc24,harbor9,tr13,21876,131256).
route(prodloc24,harbor10,tr0,9912,257712).
route(prodloc24,harbor10,tr13,9912,59472).
route(prodloc24,harbor11,tr0,8716,226616).
route(prodloc24,harbor11,tr13,8716,52296).
route(prodloc24,harbor12,tr0,20866,542516).
route(prodloc24,harbor12,tr13,20866,125196).
route(prodloc24,harbor13,tr0,26924,700024).
route(prodloc24,harbor13,tr13,26924,161544).
route(prodloc24,harbor14,tr0,25308,658008).
route(prodloc24,harbor14,tr13,25308,151848).
route(prodloc24,harbor15,tr0,10823,281398).
route(prodloc24,harbor15,tr13,10823,64938).
route(prodloc24,harbor16,tr0,57,1482).
route(prodloc24,harbor16,tr13,57,342).
route(prodloc24,prodloc0,tr0,18457,479882).
route(prodloc24,prodloc0,tr13,18457,110742).
route(prodloc24,prodloc1,tr0,12388,322088).
route(prodloc24,prodloc1,tr13,12388,74328).
route(prodloc24,prodloc2,tr0,25128,653328).
route(prodloc24,prodloc2,tr13,25128,150768).
route(prodloc24,prodloc3,tr0,20095,522470).
route(prodloc24,prodloc3,tr13,20095,120570).
route(prodloc24,prodloc4,tr0,4771,124046).
route(prodloc24,prodloc4,tr13,4771,28626).
route(prodloc24,prodloc5,tr0,9948,258648).
route(prodloc24,prodloc5,tr13,9948,59688).
route(prodloc24,prodloc6,tr0,11470,298220).
route(prodloc24,prodloc6,tr13,11470,68820).
route(prodloc24,prodloc7,tr0,11472,298272).
route(prodloc24,prodloc7,tr13,11472,68832).
route(prodloc24,prodloc8,tr0,27178,706628).
route(prodloc24,prodloc8,tr15,27178,869696).
route(prodloc24,prodloc9,tr0,23215,603590).
route(prodloc24,prodloc9,tr13,23215,139290).
route(prodloc24,prodloc10,tr0,2317,60242).
route(prodloc24,prodloc10,tr13,2317,13902).
route(prodloc24,prodloc11,tr0,18935,492310).
route(prodloc24,prodloc11,tr13,18935,113610).
route(prodloc24,prodloc12,tr0,9883,256958).
route(prodloc24,prodloc12,tr13,9883,59298).
route(prodloc24,prodloc13,tr0,6753,175578).
route(prodloc24,prodloc13,tr13,6753,40518).
route(prodloc24,prodloc14,tr0,15877,412802).
route(prodloc24,prodloc14,tr13,15877,95262).
route(prodloc24,prodloc15,tr0,2680,69680).
route(prodloc24,prodloc15,tr13,2680,16080).
route(prodloc24,prodloc16,tr0,4710,122460).
route(prodloc24,prodloc16,tr13,4710,28260).
route(prodloc24,prodloc17,tr0,23161,602186).
route(prodloc24,prodloc17,tr13,23161,138966).
route(prodloc24,prodloc18,tr0,7044,183144).
route(prodloc24,prodloc18,tr13,7044,42264).
route(prodloc24,prodloc19,tr0,23859,620334).
route(prodloc24,prodloc19,tr13,23859,143154).
route(prodloc24,prodloc20,tr0,26758,695708).
route(prodloc24,prodloc20,tr13,26758,160548).
route(prodloc24,prodloc21,tr0,13513,351338).
route(prodloc24,prodloc21,tr13,13513,81078).
route(prodloc24,prodloc22,tr0,24283,631358).
route(prodloc24,prodloc22,tr13,24283,145698).
route(prodloc24,prodloc23,tr0,6825,177450).
route(prodloc24,prodloc23,tr13,6825,40950).
route(prodloc24,prodloc25,tr0,6160,160160).
route(prodloc24,prodloc25,tr13,6160,36960).
route(prodloc24,prodloc26,tr0,22211,577486).
route(prodloc24,prodloc26,tr13,22211,133266).
route(prodloc24,prodloc27,tr0,1778,46228).
route(prodloc24,prodloc27,tr13,1778,10668).
route(prodloc24,prodloc28,tr0,22082,574132).
route(prodloc24,prodloc28,tr13,22082,132492).
route(prodloc24,prodloc29,tr0,23311,606086).
route(prodloc24,prodloc29,tr13,23311,139866).
route(prodloc24,prodloc30,tr0,810,21060).
route(prodloc24,prodloc30,tr13,810,4860).
route(prodloc24,prodloc31,tr0,557,14482).
route(prodloc24,prodloc31,tr15,557,17824).
route(prodloc24,prodloc32,tr0,14840,385840).
route(prodloc24,prodloc32,tr13,14840,89040).
route(prodloc24,prodloc33,tr0,28081,730106).
route(prodloc24,prodloc33,tr13,28081,168486).
route(prodloc25,harbor0,tr0,17905,465530).
route(prodloc25,harbor0,tr13,17905,107430).
route(prodloc25,harbor1,tr0,6276,163176).
route(prodloc25,harbor1,tr13,6276,37656).
route(prodloc25,harbor2,tr0,10017,260442).
route(prodloc25,harbor2,tr13,10017,60102).
route(prodloc25,harbor3,tr0,15230,395980).
route(prodloc25,harbor3,tr13,15230,91380).
route(prodloc25,harbor4,tr0,8429,219154).
route(prodloc25,harbor4,tr13,8429,50574).
route(prodloc25,harbor5,tr0,124,3224).
route(prodloc25,harbor5,tr13,124,744).
route(prodloc25,harbor6,tr0,11497,298922).
route(prodloc25,harbor6,tr13,11497,68982).
route(prodloc25,harbor7,tr0,2239,58214).
route(prodloc25,harbor7,tr13,2239,13434).
route(prodloc25,harbor8,tr0,5488,142688).
route(prodloc25,harbor8,tr13,5488,32928).
route(prodloc25,harbor9,tr0,2069,53794).
route(prodloc25,harbor9,tr13,2069,12414).
route(prodloc25,harbor10,tr0,17612,457912).
route(prodloc25,harbor10,tr13,17612,105672).
route(prodloc25,harbor11,tr0,14746,383396).
route(prodloc25,harbor11,tr13,14746,88476).
route(prodloc25,harbor12,tr0,15289,397514).
route(prodloc25,harbor12,tr13,15289,91734).
route(prodloc25,harbor13,tr0,1940,50440).
route(prodloc25,harbor13,tr13,1940,11640).
route(prodloc25,harbor14,tr0,7169,186394).
route(prodloc25,harbor14,tr13,7169,43014).
route(prodloc25,harbor15,tr0,5171,134446).
route(prodloc25,harbor15,tr13,5171,31026).
route(prodloc25,harbor16,tr0,20147,523822).
route(prodloc25,harbor16,tr13,20147,120882).
route(prodloc25,prodloc0,tr0,12701,330226).
route(prodloc25,prodloc0,tr13,12701,76206).
route(prodloc25,prodloc1,tr0,580,15080).
route(prodloc25,prodloc1,tr13,580,3480).
route(prodloc25,prodloc2,tr0,16763,435838).
route(prodloc25,prodloc2,tr13,16763,100578).
route(prodloc25,prodloc3,tr0,27507,715182).
route(prodloc25,prodloc3,tr13,27507,165042).
route(prodloc25,prodloc4,tr0,13055,339430).
route(prodloc25,prodloc4,tr13,13055,78330).
route(prodloc25,prodloc5,tr0,7436,193336).
route(prodloc25,prodloc5,tr13,7436,44616).
route(prodloc25,prodloc6,tr0,28732,747032).
route(prodloc25,prodloc6,tr13,28732,172392).
route(prodloc25,prodloc7,tr0,6845,177970).
route(prodloc25,prodloc7,tr13,6845,41070).
route(prodloc25,prodloc8,tr0,2985,77610).
route(prodloc25,prodloc8,tr13,2985,17910).
route(prodloc25,prodloc9,tr0,18531,481806).
route(prodloc25,prodloc9,tr13,18531,111186).
route(prodloc25,prodloc10,tr0,26019,676494).
route(prodloc25,prodloc10,tr13,26019,156114).
route(prodloc25,prodloc11,tr0,14173,368498).
route(prodloc25,prodloc11,tr13,14173,85038).
route(prodloc25,prodloc12,tr0,5458,141908).
route(prodloc25,prodloc12,tr13,5458,32748).
route(prodloc25,prodloc13,tr0,3241,84266).
route(prodloc25,prodloc13,tr13,3241,19446).
route(prodloc25,prodloc14,tr0,10172,264472).
route(prodloc25,prodloc14,tr13,10172,61032).
route(prodloc25,prodloc15,tr0,2863,74438).
route(prodloc25,prodloc15,tr13,2863,17178).
route(prodloc25,prodloc16,tr0,11091,288366).
route(prodloc25,prodloc16,tr13,11091,66546).
route(prodloc25,prodloc17,tr0,22078,574028).
route(prodloc25,prodloc17,tr13,22078,132468).
route(prodloc25,prodloc18,tr0,14405,374530).
route(prodloc25,prodloc18,tr13,14405,86430).
route(prodloc25,prodloc19,tr0,22281,579306).
route(prodloc25,prodloc19,tr13,22281,133686).
route(prodloc25,prodloc20,tr0,6892,179192).
route(prodloc25,prodloc20,tr13,6892,41352).
route(prodloc25,prodloc21,tr0,21380,555880).
route(prodloc25,prodloc21,tr13,21380,128280).
route(prodloc25,prodloc22,tr0,5897,153322).
route(prodloc25,prodloc22,tr13,5897,35382).
route(prodloc25,prodloc23,tr0,5769,149994).
route(prodloc25,prodloc23,tr13,5769,34614).
route(prodloc25,prodloc24,tr0,3634,94484).
route(prodloc25,prodloc24,tr13,3634,21804).
route(prodloc25,prodloc26,tr0,17362,451412).
route(prodloc25,prodloc26,tr13,17362,104172).
route(prodloc25,prodloc27,tr0,12404,322504).
route(prodloc25,prodloc27,tr13,12404,74424).
route(prodloc25,prodloc28,tr0,6388,166088).
route(prodloc25,prodloc28,tr13,6388,38328).
route(prodloc25,prodloc29,tr0,23784,618384).
route(prodloc25,prodloc29,tr13,23784,142704).
route(prodloc25,prodloc30,tr0,28408,738608).
route(prodloc25,prodloc30,tr13,28408,170448).
route(prodloc25,prodloc31,tr0,27049,703274).
route(prodloc25,prodloc31,tr13,27049,162294).
route(prodloc25,prodloc32,tr0,3221,83746).
route(prodloc25,prodloc32,tr13,3221,19326).
route(prodloc25,prodloc33,tr0,24598,639548).
route(prodloc25,prodloc33,tr13,24598,147588).
route(prodloc26,harbor0,tr0,5506,143156).
route(prodloc26,harbor0,tr13,5506,33036).
route(prodloc26,harbor1,tr0,14725,382850).
route(prodloc26,harbor1,tr13,14725,88350).
route(prodloc26,harbor2,tr0,28678,745628).
route(prodloc26,harbor2,tr13,28678,172068).
route(prodloc26,harbor3,tr0,416,10816).
route(prodloc26,harbor3,tr13,416,2496).
route(prodloc26,harbor4,tr0,3730,96980).
route(prodloc26,harbor4,tr13,3730,22380).
route(prodloc26,harbor5,tr0,16944,440544).
route(prodloc26,harbor5,tr13,16944,101664).
route(prodloc26,harbor6,tr0,1629,42354).
route(prodloc26,harbor6,tr13,1629,9774).
route(prodloc26,harbor7,tr0,6709,174434).
route(prodloc26,harbor7,tr13,6709,40254).
route(prodloc26,harbor8,tr0,13548,352248).
route(prodloc26,harbor8,tr13,13548,81288).
route(prodloc26,harbor9,tr0,2364,61464).
route(prodloc26,harbor9,tr13,2364,14184).
route(prodloc26,harbor10,tr0,26643,692718).
route(prodloc26,harbor10,tr13,26643,159858).
route(prodloc26,harbor11,tr0,15250,396500).
route(prodloc26,harbor11,tr13,15250,91500).
route(prodloc26,harbor12,tr0,10242,266292).
route(prodloc26,harbor12,tr13,10242,61452).
route(prodloc26,harbor13,tr0,26473,688298).
route(prodloc26,harbor13,tr13,26473,158838).
route(prodloc26,harbor14,tr0,4746,123396).
route(prodloc26,harbor14,tr13,4746,28476).
route(prodloc26,harbor15,tr0,12119,315094).
route(prodloc26,harbor15,tr13,12119,72714).
route(prodloc26,harbor16,tr0,20303,527878).
route(prodloc26,harbor16,tr13,20303,121818).
route(prodloc26,prodloc0,tr0,11527,299702).
route(prodloc26,prodloc0,tr13,11527,69162).
route(prodloc26,prodloc1,tr0,5466,142116).
route(prodloc26,prodloc1,tr13,5466,32796).
route(prodloc26,prodloc2,tr0,26694,694044).
route(prodloc26,prodloc2,tr13,26694,160164).
route(prodloc26,prodloc3,tr0,28477,740402).
route(prodloc26,prodloc3,tr13,28477,170862).
route(prodloc26,prodloc4,tr0,15035,390910).
route(prodloc26,prodloc4,tr13,15035,90210).
route(prodloc26,prodloc6,tr13,4475,26850).
route(prodloc26,prodloc6,tr15,4475,143200).
route(prodloc26,prodloc7,tr0,12230,317980).
route(prodloc26,prodloc7,tr13,12230,73380).
route(prodloc26,prodloc8,tr0,2457,63882).
route(prodloc26,prodloc8,tr13,2457,14742).
route(prodloc26,prodloc9,tr0,11177,290602).
route(prodloc26,prodloc9,tr13,11177,67062).
route(prodloc26,prodloc10,tr0,26741,695266).
route(prodloc26,prodloc10,tr13,26741,160446).
route(prodloc26,prodloc11,tr0,22270,579020).
route(prodloc26,prodloc11,tr13,22270,133620).
route(prodloc26,prodloc12,tr13,9916,59496).
route(prodloc26,prodloc12,tr15,9916,317312).
route(prodloc26,prodloc13,tr0,10499,272974).
route(prodloc26,prodloc13,tr13,10499,62994).
route(prodloc26,prodloc14,tr0,21569,560794).
route(prodloc26,prodloc14,tr13,21569,129414).
route(prodloc26,prodloc15,tr0,9663,251238).
route(prodloc26,prodloc15,tr13,9663,57978).
route(prodloc26,prodloc17,tr0,27988,727688).
route(prodloc26,prodloc17,tr13,27988,167928).
route(prodloc26,prodloc18,tr0,2921,75946).
route(prodloc26,prodloc18,tr13,2921,17526).
route(prodloc26,prodloc19,tr0,19715,512590).
route(prodloc26,prodloc19,tr13,19715,118290).
route(prodloc26,prodloc20,tr0,13891,361166).
route(prodloc26,prodloc20,tr13,13891,83346).
route(prodloc26,prodloc21,tr0,3157,82082).
route(prodloc26,prodloc21,tr13,3157,18942).
route(prodloc26,prodloc22,tr0,15881,412906).
route(prodloc26,prodloc22,tr13,15881,95286).
route(prodloc26,prodloc23,tr0,25708,668408).
route(prodloc26,prodloc23,tr13,25708,154248).
route(prodloc26,prodloc24,tr0,11839,307814).
route(prodloc26,prodloc24,tr13,11839,71034).
route(prodloc26,prodloc25,tr0,14351,373126).
route(prodloc26,prodloc25,tr13,14351,86106).
route(prodloc26,prodloc27,tr0,20406,530556).
route(prodloc26,prodloc27,tr13,20406,122436).
route(prodloc26,prodloc28,tr0,7497,194922).
route(prodloc26,prodloc28,tr13,7497,44982).
route(prodloc26,prodloc29,tr0,12650,328900).
route(prodloc26,prodloc29,tr13,12650,75900).
route(prodloc26,prodloc30,tr0,7901,205426).
route(prodloc26,prodloc30,tr15,7901,252832).
route(prodloc26,prodloc31,tr0,25202,655252).
route(prodloc26,prodloc31,tr13,25202,151212).
route(prodloc26,prodloc32,tr0,25634,666484).
route(prodloc26,prodloc32,tr13,25634,153804).
route(prodloc26,prodloc33,tr0,3927,102102).
route(prodloc26,prodloc33,tr13,3927,23562).
route(prodloc27,harbor0,tr0,6601,171626).
route(prodloc27,harbor0,tr13,6601,39606).
route(prodloc27,harbor1,tr0,18761,487786).
route(prodloc27,harbor1,tr13,18761,112566).
route(prodloc27,harbor2,tr0,21060,547560).
route(prodloc27,harbor2,tr13,21060,126360).
route(prodloc27,harbor3,tr0,14150,367900).
route(prodloc27,harbor3,tr13,14150,84900).
route(prodloc27,harbor4,tr0,5649,146874).
route(prodloc27,harbor4,tr13,5649,33894).
route(prodloc27,harbor5,tr0,5631,146406).
route(prodloc27,harbor5,tr13,5631,33786).
route(prodloc27,harbor6,tr0,12780,332280).
route(prodloc27,harbor6,tr13,12780,76680).
route(prodloc27,harbor7,tr0,21831,567606).
route(prodloc27,harbor7,tr13,21831,130986).
route(prodloc27,harbor8,tr0,19240,500240).
route(prodloc27,harbor8,tr13,19240,115440).
route(prodloc27,harbor9,tr0,18784,488384).
route(prodloc27,harbor9,tr13,18784,112704).
route(prodloc27,harbor10,tr0,7029,182754).
route(prodloc27,harbor10,tr13,7029,42174).
route(prodloc27,harbor11,tr0,938,24388).
route(prodloc27,harbor11,tr13,938,5628).
route(prodloc27,harbor12,tr0,13892,361192).
route(prodloc27,harbor12,tr13,13892,83352).
route(prodloc27,harbor13,tr0,1245,32370).
route(prodloc27,harbor13,tr13,1245,7470).
route(prodloc27,harbor14,tr0,20630,536380).
route(prodloc27,harbor14,tr13,20630,123780).
route(prodloc27,harbor15,tr0,3002,78052).
route(prodloc27,harbor15,tr13,3002,18012).
route(prodloc27,harbor16,tr0,1938,50388).
route(prodloc27,harbor16,tr13,1938,11628).
route(prodloc27,prodloc0,tr0,23421,608946).
route(prodloc27,prodloc0,tr13,23421,140526).
route(prodloc27,prodloc1,tr0,14640,380640).
route(prodloc27,prodloc1,tr13,14640,87840).
route(prodloc27,prodloc2,tr0,24362,633412).
route(prodloc27,prodloc2,tr13,24362,146172).
route(prodloc27,prodloc3,tr0,10497,272922).
route(prodloc27,prodloc3,tr13,10497,62982).
route(prodloc27,prodloc4,tr0,28598,743548).
route(prodloc27,prodloc4,tr13,28598,171588).
route(prodloc27,prodloc5,tr0,22956,596856).
route(prodloc27,prodloc5,tr13,22956,137736).
route(prodloc27,prodloc6,tr0,23417,608842).
route(prodloc27,prodloc6,tr13,23417,140502).
route(prodloc27,prodloc7,tr0,2281,59306).
route(prodloc27,prodloc7,tr13,2281,13686).
route(prodloc27,prodloc8,tr0,21266,552916).
route(prodloc27,prodloc8,tr13,21266,127596).
route(prodloc27,prodloc9,tr0,3629,94354).
route(prodloc27,prodloc9,tr13,3629,21774).
route(prodloc27,prodloc10,tr0,4406,114556).
route(prodloc27,prodloc10,tr13,4406,26436).
route(prodloc27,prodloc11,tr0,1294,33644).
route(prodloc27,prodloc11,tr13,1294,7764).
route(prodloc27,prodloc12,tr0,16806,436956).
route(prodloc27,prodloc12,tr13,16806,100836).
route(prodloc27,prodloc13,tr0,26278,683228).
route(prodloc27,prodloc13,tr13,26278,157668).
route(prodloc27,prodloc14,tr0,21380,555880).
route(prodloc27,prodloc14,tr13,21380,128280).
route(prodloc27,prodloc15,tr0,21163,550238).
route(prodloc27,prodloc15,tr13,21163,126978).
route(prodloc27,prodloc16,tr0,19107,496782).
route(prodloc27,prodloc16,tr13,19107,114642).
route(prodloc27,prodloc17,tr0,25169,654394).
route(prodloc27,prodloc17,tr13,25169,151014).
route(prodloc27,prodloc18,tr0,21207,551382).
route(prodloc27,prodloc18,tr13,21207,127242).
route(prodloc27,prodloc19,tr0,3333,86658).
route(prodloc27,prodloc19,tr15,3333,106656).
route(prodloc27,prodloc20,tr0,9733,253058).
route(prodloc27,prodloc20,tr13,9733,58398).
route(prodloc27,prodloc21,tr0,22771,592046).
route(prodloc27,prodloc21,tr13,22771,136626).
route(prodloc27,prodloc22,tr0,98,2548).
route(prodloc27,prodloc22,tr13,98,588).
route(prodloc27,prodloc23,tr0,68,1768).
route(prodloc27,prodloc23,tr13,68,408).
route(prodloc27,prodloc24,tr0,21428,557128).
route(prodloc27,prodloc24,tr13,21428,128568).
route(prodloc27,prodloc25,tr0,17394,452244).
route(prodloc27,prodloc25,tr13,17394,104364).
route(prodloc27,prodloc26,tr0,6357,165282).
route(prodloc27,prodloc26,tr13,6357,38142).
route(prodloc27,prodloc28,tr0,10802,280852).
route(prodloc27,prodloc28,tr13,10802,64812).
route(prodloc27,prodloc29,tr0,5593,145418).
route(prodloc27,prodloc29,tr13,5593,33558).
route(prodloc27,prodloc30,tr0,19422,504972).
route(prodloc27,prodloc30,tr15,19422,621504).
route(prodloc27,prodloc31,tr0,2981,77506).
route(prodloc27,prodloc31,tr13,2981,17886).
route(prodloc27,prodloc32,tr0,113,2938).
route(prodloc27,prodloc32,tr13,113,678).
route(prodloc27,prodloc33,tr0,22188,576888).
route(prodloc27,prodloc33,tr13,22188,133128).
route(prodloc28,harbor0,tr0,19956,518856).
route(prodloc28,harbor0,tr13,19956,119736).
route(prodloc28,harbor1,tr0,27782,722332).
route(prodloc28,harbor1,tr13,27782,166692).
route(prodloc28,harbor2,tr0,24031,624806).
route(prodloc28,harbor2,tr13,24031,144186).
route(prodloc28,harbor3,tr0,5364,139464).
route(prodloc28,harbor3,tr13,5364,32184).
route(prodloc28,harbor4,tr0,16382,425932).
route(prodloc28,harbor4,tr13,16382,98292).
route(prodloc28,harbor5,tr0,10993,285818).
route(prodloc28,harbor5,tr13,10993,65958).
route(prodloc28,harbor6,tr0,23583,613158).
route(prodloc28,harbor6,tr13,23583,141498).
route(prodloc28,harbor7,tr0,24290,631540).
route(prodloc28,harbor7,tr13,24290,145740).
route(prodloc28,harbor8,tr0,1639,42614).
route(prodloc28,harbor8,tr13,1639,9834).
route(prodloc28,harbor9,tr0,8828,229528).
route(prodloc28,harbor9,tr13,8828,52968).
route(prodloc28,harbor10,tr0,8103,210678).
route(prodloc28,harbor10,tr13,8103,48618).
route(prodloc28,harbor11,tr0,7507,195182).
route(prodloc28,harbor11,tr13,7507,45042).
route(prodloc28,harbor12,tr0,21299,553774).
route(prodloc28,harbor12,tr13,21299,127794).
route(prodloc28,harbor13,tr0,27986,727636).
route(prodloc28,harbor13,tr13,27986,167916).
route(prodloc28,harbor14,tr0,117,3042).
route(prodloc28,harbor14,tr13,117,702).
route(prodloc28,harbor15,tr0,14900,387400).
route(prodloc28,harbor15,tr13,14900,89400).
route(prodloc28,harbor16,tr0,13280,345280).
route(prodloc28,harbor16,tr13,13280,79680).
route(prodloc28,prodloc0,tr0,28710,746460).
route(prodloc28,prodloc0,tr13,28710,172260).
route(prodloc28,prodloc1,tr0,14972,389272).
route(prodloc28,prodloc1,tr13,14972,89832).
route(prodloc28,prodloc2,tr0,17460,453960).
route(prodloc28,prodloc2,tr13,17460,104760).
route(prodloc28,prodloc3,tr0,7699,200174).
route(prodloc28,prodloc3,tr13,7699,46194).
route(prodloc28,prodloc4,tr0,2510,65260).
route(prodloc28,prodloc4,tr15,2510,80320).
route(prodloc28,prodloc5,tr0,11365,295490).
route(prodloc28,prodloc5,tr13,11365,68190).
route(prodloc28,prodloc6,tr0,20691,537966).
route(prodloc28,prodloc6,tr13,20691,124146).
route(prodloc28,prodloc7,tr0,940,24440).
route(prodloc28,prodloc7,tr13,940,5640).
route(prodloc28,prodloc8,tr0,23739,617214).
route(prodloc28,prodloc8,tr15,23739,759648).
route(prodloc28,prodloc9,tr0,28286,735436).
route(prodloc28,prodloc9,tr13,28286,169716).
route(prodloc28,prodloc10,tr0,20301,527826).
route(prodloc28,prodloc10,tr13,20301,121806).
route(prodloc28,prodloc11,tr0,3979,103454).
route(prodloc28,prodloc11,tr13,3979,23874).
route(prodloc28,prodloc12,tr0,8864,230464).
route(prodloc28,prodloc12,tr13,8864,53184).
route(prodloc28,prodloc13,tr0,14377,373802).
route(prodloc28,prodloc13,tr13,14377,86262).
route(prodloc28,prodloc14,tr0,24041,625066).
route(prodloc28,prodloc14,tr13,24041,144246).
route(prodloc28,prodloc15,tr0,6559,170534).
route(prodloc28,prodloc15,tr13,6559,39354).
route(prodloc28,prodloc16,tr0,9441,245466).
route(prodloc28,prodloc16,tr13,9441,56646).
route(prodloc28,prodloc17,tr0,16590,431340).
route(prodloc28,prodloc17,tr13,16590,99540).
route(prodloc28,prodloc18,tr0,25136,653536).
route(prodloc28,prodloc18,tr13,25136,150816).
route(prodloc28,prodloc19,tr0,11767,305942).
route(prodloc28,prodloc19,tr13,11767,70602).
route(prodloc28,prodloc20,tr0,13294,345644).
route(prodloc28,prodloc20,tr13,13294,79764).
route(prodloc28,prodloc21,tr0,27431,713206).
route(prodloc28,prodloc21,tr15,27431,877792).
route(prodloc28,prodloc22,tr0,23708,616408).
route(prodloc28,prodloc22,tr13,23708,142248).
route(prodloc28,prodloc23,tr0,22534,585884).
route(prodloc28,prodloc23,tr13,22534,135204).
route(prodloc28,prodloc24,tr0,11514,299364).
route(prodloc28,prodloc24,tr13,11514,69084).
route(prodloc28,prodloc25,tr0,11180,290680).
route(prodloc28,prodloc25,tr13,11180,67080).
route(prodloc28,prodloc26,tr0,18698,486148).
route(prodloc28,prodloc26,tr13,18698,112188).
route(prodloc28,prodloc27,tr0,21439,557414).
route(prodloc28,prodloc27,tr13,21439,128634).
route(prodloc28,prodloc29,tr0,905,23530).
route(prodloc28,prodloc29,tr13,905,5430).
route(prodloc28,prodloc30,tr0,20433,531258).
route(prodloc28,prodloc30,tr13,20433,122598).
route(prodloc28,prodloc31,tr13,26576,159456).
route(prodloc28,prodloc31,tr15,26576,850432).
route(prodloc28,prodloc32,tr0,6084,158184).
route(prodloc28,prodloc32,tr13,6084,36504).
route(prodloc28,prodloc33,tr0,7944,206544).
route(prodloc28,prodloc33,tr13,7944,47664).
route(prodloc29,harbor0,tr0,27484,714584).
route(prodloc29,harbor0,tr13,27484,164904).
route(prodloc29,harbor1,tr0,26522,689572).
route(prodloc29,harbor1,tr13,26522,159132).
route(prodloc29,harbor2,tr0,9142,237692).
route(prodloc29,harbor2,tr13,9142,54852).
route(prodloc29,harbor3,tr0,22274,579124).
route(prodloc29,harbor3,tr13,22274,133644).
route(prodloc29,harbor4,tr0,23749,617474).
route(prodloc29,harbor4,tr13,23749,142494).
route(prodloc29,harbor5,tr0,7737,201162).
route(prodloc29,harbor5,tr13,7737,46422).
route(prodloc29,harbor6,tr0,17341,450866).
route(prodloc29,harbor6,tr13,17341,104046).
route(prodloc29,harbor7,tr0,3743,97318).
route(prodloc29,harbor7,tr13,3743,22458).
route(prodloc29,harbor8,tr0,22819,593294).
route(prodloc29,harbor8,tr13,22819,136914).
route(prodloc29,harbor9,tr0,13602,353652).
route(prodloc29,harbor9,tr13,13602,81612).
route(prodloc29,harbor10,tr0,16054,417404).
route(prodloc29,harbor10,tr13,16054,96324).
route(prodloc29,harbor11,tr0,24582,639132).
route(prodloc29,harbor11,tr13,24582,147492).
route(prodloc29,harbor12,tr0,8721,226746).
route(prodloc29,harbor12,tr13,8721,52326).
route(prodloc29,harbor13,tr0,16505,429130).
route(prodloc29,harbor13,tr13,16505,99030).
route(prodloc29,harbor14,tr0,6428,167128).
route(prodloc29,harbor14,tr13,6428,38568).
route(prodloc29,harbor15,tr0,11658,303108).
route(prodloc29,harbor15,tr13,11658,69948).
route(prodloc29,harbor16,tr0,2299,59774).
route(prodloc29,harbor16,tr13,2299,13794).
route(prodloc29,prodloc0,tr0,25459,661934).
route(prodloc29,prodloc0,tr13,25459,152754).
route(prodloc29,prodloc1,tr0,854,22204).
route(prodloc29,prodloc1,tr13,854,5124).
route(prodloc29,prodloc2,tr0,8266,214916).
route(prodloc29,prodloc2,tr13,8266,49596).
route(prodloc29,prodloc3,tr0,8422,218972).
route(prodloc29,prodloc3,tr13,8422,50532).
route(prodloc29,prodloc4,tr0,24135,627510).
route(prodloc29,prodloc4,tr13,24135,144810).
route(prodloc29,prodloc5,tr0,7358,191308).
route(prodloc29,prodloc5,tr13,7358,44148).
route(prodloc29,prodloc6,tr0,25448,661648).
route(prodloc29,prodloc6,tr13,25448,152688).
route(prodloc29,prodloc7,tr0,16051,417326).
route(prodloc29,prodloc7,tr13,16051,96306).
route(prodloc29,prodloc8,tr0,10241,266266).
route(prodloc29,prodloc8,tr13,10241,61446).
route(prodloc29,prodloc9,tr0,25818,671268).
route(prodloc29,prodloc9,tr13,25818,154908).
route(prodloc29,prodloc10,tr0,16159,420134).
route(prodloc29,prodloc10,tr13,16159,96954).
route(prodloc29,prodloc11,tr0,27108,704808).
route(prodloc29,prodloc11,tr13,27108,162648).
route(prodloc29,prodloc12,tr0,5117,133042).
route(prodloc29,prodloc12,tr13,5117,30702).
route(prodloc29,prodloc13,tr0,2085,54210).
route(prodloc29,prodloc13,tr13,2085,12510).
route(prodloc29,prodloc14,tr0,22867,594542).
route(prodloc29,prodloc14,tr13,22867,137202).
route(prodloc29,prodloc15,tr0,18003,468078).
route(prodloc29,prodloc15,tr13,18003,108018).
route(prodloc29,prodloc16,tr0,4523,117598).
route(prodloc29,prodloc16,tr13,4523,27138).
route(prodloc29,prodloc17,tr0,18645,484770).
route(prodloc29,prodloc17,tr13,18645,111870).
route(prodloc29,prodloc18,tr0,682,17732).
route(prodloc29,prodloc18,tr13,682,4092).
route(prodloc29,prodloc19,tr0,21581,561106).
route(prodloc29,prodloc19,tr13,21581,129486).
route(prodloc29,prodloc20,tr0,27302,709852).
route(prodloc29,prodloc20,tr13,27302,163812).
route(prodloc29,prodloc21,tr0,11051,287326).
route(prodloc29,prodloc21,tr13,11051,66306).
route(prodloc29,prodloc22,tr0,16779,436254).
route(prodloc29,prodloc22,tr13,16779,100674).
route(prodloc29,prodloc23,tr0,5194,135044).
route(prodloc29,prodloc23,tr13,5194,31164).
route(prodloc29,prodloc24,tr0,16534,429884).
route(prodloc29,prodloc24,tr13,16534,99204).
route(prodloc29,prodloc25,tr0,17723,460798).
route(prodloc29,prodloc25,tr13,17723,106338).
route(prodloc29,prodloc26,tr0,20486,532636).
route(prodloc29,prodloc26,tr13,20486,122916).
route(prodloc29,prodloc27,tr0,15679,407654).
route(prodloc29,prodloc27,tr13,15679,94074).
route(prodloc29,prodloc28,tr0,22614,587964).
route(prodloc29,prodloc28,tr13,22614,135684).
route(prodloc29,prodloc30,tr0,14960,388960).
route(prodloc29,prodloc30,tr13,14960,89760).
route(prodloc29,prodloc31,tr0,23908,621608).
route(prodloc29,prodloc31,tr13,23908,143448).
route(prodloc29,prodloc32,tr0,5309,138034).
route(prodloc29,prodloc32,tr13,5309,31854).
route(prodloc29,prodloc33,tr0,4749,123474).
route(prodloc29,prodloc33,tr13,4749,28494).
route(prodloc30,harbor0,tr0,13608,353808).
route(prodloc30,harbor0,tr13,13608,81648).
route(prodloc30,harbor1,tr0,15281,397306).
route(prodloc30,harbor1,tr13,15281,91686).
route(prodloc30,harbor2,tr0,7960,206960).
route(prodloc30,harbor2,tr13,7960,47760).
route(prodloc30,harbor3,tr0,23311,606086).
route(prodloc30,harbor3,tr13,23311,139866).
route(prodloc30,harbor4,tr0,16867,438542).
route(prodloc30,harbor4,tr13,16867,101202).
route(prodloc30,harbor5,tr0,18343,476918).
route(prodloc30,harbor5,tr13,18343,110058).
route(prodloc30,harbor6,tr0,6433,167258).
route(prodloc30,harbor6,tr13,6433,38598).
route(prodloc30,harbor7,tr0,13053,339378).
route(prodloc30,harbor7,tr13,13053,78318).
route(prodloc30,harbor8,tr0,16746,435396).
route(prodloc30,harbor8,tr13,16746,100476).
route(prodloc30,harbor9,tr0,11123,289198).
route(prodloc30,harbor9,tr13,11123,66738).
route(prodloc30,harbor10,tr0,23120,601120).
route(prodloc30,harbor10,tr13,23120,138720).
route(prodloc30,harbor11,tr0,26578,691028).
route(prodloc30,harbor11,tr13,26578,159468).
route(prodloc30,harbor12,tr0,27219,707694).
route(prodloc30,harbor12,tr13,27219,163314).
route(prodloc30,harbor13,tr0,392,10192).
route(prodloc30,harbor13,tr13,392,2352).
route(prodloc30,harbor14,tr0,24969,649194).
route(prodloc30,harbor14,tr13,24969,149814).
route(prodloc30,harbor15,tr0,16583,431158).
route(prodloc30,harbor15,tr13,16583,99498).
route(prodloc30,harbor16,tr0,43,1118).
route(prodloc30,harbor16,tr13,43,258).
route(prodloc30,prodloc0,tr0,14570,378820).
route(prodloc30,prodloc0,tr13,14570,87420).
route(prodloc30,prodloc1,tr0,19164,498264).
route(prodloc30,prodloc1,tr13,19164,114984).
route(prodloc30,prodloc2,tr0,10692,277992).
route(prodloc30,prodloc2,tr13,10692,64152).
route(prodloc30,prodloc3,tr0,26224,681824).
route(prodloc30,prodloc3,tr13,26224,157344).
route(prodloc30,prodloc4,tr0,16761,435786).
route(prodloc30,prodloc4,tr13,16761,100566).
route(prodloc30,prodloc5,tr0,9776,254176).
route(prodloc30,prodloc5,tr13,9776,58656).
route(prodloc30,prodloc6,tr0,3189,82914).
route(prodloc30,prodloc6,tr13,3189,19134).
route(prodloc30,prodloc7,tr0,20085,522210).
route(prodloc30,prodloc7,tr13,20085,120510).
route(prodloc30,prodloc8,tr0,20583,535158).
route(prodloc30,prodloc8,tr13,20583,123498).
route(prodloc30,prodloc9,tr0,8182,212732).
route(prodloc30,prodloc9,tr13,8182,49092).
route(prodloc30,prodloc10,tr0,16191,420966).
route(prodloc30,prodloc10,tr13,16191,97146).
route(prodloc30,prodloc11,tr0,13510,351260).
route(prodloc30,prodloc11,tr13,13510,81060).
route(prodloc30,prodloc12,tr0,23603,613678).
route(prodloc30,prodloc12,tr13,23603,141618).
route(prodloc30,prodloc13,tr0,2526,65676).
route(prodloc30,prodloc13,tr13,2526,15156).
route(prodloc30,prodloc14,tr0,24913,647738).
route(prodloc30,prodloc14,tr13,24913,149478).
route(prodloc30,prodloc15,tr0,11519,299494).
route(prodloc30,prodloc15,tr13,11519,69114).
route(prodloc30,prodloc16,tr0,9540,248040).
route(prodloc30,prodloc16,tr13,9540,57240).
route(prodloc30,prodloc17,tr0,10577,275002).
route(prodloc30,prodloc17,tr13,10577,63462).
route(prodloc30,prodloc18,tr0,22896,595296).
route(prodloc30,prodloc18,tr13,22896,137376).
route(prodloc30,prodloc19,tr0,5094,132444).
route(prodloc30,prodloc19,tr13,5094,30564).
route(prodloc30,prodloc20,tr0,24833,645658).
route(prodloc30,prodloc20,tr13,24833,148998).
route(prodloc30,prodloc21,tr0,2639,68614).
route(prodloc30,prodloc21,tr13,2639,15834).
route(prodloc30,prodloc22,tr0,11100,288600).
route(prodloc30,prodloc22,tr13,11100,66600).
route(prodloc30,prodloc23,tr0,26286,683436).
route(prodloc30,prodloc23,tr13,26286,157716).
route(prodloc30,prodloc24,tr0,18553,482378).
route(prodloc30,prodloc24,tr13,18553,111318).
route(prodloc30,prodloc25,tr0,22243,578318).
route(prodloc30,prodloc25,tr13,22243,133458).
route(prodloc30,prodloc26,tr0,3937,102362).
route(prodloc30,prodloc26,tr13,3937,23622).
route(prodloc30,prodloc27,tr0,1553,40378).
route(prodloc30,prodloc27,tr13,1553,9318).
route(prodloc30,prodloc28,tr0,28094,730444).
route(prodloc30,prodloc28,tr13,28094,168564).
route(prodloc30,prodloc29,tr0,23897,621322).
route(prodloc30,prodloc29,tr13,23897,143382).
route(prodloc30,prodloc31,tr13,27303,163818).
route(prodloc30,prodloc31,tr15,27303,873696).
route(prodloc30,prodloc32,tr0,12090,314340).
route(prodloc30,prodloc32,tr13,12090,72540).
route(prodloc30,prodloc33,tr0,1271,33046).
route(prodloc30,prodloc33,tr13,1271,7626).
route(prodloc31,harbor0,tr0,11635,302510).
route(prodloc31,harbor0,tr13,11635,69810).
route(prodloc31,harbor1,tr0,12374,321724).
route(prodloc31,harbor1,tr13,12374,74244).
route(prodloc31,harbor2,tr0,25643,666718).
route(prodloc31,harbor2,tr13,25643,153858).
route(prodloc31,harbor3,tr0,23396,608296).
route(prodloc31,harbor3,tr13,23396,140376).
route(prodloc31,harbor4,tr0,6750,175500).
route(prodloc31,harbor4,tr13,6750,40500).
route(prodloc31,harbor5,tr0,15033,390858).
route(prodloc31,harbor5,tr13,15033,90198).
route(prodloc31,harbor6,tr0,129,3354).
route(prodloc31,harbor6,tr13,129,774).
route(prodloc31,harbor7,tr0,22882,594932).
route(prodloc31,harbor7,tr13,22882,137292).
route(prodloc31,harbor8,tr0,17352,451152).
route(prodloc31,harbor8,tr13,17352,104112).
route(prodloc31,harbor9,tr0,13493,350818).
route(prodloc31,harbor9,tr13,13493,80958).
route(prodloc31,harbor10,tr0,8041,209066).
route(prodloc31,harbor10,tr13,8041,48246).
route(prodloc31,harbor11,tr0,19863,516438).
route(prodloc31,harbor11,tr13,19863,119178).
route(prodloc31,harbor12,tr0,17420,452920).
route(prodloc31,harbor12,tr13,17420,104520).
route(prodloc31,harbor13,tr0,8913,231738).
route(prodloc31,harbor13,tr13,8913,53478).
route(prodloc31,harbor14,tr0,1421,36946).
route(prodloc31,harbor14,tr13,1421,8526).
route(prodloc31,harbor15,tr0,27080,704080).
route(prodloc31,harbor15,tr13,27080,162480).
route(prodloc31,harbor16,tr0,3128,81328).
route(prodloc31,harbor16,tr13,3128,18768).
route(prodloc31,prodloc0,tr0,12688,329888).
route(prodloc31,prodloc0,tr13,12688,76128).
route(prodloc31,prodloc1,tr0,5590,145340).
route(prodloc31,prodloc1,tr13,5590,33540).
route(prodloc31,prodloc2,tr0,26989,701714).
route(prodloc31,prodloc2,tr13,26989,161934).
route(prodloc31,prodloc3,tr0,28074,729924).
route(prodloc31,prodloc3,tr13,28074,168444).
route(prodloc31,prodloc4,tr0,25844,671944).
route(prodloc31,prodloc4,tr13,25844,155064).
route(prodloc31,prodloc5,tr0,25148,653848).
route(prodloc31,prodloc5,tr13,25148,150888).
route(prodloc31,prodloc6,tr0,26023,676598).
route(prodloc31,prodloc6,tr13,26023,156138).
route(prodloc31,prodloc7,tr0,11806,306956).
route(prodloc31,prodloc7,tr13,11806,70836).
route(prodloc31,prodloc8,tr0,24029,624754).
route(prodloc31,prodloc8,tr13,24029,144174).
route(prodloc31,prodloc9,tr0,4463,116038).
route(prodloc31,prodloc9,tr13,4463,26778).
route(prodloc31,prodloc10,tr0,6823,177398).
route(prodloc31,prodloc10,tr13,6823,40938).
route(prodloc31,prodloc11,tr0,10761,279786).
route(prodloc31,prodloc11,tr13,10761,64566).
route(prodloc31,prodloc12,tr13,20772,124632).
route(prodloc31,prodloc12,tr15,20772,664704).
route(prodloc31,prodloc13,tr0,427,11102).
route(prodloc31,prodloc13,tr13,427,2562).
route(prodloc31,prodloc14,tr0,24676,641576).
route(prodloc31,prodloc14,tr13,24676,148056).
route(prodloc31,prodloc15,tr0,7445,193570).
route(prodloc31,prodloc15,tr13,7445,44670).
route(prodloc31,prodloc16,tr0,27693,720018).
route(prodloc31,prodloc16,tr13,27693,166158).
route(prodloc31,prodloc17,tr0,3094,80444).
route(prodloc31,prodloc17,tr13,3094,18564).
route(prodloc31,prodloc18,tr0,10800,280800).
route(prodloc31,prodloc18,tr13,10800,64800).
route(prodloc31,prodloc19,tr0,26849,698074).
route(prodloc31,prodloc19,tr13,26849,161094).
route(prodloc31,prodloc20,tr0,12710,330460).
route(prodloc31,prodloc20,tr13,12710,76260).
route(prodloc31,prodloc21,tr0,17699,460174).
route(prodloc31,prodloc21,tr13,17699,106194).
route(prodloc31,prodloc22,tr0,20810,541060).
route(prodloc31,prodloc22,tr13,20810,124860).
route(prodloc31,prodloc23,tr0,13073,339898).
route(prodloc31,prodloc23,tr13,13073,78438).
route(prodloc31,prodloc24,tr0,368,9568).
route(prodloc31,prodloc24,tr13,368,2208).
route(prodloc31,prodloc25,tr0,28827,749502).
route(prodloc31,prodloc25,tr13,28827,172962).
route(prodloc31,prodloc26,tr0,6220,161720).
route(prodloc31,prodloc26,tr13,6220,37320).
route(prodloc31,prodloc27,tr0,13677,355602).
route(prodloc31,prodloc27,tr13,13677,82062).
route(prodloc31,prodloc28,tr0,25432,661232).
route(prodloc31,prodloc28,tr13,25432,152592).
route(prodloc31,prodloc29,tr0,3289,85514).
route(prodloc31,prodloc29,tr13,3289,19734).
route(prodloc31,prodloc30,tr13,5277,31662).
route(prodloc31,prodloc30,tr15,5277,168864).
route(prodloc31,prodloc32,tr0,27988,727688).
route(prodloc31,prodloc32,tr13,27988,167928).
route(prodloc31,prodloc33,tr0,26773,696098).
route(prodloc31,prodloc33,tr13,26773,160638).
route(prodloc32,harbor0,tr0,27605,717730).
route(prodloc32,harbor0,tr13,27605,165630).
route(prodloc32,harbor1,tr0,24679,641654).
route(prodloc32,harbor1,tr13,24679,148074).
route(prodloc32,harbor2,tr0,17969,467194).
route(prodloc32,harbor2,tr13,17969,107814).
route(prodloc32,harbor3,tr0,3972,103272).
route(prodloc32,harbor3,tr13,3972,23832).
route(prodloc32,harbor4,tr0,22338,580788).
route(prodloc32,harbor4,tr13,22338,134028).
route(prodloc32,harbor5,tr0,19391,504166).
route(prodloc32,harbor5,tr13,19391,116346).
route(prodloc32,harbor6,tr0,23848,620048).
route(prodloc32,harbor6,tr13,23848,143088).
route(prodloc32,harbor7,tr0,1413,36738).
route(prodloc32,harbor7,tr13,1413,8478).
route(prodloc32,harbor8,tr0,13762,357812).
route(prodloc32,harbor8,tr13,13762,82572).
route(prodloc32,harbor9,tr0,13401,348426).
route(prodloc32,harbor9,tr13,13401,80406).
route(prodloc32,harbor10,tr0,13326,346476).
route(prodloc32,harbor10,tr13,13326,79956).
route(prodloc32,harbor11,tr0,2585,67210).
route(prodloc32,harbor11,tr13,2585,15510).
route(prodloc32,harbor12,tr0,12538,325988).
route(prodloc32,harbor12,tr13,12538,75228).
route(prodloc32,harbor13,tr0,25856,672256).
route(prodloc32,harbor13,tr13,25856,155136).
route(prodloc32,harbor14,tr0,5125,133250).
route(prodloc32,harbor14,tr13,5125,30750).
route(prodloc32,harbor15,tr0,25616,666016).
route(prodloc32,harbor15,tr13,25616,153696).
route(prodloc32,harbor16,tr0,27705,720330).
route(prodloc32,harbor16,tr13,27705,166230).
route(prodloc32,prodloc0,tr0,6751,175526).
route(prodloc32,prodloc0,tr13,6751,40506).
route(prodloc32,prodloc1,tr0,25571,664846).
route(prodloc32,prodloc1,tr13,25571,153426).
route(prodloc32,prodloc2,tr0,26375,685750).
route(prodloc32,prodloc2,tr13,26375,158250).
route(prodloc32,prodloc3,tr0,26081,678106).
route(prodloc32,prodloc3,tr13,26081,156486).
route(prodloc32,prodloc4,tr0,12822,333372).
route(prodloc32,prodloc4,tr13,12822,76932).
route(prodloc32,prodloc5,tr0,27477,714402).
route(prodloc32,prodloc5,tr13,27477,164862).
route(prodloc32,prodloc6,tr0,20615,535990).
route(prodloc32,prodloc6,tr13,20615,123690).
route(prodloc32,prodloc7,tr0,2992,77792).
route(prodloc32,prodloc7,tr13,2992,17952).
route(prodloc32,prodloc8,tr0,26527,689702).
route(prodloc32,prodloc8,tr15,26527,848864).
route(prodloc32,prodloc9,tr0,25543,664118).
route(prodloc32,prodloc9,tr13,25543,153258).
route(prodloc32,prodloc10,tr0,10963,285038).
route(prodloc32,prodloc10,tr13,10963,65778).
route(prodloc32,prodloc11,tr0,21020,546520).
route(prodloc32,prodloc11,tr13,21020,126120).
route(prodloc32,prodloc12,tr0,6406,166556).
route(prodloc32,prodloc12,tr13,6406,38436).
route(prodloc32,prodloc13,tr0,11039,287014).
route(prodloc32,prodloc13,tr13,11039,66234).
route(prodloc32,prodloc14,tr0,1865,48490).
route(prodloc32,prodloc14,tr13,1865,11190).
route(prodloc32,prodloc15,tr0,8899,231374).
route(prodloc32,prodloc15,tr13,8899,53394).
route(prodloc32,prodloc16,tr13,27168,163008).
route(prodloc32,prodloc16,tr15,27168,869376).
route(prodloc32,prodloc17,tr0,16752,435552).
route(prodloc32,prodloc17,tr13,16752,100512).
route(prodloc32,prodloc18,tr0,11720,304720).
route(prodloc32,prodloc18,tr13,11720,70320).
route(prodloc32,prodloc19,tr0,13450,349700).
route(prodloc32,prodloc19,tr13,13450,80700).
route(prodloc32,prodloc20,tr0,4383,113958).
route(prodloc32,prodloc20,tr13,4383,26298).
route(prodloc32,prodloc21,tr0,20928,544128).
route(prodloc32,prodloc21,tr13,20928,125568).
route(prodloc32,prodloc22,tr0,23062,599612).
route(prodloc32,prodloc22,tr13,23062,138372).
route(prodloc32,prodloc23,tr0,14509,377234).
route(prodloc32,prodloc23,tr13,14509,87054).
route(prodloc32,prodloc24,tr0,25668,667368).
route(prodloc32,prodloc24,tr13,25668,154008).
route(prodloc32,prodloc25,tr0,13998,363948).
route(prodloc32,prodloc25,tr13,13998,83988).
route(prodloc32,prodloc26,tr0,9429,245154).
route(prodloc32,prodloc26,tr13,9429,56574).
route(prodloc32,prodloc27,tr0,18584,483184).
route(prodloc32,prodloc27,tr13,18584,111504).
route(prodloc32,prodloc28,tr0,27152,705952).
route(prodloc32,prodloc28,tr13,27152,162912).
route(prodloc32,prodloc29,tr0,6463,168038).
route(prodloc32,prodloc29,tr13,6463,38778).
route(prodloc32,prodloc30,tr0,14518,377468).
route(prodloc32,prodloc30,tr13,14518,87108).
route(prodloc32,prodloc31,tr0,26332,684632).
route(prodloc32,prodloc31,tr13,26332,157992).
route(prodloc32,prodloc33,tr0,15099,392574).
route(prodloc32,prodloc33,tr13,15099,90594).
route(prodloc33,harbor0,tr0,23179,602654).
route(prodloc33,harbor0,tr13,23179,139074).
route(prodloc33,harbor1,tr0,2326,60476).
route(prodloc33,harbor1,tr13,2326,13956).
route(prodloc33,harbor2,tr0,10893,283218).
route(prodloc33,harbor2,tr13,10893,65358).
route(prodloc33,harbor3,tr0,8873,230698).
route(prodloc33,harbor3,tr13,8873,53238).
route(prodloc33,harbor4,tr0,5601,145626).
route(prodloc33,harbor4,tr13,5601,33606).
route(prodloc33,harbor5,tr0,18147,471822).
route(prodloc33,harbor5,tr13,18147,108882).
route(prodloc33,harbor6,tr0,6365,165490).
route(prodloc33,harbor6,tr13,6365,38190).
route(prodloc33,harbor7,tr0,15452,401752).
route(prodloc33,harbor7,tr13,15452,92712).
route(prodloc33,harbor8,tr0,17993,467818).
route(prodloc33,harbor8,tr13,17993,107958).
route(prodloc33,harbor9,tr0,10069,261794).
route(prodloc33,harbor9,tr13,10069,60414).
route(prodloc33,harbor10,tr0,19139,497614).
route(prodloc33,harbor10,tr13,19139,114834).
route(prodloc33,harbor11,tr0,16416,426816).
route(prodloc33,harbor11,tr13,16416,98496).
route(prodloc33,harbor12,tr0,10890,283140).
route(prodloc33,harbor12,tr13,10890,65340).
route(prodloc33,harbor13,tr0,13449,349674).
route(prodloc33,harbor13,tr13,13449,80694).
route(prodloc33,harbor14,tr0,2384,61984).
route(prodloc33,harbor14,tr13,2384,14304).
route(prodloc33,harbor15,tr0,14329,372554).
route(prodloc33,harbor15,tr13,14329,85974).
route(prodloc33,harbor16,tr0,15315,398190).
route(prodloc33,harbor16,tr13,15315,91890).
route(prodloc33,prodloc0,tr0,16256,422656).
route(prodloc33,prodloc0,tr13,16256,97536).
route(prodloc33,prodloc1,tr0,26172,680472).
route(prodloc33,prodloc1,tr13,26172,157032).
route(prodloc33,prodloc2,tr0,21983,571558).
route(prodloc33,prodloc2,tr13,21983,131898).
route(prodloc33,prodloc3,tr0,16059,417534).
route(prodloc33,prodloc3,tr13,16059,96354).
route(prodloc33,prodloc4,tr0,24108,626808).
route(prodloc33,prodloc4,tr13,24108,144648).
route(prodloc33,prodloc5,tr0,4834,125684).
route(prodloc33,prodloc5,tr13,4834,29004).
route(prodloc33,prodloc6,tr0,15463,402038).
route(prodloc33,prodloc6,tr13,15463,92778).
route(prodloc33,prodloc7,tr0,23536,611936).
route(prodloc33,prodloc7,tr13,23536,141216).
route(prodloc33,prodloc8,tr0,8355,217230).
route(prodloc33,prodloc8,tr13,8355,50130).
route(prodloc33,prodloc9,tr0,26703,694278).
route(prodloc33,prodloc9,tr13,26703,160218).
route(prodloc33,prodloc10,tr0,22680,589680).
route(prodloc33,prodloc10,tr13,22680,136080).
route(prodloc33,prodloc11,tr0,18963,493038).
route(prodloc33,prodloc11,tr13,18963,113778).
route(prodloc33,prodloc12,tr13,21732,130392).
route(prodloc33,prodloc12,tr15,21732,695424).
route(prodloc33,prodloc13,tr0,23769,617994).
route(prodloc33,prodloc13,tr13,23769,142614).
route(prodloc33,prodloc14,tr0,1340,34840).
route(prodloc33,prodloc14,tr13,1340,8040).
route(prodloc33,prodloc15,tr0,27341,710866).
route(prodloc33,prodloc15,tr13,27341,164046).
route(prodloc33,prodloc16,tr0,3548,92248).
route(prodloc33,prodloc16,tr13,3548,21288).
route(prodloc33,prodloc17,tr0,9897,257322).
route(prodloc33,prodloc17,tr13,9897,59382).
route(prodloc33,prodloc18,tr0,27209,707434).
route(prodloc33,prodloc18,tr13,27209,163254).
route(prodloc33,prodloc19,tr0,9179,238654).
route(prodloc33,prodloc19,tr13,9179,55074).
route(prodloc33,prodloc20,tr0,14988,389688).
route(prodloc33,prodloc20,tr13,14988,89928).
route(prodloc33,prodloc21,tr0,42,1092).
route(prodloc33,prodloc21,tr13,42,252).
route(prodloc33,prodloc22,tr0,9953,258778).
route(prodloc33,prodloc22,tr13,9953,59718).
route(prodloc33,prodloc23,tr0,28386,738036).
route(prodloc33,prodloc23,tr13,28386,170316).
route(prodloc33,prodloc24,tr0,3253,84578).
route(prodloc33,prodloc24,tr13,3253,19518).
route(prodloc33,prodloc25,tr0,19687,511862).
route(prodloc33,prodloc25,tr13,19687,118122).
route(prodloc33,prodloc26,tr0,22046,573196).
route(prodloc33,prodloc26,tr13,22046,132276).
route(prodloc33,prodloc27,tr0,9626,250276).
route(prodloc33,prodloc27,tr13,9626,57756).
route(prodloc33,prodloc28,tr0,25978,675428).
route(prodloc33,prodloc28,tr13,25978,155868).
route(prodloc33,prodloc29,tr0,21156,550056).
route(prodloc33,prodloc29,tr13,21156,126936).
route(prodloc33,prodloc30,tr0,10123,263198).
route(prodloc33,prodloc30,tr13,10123,60738).
route(prodloc33,prodloc31,tr0,1664,43264).
route(prodloc33,prodloc31,tr13,1664,9984).
route(prodloc33,prodloc32,tr0,11839,307814).
route(prodloc33,prodloc32,tr13,11839,71034).
hub(harbor0).
hub(harbor8).
hub(harbor12).
hub(harbor13).
hub(harbor15).
hub(prodloc7).
hub(prodloc11).
hub(prodloc17).
hub(prodloc18).
hub(prodloc20).
