% Multibatching benchmark instance
% Source: instances.lp
% seed=2  harbors=17  prodlocs=34  hubs=10  disruptions=2

% ---- locations ----
location(harbor0).
location(harbor1).
location(harbor2).
location(harbor3).
location(harbor4).
location(harbor5).
location(harbor6).
location(harbor7).
location(harbor8).
location(harbor9).
location(harbor10).
location(harbor11).
location(harbor12).
location(harbor13).
location(harbor14).
location(harbor15).
location(harbor16).
location(prodloc0).
location(prodloc1).
location(prodloc2).
location(prodloc3).
location(prodloc4).
location(prodloc5).
location(prodloc6).
location(prodloc7).
location(prodloc8).
location(prodloc9).
location(prodloc10).
location(prodloc11).
location(prodloc12).
location(prodloc13).
location(prodloc14).
location(prodloc15).
location(prodloc16).
location(prodloc17).
location(prodloc18).
location(prodloc19).
location(prodloc20).
location(prodloc21).
location(prodloc22).
location(prodloc23).
location(prodloc24).
location(prodloc25).
location(prodloc26).
location(prodloc27).
location(prodloc28).
location(prodloc29).
location(prodloc30).
location(prodloc31).
location(prodloc32).
location(prodloc33).

% ---- transport resources ----
transportCapacity(tr0,1800).
transportCO2(tr0,1680).
transportCost(tr0,26).
transportSpeed(tr0,12).
transportCapacity(tr1,65).
transportCO2(tr1,90).
transportCost(tr1,1).
transportSpeed(tr1,35).
transportCapacity(tr10,1).
transportCO2(tr10,700).
transportCost(tr10,4).
transportSpeed(tr10,40).
transportCapacity(tr11,65).
transportCO2(tr11,62).
transportCost(tr11,1).
transportSpeed(tr11,25).
transportCapacity(tr12,65).
transportCO2(tr12,709).
transportCost(tr12,3).
transportSpeed(tr12,55).
transportCapacity(tr13,68).
transportCO2(tr13,160).
transportCost(tr13,6).
transportSpeed(tr13,25).
transportCapacity(tr14,146).
transportCO2(tr14,780).
transportCost(tr14,4).
transportSpeed(tr14,50).
transportCapacity(tr15,2217).
transportCO2(tr15,49470).
transportCost(tr15,32).
transportSpeed(tr15,625).
transportCapacity(tr2,96).
transportCO2(tr2,709).
transportCost(tr2,3).
transportSpeed(tr2,55).
transportCapacity(tr3,1).
transportCO2(tr3,6250).
transportCost(tr3,108).
transportSpeed(tr3,25).
transportCapacity(tr4,148).
transportCO2(tr4,780).
transportCost(tr4,4).
transportSpeed(tr4,50).
transportCapacity(tr5,65).
transportCO2(tr5,780).
transportCost(tr5,3).
transportSpeed(tr5,50).
transportCapacity(tr6,1).
transportCO2(tr6,100).
transportCost(tr6,40).
transportSpeed(tr6,25).
transportCapacity(tr7,1).
transportCO2(tr7,18000).
transportCost(tr7,278).
transportSpeed(tr7,10).
transportCapacity(tr8,1).
transportCO2(tr8,14400).
transportCost(tr8,107).
transportSpeed(tr8,25).
transportCapacity(tr9,65).
transportCO2(tr9,708).
transportCost(tr9,2).
transportSpeed(tr9,60).

% ---- parts ----
part(part0).
partSize(part0,21).
valid_transport(part0,tr0).
valid_transport(part0,tr15).
valid_transport(part0,tr14).
valid_transport(part0,tr13).
valid_transport(part0,tr4).
part(part1).
partSize(part1,1).
valid_transport(part1,tr0).
valid_transport(part1,tr2).
valid_transport(part1,tr15).
valid_transport(part1,tr9).
valid_transport(part1,tr12).
valid_transport(part1,tr13).
valid_transport(part1,tr11).
part(part10).
partSize(part10,1).
valid_transport(part10,tr0).
valid_transport(part10,tr2).
valid_transport(part10,tr15).
valid_transport(part10,tr9).
valid_transport(part10,tr12).
valid_transport(part10,tr13).
valid_transport(part10,tr11).
part(part11).
partSize(part11,83).
valid_transport(part11,tr0).
valid_transport(part11,tr7).
valid_transport(part11,tr8).
valid_transport(part11,tr15).
valid_transport(part11,tr3).
valid_transport(part11,tr13).
part(part12).
partSize(part12,273).
valid_transport(part12,tr0).
valid_transport(part12,tr7).
valid_transport(part12,tr8).
valid_transport(part12,tr15).
valid_transport(part12,tr3).
valid_transport(part12,tr13).
part(part13).
partSize(part13,1).
valid_transport(part13,tr0).
valid_transport(part13,tr2).
valid_transport(part13,tr15).
valid_transport(part13,tr9).
valid_transport(part13,tr12).
valid_transport(part13,tr13).
valid_transport(part13,tr11).
part(part14).
partSize(part14,68).
valid_transport(part14,tr0).
valid_transport(part14,tr15).
valid_transport(part14,tr13).
part(part15).
partSize(part15,4).
valid_transport(part15,tr0).
valid_transport(part15,tr2).
valid_transport(part15,tr15).
valid_transport(part15,tr9).
valid_transport(part15,tr12).
valid_transport(part15,tr13).
valid_transport(part15,tr11).
part(part16).
partSize(part16,4).
valid_transport(part16,tr0).
valid_transport(part16,tr2).
valid_transport(part16,tr15).
valid_transport(part16,tr9).
valid_transport(part16,tr12).
valid_transport(part16,tr13).
valid_transport(part16,tr11).
part(part17).
partSize(part17,8).
valid_transport(part17,tr0).
valid_transport(part17,tr15).
valid_transport(part17,tr14).
valid_transport(part17,tr13).
valid_transport(part17,tr4).
part(part18).
partSize(part18,24).
valid_transport(part18,tr0).
valid_transport(part18,tr15).
valid_transport(part18,tr14).
valid_transport(part18,tr13).
valid_transport(part18,tr4).
part(part19).
partSize(part19,6).
valid_transport(part19,tr0).
valid_transport(part19,tr2).
valid_transport(part19,tr15).
valid_transport(part19,tr9).
valid_transport(part19,tr12).
valid_transport(part19,tr13).
valid_transport(part19,tr11).
part(part2).
partSize(part2,19).
valid_transport(part2,tr0).
valid_transport(part2,tr15).
valid_transport(part2,tr14).
valid_transport(part2,tr13).
valid_transport(part2,tr4).
part(part20).
partSize(part20,128).
valid_transport(part20,tr0).
valid_transport(part20,tr7).
valid_transport(part20,tr8).
valid_transport(part20,tr15).
valid_transport(part20,tr3).
valid_transport(part20,tr13).
part(part21).
partSize(part21,25).
valid_transport(part21,tr0).
valid_transport(part21,tr15).
valid_transport(part21,tr14).
valid_transport(part21,tr13).
valid_transport(part21,tr4).
part(part22).
partSize(part22,7).
valid_transport(part22,tr0).
valid_transport(part22,tr2).
valid_transport(part22,tr15).
valid_transport(part22,tr9).
valid_transport(part22,tr12).
valid_transport(part22,tr13).
valid_transport(part22,tr11).
part(part23).
partSize(part23,5).
valid_transport(part23,tr0).
valid_transport(part23,tr15).
valid_transport(part23,tr14).
valid_transport(part23,tr13).
valid_transport(part23,tr4).
part(part24).
partSize(part24,55).
valid_transport(part24,tr0).
valid_transport(part24,tr7).
valid_transport(part24,tr8).
valid_transport(part24,tr15).
valid_transport(part24,tr3).
valid_transport(part24,tr13).
part(part25).
partSize(part25,5).
valid_transport(part25,tr0).
valid_transport(part25,tr4).
valid_transport(part25,tr2).
valid_transport(part25,tr15).
valid_transport(part25,tr13).
part(part26).
partSize(part26,32).
valid_transport(part26,tr0).
valid_transport(part26,tr7).
valid_transport(part26,tr8).
valid_transport(part26,tr15).
valid_transport(part26,tr3).
valid_transport(part26,tr13).
part(part27).
partSize(part27,5).
valid_transport(part27,tr0).
valid_transport(part27,tr2).
valid_transport(part27,tr15).
valid_transport(part27,tr9).
valid_transport(part27,tr12).
valid_transport(part27,tr13).
valid_transport(part27,tr11).
part(part28).
partSize(part28,3).
valid_transport(part28,tr0).
valid_transport(part28,tr4).
valid_transport(part28,tr2).
valid_transport(part28,tr15).
valid_transport(part28,tr14).
valid_transport(part28,tr13).
part(part29).
partSize(part29,627).
part(part3).
partSize(part3,48).
valid_transport(part3,tr0).
valid_transport(part3,tr7).
valid_transport(part3,tr8).
valid_transport(part3,tr15).
valid_transport(part3,tr3).
valid_transport(part3,tr13).
part(part30).
partSize(part30,2).
valid_transport(part30,tr0).
valid_transport(part30,tr2).
valid_transport(part30,tr15).
valid_transport(part30,tr9).
valid_transport(part30,tr12).
valid_transport(part30,tr13).
valid_transport(part30,tr11).
part(part31).
partSize(part31,144).
valid_transport(part31,tr0).
valid_transport(part31,tr7).
valid_transport(part31,tr8).
valid_transport(part31,tr15).
valid_transport(part31,tr3).
valid_transport(part31,tr13).
part(part32).
partSize(part32,16).
valid_transport(part32,tr0).
valid_transport(part32,tr4).
valid_transport(part32,tr2).
valid_transport(part32,tr15).
valid_transport(part32,tr14).
valid_transport(part32,tr13).
part(part33).
partSize(part33,7).
valid_transport(part33,tr0).
valid_transport(part33,tr2).
valid_transport(part33,tr15).
valid_transport(part33,tr9).
valid_transport(part33,tr12).
valid_transport(part33,tr13).
valid_transport(part33,tr11).
part(part3345).
partSize(part3345,353).
valid_transport(part3345,tr0).
valid_transport(part3345,tr7).
valid_transport(part3345,tr8).
valid_transport(part3345,tr15).
valid_transport(part3345,tr3).
valid_transport(part3345,tr13).
part(part34).
partSize(part34,2).
valid_transport(part34,tr0).
valid_transport(part34,tr2).
valid_transport(part34,tr15).
valid_transport(part34,tr9).
valid_transport(part34,tr12).
valid_transport(part34,tr13).
valid_transport(part34,tr11).
part(part4).
partSize(part4,2).
valid_transport(part4,tr0).
valid_transport(part4,tr2).
valid_transport(part4,tr15).
valid_transport(part4,tr9).
valid_transport(part4,tr12).
valid_transport(part4,tr13).
valid_transport(part4,tr11).
part(part5).
partSize(part5,2).
valid_transport(part5,tr0).
valid_transport(part5,tr2).
valid_transport(part5,tr15).
valid_transport(part5,tr9).
valid_transport(part5,tr12).
valid_transport(part5,tr14).
valid_transport(part5,tr13).
valid_transport(part5,tr11).
part(part6).
partSize(part6,111).
valid_transport(part6,tr0).
valid_transport(part6,tr7).
valid_transport(part6,tr8).
valid_transport(part6,tr15).
valid_transport(part6,tr3).
valid_transport(part6,tr13).
part(part8).
partSize(part8,163).
valid_transport(part8,tr0).
valid_transport(part8,tr7).
valid_transport(part8,tr8).
valid_transport(part8,tr15).
valid_transport(part8,tr3).
valid_transport(part8,tr13).
part(part9).
partSize(part9,2).
valid_transport(part9,tr0).
valid_transport(part9,tr2).
valid_transport(part9,tr15).
valid_transport(part9,tr9).
valid_transport(part9,tr12).
valid_transport(part9,tr13).
valid_transport(part9,tr11).

% ---- demand ----
demandOffer(part0,prodloc3,40).
demandOffer(part0,prodloc5,40).
demandOffer(part0,prodloc23,-27).
demandOffer(part0,prodloc10,-53).
demandOffer(part1,prodloc19,20).
demandOffer(part1,prodloc16,20).
demandOffer(part1,prodloc13,-20).
demandOffer(part1,prodloc2,-20).
demandOffer(part10,prodloc10,20).
demandOffer(part10,prodloc27,20).
demandOffer(part10,prodloc25,-20).
demandOffer(part10,prodloc32,-20).
demandOffer(part12,prodloc23,10).
demandOffer(part12,prodloc28,20).
demandOffer(part12,prodloc32,-10).
demandOffer(part12,prodloc17,-10).
demandOffer(part12,prodloc2,-10).
demandOffer(part13,prodloc1,20).
demandOffer(part13,prodloc23,20).
demandOffer(part13,prodloc29,-20).
demandOffer(part13,prodloc20,-20).
demandOffer(part14,prodloc24,26).
demandOffer(part14,prodloc27,-26).
demandOffer(part15,prodloc33,53).
demandOffer(part15,prodloc10,27).
demandOffer(part15,prodloc11,-53).
demandOffer(part15,prodloc15,-27).
demandOffer(part16,prodloc14,53).
demandOffer(part16,prodloc1,27).
demandOffer(part16,prodloc11,-53).
demandOffer(part16,prodloc20,-27).
demandOffer(part17,prodloc11,20).
demandOffer(part17,prodloc8,-20).
demandOffer(part18,prodloc32,40).
demandOffer(part18,prodloc23,40).
demandOffer(part18,prodloc11,-27).
demandOffer(part18,prodloc28,-53).
demandOffer(part19,prodloc26,26).
demandOffer(part19,prodloc33,-26).
demandOffer(part2,prodloc23,40).
demandOffer(part2,prodloc22,40).
demandOffer(part2,prodloc28,-27).
demandOffer(part2,prodloc10,-53).
demandOffer(part20,prodloc25,53).
demandOffer(part20,prodloc29,27).
demandOffer(part20,prodloc33,-14).
demandOffer(part20,prodloc15,-46).
demandOffer(part20,prodloc31,-20).
demandOffer(part21,prodloc17,26).
demandOffer(part21,prodloc31,-26).
demandOffer(part22,prodloc32,53).
demandOffer(part22,prodloc22,27).
demandOffer(part22,prodloc29,-53).
demandOffer(part22,prodloc31,-27).
demandOffer(part23,prodloc14,20).
demandOffer(part23,prodloc20,20).
demandOffer(part23,prodloc10,-20).
demandOffer(part23,prodloc17,-20).
demandOffer(part25,prodloc30,20).
demandOffer(part25,prodloc19,-20).
demandOffer(part26,prodloc19,20).
demandOffer(part26,prodloc32,20).
demandOffer(part26,prodloc33,-14).
demandOffer(part26,prodloc26,-26).
demandOffer(part27,prodloc19,53).
demandOffer(part27,prodloc13,27).
demandOffer(part27,prodloc31,-53).
demandOffer(part27,prodloc32,-27).
demandOffer(part28,prodloc23,20).
demandOffer(part28,prodloc4,20).
demandOffer(part28,prodloc21,-20).
demandOffer(part28,prodloc0,-20).
demandOffer(part3,prodloc12,40).
demandOffer(part3,prodloc6,-14).
demandOffer(part3,prodloc3,-26).
demandOffer(part30,prodloc3,40).
demandOffer(part30,prodloc17,40).
demandOffer(part30,prodloc14,-27).
demandOffer(part30,prodloc6,-53).
demandOffer(part31,prodloc33,7).
demandOffer(part31,prodloc8,7).
demandOffer(part31,prodloc17,-14).
demandOffer(part32,prodloc15,53).
demandOffer(part32,prodloc13,27).
demandOffer(part32,prodloc3,-53).
demandOffer(part32,prodloc27,-27).
demandOffer(part33,prodloc2,53).
demandOffer(part33,prodloc3,27).
demandOffer(part33,prodloc23,-53).
demandOffer(part33,prodloc11,-27).
demandOffer(part34,prodloc15,20).
demandOffer(part34,prodloc1,-20).
demandOffer(part4,prodloc5,26).
demandOffer(part4,prodloc7,-26).
demandOffer(part5,prodloc4,20).
demandOffer(part5,prodloc1,-20).
demandOffer(part6,prodloc2,27).
demandOffer(part6,prodloc1,53).
demandOffer(part6,prodloc23,-24).
demandOffer(part6,prodloc8,-36).
demandOffer(part6,prodloc4,-10).
demandOffer(part6,prodloc26,-10).
demandOffer(part8,prodloc10,3).
demandOffer(part8,prodloc11,17).
demandOffer(part8,prodloc33,-10).
demandOffer(part8,prodloc0,-10).
demandOffer(part9,prodloc24,20).
demandOffer(part9,prodloc2,-20).

% ---- network (ASP-generated) ----
route(harbor0,harbor1,tr13,26052,156312).
route(harbor0,harbor1,tr2,26052,78156).
route(harbor0,harbor2,tr13,8150,48900).
route(harbor0,harbor2,tr2,8150,24450).
route(harbor0,harbor3,tr13,4991,29946).
route(harbor0,harbor3,tr2,4991,14973).
route(harbor0,harbor4,tr13,1218,7308).
route(harbor0,harbor4,tr2,1218,3654).
route(harbor0,harbor5,tr13,167,1002).
route(harbor0,harbor5,tr2,167,501).
route(harbor0,harbor6,tr13,11308,67848).
route(harbor0,harbor6,tr2,11308,33924).
route(harbor0,harbor7,tr13,20190,121140).
route(harbor0,harbor7,tr2,20190,60570).
route(harbor0,harbor8,tr13,20600,123600).
route(harbor0,harbor8,tr2,20600,61800).
route(harbor0,harbor9,tr13,24358,146148).
route(harbor0,harbor9,tr2,24358,73074).
route(harbor0,harbor10,tr13,24529,147174).
route(harbor0,harbor10,tr2,24529,73587).
route(harbor0,harbor11,tr13,3736,22416).
route(harbor0,harbor11,tr2,3736,11208).
route(harbor0,harbor12,tr13,9402,56412).
route(harbor0,harbor12,tr2,9402,28206).
route(harbor0,harbor13,tr13,11079,66474).
route(harbor0,harbor13,tr2,11079,33237).
route(harbor0,harbor14,tr13,16045,96270).
route(harbor0,harbor14,tr2,16045,48135).
route(harbor0,harbor15,tr13,1039,6234).
route(harbor0,harbor15,tr2,1039,3117).
route(harbor0,harbor16,tr13,10135,60810).
route(harbor0,harbor16,tr2,10135,30405).
route(harbor0,prodloc0,tr0,14703,382278).
route(harbor0,prodloc0,tr13,14703,88218).
route(harbor0,prodloc1,tr0,18073,469898).
route(harbor0,prodloc1,tr13,18073,108438).
route(harbor0,prodloc2,tr0,25101,652626).
route(harbor0,prodloc2,tr13,25101,150606).
route(harbor0,prodloc3,tr0,19831,515606).
route(harbor0,prodloc3,tr13,19831,118986).
route(harbor0,prodloc4,tr0,24248,630448).
route(harbor0,prodloc4,tr13,24248,145488).
route(harbor0,prodloc5,tr0,1501,39026).
route(harbor0,prodloc5,tr13,1501,9006).
route(harbor0,prodloc6,tr0,8650,224900).
route(harbor0,prodloc6,tr13,8650,51900).
route(harbor0,prodloc7,tr0,24763,643838).
route(harbor0,prodloc7,tr13,24763,148578).
route(harbor0,prodloc8,tr0,13169,342394).
route(harbor0,prodloc8,tr13,13169,79014).
route(harbor0,prodloc9,tr0,28262,734812).
route(harbor0,prodloc9,tr13,28262,169572).
route(harbor0,prodloc10,tr0,20370,529620).
route(harbor0,prodloc10,tr13,20370,122220).
route(harbor0,prodloc11,tr0,23114,600964).
route(harbor0,prodloc11,tr13,23114,138684).
route(harbor0,prodloc12,tr0,5030,130780).
route(harbor0,prodloc12,tr13,5030,30180).
route(harbor0,prodloc13,tr0,15494,402844).
route(harbor0,prodloc13,tr13,15494,92964).
route(harbor0,prodloc14,tr0,7392,192192).
route(harbor0,prodloc14,tr13,7392,44352).
route(harbor0,prodloc15,tr0,3064,79664).
route(harbor0,prodloc15,tr13,3064,18384).
route(harbor0,prodloc16,tr0,21656,563056).
route(harbor0,prodloc16,tr13,21656,129936).
route(harbor0,prodloc17,tr0,22526,585676).
route(harbor0,prodloc17,tr13,22526,135156).
route(harbor0,prodloc18,tr0,10366,269516).
route(harbor0,prodloc18,tr13,10366,62196).
route(harbor0,prodloc19,tr0,27474,714324).
route(harbor0,prodloc19,tr13,27474,164844).
route(harbor0,prodloc20,tr0,3345,86970).
route(harbor0,prodloc20,tr13,3345,20070).
route(harbor0,prodloc21,tr0,795,20670).
route(harbor0,prodloc21,tr13,795,4770).
route(harbor0,prodloc22,tr0,14676,381576).
route(harbor0,prodloc22,tr13,14676,88056).
route(harbor0,prodloc23,tr0,25836,671736).
route(harbor0,prodloc23,tr13,25836,155016).
route(harbor0,prodloc24,tr0,28666,745316).
route(harbor0,prodloc24,tr13,28666,171996).
route(harbor0,prodloc25,tr0,4181,108706).
route(harbor0,prodloc25,tr13,4181,25086).
route(harbor0,prodloc26,tr0,16985,441610).
route(harbor0,prodloc26,tr13,16985,101910).
route(harbor0,prodloc27,tr0,19169,498394).
route(harbor0,prodloc27,tr13,19169,115014).
route(harbor0,prodloc28,tr0,25595,665470).
route(harbor0,prodloc28,tr13,25595,153570).
route(harbor0,prodloc29,tr0,12878,334828).
route(harbor0,prodloc29,tr13,12878,77268).
route(harbor0,prodloc30,tr0,15957,414882).
route(harbor0,prodloc30,tr13,15957,95742).
route(harbor0,prodloc31,tr0,16871,438646).
route(harbor0,prodloc31,tr13,16871,101226).
route(harbor0,prodloc32,tr0,10748,279448).
route(harbor0,prodloc32,tr13,10748,64488).
route(harbor0,prodloc33,tr0,4715,122590).
route(harbor0,prodloc33,tr13,4715,28290).
route(harbor1,harbor0,tr13,28683,172098).
route(harbor1,harbor0,tr2,28683,86049).
route(harbor1,harbor2,tr13,11205,67230).
route(harbor1,harbor2,tr2,11205,33615).
route(harbor1,harbor3,tr13,8520,51120).
route(harbor1,harbor3,tr2,8520,25560).
route(harbor1,harbor4,tr13,8609,51654).
route(harbor1,harbor4,tr2,8609,25827).
route(harbor1,harbor5,tr13,19889,119334).
route(harbor1,harbor5,tr2,19889,59667).
route(harbor1,harbor6,tr13,13784,82704).
route(harbor1,harbor6,tr2,13784,41352).
route(harbor1,harbor7,tr13,21437,128622).
route(harbor1,harbor7,tr2,21437,64311).
route(harbor1,harbor8,tr13,620,3720).
route(harbor1,harbor8,tr2,620,1860).
route(harbor1,harbor9,tr13,22950,137700).
route(harbor1,harbor9,tr2,22950,68850).
route(harbor1,harbor10,tr13,18312,109872).
route(harbor1,harbor10,tr2,18312,54936).
route(harbor1,harbor11,tr13,4636,27816).
route(harbor1,harbor11,tr2,4636,13908).
route(harbor1,harbor12,tr13,22002,132012).
route(harbor1,harbor12,tr2,22002,66006).
route(harbor1,harbor13,tr13,1890,11340).
route(harbor1,harbor13,tr2,1890,5670).
route(harbor1,harbor14,tr13,8319,49914).
route(harbor1,harbor14,tr2,8319,24957).
route(harbor1,harbor15,tr13,1129,6774).
route(harbor1,harbor15,tr2,1129,3387).
route(harbor1,harbor16,tr13,4345,26070).
route(harbor1,harbor16,tr2,4345,13035).
route(harbor1,prodloc0,tr0,5283,137358).
route(harbor1,prodloc0,tr13,5283,31698).
route(harbor1,prodloc1,tr0,5595,145470).
route(harbor1,prodloc1,tr13,5595,33570).
route(harbor1,prodloc2,tr0,3143,81718).
route(harbor1,prodloc2,tr13,3143,18858).
route(harbor1,prodloc3,tr0,14858,386308).
route(harbor1,prodloc3,tr13,14858,89148).
route(harbor1,prodloc4,tr0,20812,541112).
route(harbor1,prodloc4,tr13,20812,124872).
route(harbor1,prodloc5,tr0,7592,197392).
route(harbor1,prodloc5,tr13,7592,45552).
route(harbor1,prodloc6,tr0,16656,433056).
route(harbor1,prodloc6,tr13,16656,99936).
route(harbor1,prodloc7,tr0,23204,603304).
route(harbor1,prodloc7,tr13,23204,139224).
route(harbor1,prodloc8,tr0,1030,26780).
route(harbor1,prodloc8,tr13,1030,6180).
route(harbor1,prodloc9,tr0,8087,210262).
route(harbor1,prodloc9,tr13,8087,48522).
route(harbor1,prodloc10,tr0,7619,198094).
route(harbor1,prodloc10,tr13,7619,45714).
route(harbor1,prodloc11,tr0,23394,608244).
route(harbor1,prodloc11,tr13,23394,140364).
route(harbor1,prodloc12,tr0,14573,378898).
route(harbor1,prodloc12,tr13,14573,87438).
route(harbor1,prodloc13,tr0,2412,62712).
route(harbor1,prodloc13,tr13,2412,14472).
route(harbor1,prodloc14,tr0,8219,213694).
route(harbor1,prodloc14,tr13,8219,49314).
route(harbor1,prodloc15,tr0,2637,68562).
route(harbor1,prodloc15,tr13,2637,15822).
route(harbor1,prodloc16,tr0,19375,503750).
route(harbor1,prodloc16,tr13,19375,116250).
route(harbor1,prodloc17,tr0,7479,194454).
route(harbor1,prodloc17,tr13,7479,44874).
route(harbor1,prodloc18,tr0,20454,531804).
route(harbor1,prodloc18,tr13,20454,122724).
route(harbor1,prodloc19,tr0,25940,674440).
route(harbor1,prodloc19,tr13,25940,155640).
route(harbor1,prodloc20,tr0,26223,681798).
route(harbor1,prodloc20,tr13,26223,157338).
route(harbor1,prodloc21,tr0,20446,531596).
route(harbor1,prodloc21,tr13,20446,122676).
route(harbor1,prodloc22,tr0,23250,604500).
route(harbor1,prodloc22,tr13,23250,139500).
route(harbor1,prodloc23,tr0,11792,306592).
route(harbor1,prodloc23,tr13,11792,70752).
route(harbor1,prodloc24,tr0,8410,218660).
route(harbor1,prodloc24,tr13,8410,50460).
route(harbor1,prodloc25,tr0,22433,583258).
route(harbor1,prodloc25,tr13,22433,134598).
route(harbor1,prodloc26,tr0,13863,360438).
route(harbor1,prodloc26,tr13,13863,83178).
route(harbor1,prodloc27,tr0,9135,237510).
route(harbor1,prodloc27,tr13,9135,54810).
route(harbor1,prodloc28,tr0,17244,448344).
route(harbor1,prodloc28,tr13,17244,103464).
route(harbor1,prodloc29,tr0,24600,639600).
route(harbor1,prodloc29,tr13,24600,147600).
route(harbor1,prodloc30,tr0,160,4160).
route(harbor1,prodloc30,tr13,160,960).
route(harbor1,prodloc31,tr0,4953,128778).
route(harbor1,prodloc31,tr13,4953,29718).
route(harbor1,prodloc32,tr0,1165,30290).
route(harbor1,prodloc32,tr13,1165,6990).
route(harbor1,prodloc33,tr0,12609,327834).
route(harbor1,prodloc33,tr13,12609,75654).
route(harbor2,harbor0,tr13,13423,80538).
route(harbor2,harbor0,tr2,13423,40269).
route(harbor2,harbor1,tr13,5280,31680).
route(harbor2,harbor1,tr2,5280,15840).
route(harbor2,harbor3,tr13,3672,22032).
route(harbor2,harbor3,tr2,3672,11016).
route(harbor2,harbor4,tr13,16809,100854).
route(harbor2,harbor4,tr2,16809,50427).
route(harbor2,harbor5,tr13,23746,142476).
route(harbor2,harbor5,tr2,23746,71238).
route(harbor2,harbor6,tr13,2907,17442).
route(harbor2,harbor6,tr2,2907,8721).
route(harbor2,harbor7,tr13,7922,47532).
route(harbor2,harbor7,tr2,7922,23766).
route(harbor2,harbor8,tr13,3369,20214).
route(harbor2,harbor8,tr2,3369,10107).
route(harbor2,harbor9,tr13,3299,19794).
route(harbor2,harbor9,tr2,3299,9897).
route(harbor2,harbor10,tr13,678,4068).
route(harbor2,harbor10,tr2,678,2034).
route(harbor2,harbor11,tr13,5985,35910).
route(harbor2,harbor11,tr2,5985,17955).
route(harbor2,harbor12,tr13,24625,147750).
route(harbor2,harbor12,tr2,24625,73875).
route(harbor2,harbor13,tr13,7616,45696).
route(harbor2,harbor13,tr2,7616,22848).
route(harbor2,harbor14,tr13,3477,20862).
route(harbor2,harbor14,tr2,3477,10431).
route(harbor2,harbor15,tr13,7152,42912).
route(harbor2,harbor15,tr2,7152,21456).
route(harbor2,harbor16,tr13,830,4980).
route(harbor2,harbor16,tr2,830,2490).
route(harbor2,prodloc0,tr0,17065,443690).
route(harbor2,prodloc0,tr13,17065,102390).
route(harbor2,prodloc1,tr0,21939,570414).
route(harbor2,prodloc1,tr13,21939,131634).
route(harbor2,prodloc2,tr0,15219,395694).
route(harbor2,prodloc2,tr13,15219,91314).
route(harbor2,prodloc3,tr0,14874,386724).
route(harbor2,prodloc3,tr13,14874,89244).
route(harbor2,prodloc4,tr0,10151,263926).
route(harbor2,prodloc4,tr13,10151,60906).
route(harbor2,prodloc5,tr0,17550,456300).
route(harbor2,prodloc5,tr13,17550,105300).
route(harbor2,prodloc6,tr0,21031,546806).
route(harbor2,prodloc6,tr13,21031,126186).
route(harbor2,prodloc7,tr0,12453,323778).
route(harbor2,prodloc7,tr13,12453,74718).
route(harbor2,prodloc8,tr0,6963,181038).
route(harbor2,prodloc8,tr13,6963,41778).
route(harbor2,prodloc9,tr0,22437,583362).
route(harbor2,prodloc9,tr13,22437,134622).
route(harbor2,prodloc10,tr0,24922,647972).
route(harbor2,prodloc10,tr13,24922,149532).
route(harbor2,prodloc11,tr0,6887,179062).
route(harbor2,prodloc11,tr13,6887,41322).
route(harbor2,prodloc12,tr0,23887,621062).
route(harbor2,prodloc12,tr13,23887,143322).
route(harbor2,prodloc13,tr0,26415,686790).
route(harbor2,prodloc13,tr13,26415,158490).
route(harbor2,prodloc14,tr0,14214,369564).
route(harbor2,prodloc14,tr13,14214,85284).
route(harbor2,prodloc15,tr0,13948,362648).
route(harbor2,prodloc15,tr13,13948,83688).
route(harbor2,prodloc16,tr0,16762,435812).
route(harbor2,prodloc16,tr13,16762,100572).
route(harbor2,prodloc17,tr0,700,18200).
route(harbor2,prodloc17,tr13,700,4200).
route(harbor2,prodloc18,tr0,19042,495092).
route(harbor2,prodloc18,tr13,19042,114252).
route(harbor2,prodloc19,tr0,19379,503854).
route(harbor2,prodloc19,tr13,19379,116274).
route(harbor2,prodloc20,tr0,1680,43680).
route(harbor2,prodloc20,tr13,1680,10080).
route(harbor2,prodloc21,tr0,28884,750984).
route(harbor2,prodloc21,tr13,28884,173304).
route(harbor2,prodloc22,tr0,13699,356174).
route(harbor2,prodloc22,tr13,13699,82194).
route(harbor2,prodloc23,tr0,17207,447382).
route(harbor2,prodloc23,tr13,17207,103242).
route(harbor2,prodloc24,tr0,19051,495326).
route(harbor2,prodloc24,tr13,19051,114306).
route(harbor2,prodloc25,tr0,5940,154440).
route(harbor2,prodloc25,tr13,5940,35640).
route(harbor2,prodloc26,tr0,3075,79950).
route(harbor2,prodloc26,tr13,3075,18450).
route(harbor2,prodloc27,tr0,21736,565136).
route(harbor2,prodloc27,tr13,21736,130416).
route(harbor2,prodloc28,tr0,26303,683878).
route(harbor2,prodloc28,tr13,26303,157818).
route(harbor2,prodloc29,tr0,15724,408824).
route(harbor2,prodloc29,tr13,15724,94344).
route(harbor2,prodloc30,tr0,12001,312026).
route(harbor2,prodloc30,tr13,12001,72006).
route(harbor2,prodloc31,tr0,640,16640).
route(harbor2,prodloc31,tr13,640,3840).
route(harbor2,prodloc32,tr0,17015,442390).
route(harbor2,prodloc32,tr13,17015,102090).
route(harbor2,prodloc33,tr0,3887,101062).
route(harbor2,prodloc33,tr13,3887,23322).
route(harbor3,harbor0,tr13,20035,120210).
route(harbor3,harbor0,tr2,20035,60105).
route(harbor3,harbor1,tr13,12038,72228).
route(harbor3,harbor1,tr2,12038,36114).
route(harbor3,harbor2,tr13,9518,57108).
route(harbor3,harbor2,tr2,9518,28554).
route(harbor3,harbor4,tr13,22652,135912).
route(harbor3,harbor4,tr2,22652,67956).
route(harbor3,harbor5,tr13,12227,73362).
route(harbor3,harbor5,tr2,12227,36681).
route(harbor3,harbor6,tr13,10131,60786).
route(harbor3,harbor6,tr2,10131,30393).
route(harbor3,harbor7,tr13,654,3924).
route(harbor3,harbor7,tr2,654,1962).
route(harbor3,harbor8,tr13,28680,172080).
route(harbor3,harbor8,tr2,28680,86040).
route(harbor3,harbor9,tr13,22486,134916).
route(harbor3,harbor9,tr2,22486,67458).
route(harbor3,harbor10,tr13,13538,81228).
route(harbor3,harbor10,tr2,13538,40614).
route(harbor3,harbor11,tr13,3344,20064).
route(harbor3,harbor11,tr2,3344,10032).
route(harbor3,harbor12,tr13,3471,20826).
route(harbor3,harbor12,tr2,3471,10413).
route(harbor3,harbor13,tr13,10054,60324).
route(harbor3,harbor13,tr2,10054,30162).
route(harbor3,harbor14,tr13,6530,39180).
route(harbor3,harbor14,tr2,6530,19590).
route(harbor3,harbor15,tr13,27575,165450).
route(harbor3,harbor15,tr2,27575,82725).
route(harbor3,harbor16,tr13,25436,152616).
route(harbor3,harbor16,tr2,25436,76308).
route(harbor3,prodloc0,tr0,22040,573040).
route(harbor3,prodloc0,tr13,22040,132240).
route(harbor3,prodloc1,tr0,27048,703248).
route(harbor3,prodloc1,tr13,27048,162288).
route(harbor3,prodloc2,tr0,517,13442).
route(harbor3,prodloc2,tr13,517,3102).
route(harbor3,prodloc3,tr0,26611,691886).
route(harbor3,prodloc3,tr13,26611,159666).
route(harbor3,prodloc4,tr0,14794,384644).
route(harbor3,prodloc4,tr13,14794,88764).
route(harbor3,prodloc5,tr0,1967,51142).
route(harbor3,prodloc5,tr13,1967,11802).
route(harbor3,prodloc6,tr0,13458,349908).
route(harbor3,prodloc6,tr13,13458,80748).
route(harbor3,prodloc7,tr0,20884,542984).
route(harbor3,prodloc7,tr13,20884,125304).
route(harbor3,prodloc8,tr0,15922,413972).
route(harbor3,prodloc8,tr13,15922,95532).
route(harbor3,prodloc9,tr0,15184,394784).
route(harbor3,prodloc9,tr13,15184,91104).
route(harbor3,prodloc10,tr0,6825,177450).
route(harbor3,prodloc10,tr13,6825,40950).
route(harbor3,prodloc11,tr0,19293,501618).
route(harbor3,prodloc11,tr13,19293,115758).
route(harbor3,prodloc12,tr0,20107,522782).
route(harbor3,prodloc12,tr13,20107,120642).
route(harbor3,prodloc13,tr0,2419,62894).
route(harbor3,prodloc13,tr13,2419,14514).
route(harbor3,prodloc14,tr0,176,4576).
route(harbor3,prodloc14,tr13,176,1056).
route(harbor3,prodloc15,tr0,9319,242294).
route(harbor3,prodloc15,tr13,9319,55914).
route(harbor3,prodloc16,tr0,793,20618).
route(harbor3,prodloc16,tr13,793,4758).
route(harbor3,prodloc17,tr0,12221,317746).
route(harbor3,prodloc17,tr13,12221,73326).
route(harbor3,prodloc18,tr0,10023,260598).
route(harbor3,prodloc18,tr13,10023,60138).
route(harbor3,prodloc19,tr0,23711,616486).
route(harbor3,prodloc19,tr13,23711,142266).
route(harbor3,prodloc20,tr0,2510,65260).
route(harbor3,prodloc20,tr13,2510,15060).
route(harbor3,prodloc21,tr0,7183,186758).
route(harbor3,prodloc21,tr13,7183,43098).
route(harbor3,prodloc22,tr0,24741,643266).
route(harbor3,prodloc22,tr13,24741,148446).
route(harbor3,prodloc23,tr0,16072,417872).
route(harbor3,prodloc23,tr13,16072,96432).
route(harbor3,prodloc24,tr0,6305,163930).
route(harbor3,prodloc24,tr13,6305,37830).
route(harbor3,prodloc25,tr0,3795,98670).
route(harbor3,prodloc25,tr13,3795,22770).
route(harbor3,prodloc26,tr0,18730,486980).
route(harbor3,prodloc26,tr13,18730,112380).
route(harbor3,prodloc27,tr0,12237,318162).
route(harbor3,prodloc27,tr13,12237,73422).
route(harbor3,prodloc28,tr0,12839,333814).
route(harbor3,prodloc28,tr13,12839,77034).
route(harbor3,prodloc29,tr0,23461,609986).
route(harbor3,prodloc29,tr13,23461,140766).
route(harbor3,prodloc30,tr0,15180,394680).
route(harbor3,prodloc30,tr13,15180,91080).
route(harbor3,prodloc31,tr0,4578,119028).
route(harbor3,prodloc31,tr13,4578,27468).
route(harbor3,prodloc32,tr0,24695,642070).
route(harbor3,prodloc32,tr13,24695,148170).
route(harbor3,prodloc33,tr0,11304,293904).
route(harbor3,prodloc33,tr13,11304,67824).
route(harbor4,harbor0,tr13,12974,77844).
route(harbor4,harbor0,tr2,12974,38922).
route(harbor4,harbor1,tr13,29117,174702).
route(harbor4,harbor1,tr2,29117,87351).
route(harbor4,harbor2,tr13,4018,24108).
route(harbor4,harbor2,tr2,4018,12054).
route(harbor4,harbor3,tr13,8358,50148).
route(harbor4,harbor3,tr2,8358,25074).
route(harbor4,harbor5,tr13,4020,24120).
route(harbor4,harbor5,tr2,4020,12060).
route(harbor4,harbor6,tr13,4059,24354).
route(harbor4,harbor6,tr2,4059,12177).
route(harbor4,harbor7,tr13,2668,16008).
route(harbor4,harbor7,tr2,2668,8004).
route(harbor4,harbor8,tr13,20232,121392).
route(harbor4,harbor8,tr2,20232,60696).
route(harbor4,harbor9,tr13,27885,167310).
route(harbor4,harbor9,tr2,27885,83655).
route(harbor4,harbor10,tr13,10990,65940).
route(harbor4,harbor10,tr2,10990,32970).
route(harbor4,harbor11,tr13,21034,126204).
route(harbor4,harbor11,tr2,21034,63102).
route(harbor4,harbor12,tr13,12845,77070).
route(harbor4,harbor12,tr2,12845,38535).
route(harbor4,harbor13,tr13,6977,41862).
route(harbor4,harbor13,tr2,6977,20931).
route(harbor4,harbor14,tr13,22726,136356).
route(harbor4,harbor14,tr2,22726,68178).
route(harbor4,harbor15,tr13,3483,20898).
route(harbor4,harbor15,tr2,3483,10449).
route(harbor4,harbor16,tr13,838,5028).
route(harbor4,harbor16,tr2,838,2514).
route(harbor4,prodloc0,tr0,20258,526708).
route(harbor4,prodloc0,tr13,20258,121548).
route(harbor4,prodloc1,tr0,21601,561626).
route(harbor4,prodloc1,tr13,21601,129606).
route(harbor4,prodloc2,tr0,15415,400790).
route(harbor4,prodloc2,tr13,15415,92490).
route(harbor4,prodloc3,tr0,25469,662194).
route(harbor4,prodloc3,tr13,25469,152814).
route(harbor4,prodloc4,tr0,1416,36816).
route(harbor4,prodloc4,tr13,1416,8496).
route(harbor4,prodloc5,tr0,23710,616460).
route(harbor4,prodloc5,tr13,23710,142260).
route(harbor4,prodloc6,tr0,23129,601354).
route(harbor4,prodloc6,tr13,23129,138774).
route(harbor4,prodloc7,tr0,16318,424268).
route(harbor4,prodloc7,tr13,16318,97908).
route(harbor4,prodloc8,tr0,9529,247754).
route(harbor4,prodloc8,tr13,9529,57174).
route(harbor4,prodloc9,tr0,11719,304694).
route(harbor4,prodloc9,tr13,11719,70314).
route(harbor4,prodloc10,tr0,14978,389428).
route(harbor4,prodloc10,tr13,14978,89868).
route(harbor4,prodloc11,tr0,4637,120562).
route(harbor4,prodloc11,tr13,4637,27822).
route(harbor4,prodloc12,tr0,26174,680524).
route(harbor4,prodloc12,tr13,26174,157044).
route(harbor4,prodloc13,tr0,12287,319462).
route(harbor4,prodloc13,tr13,12287,73722).
route(harbor4,prodloc14,tr0,8814,229164).
route(harbor4,prodloc14,tr13,8814,52884).
route(harbor4,prodloc15,tr0,15868,412568).
route(harbor4,prodloc15,tr13,15868,95208).
route(harbor4,prodloc16,tr0,17247,448422).
route(harbor4,prodloc16,tr13,17247,103482).
route(harbor4,prodloc17,tr0,28372,737672).
route(harbor4,prodloc17,tr13,28372,170232).
route(harbor4,prodloc18,tr0,15650,406900).
route(harbor4,prodloc18,tr13,15650,93900).
route(harbor4,prodloc19,tr0,23580,613080).
route(harbor4,prodloc19,tr13,23580,141480).
route(harbor4,prodloc20,tr0,23854,620204).
route(harbor4,prodloc20,tr13,23854,143124).
route(harbor4,prodloc21,tr0,26358,685308).
route(harbor4,prodloc21,tr13,26358,158148).
route(harbor4,prodloc22,tr0,13730,356980).
route(harbor4,prodloc22,tr13,13730,82380).
route(harbor4,prodloc23,tr0,16127,419302).
route(harbor4,prodloc23,tr13,16127,96762).
route(harbor4,prodloc24,tr0,27396,712296).
route(harbor4,prodloc24,tr13,27396,164376).
route(harbor4,prodloc25,tr0,22291,579566).
route(harbor4,prodloc25,tr13,22291,133746).
route(harbor4,prodloc26,tr0,9726,252876).
route(harbor4,prodloc26,tr13,9726,58356).
route(harbor4,prodloc27,tr0,12934,336284).
route(harbor4,prodloc27,tr13,12934,77604).
route(harbor4,prodloc28,tr0,7591,197366).
route(harbor4,prodloc28,tr13,7591,45546).
route(harbor4,prodloc29,tr0,5126,133276).
route(harbor4,prodloc29,tr13,5126,30756).
route(harbor4,prodloc30,tr0,16018,416468).
route(harbor4,prodloc30,tr13,16018,96108).
route(harbor4,prodloc31,tr0,19549,508274).
route(harbor4,prodloc31,tr13,19549,117294).
route(harbor4,prodloc32,tr0,8502,221052).
route(harbor4,prodloc32,tr13,8502,51012).
route(harbor4,prodloc33,tr0,17977,467402).
route(harbor4,prodloc33,tr13,17977,107862).
route(harbor5,harbor0,tr13,14043,84258).
route(harbor5,harbor0,tr2,14043,42129).
route(harbor5,harbor1,tr13,22824,136944).
route(harbor5,harbor1,tr2,22824,68472).
route(harbor5,harbor2,tr13,22284,133704).
route(harbor5,harbor2,tr2,22284,66852).
route(harbor5,harbor3,tr13,22941,137646).
route(harbor5,harbor3,tr2,22941,68823).
route(harbor5,harbor4,tr13,2792,16752).
route(harbor5,harbor4,tr2,2792,8376).
route(harbor5,harbor6,tr13,19228,115368).
route(harbor5,harbor6,tr2,19228,57684).
route(harbor5,harbor7,tr13,23878,143268).
route(harbor5,harbor7,tr2,23878,71634).
route(harbor5,harbor8,tr13,26829,160974).
route(harbor5,harbor8,tr2,26829,80487).
route(harbor5,harbor9,tr13,18896,113376).
route(harbor5,harbor9,tr2,18896,56688).
route(harbor5,harbor10,tr13,3174,19044).
route(harbor5,harbor10,tr2,3174,9522).
route(harbor5,harbor11,tr13,2361,14166).
route(harbor5,harbor11,tr2,2361,7083).
route(harbor5,harbor12,tr13,11697,70182).
route(harbor5,harbor12,tr2,11697,35091).
route(harbor5,harbor13,tr13,5801,34806).
route(harbor5,harbor13,tr2,5801,17403).
route(harbor5,harbor14,tr13,17897,107382).
route(harbor5,harbor14,tr2,17897,53691).
route(harbor5,harbor15,tr13,4830,28980).
route(harbor5,harbor15,tr2,4830,14490).
route(harbor5,harbor16,tr13,26450,158700).
route(harbor5,harbor16,tr2,26450,79350).
route(harbor5,prodloc0,tr0,13658,355108).
route(harbor5,prodloc0,tr13,13658,81948).
route(harbor5,prodloc1,tr0,2192,56992).
route(harbor5,prodloc1,tr13,2192,13152).
route(harbor5,prodloc2,tr0,26169,680394).
route(harbor5,prodloc2,tr13,26169,157014).
route(harbor5,prodloc3,tr0,2824,73424).
route(harbor5,prodloc3,tr13,2824,16944).
route(harbor5,prodloc4,tr0,22328,580528).
route(harbor5,prodloc4,tr13,22328,133968).
route(harbor5,prodloc5,tr0,26537,689962).
route(harbor5,prodloc5,tr13,26537,159222).
route(harbor5,prodloc6,tr0,21238,552188).
route(harbor5,prodloc6,tr13,21238,127428).
route(harbor5,prodloc7,tr0,1233,32058).
route(harbor5,prodloc7,tr13,1233,7398).
route(harbor5,prodloc8,tr0,4213,109538).
route(harbor5,prodloc8,tr13,4213,25278).
route(harbor5,prodloc9,tr0,9713,252538).
route(harbor5,prodloc9,tr13,9713,58278).
route(harbor5,prodloc10,tr0,12800,332800).
route(harbor5,prodloc10,tr13,12800,76800).
route(harbor5,prodloc11,tr0,7594,197444).
route(harbor5,prodloc11,tr13,7594,45564).
route(harbor5,prodloc12,tr0,23214,603564).
route(harbor5,prodloc12,tr13,23214,139284).
route(harbor5,prodloc13,tr0,21980,571480).
route(harbor5,prodloc13,tr13,21980,131880).
route(harbor5,prodloc14,tr0,22320,580320).
route(harbor5,prodloc14,tr13,22320,133920).
route(harbor5,prodloc15,tr0,10796,280696).
route(harbor5,prodloc15,tr13,10796,64776).
route(harbor5,prodloc16,tr0,14382,373932).
route(harbor5,prodloc16,tr13,14382,86292).
route(harbor5,prodloc17,tr0,5655,147030).
route(harbor5,prodloc17,tr13,5655,33930).
route(harbor5,prodloc18,tr0,17172,446472).
route(harbor5,prodloc18,tr13,17172,103032).
route(harbor5,prodloc19,tr0,9406,244556).
route(harbor5,prodloc19,tr13,9406,56436).
route(harbor5,prodloc20,tr0,3674,95524).
route(harbor5,prodloc20,tr13,3674,22044).
route(harbor5,prodloc21,tr0,5114,132964).
route(harbor5,prodloc21,tr13,5114,30684).
route(harbor5,prodloc22,tr0,17725,460850).
route(harbor5,prodloc22,tr13,17725,106350).
route(harbor5,prodloc23,tr0,24767,643942).
route(harbor5,prodloc23,tr13,24767,148602).
route(harbor5,prodloc24,tr0,13886,361036).
route(harbor5,prodloc24,tr13,13886,83316).
route(harbor5,prodloc25,tr0,3152,81952).
route(harbor5,prodloc25,tr13,3152,18912).
route(harbor5,prodloc26,tr0,10777,280202).
route(harbor5,prodloc26,tr13,10777,64662).
route(harbor5,prodloc27,tr0,16926,440076).
route(harbor5,prodloc27,tr13,16926,101556).
route(harbor5,prodloc28,tr0,8148,211848).
route(harbor5,prodloc28,tr13,8148,48888).
route(harbor5,prodloc29,tr0,23443,609518).
route(harbor5,prodloc29,tr13,23443,140658).
route(harbor5,prodloc30,tr0,16850,438100).
route(harbor5,prodloc30,tr13,16850,101100).
route(harbor5,prodloc31,tr0,8431,219206).
route(harbor5,prodloc31,tr13,8431,50586).
route(harbor5,prodloc32,tr0,5558,144508).
route(harbor5,prodloc32,tr13,5558,33348).
route(harbor5,prodloc33,tr0,5163,134238).
route(harbor5,prodloc33,tr13,5163,30978).
route(harbor6,harbor0,tr13,15134,90804).
route(harbor6,harbor0,tr2,15134,45402).
route(harbor6,harbor1,tr13,23073,138438).
route(harbor6,harbor1,tr2,23073,69219).
route(harbor6,harbor2,tr13,7712,46272).
route(harbor6,harbor2,tr2,7712,23136).
route(harbor6,harbor3,tr13,13273,79638).
route(harbor6,harbor3,tr2,13273,39819).
route(harbor6,harbor4,tr13,28684,172104).
route(harbor6,harbor4,tr2,28684,86052).
route(harbor6,harbor5,tr13,11779,70674).
route(harbor6,harbor5,tr2,11779,35337).
route(harbor6,harbor7,tr13,25681,154086).
route(harbor6,harbor7,tr2,25681,77043).
route(harbor6,harbor8,tr13,25075,150450).
route(harbor6,harbor8,tr2,25075,75225).
route(harbor6,harbor9,tr13,18820,112920).
route(harbor6,harbor9,tr2,18820,56460).
route(harbor6,harbor10,tr13,23915,143490).
route(harbor6,harbor10,tr2,23915,71745).
route(harbor6,harbor11,tr13,4773,28638).
route(harbor6,harbor11,tr2,4773,14319).
route(harbor6,harbor12,tr13,15321,91926).
route(harbor6,harbor12,tr2,15321,45963).
route(harbor6,harbor13,tr13,14486,86916).
route(harbor6,harbor13,tr2,14486,43458).
route(harbor6,harbor14,tr13,23585,141510).
route(harbor6,harbor14,tr2,23585,70755).
route(harbor6,harbor15,tr13,992,5952).
route(harbor6,harbor15,tr2,992,2976).
route(harbor6,harbor16,tr13,26563,159378).
route(harbor6,harbor16,tr2,26563,79689).
route(harbor6,prodloc0,tr0,19504,507104).
route(harbor6,prodloc0,tr13,19504,117024).
route(harbor6,prodloc1,tr0,12560,326560).
route(harbor6,prodloc1,tr13,12560,75360).
route(harbor6,prodloc2,tr0,28897,751322).
route(harbor6,prodloc2,tr13,28897,173382).
route(harbor6,prodloc3,tr0,24143,627718).
route(harbor6,prodloc3,tr13,24143,144858).
route(harbor6,prodloc4,tr0,5914,153764).
route(harbor6,prodloc4,tr13,5914,35484).
route(harbor6,prodloc5,tr0,12875,334750).
route(harbor6,prodloc5,tr13,12875,77250).
route(harbor6,prodloc6,tr0,16719,434694).
route(harbor6,prodloc6,tr13,16719,100314).
route(harbor6,prodloc7,tr0,1757,45682).
route(harbor6,prodloc7,tr13,1757,10542).
route(harbor6,prodloc8,tr0,15811,411086).
route(harbor6,prodloc8,tr13,15811,94866).
route(harbor6,prodloc9,tr0,8978,233428).
route(harbor6,prodloc9,tr13,8978,53868).
route(harbor6,prodloc10,tr0,13270,345020).
route(harbor6,prodloc10,tr13,13270,79620).
route(harbor6,prodloc11,tr0,8315,216190).
route(harbor6,prodloc11,tr13,8315,49890).
route(harbor6,prodloc12,tr0,23282,605332).
route(harbor6,prodloc12,tr13,23282,139692).
route(harbor6,prodloc13,tr0,23963,623038).
route(harbor6,prodloc13,tr13,23963,143778).
route(harbor6,prodloc14,tr0,13507,351182).
route(harbor6,prodloc14,tr13,13507,81042).
route(harbor6,prodloc15,tr0,23116,601016).
route(harbor6,prodloc15,tr13,23116,138696).
route(harbor6,prodloc16,tr0,21233,552058).
route(harbor6,prodloc16,tr13,21233,127398).
route(harbor6,prodloc17,tr0,15484,402584).
route(harbor6,prodloc17,tr13,15484,92904).
route(harbor6,prodloc18,tr0,11801,306826).
route(harbor6,prodloc18,tr13,11801,70806).
route(harbor6,prodloc19,tr0,17945,466570).
route(harbor6,prodloc19,tr13,17945,107670).
route(harbor6,prodloc20,tr0,10839,281814).
route(harbor6,prodloc20,tr13,10839,65034).
route(harbor6,prodloc21,tr0,23374,607724).
route(harbor6,prodloc21,tr13,23374,140244).
route(harbor6,prodloc22,tr0,24434,635284).
route(harbor6,prodloc22,tr13,24434,146604).
route(harbor6,prodloc23,tr0,21579,561054).
route(harbor6,prodloc23,tr13,21579,129474).
route(harbor6,prodloc24,tr0,2669,69394).
route(harbor6,prodloc24,tr13,2669,16014).
route(harbor6,prodloc25,tr0,24958,648908).
route(harbor6,prodloc25,tr13,24958,149748).
route(harbor6,prodloc26,tr0,26861,698386).
route(harbor6,prodloc26,tr13,26861,161166).
route(harbor6,prodloc27,tr0,27922,725972).
route(harbor6,prodloc27,tr13,27922,167532).
route(harbor6,prodloc28,tr0,23784,618384).
route(harbor6,prodloc28,tr13,23784,142704).
route(harbor6,prodloc29,tr0,7374,191724).
route(harbor6,prodloc29,tr13,7374,44244).
route(harbor6,prodloc30,tr0,17462,454012).
route(harbor6,prodloc30,tr13,17462,104772).
route(harbor6,prodloc31,tr0,20359,529334).
route(harbor6,prodloc31,tr13,20359,122154).
route(harbor6,prodloc32,tr0,6158,160108).
route(harbor6,prodloc32,tr13,6158,36948).
route(harbor6,prodloc33,tr0,13198,343148).
route(harbor6,prodloc33,tr13,13198,79188).
route(harbor7,harbor0,tr13,26778,160668).
route(harbor7,harbor0,tr2,26778,80334).
route(harbor7,harbor1,tr13,21885,131310).
route(harbor7,harbor1,tr2,21885,65655).
route(harbor7,harbor2,tr13,12565,75390).
route(harbor7,harbor2,tr2,12565,37695).
route(harbor7,harbor3,tr13,28896,173376).
route(harbor7,harbor3,tr2,28896,86688).
route(harbor7,harbor4,tr13,20832,124992).
route(harbor7,harbor4,tr2,20832,62496).
route(harbor7,harbor5,tr13,410,2460).
route(harbor7,harbor5,tr2,410,1230).
route(harbor7,harbor6,tr13,10284,61704).
route(harbor7,harbor6,tr2,10284,30852).
route(harbor7,harbor8,tr13,15252,91512).
route(harbor7,harbor8,tr2,15252,45756).
route(harbor7,harbor9,tr13,17186,103116).
route(harbor7,harbor9,tr2,17186,51558).
route(harbor7,harbor10,tr13,23346,140076).
route(harbor7,harbor10,tr2,23346,70038).
route(harbor7,harbor11,tr13,28971,173826).
route(harbor7,harbor11,tr2,28971,86913).
route(harbor7,harbor12,tr13,15309,91854).
route(harbor7,harbor12,tr2,15309,45927).
route(harbor7,harbor13,tr13,21331,127986).
route(harbor7,harbor13,tr2,21331,63993).
route(harbor7,harbor14,tr13,5842,35052).
route(harbor7,harbor14,tr2,5842,17526).
route(harbor7,harbor15,tr13,26770,160620).
route(harbor7,harbor15,tr2,26770,80310).
route(harbor7,harbor16,tr13,3124,18744).
route(harbor7,harbor16,tr2,3124,9372).
route(harbor7,prodloc0,tr0,563,14638).
route(harbor7,prodloc0,tr13,563,3378).
route(harbor7,prodloc1,tr0,13204,343304).
route(harbor7,prodloc1,tr13,13204,79224).
route(harbor7,prodloc2,tr0,7097,184522).
route(harbor7,prodloc2,tr13,7097,42582).
route(harbor7,prodloc3,tr0,23905,621530).
route(harbor7,prodloc3,tr13,23905,143430).
route(harbor7,prodloc4,tr0,18655,485030).
route(harbor7,prodloc4,tr13,18655,111930).
route(harbor7,prodloc5,tr0,19873,516698).
route(harbor7,prodloc5,tr13,19873,119238).
route(harbor7,prodloc6,tr0,12643,328718).
route(harbor7,prodloc6,tr13,12643,75858).
route(harbor7,prodloc7,tr0,7063,183638).
route(harbor7,prodloc7,tr13,7063,42378).
route(harbor7,prodloc8,tr0,3293,85618).
route(harbor7,prodloc8,tr13,3293,19758).
route(harbor7,prodloc9,tr0,12781,332306).
route(harbor7,prodloc9,tr13,12781,76686).
route(harbor7,prodloc10,tr0,26728,694928).
route(harbor7,prodloc10,tr13,26728,160368).
route(harbor7,prodloc11,tr0,18277,475202).
route(harbor7,prodloc11,tr13,18277,109662).
route(harbor7,prodloc12,tr0,25135,653510).
route(harbor7,prodloc12,tr13,25135,150810).
route(harbor7,prodloc13,tr0,26268,682968).
route(harbor7,prodloc13,tr13,26268,157608).
route(harbor7,prodloc14,tr0,6540,170040).
route(harbor7,prodloc14,tr13,6540,39240).
route(harbor7,prodloc15,tr0,8993,233818).
route(harbor7,prodloc15,tr13,8993,53958).
route(harbor7,prodloc16,tr0,24389,634114).
route(harbor7,prodloc16,tr13,24389,146334).
route(harbor7,prodloc17,tr0,19211,499486).
route(harbor7,prodloc17,tr13,19211,115266).
route(harbor7,prodloc18,tr0,19014,494364).
route(harbor7,prodloc18,tr13,19014,114084).
route(harbor7,prodloc19,tr0,6276,163176).
route(harbor7,prodloc19,tr13,6276,37656).
route(harbor7,prodloc20,tr0,16051,417326).
route(harbor7,prodloc20,tr13,16051,96306).
route(harbor7,prodloc21,tr0,26353,685178).
route(harbor7,prodloc21,tr13,26353,158118).
route(harbor7,prodloc22,tr0,20053,521378).
route(harbor7,prodloc22,tr13,20053,120318).
route(harbor7,prodloc23,tr0,4519,117494).
route(harbor7,prodloc23,tr13,4519,27114).
route(harbor7,prodloc24,tr0,280,7280).
route(harbor7,prodloc24,tr13,280,1680).
route(harbor7,prodloc25,tr0,20066,521716).
route(harbor7,prodloc25,tr13,20066,120396).
route(harbor7,prodloc26,tr0,22241,578266).
route(harbor7,prodloc26,tr13,22241,133446).
route(harbor7,prodloc27,tr0,14236,370136).
route(harbor7,prodloc27,tr13,14236,85416).
route(harbor7,prodloc28,tr0,15798,410748).
route(harbor7,prodloc28,tr13,15798,94788).
route(harbor7,prodloc29,tr0,8314,216164).
route(harbor7,prodloc29,tr13,8314,49884).
route(harbor7,prodloc30,tr0,16826,437476).
route(harbor7,prodloc30,tr13,16826,100956).
route(harbor7,prodloc31,tr0,18551,482326).
route(harbor7,prodloc31,tr13,18551,111306).
route(harbor7,prodloc32,tr0,5689,147914).
route(harbor7,prodloc32,tr13,5689,34134).
route(harbor7,prodloc33,tr0,15307,397982).
route(harbor7,prodloc33,tr13,15307,91842).
route(harbor8,harbor0,tr13,23384,140304).
route(harbor8,harbor0,tr2,23384,70152).
route(harbor8,harbor1,tr13,6747,40482).
route(harbor8,harbor1,tr2,6747,20241).
route(harbor8,harbor2,tr13,24938,149628).
route(harbor8,harbor2,tr2,24938,74814).
route(harbor8,harbor3,tr13,2416,14496).
route(harbor8,harbor3,tr2,2416,7248).
route(harbor8,harbor4,tr13,11506,69036).
route(harbor8,harbor4,tr2,11506,34518).
route(harbor8,harbor5,tr13,129,774).
route(harbor8,harbor5,tr2,129,387).
route(harbor8,harbor6,tr13,15936,95616).
route(harbor8,harbor6,tr2,15936,47808).
route(harbor8,harbor7,tr13,17500,105000).
route(harbor8,harbor7,tr2,17500,52500).
route(harbor8,harbor9,tr13,27463,164778).
route(harbor8,harbor9,tr2,27463,82389).
route(harbor8,harbor10,tr13,21954,131724).
route(harbor8,harbor10,tr2,21954,65862).
route(harbor8,harbor11,tr13,21604,129624).
route(harbor8,harbor11,tr2,21604,64812).
route(harbor8,harbor12,tr13,2174,13044).
route(harbor8,harbor12,tr2,2174,6522).
route(harbor8,harbor13,tr13,24759,148554).
route(harbor8,harbor13,tr2,24759,74277).
route(harbor8,harbor14,tr13,19414,116484).
route(harbor8,harbor14,tr2,19414,58242).
route(harbor8,harbor15,tr13,15922,95532).
route(harbor8,harbor15,tr2,15922,47766).
route(harbor8,harbor16,tr13,22141,132846).
route(harbor8,harbor16,tr2,22141,66423).
route(harbor8,prodloc0,tr0,10975,285350).
route(harbor8,prodloc0,tr13,10975,65850).
route(harbor8,prodloc1,tr0,15052,391352).
route(harbor8,prodloc1,tr13,15052,90312).
route(harbor8,prodloc2,tr0,8749,227474).
route(harbor8,prodloc2,tr13,8749,52494).
route(harbor8,prodloc3,tr0,28756,747656).
route(harbor8,prodloc3,tr13,28756,172536).
route(harbor8,prodloc4,tr0,16481,428506).
route(harbor8,prodloc4,tr13,16481,98886).
route(harbor8,prodloc5,tr0,15085,392210).
route(harbor8,prodloc5,tr13,15085,90510).
route(harbor8,prodloc6,tr0,904,23504).
route(harbor8,prodloc6,tr13,904,5424).
route(harbor8,prodloc7,tr0,2617,68042).
route(harbor8,prodloc7,tr13,2617,15702).
route(harbor8,prodloc8,tr0,20104,522704).
route(harbor8,prodloc8,tr13,20104,120624).
route(harbor8,prodloc9,tr0,24707,642382).
route(harbor8,prodloc9,tr13,24707,148242).
route(harbor8,prodloc10,tr0,11393,296218).
route(harbor8,prodloc10,tr13,11393,68358).
route(harbor8,prodloc11,tr0,5693,148018).
route(harbor8,prodloc11,tr13,5693,34158).
route(harbor8,prodloc12,tr0,24893,647218).
route(harbor8,prodloc12,tr13,24893,149358).
route(harbor8,prodloc13,tr0,24586,639236).
route(harbor8,prodloc13,tr13,24586,147516).
route(harbor8,prodloc14,tr0,25704,668304).
route(harbor8,prodloc14,tr13,25704,154224).
route(harbor8,prodloc15,tr0,13256,344656).
route(harbor8,prodloc15,tr13,13256,79536).
route(harbor8,prodloc16,tr0,8367,217542).
route(harbor8,prodloc16,tr13,8367,50202).
route(harbor8,prodloc17,tr0,22120,575120).
route(harbor8,prodloc17,tr13,22120,132720).
route(harbor8,prodloc18,tr0,20486,532636).
route(harbor8,prodloc18,tr13,20486,122916).
route(harbor8,prodloc19,tr0,25804,670904).
route(harbor8,prodloc19,tr13,25804,154824).
route(harbor8,prodloc20,tr0,27312,710112).
route(harbor8,prodloc20,tr13,27312,163872).
route(harbor8,prodloc21,tr0,28314,736164).
route(harbor8,prodloc21,tr13,28314,169884).
route(harbor8,prodloc22,tr0,23580,613080).
route(harbor8,prodloc22,tr13,23580,141480).
route(harbor8,prodloc23,tr0,4421,114946).
route(harbor8,prodloc23,tr13,4421,26526).
route(harbor8,prodloc24,tr0,1774,46124).
route(harbor8,prodloc24,tr13,1774,10644).
route(harbor8,prodloc25,tr0,5329,138554).
route(harbor8,prodloc25,tr13,5329,31974).
route(harbor8,prodloc26,tr0,16369,425594).
route(harbor8,prodloc26,tr13,16369,98214).
route(harbor8,prodloc27,tr0,12508,325208).
route(harbor8,prodloc27,tr13,12508,75048).
route(harbor8,prodloc28,tr0,15227,395902).
route(harbor8,prodloc28,tr13,15227,91362).
route(harbor8,prodloc29,tr0,22142,575692).
route(harbor8,prodloc29,tr13,22142,132852).
route(harbor8,prodloc30,tr0,9662,251212).
route(harbor8,prodloc30,tr13,9662,57972).
route(harbor8,prodloc31,tr0,5108,132808).
route(harbor8,prodloc31,tr13,5108,30648).
route(harbor8,prodloc32,tr0,342,8892).
route(harbor8,prodloc32,tr13,342,2052).
route(harbor8,prodloc33,tr0,9264,240864).
route(harbor8,prodloc33,tr13,9264,55584).
route(harbor9,harbor0,tr13,18295,109770).
route(harbor9,harbor0,tr2,18295,54885).
route(harbor9,harbor1,tr13,15345,92070).
route(harbor9,harbor1,tr2,15345,46035).
route(harbor9,harbor2,tr13,89,534).
route(harbor9,harbor2,tr2,89,267).
route(harbor9,harbor3,tr13,12038,72228).
route(harbor9,harbor3,tr2,12038,36114).
route(harbor9,harbor4,tr13,1144,6864).
route(harbor9,harbor4,tr2,1144,3432).
route(harbor9,harbor5,tr13,17659,105954).
route(harbor9,harbor5,tr2,17659,52977).
route(harbor9,harbor6,tr13,27883,167298).
route(harbor9,harbor6,tr2,27883,83649).
route(harbor9,harbor7,tr13,12558,75348).
route(harbor9,harbor7,tr2,12558,37674).
route(harbor9,harbor8,tr13,18521,111126).
route(harbor9,harbor8,tr2,18521,55563).
route(harbor9,harbor10,tr13,14539,87234).
route(harbor9,harbor10,tr2,14539,43617).
route(harbor9,harbor11,tr13,6728,40368).
route(harbor9,harbor11,tr2,6728,20184).
route(harbor9,harbor12,tr13,28554,171324).
route(harbor9,harbor12,tr2,28554,85662).
route(harbor9,harbor13,tr13,22194,133164).
route(harbor9,harbor13,tr2,22194,66582).
route(harbor9,harbor14,tr13,10136,60816).
route(harbor9,harbor14,tr2,10136,30408).
route(harbor9,harbor15,tr13,16357,98142).
route(harbor9,harbor15,tr2,16357,49071).
route(harbor9,harbor16,tr13,21298,127788).
route(harbor9,harbor16,tr2,21298,63894).
route(harbor9,prodloc0,tr0,4372,113672).
route(harbor9,prodloc0,tr13,4372,26232).
route(harbor9,prodloc1,tr0,15854,412204).
route(harbor9,prodloc1,tr13,15854,95124).
route(harbor9,prodloc2,tr0,22599,587574).
route(harbor9,prodloc2,tr13,22599,135594).
route(harbor9,prodloc3,tr0,17649,458874).
route(harbor9,prodloc3,tr13,17649,105894).
route(harbor9,prodloc4,tr0,23303,605878).
route(harbor9,prodloc4,tr13,23303,139818).
route(harbor9,prodloc5,tr0,9921,257946).
route(harbor9,prodloc5,tr13,9921,59526).
route(harbor9,prodloc6,tr0,2515,65390).
route(harbor9,prodloc6,tr13,2515,15090).
route(harbor9,prodloc7,tr0,8455,219830).
route(harbor9,prodloc7,tr13,8455,50730).
route(harbor9,prodloc8,tr0,27014,702364).
route(harbor9,prodloc8,tr13,27014,162084).
route(harbor9,prodloc9,tr0,10260,266760).
route(harbor9,prodloc9,tr13,10260,61560).
route(harbor9,prodloc10,tr0,9969,259194).
route(harbor9,prodloc10,tr13,9969,59814).
route(harbor9,prodloc11,tr0,10936,284336).
route(harbor9,prodloc11,tr13,10936,65616).
route(harbor9,prodloc12,tr0,21180,550680).
route(harbor9,prodloc12,tr13,21180,127080).
route(harbor9,prodloc13,tr0,26080,678080).
route(harbor9,prodloc13,tr13,26080,156480).
route(harbor9,prodloc14,tr0,10231,266006).
route(harbor9,prodloc14,tr13,10231,61386).
route(harbor9,prodloc15,tr0,21412,556712).
route(harbor9,prodloc15,tr13,21412,128472).
route(harbor9,prodloc16,tr0,21064,547664).
route(harbor9,prodloc16,tr13,21064,126384).
route(harbor9,prodloc17,tr0,12878,334828).
route(harbor9,prodloc17,tr13,12878,77268).
route(harbor9,prodloc18,tr0,16978,441428).
route(harbor9,prodloc18,tr13,16978,101868).
route(harbor9,prodloc19,tr0,27550,716300).
route(harbor9,prodloc19,tr13,27550,165300).
route(harbor9,prodloc20,tr0,3047,79222).
route(harbor9,prodloc20,tr13,3047,18282).
route(harbor9,prodloc21,tr0,16663,433238).
route(harbor9,prodloc21,tr13,16663,99978).
route(harbor9,prodloc22,tr0,20754,539604).
route(harbor9,prodloc22,tr13,20754,124524).
route(harbor9,prodloc23,tr0,6903,179478).
route(harbor9,prodloc23,tr13,6903,41418).
route(harbor9,prodloc24,tr0,12818,333268).
route(harbor9,prodloc24,tr13,12818,76908).
route(harbor9,prodloc25,tr0,19538,507988).
route(harbor9,prodloc25,tr13,19538,117228).
route(harbor9,prodloc26,tr0,17384,451984).
route(harbor9,prodloc26,tr13,17384,104304).
route(harbor9,prodloc27,tr0,27794,722644).
route(harbor9,prodloc27,tr13,27794,166764).
route(harbor9,prodloc28,tr0,27885,725010).
route(harbor9,prodloc28,tr13,27885,167310).
route(harbor9,prodloc29,tr0,4902,127452).
route(harbor9,prodloc29,tr13,4902,29412).
route(harbor9,prodloc30,tr0,26146,679796).
route(harbor9,prodloc30,tr13,26146,156876).
route(harbor9,prodloc31,tr0,16539,430014).
route(harbor9,prodloc31,tr13,16539,99234).
route(harbor9,prodloc32,tr0,20607,535782).
route(harbor9,prodloc32,tr13,20607,123642).
route(harbor9,prodloc33,tr0,2922,75972).
route(harbor9,prodloc33,tr13,2922,17532).
route(harbor10,harbor0,tr13,10125,60750).
route(harbor10,harbor0,tr2,10125,30375).
route(harbor10,harbor1,tr13,1372,8232).
route(harbor10,harbor1,tr2,1372,4116).
route(harbor10,harbor2,tr13,7662,45972).
route(harbor10,harbor2,tr2,7662,22986).
route(harbor10,harbor3,tr13,15022,90132).
route(harbor10,harbor3,tr2,15022,45066).
route(harbor10,harbor4,tr13,18422,110532).
route(harbor10,harbor4,tr2,18422,55266).
route(harbor10,harbor5,tr13,7635,45810).
route(harbor10,harbor5,tr2,7635,22905).
route(harbor10,harbor6,tr13,17155,102930).
route(harbor10,harbor6,tr2,17155,51465).
route(harbor10,harbor7,tr13,9122,54732).
route(harbor10,harbor7,tr2,9122,27366).
route(harbor10,harbor8,tr13,2037,12222).
route(harbor10,harbor8,tr2,2037,6111).
route(harbor10,harbor9,tr13,3697,22182).
route(harbor10,harbor9,tr2,3697,11091).
route(harbor10,harbor11,tr13,3698,22188).
route(harbor10,harbor11,tr2,3698,11094).
route(harbor10,harbor12,tr13,22160,132960).
route(harbor10,harbor12,tr2,22160,66480).
route(harbor10,harbor13,tr13,26854,161124).
route(harbor10,harbor13,tr2,26854,80562).
route(harbor10,harbor14,tr13,25831,154986).
route(harbor10,harbor14,tr2,25831,77493).
route(harbor10,harbor15,tr13,12456,74736).
route(harbor10,harbor15,tr2,12456,37368).
route(harbor10,harbor16,tr13,28098,168588).
route(harbor10,harbor16,tr2,28098,84294).
route(harbor10,prodloc0,tr0,11949,310674).
route(harbor10,prodloc0,tr13,11949,71694).
route(harbor10,prodloc1,tr0,7005,182130).
route(harbor10,prodloc1,tr13,7005,42030).
route(harbor10,prodloc2,tr0,10435,271310).
route(harbor10,prodloc2,tr13,10435,62610).
route(harbor10,prodloc3,tr0,11670,303420).
route(harbor10,prodloc3,tr13,11670,70020).
route(harbor10,prodloc4,tr0,2537,65962).
route(harbor10,prodloc4,tr13,2537,15222).
route(harbor10,prodloc5,tr0,10969,285194).
route(harbor10,prodloc5,tr13,10969,65814).
route(harbor10,prodloc6,tr0,14989,389714).
route(harbor10,prodloc6,tr13,14989,89934).
route(harbor10,prodloc7,tr0,11886,309036).
route(harbor10,prodloc7,tr13,11886,71316).
route(harbor10,prodloc8,tr0,5457,141882).
route(harbor10,prodloc8,tr13,5457,32742).
route(harbor10,prodloc9,tr0,16306,423956).
route(harbor10,prodloc9,tr13,16306,97836).
route(harbor10,prodloc10,tr0,14485,376610).
route(harbor10,prodloc10,tr13,14485,86910).
route(harbor10,prodloc11,tr0,28490,740740).
route(harbor10,prodloc11,tr13,28490,170940).
route(harbor10,prodloc12,tr0,9569,248794).
route(harbor10,prodloc12,tr13,9569,57414).
route(harbor10,prodloc13,tr0,15110,392860).
route(harbor10,prodloc13,tr13,15110,90660).
route(harbor10,prodloc14,tr0,4388,114088).
route(harbor10,prodloc14,tr13,4388,26328).
route(harbor10,prodloc15,tr0,23545,612170).
route(harbor10,prodloc15,tr13,23545,141270).
route(harbor10,prodloc16,tr0,14485,376610).
route(harbor10,prodloc16,tr13,14485,86910).
route(harbor10,prodloc17,tr0,20961,544986).
route(harbor10,prodloc17,tr13,20961,125766).
route(harbor10,prodloc18,tr0,7076,183976).
route(harbor10,prodloc18,tr13,7076,42456).
route(harbor10,prodloc19,tr0,8948,232648).
route(harbor10,prodloc19,tr13,8948,53688).
route(harbor10,prodloc20,tr0,10691,277966).
route(harbor10,prodloc20,tr13,10691,64146).
route(harbor10,prodloc21,tr0,5211,135486).
route(harbor10,prodloc21,tr13,5211,31266).
route(harbor10,prodloc22,tr0,3264,84864).
route(harbor10,prodloc22,tr13,3264,19584).
route(harbor10,prodloc23,tr0,7795,202670).
route(harbor10,prodloc23,tr13,7795,46770).
route(harbor10,prodloc24,tr0,15366,399516).
route(harbor10,prodloc24,tr13,15366,92196).
route(harbor10,prodloc25,tr0,6213,161538).
route(harbor10,prodloc25,tr13,6213,37278).
route(harbor10,prodloc26,tr0,24654,641004).
route(harbor10,prodloc26,tr13,24654,147924).
route(harbor10,prodloc27,tr0,22234,578084).
route(harbor10,prodloc27,tr13,22234,133404).
route(harbor10,prodloc28,tr0,27730,720980).
route(harbor10,prodloc28,tr13,27730,166380).
route(harbor10,prodloc29,tr0,12250,318500).
route(harbor10,prodloc29,tr13,12250,73500).
route(harbor10,prodloc30,tr0,6075,157950).
route(harbor10,prodloc30,tr13,6075,36450).
route(harbor10,prodloc31,tr0,11670,303420).
route(harbor10,prodloc31,tr13,11670,70020).
route(harbor10,prodloc32,tr0,4597,119522).
route(harbor10,prodloc32,tr13,4597,27582).
route(harbor10,prodloc33,tr0,26055,677430).
route(harbor10,prodloc33,tr13,26055,156330).
route(harbor11,harbor0,tr13,4466,26796).
route(harbor11,harbor0,tr2,4466,13398).
route(harbor11,harbor1,tr13,7670,46020).
route(harbor11,harbor1,tr2,7670,23010).
route(harbor11,harbor2,tr13,8832,52992).
route(harbor11,harbor2,tr2,8832,26496).
route(harbor11,harbor3,tr13,26524,159144).
route(harbor11,harbor3,tr2,26524,79572).
route(harbor11,harbor4,tr13,18072,108432).
route(harbor11,harbor4,tr2,18072,54216).
route(harbor11,harbor5,tr13,20769,124614).
route(harbor11,harbor5,tr2,20769,62307).
route(harbor11,harbor6,tr13,12416,74496).
route(harbor11,harbor6,tr2,12416,37248).
route(harbor11,harbor7,tr13,13145,78870).
route(harbor11,harbor7,tr2,13145,39435).
route(harbor11,harbor8,tr13,26522,159132).
route(harbor11,harbor8,tr2,26522,79566).
route(harbor11,harbor9,tr13,27015,162090).
route(harbor11,harbor9,tr2,27015,81045).
route(harbor11,harbor10,tr13,24586,147516).
route(harbor11,harbor10,tr2,24586,73758).
route(harbor11,harbor12,tr13,11244,67464).
route(harbor11,harbor12,tr2,11244,33732).
route(harbor11,harbor13,tr13,9229,55374).
route(harbor11,harbor13,tr2,9229,27687).
route(harbor11,harbor14,tr13,28819,172914).
route(harbor11,harbor14,tr2,28819,86457).
route(harbor11,harbor15,tr13,23625,141750).
route(harbor11,harbor15,tr2,23625,70875).
route(harbor11,harbor16,tr13,19530,117180).
route(harbor11,harbor16,tr2,19530,58590).
route(harbor11,prodloc0,tr0,16471,428246).
route(harbor11,prodloc0,tr13,16471,98826).
route(harbor11,prodloc1,tr0,19035,494910).
route(harbor11,prodloc1,tr13,19035,114210).
route(harbor11,prodloc2,tr0,22611,587886).
route(harbor11,prodloc2,tr13,22611,135666).
route(harbor11,prodloc3,tr0,23991,623766).
route(harbor11,prodloc3,tr13,23991,143946).
route(harbor11,prodloc4,tr0,10503,273078).
route(harbor11,prodloc4,tr13,10503,63018).
route(harbor11,prodloc5,tr0,24334,632684).
route(harbor11,prodloc5,tr13,24334,146004).
route(harbor11,prodloc6,tr0,13090,340340).
route(harbor11,prodloc6,tr13,13090,78540).
route(harbor11,prodloc7,tr0,24610,639860).
route(harbor11,prodloc7,tr13,24610,147660).
route(harbor11,prodloc8,tr0,23392,608192).
route(harbor11,prodloc8,tr13,23392,140352).
route(harbor11,prodloc9,tr0,28487,740662).
route(harbor11,prodloc9,tr13,28487,170922).
route(harbor11,prodloc10,tr0,23087,600262).
route(harbor11,prodloc10,tr13,23087,138522).
route(harbor11,prodloc11,tr0,20716,538616).
route(harbor11,prodloc11,tr13,20716,124296).
route(harbor11,prodloc12,tr0,24693,642018).
route(harbor11,prodloc12,tr13,24693,148158).
route(harbor11,prodloc13,tr0,23475,610350).
route(harbor11,prodloc13,tr13,23475,140850).
route(harbor11,prodloc14,tr0,9557,248482).
route(harbor11,prodloc14,tr13,9557,57342).
route(harbor11,prodloc15,tr0,17432,453232).
route(harbor11,prodloc15,tr13,17432,104592).
route(harbor11,prodloc16,tr0,20399,530374).
route(harbor11,prodloc16,tr13,20399,122394).
route(harbor11,prodloc17,tr0,20874,542724).
route(harbor11,prodloc17,tr13,20874,125244).
route(harbor11,prodloc18,tr0,21978,571428).
route(harbor11,prodloc18,tr13,21978,131868).
route(harbor11,prodloc19,tr0,2383,61958).
route(harbor11,prodloc19,tr13,2383,14298).
route(harbor11,prodloc20,tr0,12042,313092).
route(harbor11,prodloc20,tr13,12042,72252).
route(harbor11,prodloc21,tr0,10113,262938).
route(harbor11,prodloc21,tr13,10113,60678).
route(harbor11,prodloc22,tr0,12951,336726).
route(harbor11,prodloc22,tr13,12951,77706).
route(harbor11,prodloc23,tr0,15861,412386).
route(harbor11,prodloc23,tr13,15861,95166).
route(harbor11,prodloc24,tr0,5729,148954).
route(harbor11,prodloc24,tr13,5729,34374).
route(harbor11,prodloc25,tr0,8453,219778).
route(harbor11,prodloc25,tr13,8453,50718).
route(harbor11,prodloc26,tr0,11601,301626).
route(harbor11,prodloc26,tr13,11601,69606).
route(harbor11,prodloc27,tr0,14443,375518).
route(harbor11,prodloc27,tr13,14443,86658).
route(harbor11,prodloc28,tr0,15620,406120).
route(harbor11,prodloc28,tr13,15620,93720).
route(harbor11,prodloc29,tr0,2875,74750).
route(harbor11,prodloc29,tr13,2875,17250).
route(harbor11,prodloc30,tr0,6111,158886).
route(harbor11,prodloc30,tr13,6111,36666).
route(harbor11,prodloc31,tr0,10319,268294).
route(harbor11,prodloc31,tr13,10319,61914).
route(harbor11,prodloc32,tr0,12421,322946).
route(harbor11,prodloc32,tr13,12421,74526).
route(harbor11,prodloc33,tr0,4165,108290).
route(harbor11,prodloc33,tr13,4165,24990).
route(harbor12,harbor0,tr13,948,5688).
route(harbor12,harbor0,tr2,948,2844).
route(harbor12,harbor1,tr13,3446,20676).
route(harbor12,harbor1,tr2,3446,10338).
route(harbor12,harbor2,tr13,11524,69144).
route(harbor12,harbor2,tr2,11524,34572).
route(harbor12,harbor3,tr13,5505,33030).
route(harbor12,harbor3,tr2,5505,16515).
route(harbor12,harbor4,tr13,11799,70794).
route(harbor12,harbor4,tr2,11799,35397).
route(harbor12,harbor5,tr13,2554,15324).
route(harbor12,harbor5,tr2,2554,7662).
route(harbor12,harbor6,tr13,28813,172878).
route(harbor12,harbor6,tr2,28813,86439).
route(harbor12,harbor7,tr13,28970,173820).
route(harbor12,harbor7,tr2,28970,86910).
route(harbor12,harbor8,tr13,24027,144162).
route(harbor12,harbor8,tr2,24027,72081).
route(harbor12,harbor9,tr13,24984,149904).
route(harbor12,harbor9,tr2,24984,74952).
route(harbor12,harbor10,tr13,21386,128316).
route(harbor12,harbor10,tr2,21386,64158).
route(harbor12,harbor11,tr13,14330,85980).
route(harbor12,harbor11,tr2,14330,42990).
route(harbor12,harbor13,tr13,304,1824).
route(harbor12,harbor13,tr2,304,912).
route(harbor12,harbor14,tr13,17812,106872).
route(harbor12,harbor14,tr2,17812,53436).
route(harbor12,harbor15,tr13,10528,63168).
route(harbor12,harbor15,tr2,10528,31584).
route(harbor12,harbor16,tr13,7788,46728).
route(harbor12,harbor16,tr2,7788,23364).
route(harbor12,prodloc0,tr0,27037,702962).
route(harbor12,prodloc0,tr13,27037,162222).
route(harbor12,prodloc1,tr0,27315,710190).
route(harbor12,prodloc1,tr13,27315,163890).
route(harbor12,prodloc2,tr0,19487,506662).
route(harbor12,prodloc2,tr13,19487,116922).
route(harbor12,prodloc3,tr0,12778,332228).
route(harbor12,prodloc3,tr13,12778,76668).
route(harbor12,prodloc4,tr0,17734,461084).
route(harbor12,prodloc4,tr13,17734,106404).
route(harbor12,prodloc5,tr0,9329,242554).
route(harbor12,prodloc5,tr13,9329,55974).
route(harbor12,prodloc6,tr0,15366,399516).
route(harbor12,prodloc6,tr13,15366,92196).
route(harbor12,prodloc7,tr0,20901,543426).
route(harbor12,prodloc7,tr13,20901,125406).
route(harbor12,prodloc8,tr0,4936,128336).
route(harbor12,prodloc8,tr13,4936,29616).
route(harbor12,prodloc9,tr0,11792,306592).
route(harbor12,prodloc9,tr13,11792,70752).
route(harbor12,prodloc10,tr0,10368,269568).
route(harbor12,prodloc10,tr13,10368,62208).
route(harbor12,prodloc11,tr0,6625,172250).
route(harbor12,prodloc11,tr13,6625,39750).
route(harbor12,prodloc12,tr0,16335,424710).
route(harbor12,prodloc12,tr13,16335,98010).
route(harbor12,prodloc13,tr0,3116,81016).
route(harbor12,prodloc13,tr13,3116,18696).
route(harbor12,prodloc14,tr0,4661,121186).
route(harbor12,prodloc14,tr13,4661,27966).
route(harbor12,prodloc15,tr0,25688,667888).
route(harbor12,prodloc15,tr13,25688,154128).
route(harbor12,prodloc16,tr0,6697,174122).
route(harbor12,prodloc16,tr13,6697,40182).
route(harbor12,prodloc17,tr0,10859,282334).
route(harbor12,prodloc17,tr13,10859,65154).
route(harbor12,prodloc18,tr0,8226,213876).
route(harbor12,prodloc18,tr13,8226,49356).
route(harbor12,prodloc19,tr0,4634,120484).
route(harbor12,prodloc19,tr13,4634,27804).
route(harbor12,prodloc20,tr0,13777,358202).
route(harbor12,prodloc20,tr13,13777,82662).
route(harbor12,prodloc21,tr0,11811,307086).
route(harbor12,prodloc21,tr13,11811,70866).
route(harbor12,prodloc22,tr0,8199,213174).
route(harbor12,prodloc22,tr13,8199,49194).
route(harbor12,prodloc23,tr0,2922,75972).
route(harbor12,prodloc23,tr13,2922,17532).
route(harbor12,prodloc24,tr0,11231,292006).
route(harbor12,prodloc24,tr13,11231,67386).
route(harbor12,prodloc25,tr0,6146,159796).
route(harbor12,prodloc25,tr13,6146,36876).
route(harbor12,prodloc26,tr0,8078,210028).
route(harbor12,prodloc26,tr13,8078,48468).
route(harbor12,prodloc27,tr0,23180,602680).
route(harbor12,prodloc27,tr13,23180,139080).
route(harbor12,prodloc28,tr0,7869,204594).
route(harbor12,prodloc28,tr13,7869,47214).
route(harbor12,prodloc29,tr0,23858,620308).
route(harbor12,prodloc29,tr13,23858,143148).
route(harbor12,prodloc30,tr0,20010,520260).
route(harbor12,prodloc30,tr13,20010,120060).
route(harbor12,prodloc31,tr0,1537,39962).
route(harbor12,prodloc31,tr13,1537,9222).
route(harbor12,prodloc32,tr0,11027,286702).
route(harbor12,prodloc32,tr13,11027,66162).
route(harbor12,prodloc33,tr0,12217,317642).
route(harbor12,prodloc33,tr13,12217,73302).
route(harbor13,harbor0,tr13,21262,127572).
route(harbor13,harbor0,tr2,21262,63786).
route(harbor13,harbor1,tr13,25189,151134).
route(harbor13,harbor1,tr2,25189,75567).
route(harbor13,harbor2,tr13,20066,120396).
route(harbor13,harbor2,tr2,20066,60198).
route(harbor13,harbor3,tr13,2051,12306).
route(harbor13,harbor3,tr2,2051,6153).
route(harbor13,harbor4,tr13,28285,169710).
route(harbor13,harbor4,tr2,28285,84855).
route(harbor13,harbor5,tr13,4749,28494).
route(harbor13,harbor5,tr2,4749,14247).
route(harbor13,harbor6,tr13,5845,35070).
route(harbor13,harbor6,tr2,5845,17535).
route(harbor13,harbor7,tr13,27909,167454).
route(harbor13,harbor7,tr2,27909,83727).
route(harbor13,harbor8,tr13,2096,12576).
route(harbor13,harbor8,tr2,2096,6288).
route(harbor13,harbor9,tr13,14112,84672).
route(harbor13,harbor9,tr2,14112,42336).
route(harbor13,harbor10,tr13,14565,87390).
route(harbor13,harbor10,tr2,14565,43695).
route(harbor13,harbor11,tr13,25549,153294).
route(harbor13,harbor11,tr2,25549,76647).
route(harbor13,harbor12,tr13,8940,53640).
route(harbor13,harbor12,tr2,8940,26820).
route(harbor13,harbor14,tr13,4381,26286).
route(harbor13,harbor14,tr2,4381,13143).
route(harbor13,harbor15,tr13,10547,63282).
route(harbor13,harbor15,tr2,10547,31641).
route(harbor13,harbor16,tr13,17167,103002).
route(harbor13,harbor16,tr2,17167,51501).
route(harbor13,prodloc0,tr0,18902,491452).
route(harbor13,prodloc0,tr13,18902,113412).
route(harbor13,prodloc1,tr0,27703,720278).
route(harbor13,prodloc1,tr13,27703,166218).
route(harbor13,prodloc2,tr0,3816,99216).
route(harbor13,prodloc2,tr13,3816,22896).
route(harbor13,prodloc3,tr0,11078,288028).
route(harbor13,prodloc3,tr13,11078,66468).
route(harbor13,prodloc4,tr0,21242,552292).
route(harbor13,prodloc4,tr13,21242,127452).
route(harbor13,prodloc5,tr0,25173,654498).
route(harbor13,prodloc5,tr13,25173,151038).
route(harbor13,prodloc6,tr0,23286,605436).
route(harbor13,prodloc6,tr13,23286,139716).
route(harbor13,prodloc7,tr0,20002,520052).
route(harbor13,prodloc7,tr13,20002,120012).
route(harbor13,prodloc8,tr0,12931,336206).
route(harbor13,prodloc8,tr13,12931,77586).
route(harbor13,prodloc9,tr0,7465,194090).
route(harbor13,prodloc9,tr13,7465,44790).
route(harbor13,prodloc10,tr0,1776,46176).
route(harbor13,prodloc10,tr13,1776,10656).
route(harbor13,prodloc11,tr0,12856,334256).
route(harbor13,prodloc11,tr13,12856,77136).
route(harbor13,prodloc12,tr0,25121,653146).
route(harbor13,prodloc12,tr13,25121,150726).
route(harbor13,prodloc13,tr0,15527,403702).
route(harbor13,prodloc13,tr13,15527,93162).
route(harbor13,prodloc14,tr0,16053,417378).
route(harbor13,prodloc14,tr13,16053,96318).
route(harbor13,prodloc15,tr0,20301,527826).
route(harbor13,prodloc15,tr13,20301,121806).
route(harbor13,prodloc16,tr0,28555,742430).
route(harbor13,prodloc16,tr13,28555,171330).
route(harbor13,prodloc17,tr0,10384,269984).
route(harbor13,prodloc17,tr13,10384,62304).
route(harbor13,prodloc18,tr0,17848,464048).
route(harbor13,prodloc18,tr13,17848,107088).
route(harbor13,prodloc19,tr0,27449,713674).
route(harbor13,prodloc19,tr13,27449,164694).
route(harbor13,prodloc20,tr0,20368,529568).
route(harbor13,prodloc20,tr13,20368,122208).
route(harbor13,prodloc21,tr0,19582,509132).
route(harbor13,prodloc21,tr13,19582,117492).
route(harbor13,prodloc22,tr0,2969,77194).
route(harbor13,prodloc22,tr13,2969,17814).
route(harbor13,prodloc23,tr0,19269,500994).
route(harbor13,prodloc23,tr13,19269,115614).
route(harbor13,prodloc24,tr0,16727,434902).
route(harbor13,prodloc24,tr13,16727,100362).
route(harbor13,prodloc25,tr0,17650,458900).
route(harbor13,prodloc25,tr13,17650,105900).
route(harbor13,prodloc26,tr0,21782,566332).
route(harbor13,prodloc26,tr13,21782,130692).
route(harbor13,prodloc27,tr0,16245,422370).
route(harbor13,prodloc27,tr13,16245,97470).
route(harbor13,prodloc28,tr0,13151,341926).
route(harbor13,prodloc28,tr13,13151,78906).
route(harbor13,prodloc29,tr0,27553,716378).
route(harbor13,prodloc29,tr13,27553,165318).
route(harbor13,prodloc30,tr0,22662,589212).
route(harbor13,prodloc30,tr13,22662,135972).
route(harbor13,prodloc31,tr0,14897,387322).
route(harbor13,prodloc31,tr13,14897,89382).
route(harbor13,prodloc32,tr0,5552,144352).
route(harbor13,prodloc32,tr13,5552,33312).
route(harbor13,prodloc33,tr0,13495,350870).
route(harbor13,prodloc33,tr13,13495,80970).
route(harbor14,harbor0,tr13,12678,76068).
route(harbor14,harbor0,tr2,12678,38034).
route(harbor14,harbor1,tr13,17225,103350).
route(harbor14,harbor1,tr2,17225,51675).
route(harbor14,harbor2,tr13,14862,89172).
route(harbor14,harbor2,tr2,14862,44586).
route(harbor14,harbor3,tr13,1542,9252).
route(harbor14,harbor3,tr2,1542,4626).
route(harbor14,harbor4,tr13,28828,172968).
route(harbor14,harbor4,tr2,28828,86484).
route(harbor14,harbor5,tr13,3577,21462).
route(harbor14,harbor5,tr2,3577,10731).
route(harbor14,harbor6,tr13,14819,88914).
route(harbor14,harbor6,tr2,14819,44457).
route(harbor14,harbor7,tr13,19407,116442).
route(harbor14,harbor7,tr2,19407,58221).
route(harbor14,harbor8,tr13,4231,25386).
route(harbor14,harbor8,tr2,4231,12693).
route(harbor14,harbor9,tr13,3911,23466).
route(harbor14,harbor9,tr2,3911,11733).
route(harbor14,harbor10,tr13,22303,133818).
route(harbor14,harbor10,tr2,22303,66909).
route(harbor14,harbor11,tr13,16414,98484).
route(harbor14,harbor11,tr2,16414,49242).
route(harbor14,harbor12,tr13,5767,34602).
route(harbor14,harbor12,tr2,5767,17301).
route(harbor14,harbor13,tr13,2564,15384).
route(harbor14,harbor13,tr2,2564,7692).
route(harbor14,harbor15,tr13,12895,77370).
route(harbor14,harbor15,tr2,12895,38685).
route(harbor14,harbor16,tr13,10050,60300).
route(harbor14,harbor16,tr2,10050,30150).
route(harbor14,prodloc0,tr0,14999,389974).
route(harbor14,prodloc0,tr13,14999,89994).
route(harbor14,prodloc1,tr0,26148,679848).
route(harbor14,prodloc1,tr13,26148,156888).
route(harbor14,prodloc2,tr0,23179,602654).
route(harbor14,prodloc2,tr13,23179,139074).
route(harbor14,prodloc3,tr0,291,7566).
route(harbor14,prodloc3,tr13,291,1746).
route(harbor14,prodloc4,tr0,8290,215540).
route(harbor14,prodloc4,tr13,8290,49740).
route(harbor14,prodloc5,tr0,3474,90324).
route(harbor14,prodloc5,tr13,3474,20844).
route(harbor14,prodloc6,tr0,21913,569738).
route(harbor14,prodloc6,tr13,21913,131478).
route(harbor14,prodloc7,tr0,11491,298766).
route(harbor14,prodloc7,tr13,11491,68946).
route(harbor14,prodloc8,tr0,7230,187980).
route(harbor14,prodloc8,tr13,7230,43380).
route(harbor14,prodloc9,tr0,5675,147550).
route(harbor14,prodloc9,tr13,5675,34050).
route(harbor14,prodloc10,tr0,819,21294).
route(harbor14,prodloc10,tr13,819,4914).
route(harbor14,prodloc11,tr0,4814,125164).
route(harbor14,prodloc11,tr13,4814,28884).
route(harbor14,prodloc12,tr0,14003,364078).
route(harbor14,prodloc12,tr13,14003,84018).
route(harbor14,prodloc13,tr0,21948,570648).
route(harbor14,prodloc13,tr13,21948,131688).
route(harbor14,prodloc14,tr0,3014,78364).
route(harbor14,prodloc14,tr13,3014,18084).
route(harbor14,prodloc15,tr0,11012,286312).
route(harbor14,prodloc15,tr13,11012,66072).
route(harbor14,prodloc16,tr0,26862,698412).
route(harbor14,prodloc16,tr13,26862,161172).
route(harbor14,prodloc17,tr0,21280,553280).
route(harbor14,prodloc17,tr13,21280,127680).
route(harbor14,prodloc18,tr0,15253,396578).
route(harbor14,prodloc18,tr13,15253,91518).
route(harbor14,prodloc19,tr0,1632,42432).
route(harbor14,prodloc19,tr13,1632,9792).
route(harbor14,prodloc20,tr0,28124,731224).
route(harbor14,prodloc20,tr13,28124,168744).
route(harbor14,prodloc21,tr0,15561,404586).
route(harbor14,prodloc21,tr13,15561,93366).
route(harbor14,prodloc22,tr0,7916,205816).
route(harbor14,prodloc22,tr13,7916,47496).
route(harbor14,prodloc23,tr0,2119,55094).
route(harbor14,prodloc23,tr13,2119,12714).
route(harbor14,prodloc24,tr0,15778,410228).
route(harbor14,prodloc24,tr13,15778,94668).
route(harbor14,prodloc25,tr0,4573,118898).
route(harbor14,prodloc25,tr13,4573,27438).
route(harbor14,prodloc26,tr0,18311,476086).
route(harbor14,prodloc26,tr13,18311,109866).
route(harbor14,prodloc27,tr0,997,25922).
route(harbor14,prodloc27,tr13,997,5982).
route(harbor14,prodloc28,tr0,4544,118144).
route(harbor14,prodloc28,tr13,4544,27264).
route(harbor14,prodloc29,tr0,22800,592800).
route(harbor14,prodloc29,tr13,22800,136800).
route(harbor14,prodloc30,tr0,16456,427856).
route(harbor14,prodloc30,tr13,16456,98736).
route(harbor14,prodloc31,tr0,17767,461942).
route(harbor14,prodloc31,tr13,17767,106602).
route(harbor14,prodloc32,tr0,1978,51428).
route(harbor14,prodloc32,tr13,1978,11868).
route(harbor14,prodloc33,tr0,1586,41236).
route(harbor14,prodloc33,tr13,1586,9516).
route(harbor15,harbor0,tr13,6570,39420).
route(harbor15,harbor0,tr2,6570,19710).
route(harbor15,harbor1,tr13,17926,107556).
route(harbor15,harbor1,tr2,17926,53778).
route(harbor15,harbor2,tr13,234,1404).
route(harbor15,harbor2,tr2,234,702).
route(harbor15,harbor3,tr13,26966,161796).
route(harbor15,harbor3,tr2,26966,80898).
route(harbor15,harbor4,tr13,26711,160266).
route(harbor15,harbor4,tr2,26711,80133).
route(harbor15,harbor5,tr13,17163,102978).
route(harbor15,harbor5,tr2,17163,51489).
route(harbor15,harbor6,tr13,11092,66552).
route(harbor15,harbor6,tr2,11092,33276).
route(harbor15,harbor7,tr13,22372,134232).
route(harbor15,harbor7,tr2,22372,67116).
route(harbor15,harbor8,tr13,17347,104082).
route(harbor15,harbor8,tr2,17347,52041).
route(harbor15,harbor9,tr13,28718,172308).
route(harbor15,harbor9,tr2,28718,86154).
route(harbor15,harbor10,tr13,7844,47064).
route(harbor15,harbor10,tr2,7844,23532).
route(harbor15,harbor11,tr13,4616,27696).
route(harbor15,harbor11,tr2,4616,13848).
route(harbor15,harbor12,tr13,12204,73224).
route(harbor15,harbor12,tr2,12204,36612).
route(harbor15,harbor13,tr13,16155,96930).
route(harbor15,harbor13,tr2,16155,48465).
route(harbor15,harbor14,tr13,79,474).
route(harbor15,harbor14,tr2,79,237).
route(harbor15,harbor16,tr13,4347,26082).
route(harbor15,harbor16,tr2,4347,13041).
route(harbor15,prodloc0,tr0,17701,460226).
route(harbor15,prodloc0,tr13,17701,106206).
route(harbor15,prodloc1,tr0,3820,99320).
route(harbor15,prodloc1,tr13,3820,22920).
route(harbor15,prodloc2,tr0,8085,210210).
route(harbor15,prodloc2,tr13,8085,48510).
route(harbor15,prodloc3,tr0,3548,92248).
route(harbor15,prodloc3,tr13,3548,21288).
route(harbor15,prodloc4,tr0,15283,397358).
route(harbor15,prodloc4,tr13,15283,91698).
route(harbor15,prodloc5,tr0,6941,180466).
route(harbor15,prodloc5,tr13,6941,41646).
route(harbor15,prodloc6,tr0,26149,679874).
route(harbor15,prodloc6,tr13,26149,156894).
route(harbor15,prodloc7,tr0,1743,45318).
route(harbor15,prodloc7,tr13,1743,10458).
route(harbor15,prodloc8,tr0,20188,524888).
route(harbor15,prodloc8,tr13,20188,121128).
route(harbor15,prodloc9,tr0,7054,183404).
route(harbor15,prodloc9,tr13,7054,42324).
route(harbor15,prodloc10,tr0,20527,533702).
route(harbor15,prodloc10,tr13,20527,123162).
route(harbor15,prodloc11,tr0,12425,323050).
route(harbor15,prodloc11,tr13,12425,74550).
route(harbor15,prodloc12,tr0,11036,286936).
route(harbor15,prodloc12,tr13,11036,66216).
route(harbor15,prodloc13,tr0,20406,530556).
route(harbor15,prodloc13,tr13,20406,122436).
route(harbor15,prodloc14,tr0,21222,551772).
route(harbor15,prodloc14,tr13,21222,127332).
route(harbor15,prodloc15,tr0,28136,731536).
route(harbor15,prodloc15,tr13,28136,168816).
route(harbor15,prodloc16,tr0,12907,335582).
route(harbor15,prodloc16,tr13,12907,77442).
route(harbor15,prodloc17,tr0,23515,611390).
route(harbor15,prodloc17,tr13,23515,141090).
route(harbor15,prodloc18,tr0,17188,446888).
route(harbor15,prodloc18,tr13,17188,103128).
route(harbor15,prodloc19,tr0,16618,432068).
route(harbor15,prodloc19,tr13,16618,99708).
route(harbor15,prodloc20,tr0,25592,665392).
route(harbor15,prodloc20,tr13,25592,153552).
route(harbor15,prodloc21,tr0,22134,575484).
route(harbor15,prodloc21,tr13,22134,132804).
route(harbor15,prodloc22,tr0,5343,138918).
route(harbor15,prodloc22,tr13,5343,32058).
route(harbor15,prodloc23,tr0,16745,435370).
route(harbor15,prodloc23,tr13,16745,100470).
route(harbor15,prodloc24,tr0,3457,89882).
route(harbor15,prodloc24,tr13,3457,20742).
route(harbor15,prodloc25,tr0,27308,710008).
route(harbor15,prodloc25,tr13,27308,163848).
route(harbor15,prodloc26,tr0,26799,696774).
route(harbor15,prodloc26,tr13,26799,160794).
route(harbor15,prodloc27,tr0,4962,129012).
route(harbor15,prodloc27,tr13,4962,29772).
route(harbor15,prodloc28,tr0,20551,534326).
route(harbor15,prodloc28,tr13,20551,123306).
route(harbor15,prodloc29,tr0,6893,179218).
route(harbor15,prodloc29,tr13,6893,41358).
route(harbor15,prodloc30,tr0,5686,147836).
route(harbor15,prodloc30,tr13,5686,34116).
route(harbor15,prodloc31,tr0,12365,321490).
route(harbor15,prodloc31,tr13,12365,74190).
route(harbor15,prodloc32,tr0,6617,172042).
route(harbor15,prodloc32,tr13,6617,39702).
route(harbor15,prodloc33,tr0,9747,253422).
route(harbor15,prodloc33,tr13,9747,58482).
route(harbor16,harbor0,tr13,11192,67152).
route(harbor16,harbor0,tr2,11192,33576).
route(harbor16,harbor1,tr13,14148,84888).
route(harbor16,harbor1,tr2,14148,42444).
route(harbor16,harbor2,tr13,4739,28434).
route(harbor16,harbor2,tr2,4739,14217).
route(harbor16,harbor3,tr13,14045,84270).
route(harbor16,harbor3,tr2,14045,42135).
route(harbor16,harbor4,tr13,4303,25818).
route(harbor16,harbor4,tr2,4303,12909).
route(harbor16,harbor5,tr13,13076,78456).
route(harbor16,harbor5,tr2,13076,39228).
route(harbor16,harbor6,tr13,10308,61848).
route(harbor16,harbor6,tr2,10308,30924).
route(harbor16,harbor7,tr13,26170,157020).
route(harbor16,harbor7,tr2,26170,78510).
route(harbor16,harbor8,tr13,9837,59022).
route(harbor16,harbor8,tr2,9837,29511).
route(harbor16,harbor9,tr13,26621,159726).
route(harbor16,harbor9,tr2,26621,79863).
route(harbor16,harbor10,tr13,3284,19704).
route(harbor16,harbor10,tr2,3284,9852).
route(harbor16,harbor11,tr13,18460,110760).
route(harbor16,harbor11,tr2,18460,55380).
route(harbor16,harbor12,tr13,3305,19830).
route(harbor16,harbor12,tr2,3305,9915).
route(harbor16,harbor13,tr13,15522,93132).
route(harbor16,harbor13,tr2,15522,46566).
route(harbor16,harbor14,tr13,8955,53730).
route(harbor16,harbor14,tr2,8955,26865).
route(harbor16,harbor15,tr13,9351,56106).
route(harbor16,harbor15,tr2,9351,28053).
route(harbor16,prodloc0,tr0,17283,449358).
route(harbor16,prodloc0,tr13,17283,103698).
route(harbor16,prodloc1,tr0,25081,652106).
route(harbor16,prodloc1,tr13,25081,150486).
route(harbor16,prodloc2,tr0,16022,416572).
route(harbor16,prodloc2,tr13,16022,96132).
route(harbor16,prodloc3,tr0,9172,238472).
route(harbor16,prodloc3,tr13,9172,55032).
route(harbor16,prodloc4,tr0,7509,195234).
route(harbor16,prodloc4,tr13,7509,45054).
route(harbor16,prodloc5,tr0,13786,358436).
route(harbor16,prodloc5,tr13,13786,82716).
route(harbor16,prodloc6,tr0,23040,599040).
route(harbor16,prodloc6,tr13,23040,138240).
route(harbor16,prodloc7,tr0,4511,117286).
route(harbor16,prodloc7,tr13,4511,27066).
route(harbor16,prodloc8,tr0,22908,595608).
route(harbor16,prodloc8,tr13,22908,137448).
route(harbor16,prodloc9,tr0,17927,466102).
route(harbor16,prodloc9,tr13,17927,107562).
route(harbor16,prodloc10,tr0,21570,560820).
route(harbor16,prodloc10,tr13,21570,129420).
route(harbor16,prodloc11,tr0,3409,88634).
route(harbor16,prodloc11,tr13,3409,20454).
route(harbor16,prodloc12,tr0,1005,26130).
route(harbor16,prodloc12,tr13,1005,6030).
route(harbor16,prodloc13,tr0,19726,512876).
route(harbor16,prodloc13,tr13,19726,118356).
route(harbor16,prodloc14,tr0,18080,470080).
route(harbor16,prodloc14,tr13,18080,108480).
route(harbor16,prodloc15,tr0,24635,640510).
route(harbor16,prodloc15,tr13,24635,147810).
route(harbor16,prodloc16,tr0,6621,172146).
route(harbor16,prodloc16,tr13,6621,39726).
route(harbor16,prodloc17,tr0,6959,180934).
route(harbor16,prodloc17,tr13,6959,41754).
route(harbor16,prodloc18,tr0,6370,165620).
route(harbor16,prodloc18,tr13,6370,38220).
route(harbor16,prodloc19,tr0,12829,333554).
route(harbor16,prodloc19,tr13,12829,76974).
route(harbor16,prodloc20,tr0,19000,494000).
route(harbor16,prodloc20,tr13,19000,114000).
route(harbor16,prodloc21,tr0,1283,33358).
route(harbor16,prodloc21,tr13,1283,7698).
route(harbor16,prodloc22,tr0,21140,549640).
route(harbor16,prodloc22,tr13,21140,126840).
route(harbor16,prodloc23,tr0,4527,117702).
route(harbor16,prodloc23,tr13,4527,27162).
route(harbor16,prodloc24,tr0,20496,532896).
route(harbor16,prodloc24,tr13,20496,122976).
route(harbor16,prodloc25,tr0,772,20072).
route(harbor16,prodloc25,tr13,772,4632).
route(harbor16,prodloc26,tr0,24322,632372).
route(harbor16,prodloc26,tr13,24322,145932).
route(harbor16,prodloc27,tr0,8603,223678).
route(harbor16,prodloc27,tr13,8603,51618).
route(harbor16,prodloc28,tr0,23026,598676).
route(harbor16,prodloc28,tr13,23026,138156).
route(harbor16,prodloc29,tr0,23654,615004).
route(harbor16,prodloc29,tr13,23654,141924).
route(harbor16,prodloc30,tr0,15571,404846).
route(harbor16,prodloc30,tr13,15571,93426).
route(harbor16,prodloc31,tr0,17686,459836).
route(harbor16,prodloc31,tr13,17686,106116).
route(harbor16,prodloc32,tr0,1568,40768).
route(harbor16,prodloc32,tr13,1568,9408).
route(harbor16,prodloc33,tr0,24136,627536).
route(harbor16,prodloc33,tr13,24136,144816).
route(prodloc0,harbor0,tr0,25306,657956).
route(prodloc0,harbor0,tr13,25306,151836).
route(prodloc0,harbor1,tr0,28223,733798).
route(prodloc0,harbor1,tr13,28223,169338).
route(prodloc0,harbor2,tr0,26972,701272).
route(prodloc0,harbor2,tr13,26972,161832).
route(prodloc0,harbor3,tr0,7359,191334).
route(prodloc0,harbor3,tr13,7359,44154).
route(prodloc0,harbor4,tr0,27378,711828).
route(prodloc0,harbor4,tr13,27378,164268).
route(prodloc0,harbor5,tr0,4735,123110).
route(prodloc0,harbor5,tr13,4735,28410).
route(prodloc0,harbor6,tr0,19600,509600).
route(prodloc0,harbor6,tr13,19600,117600).
route(prodloc0,harbor7,tr0,10243,266318).
route(prodloc0,harbor7,tr13,10243,61458).
route(prodloc0,harbor8,tr0,1252,32552).
route(prodloc0,harbor8,tr13,1252,7512).
route(prodloc0,harbor9,tr0,22580,587080).
route(prodloc0,harbor9,tr13,22580,135480).
route(prodloc0,harbor10,tr0,6420,166920).
route(prodloc0,harbor10,tr13,6420,38520).
route(prodloc0,harbor11,tr0,3552,92352).
route(prodloc0,harbor11,tr13,3552,21312).
route(prodloc0,harbor12,tr0,4603,119678).
route(prodloc0,harbor12,tr13,4603,27618).
route(prodloc0,harbor13,tr0,20837,541762).
route(prodloc0,harbor13,tr13,20837,125022).
route(prodloc0,harbor14,tr0,22738,591188).
route(prodloc0,harbor14,tr13,22738,136428).
route(prodloc0,harbor15,tr0,17837,463762).
route(prodloc0,harbor15,tr13,17837,107022).
route(prodloc0,harbor16,tr0,6112,158912).
route(prodloc0,harbor16,tr13,6112,36672).
route(prodloc0,prodloc1,tr0,25000,650000).
route(prodloc0,prodloc1,tr13,25000,150000).
route(prodloc0,prodloc2,tr0,3025,78650).
route(prodloc0,prodloc2,tr13,3025,18150).
route(prodloc0,prodloc3,tr0,22505,585130).
route(prodloc0,prodloc3,tr13,22505,135030).
route(prodloc0,prodloc4,tr0,28450,739700).
route(prodloc0,prodloc4,tr13,28450,170700).
route(prodloc0,prodloc5,tr0,15202,395252).
route(prodloc0,prodloc5,tr13,15202,91212).
route(prodloc0,prodloc6,tr0,20632,536432).
route(prodloc0,prodloc6,tr13,20632,123792).
route(prodloc0,prodloc7,tr0,9563,248638).
route(prodloc0,prodloc7,tr13,9563,57378).
route(prodloc0,prodloc8,tr0,6846,177996).
route(prodloc0,prodloc8,tr13,6846,41076).
route(prodloc0,prodloc9,tr0,5164,134264).
route(prodloc0,prodloc9,tr13,5164,30984).
route(prodloc0,prodloc10,tr0,27006,702156).
route(prodloc0,prodloc10,tr13,27006,162036).
route(prodloc0,prodloc11,tr0,10629,276354).
route(prodloc0,prodloc11,tr13,10629,63774).
route(prodloc0,prodloc12,tr0,22970,597220).
route(prodloc0,prodloc12,tr13,22970,137820).
route(prodloc0,prodloc13,tr0,26871,698646).
route(prodloc0,prodloc13,tr13,26871,161226).
route(prodloc0,prodloc14,tr0,9089,236314).
route(prodloc0,prodloc14,tr13,9089,54534).
route(prodloc0,prodloc15,tr0,27848,724048).
route(prodloc0,prodloc15,tr13,27848,167088).
route(prodloc0,prodloc16,tr0,16988,441688).
route(prodloc0,prodloc16,tr13,16988,101928).
route(prodloc0,prodloc17,tr0,18644,484744).
route(prodloc0,prodloc17,tr13,18644,111864).
route(prodloc0,prodloc18,tr0,2214,57564).
route(prodloc0,prodloc18,tr13,2214,13284).
route(prodloc0,prodloc19,tr0,13524,351624).
route(prodloc0,prodloc19,tr13,13524,81144).
route(prodloc0,prodloc20,tr0,13615,353990).
route(prodloc0,prodloc20,tr13,13615,81690).
route(prodloc0,prodloc21,tr0,21883,568958).
route(prodloc0,prodloc21,tr13,21883,131298).
route(prodloc0,prodloc22,tr0,23610,613860).
route(prodloc0,prodloc22,tr13,23610,141660).
route(prodloc0,prodloc23,tr0,1106,28756).
route(prodloc0,prodloc23,tr13,1106,6636).
route(prodloc0,prodloc24,tr0,14923,387998).
route(prodloc0,prodloc24,tr13,14923,89538).
route(prodloc0,prodloc25,tr0,9747,253422).
route(prodloc0,prodloc25,tr13,9747,58482).
route(prodloc0,prodloc26,tr0,21604,561704).
route(prodloc0,prodloc26,tr13,21604,129624).
route(prodloc0,prodloc27,tr0,28250,734500).
route(prodloc0,prodloc27,tr13,28250,169500).
route(prodloc0,prodloc28,tr0,4000,104000).
route(prodloc0,prodloc28,tr13,4000,24000).
route(prodloc0,prodloc29,tr0,20857,542282).
route(prodloc0,prodloc29,tr13,20857,125142).
route(prodloc0,prodloc30,tr0,23015,598390).
route(prodloc0,prodloc30,tr13,23015,138090).
route(prodloc0,prodloc31,tr0,24062,625612).
route(prodloc0,prodloc31,tr13,24062,144372).
route(prodloc0,prodloc32,tr0,8922,231972).
route(prodloc0,prodloc32,tr13,8922,53532).
route(prodloc0,prodloc33,tr0,518,13468).
route(prodloc0,prodloc33,tr13,518,3108).
route(prodloc1,harbor0,tr0,7027,182702).
route(prodloc1,harbor0,tr13,7027,42162).
route(prodloc1,harbor1,tr0,13718,356668).
route(prodloc1,harbor1,tr13,13718,82308).
route(prodloc1,harbor2,tr0,10920,283920).
route(prodloc1,harbor2,tr13,10920,65520).
route(prodloc1,harbor3,tr0,8570,222820).
route(prodloc1,harbor3,tr13,8570,51420).
route(prodloc1,harbor4,tr0,17631,458406).
route(prodloc1,harbor4,tr13,17631,105786).
route(prodloc1,harbor5,tr0,23853,620178).
route(prodloc1,harbor5,tr13,23853,143118).
route(prodloc1,harbor6,tr0,12860,334360).
route(prodloc1,harbor6,tr13,12860,77160).
route(prodloc1,harbor7,tr0,19450,505700).
route(prodloc1,harbor7,tr13,19450,116700).
route(prodloc1,harbor8,tr0,17220,447720).
route(prodloc1,harbor8,tr13,17220,103320).
route(prodloc1,harbor9,tr0,24503,637078).
route(prodloc1,harbor9,tr13,24503,147018).
route(prodloc1,harbor10,tr0,6593,171418).
route(prodloc1,harbor10,tr13,6593,39558).
route(prodloc1,harbor11,tr0,14083,366158).
route(prodloc1,harbor11,tr13,14083,84498).
route(prodloc1,harbor12,tr0,25304,657904).
route(prodloc1,harbor12,tr13,25304,151824).
route(prodloc1,harbor13,tr0,4220,109720).
route(prodloc1,harbor13,tr13,4220,25320).
route(prodloc1,harbor14,tr0,22719,590694).
route(prodloc1,harbor14,tr13,22719,136314).
route(prodloc1,harbor15,tr0,5599,145574).
route(prodloc1,harbor15,tr13,5599,33594).
route(prodloc1,harbor16,tr0,25765,669890).
route(prodloc1,harbor16,tr13,25765,154590).
route(prodloc1,prodloc0,tr0,28656,745056).
route(prodloc1,prodloc0,tr13,28656,171936).
route(prodloc1,prodloc2,tr0,14671,381446).
route(prodloc1,prodloc2,tr13,14671,88026).
route(prodloc1,prodloc3,tr0,28557,742482).
route(prodloc1,prodloc3,tr13,28557,171342).
route(prodloc1,prodloc4,tr0,14895,387270).
route(prodloc1,prodloc4,tr15,14895,476640).
route(prodloc1,prodloc5,tr0,11334,294684).
route(prodloc1,prodloc5,tr13,11334,68004).
route(prodloc1,prodloc6,tr0,12547,326222).
route(prodloc1,prodloc6,tr13,12547,75282).
route(prodloc1,prodloc7,tr0,15509,403234).
route(prodloc1,prodloc7,tr13,15509,93054).
route(prodloc1,prodloc8,tr0,20078,522028).
route(prodloc1,prodloc8,tr13,20078,120468).
route(prodloc1,prodloc9,tr0,8344,216944).
route(prodloc1,prodloc9,tr13,8344,50064).
route(prodloc1,prodloc10,tr0,20159,524134).
route(prodloc1,prodloc10,tr13,20159,120954).
route(prodloc1,prodloc11,tr0,6255,162630).
route(prodloc1,prodloc11,tr13,6255,37530).
route(prodloc1,prodloc12,tr0,19034,494884).
route(prodloc1,prodloc12,tr13,19034,114204).
route(prodloc1,prodloc13,tr0,15603,405678).
route(prodloc1,prodloc13,tr13,15603,93618).
route(prodloc1,prodloc14,tr0,14581,379106).
route(prodloc1,prodloc14,tr13,14581,87486).
route(prodloc1,prodloc15,tr0,6297,163722).
route(prodloc1,prodloc15,tr13,6297,37782).
route(prodloc1,prodloc16,tr0,24751,643526).
route(prodloc1,prodloc16,tr13,24751,148506).
route(prodloc1,prodloc17,tr0,15381,399906).
route(prodloc1,prodloc17,tr13,15381,92286).
route(prodloc1,prodloc18,tr0,27855,724230).
route(prodloc1,prodloc18,tr13,27855,167130).
route(prodloc1,prodloc19,tr0,18788,488488).
route(prodloc1,prodloc19,tr13,18788,112728).
route(prodloc1,prodloc20,tr0,11069,287794).
route(prodloc1,prodloc20,tr13,11069,66414).
route(prodloc1,prodloc21,tr0,10142,263692).
route(prodloc1,prodloc21,tr13,10142,60852).
route(prodloc1,prodloc22,tr0,2320,60320).
route(prodloc1,prodloc22,tr13,2320,13920).
route(prodloc1,prodloc23,tr0,5586,145236).
route(prodloc1,prodloc23,tr15,5586,178752).
route(prodloc1,prodloc24,tr0,12108,314808).
route(prodloc1,prodloc24,tr13,12108,72648).
route(prodloc1,prodloc25,tr0,19829,515554).
route(prodloc1,prodloc25,tr13,19829,118974).
route(prodloc1,prodloc26,tr0,20524,533624).
route(prodloc1,prodloc26,tr15,20524,656768).
route(prodloc1,prodloc27,tr0,28188,732888).
route(prodloc1,prodloc27,tr13,28188,169128).
route(prodloc1,prodloc28,tr0,15446,401596).
route(prodloc1,prodloc28,tr13,15446,92676).
route(prodloc1,prodloc29,tr0,7284,189384).
route(prodloc1,prodloc29,tr15,7284,233088).
route(prodloc1,prodloc30,tr0,25185,654810).
route(prodloc1,prodloc30,tr13,25185,151110).
route(prodloc1,prodloc31,tr0,20176,524576).
route(prodloc1,prodloc31,tr13,20176,121056).
route(prodloc1,prodloc32,tr0,21433,557258).
route(prodloc1,prodloc32,tr13,21433,128598).
route(prodloc1,prodloc33,tr0,21585,561210).
route(prodloc1,prodloc33,tr13,21585,129510).
route(prodloc2,harbor0,tr0,18905,491530).
route(prodloc2,harbor0,tr13,18905,113430).
route(prodloc2,harbor1,tr0,4199,109174).
route(prodloc2,harbor1,tr13,4199,25194).
route(prodloc2,harbor2,tr0,22354,581204).
route(prodloc2,harbor2,tr13,22354,134124).
route(prodloc2,harbor3,tr0,10088,262288).
route(prodloc2,harbor3,tr13,10088,60528).
route(prodloc2,harbor4,tr0,28482,740532).
route(prodloc2,harbor4,tr13,28482,170892).
route(prodloc2,harbor5,tr0,6795,176670).
route(prodloc2,harbor5,tr13,6795,40770).
route(prodloc2,harbor6,tr0,17542,456092).
route(prodloc2,harbor6,tr13,17542,105252).
route(prodloc2,harbor7,tr0,27424,713024).
route(prodloc2,harbor7,tr13,27424,164544).
route(prodloc2,harbor8,tr0,26978,701428).
route(prodloc2,harbor8,tr13,26978,161868).
route(prodloc2,harbor9,tr0,9805,254930).
route(prodloc2,harbor9,tr13,9805,58830).
route(prodloc2,harbor10,tr0,3216,83616).
route(prodloc2,harbor10,tr13,3216,19296).
route(prodloc2,harbor11,tr0,415,10790).
route(prodloc2,harbor11,tr13,415,2490).
route(prodloc2,harbor12,tr0,25854,672204).
route(prodloc2,harbor12,tr13,25854,155124).
route(prodloc2,harbor13,tr0,28524,741624).
route(prodloc2,harbor13,tr13,28524,171144).
route(prodloc2,harbor14,tr0,953,24778).
route(prodloc2,harbor14,tr13,953,5718).
route(prodloc2,harbor15,tr0,6487,168662).
route(prodloc2,harbor15,tr13,6487,38922).
route(prodloc2,harbor16,tr0,10261,266786).
route(prodloc2,harbor16,tr13,10261,61566).
route(prodloc2,prodloc0,tr0,1921,49946).
route(prodloc2,prodloc0,tr13,1921,11526).
route(prodloc2,prodloc1,tr0,10452,271752).
route(prodloc2,prodloc1,tr13,10452,62712).
route(prodloc2,prodloc3,tr0,17479,454454).
route(prodloc2,prodloc3,tr13,17479,104874).
route(prodloc2,prodloc4,tr0,8387,218062).
route(prodloc2,prodloc4,tr13,8387,50322).
route(prodloc2,prodloc5,tr0,25967,675142).
route(prodloc2,prodloc5,tr13,25967,155802).
route(prodloc2,prodloc6,tr0,23730,616980).
route(prodloc2,prodloc6,tr13,23730,142380).
route(prodloc2,prodloc7,tr0,21777,566202).
route(prodloc2,prodloc7,tr13,21777,130662).
route(prodloc2,prodloc8,tr0,11236,292136).
route(prodloc2,prodloc8,tr13,11236,67416).
route(prodloc2,prodloc9,tr0,26958,700908).
route(prodloc2,prodloc9,tr13,26958,161748).
route(prodloc2,prodloc10,tr0,14438,375388).
route(prodloc2,prodloc10,tr13,14438,86628).
route(prodloc2,prodloc11,tr0,2361,61386).
route(prodloc2,prodloc11,tr13,2361,14166).
route(prodloc2,prodloc12,tr0,13743,357318).
route(prodloc2,prodloc12,tr13,13743,82458).
route(prodloc2,prodloc13,tr0,15423,400998).
route(prodloc2,prodloc13,tr13,15423,92538).
route(prodloc2,prodloc14,tr0,27313,710138).
route(prodloc2,prodloc14,tr13,27313,163878).
route(prodloc2,prodloc15,tr0,23322,606372).
route(prodloc2,prodloc15,tr13,23322,139932).
route(prodloc2,prodloc16,tr0,600,15600).
route(prodloc2,prodloc16,tr13,600,3600).
route(prodloc2,prodloc17,tr0,9263,240838).
route(prodloc2,prodloc17,tr13,9263,55578).
route(prodloc2,prodloc18,tr0,19000,494000).
route(prodloc2,prodloc18,tr13,19000,114000).
route(prodloc2,prodloc19,tr0,18818,489268).
route(prodloc2,prodloc19,tr13,18818,112908).
route(prodloc2,prodloc20,tr0,4322,112372).
route(prodloc2,prodloc20,tr13,4322,25932).
route(prodloc2,prodloc21,tr0,6956,180856).
route(prodloc2,prodloc21,tr13,6956,41736).
route(prodloc2,prodloc22,tr0,4934,128284).
route(prodloc2,prodloc22,tr13,4934,29604).
route(prodloc2,prodloc23,tr0,5319,138294).
route(prodloc2,prodloc23,tr13,5319,31914).
route(prodloc2,prodloc24,tr0,19887,517062).
route(prodloc2,prodloc24,tr13,19887,119322).
route(prodloc2,prodloc25,tr0,25272,657072).
route(prodloc2,prodloc25,tr13,25272,151632).
route(prodloc2,prodloc26,tr0,12312,320112).
route(prodloc2,prodloc26,tr13,12312,73872).
route(prodloc2,prodloc27,tr0,23630,614380).
route(prodloc2,prodloc27,tr13,23630,141780).
route(prodloc2,prodloc28,tr0,2127,55302).
route(prodloc2,prodloc28,tr13,2127,12762).
route(prodloc2,prodloc29,tr0,20749,539474).
route(prodloc2,prodloc29,tr13,20749,124494).
route(prodloc2,prodloc30,tr0,19275,501150).
route(prodloc2,prodloc30,tr13,19275,115650).
route(prodloc2,prodloc31,tr0,14656,381056).
route(prodloc2,prodloc31,tr13,14656,87936).
route(prodloc2,prodloc32,tr0,9150,237900).
route(prodloc2,prodloc32,tr13,9150,54900).
route(prodloc2,prodloc33,tr0,21140,549640).
route(prodloc2,prodloc33,tr13,21140,126840).
route(prodloc3,harbor0,tr0,2697,70122).
route(prodloc3,harbor0,tr13,2697,16182).
route(prodloc3,harbor1,tr0,16239,422214).
route(prodloc3,harbor1,tr13,16239,97434).
route(prodloc3,harbor2,tr0,15691,407966).
route(prodloc3,harbor2,tr13,15691,94146).
route(prodloc3,harbor3,tr0,26242,682292).
route(prodloc3,harbor3,tr13,26242,157452).
route(prodloc3,harbor4,tr0,25838,671788).
route(prodloc3,harbor4,tr13,25838,155028).
route(prodloc3,harbor5,tr0,7786,202436).
route(prodloc3,harbor5,tr13,7786,46716).
route(prodloc3,harbor6,tr0,4958,128908).
route(prodloc3,harbor6,tr13,4958,29748).
route(prodloc3,harbor7,tr0,18512,481312).
route(prodloc3,harbor7,tr13,18512,111072).
route(prodloc3,harbor8,tr0,9809,255034).
route(prodloc3,harbor8,tr13,9809,58854).
route(prodloc3,harbor9,tr0,27822,723372).
route(prodloc3,harbor9,tr13,27822,166932).
route(prodloc3,harbor10,tr0,28059,729534).
route(prodloc3,harbor10,tr13,28059,168354).
route(prodloc3,harbor11,tr0,7444,193544).
route(prodloc3,harbor11,tr13,7444,44664).
route(prodloc3,harbor12,tr0,6651,172926).
route(prodloc3,harbor12,tr13,6651,39906).
route(prodloc3,harbor13,tr0,20262,526812).
route(prodloc3,harbor13,tr13,20262,121572).
route(prodloc3,harbor14,tr0,23058,599508).
route(prodloc3,harbor14,tr13,23058,138348).
route(prodloc3,harbor15,tr0,28651,744926).
route(prodloc3,harbor15,tr13,28651,171906).
route(prodloc3,harbor16,tr0,10976,285376).
route(prodloc3,harbor16,tr13,10976,65856).
route(prodloc3,prodloc0,tr0,19378,503828).
route(prodloc3,prodloc0,tr13,19378,116268).
route(prodloc3,prodloc1,tr0,20179,524654).
route(prodloc3,prodloc1,tr13,20179,121074).
route(prodloc3,prodloc2,tr0,23012,598312).
route(prodloc3,prodloc2,tr13,23012,138072).
route(prodloc3,prodloc4,tr0,12843,333918).
route(prodloc3,prodloc4,tr13,12843,77058).
route(prodloc3,prodloc5,tr0,17171,446446).
route(prodloc3,prodloc5,tr13,17171,103026).
route(prodloc3,prodloc6,tr0,13330,346580).
route(prodloc3,prodloc6,tr13,13330,79980).
route(prodloc3,prodloc7,tr0,7692,199992).
route(prodloc3,prodloc7,tr13,7692,46152).
route(prodloc3,prodloc8,tr0,21107,548782).
route(prodloc3,prodloc8,tr13,21107,126642).
route(prodloc3,prodloc9,tr0,6983,181558).
route(prodloc3,prodloc9,tr13,6983,41898).
route(prodloc3,prodloc10,tr13,18390,110340).
route(prodloc3,prodloc10,tr15,18390,588480).
route(prodloc3,prodloc11,tr0,2030,52780).
route(prodloc3,prodloc11,tr15,2030,64960).
route(prodloc3,prodloc12,tr0,8570,222820).
route(prodloc3,prodloc12,tr13,8570,51420).
route(prodloc3,prodloc13,tr0,21813,567138).
route(prodloc3,prodloc13,tr13,21813,130878).
route(prodloc3,prodloc14,tr0,8174,212524).
route(prodloc3,prodloc14,tr15,8174,261568).
route(prodloc3,prodloc15,tr0,4535,117910).
route(prodloc3,prodloc15,tr13,4535,27210).
route(prodloc3,prodloc16,tr0,20365,529490).
route(prodloc3,prodloc16,tr13,20365,122190).
route(prodloc3,prodloc17,tr0,23993,623818).
route(prodloc3,prodloc17,tr13,23993,143958).
route(prodloc3,prodloc18,tr0,12822,333372).
route(prodloc3,prodloc18,tr13,12822,76932).
route(prodloc3,prodloc19,tr0,27018,702468).
route(prodloc3,prodloc19,tr13,27018,162108).
route(prodloc3,prodloc20,tr0,14292,371592).
route(prodloc3,prodloc20,tr13,14292,85752).
route(prodloc3,prodloc21,tr0,3914,101764).
route(prodloc3,prodloc21,tr13,3914,23484).
route(prodloc3,prodloc22,tr0,14937,388362).
route(prodloc3,prodloc22,tr13,14937,89622).
route(prodloc3,prodloc24,tr0,12945,336570).
route(prodloc3,prodloc24,tr13,12945,77670).
route(prodloc3,prodloc25,tr0,15559,404534).
route(prodloc3,prodloc25,tr13,15559,93354).
route(prodloc3,prodloc26,tr0,12451,323726).
route(prodloc3,prodloc26,tr13,12451,74706).
route(prodloc3,prodloc27,tr0,9335,242710).
route(prodloc3,prodloc27,tr13,9335,56010).
route(prodloc3,prodloc28,tr0,7050,183300).
route(prodloc3,prodloc28,tr13,7050,42300).
route(prodloc3,prodloc29,tr0,7886,205036).
route(prodloc3,prodloc29,tr13,7886,47316).
route(prodloc3,prodloc30,tr0,7344,190944).
route(prodloc3,prodloc30,tr13,7344,44064).
route(prodloc3,prodloc31,tr0,1802,46852).
route(prodloc3,prodloc31,tr13,1802,10812).
route(prodloc3,prodloc32,tr0,17454,453804).
route(prodloc3,prodloc32,tr13,17454,104724).
route(prodloc3,prodloc33,tr0,17201,447226).
route(prodloc3,prodloc33,tr13,17201,103206).
route(prodloc4,harbor0,tr0,26787,696462).
route(prodloc4,harbor0,tr13,26787,160722).
route(prodloc4,harbor1,tr0,2967,77142).
route(prodloc4,harbor1,tr13,2967,17802).
route(prodloc4,harbor2,tr0,19758,513708).
route(prodloc4,harbor2,tr13,19758,118548).
route(prodloc4,harbor3,tr0,17812,463112).
route(prodloc4,harbor3,tr13,17812,106872).
route(prodloc4,harbor4,tr0,22104,574704).
route(prodloc4,harbor4,tr13,22104,132624).
route(prodloc4,harbor5,tr0,119,3094).
route(prodloc4,harbor5,tr13,119,714).
route(prodloc4,harbor6,tr0,1765,45890).
route(prodloc4,harbor6,tr13,1765,10590).
route(prodloc4,harbor7,tr0,12691,329966).
route(prodloc4,harbor7,tr13,12691,76146).
route(prodloc4,harbor8,tr0,23170,602420).
route(prodloc4,harbor8,tr13,23170,139020).
route(prodloc4,harbor9,tr0,14112,366912).
route(prodloc4,harbor9,tr13,14112,84672).
route(prodloc4,harbor10,tr0,13159,342134).
route(prodloc4,harbor10,tr13,13159,78954).
route(prodloc4,harbor11,tr0,7585,197210).
route(prodloc4,harbor11,tr13,7585,45510).
route(prodloc4,harbor12,tr0,16867,438542).
route(prodloc4,harbor12,tr13,16867,101202).
route(prodloc4,harbor13,tr0,8940,232440).
route(prodloc4,harbor13,tr13,8940,53640).
route(prodloc4,harbor14,tr0,3310,86060).
route(prodloc4,harbor14,tr13,3310,19860).
route(prodloc4,harbor15,tr0,11944,310544).
route(prodloc4,harbor15,tr13,11944,71664).
route(prodloc4,harbor16,tr0,16723,434798).
route(prodloc4,harbor16,tr13,16723,100338).
route(prodloc4,prodloc0,tr0,11838,307788).
route(prodloc4,prodloc0,tr13,11838,71028).
route(prodloc4,prodloc1,tr0,17038,442988).
route(prodloc4,prodloc1,tr13,17038,102228).
route(prodloc4,prodloc2,tr0,25641,666666).
route(prodloc4,prodloc2,tr13,25641,153846).
route(prodloc4,prodloc3,tr0,16148,419848).
route(prodloc4,prodloc3,tr13,16148,96888).
route(prodloc4,prodloc5,tr0,19036,494936).
route(prodloc4,prodloc5,tr13,19036,114216).
route(prodloc4,prodloc6,tr0,2305,59930).
route(prodloc4,prodloc6,tr13,2305,13830).
route(prodloc4,prodloc7,tr0,23097,600522).
route(prodloc4,prodloc7,tr13,23097,138582).
route(prodloc4,prodloc8,tr0,15081,392106).
route(prodloc4,prodloc8,tr13,15081,90486).
route(prodloc4,prodloc9,tr0,24071,625846).
route(prodloc4,prodloc9,tr13,24071,144426).
route(prodloc4,prodloc10,tr0,23023,598598).
route(prodloc4,prodloc10,tr13,23023,138138).
route(prodloc4,prodloc11,tr0,7248,188448).
route(prodloc4,prodloc11,tr13,7248,43488).
route(prodloc4,prodloc12,tr0,9165,238290).
route(prodloc4,prodloc12,tr13,9165,54990).
route(prodloc4,prodloc13,tr0,813,21138).
route(prodloc4,prodloc13,tr13,813,4878).
route(prodloc4,prodloc14,tr0,964,25064).
route(prodloc4,prodloc14,tr13,964,5784).
route(prodloc4,prodloc15,tr0,15682,407732).
route(prodloc4,prodloc15,tr13,15682,94092).
route(prodloc4,prodloc16,tr0,1370,35620).
route(prodloc4,prodloc16,tr13,1370,8220).
route(prodloc4,prodloc17,tr0,4239,110214).
route(prodloc4,prodloc17,tr13,4239,25434).
route(prodloc4,prodloc18,tr0,21265,552890).
route(prodloc4,prodloc18,tr13,21265,127590).
route(prodloc4,prodloc19,tr0,4647,120822).
route(prodloc4,prodloc19,tr13,4647,27882).
route(prodloc4,prodloc20,tr0,6768,175968).
route(prodloc4,prodloc20,tr13,6768,40608).
route(prodloc4,prodloc21,tr13,10542,63252).
route(prodloc4,prodloc21,tr15,10542,337344).
route(prodloc4,prodloc22,tr0,7906,205556).
route(prodloc4,prodloc22,tr13,7906,47436).
route(prodloc4,prodloc23,tr0,17621,458146).
route(prodloc4,prodloc23,tr13,17621,105726).
route(prodloc4,prodloc24,tr0,1593,41418).
route(prodloc4,prodloc24,tr13,1593,9558).
route(prodloc4,prodloc25,tr0,20178,524628).
route(prodloc4,prodloc25,tr13,20178,121068).
route(prodloc4,prodloc26,tr0,4748,123448).
route(prodloc4,prodloc26,tr13,4748,28488).
route(prodloc4,prodloc27,tr0,21182,550732).
route(prodloc4,prodloc27,tr13,21182,127092).
route(prodloc4,prodloc28,tr0,9678,251628).
route(prodloc4,prodloc28,tr13,9678,58068).
route(prodloc4,prodloc29,tr0,24972,649272).
route(prodloc4,prodloc29,tr13,24972,149832).
route(prodloc4,prodloc30,tr0,3347,87022).
route(prodloc4,prodloc30,tr13,3347,20082).
route(prodloc4,prodloc31,tr0,21022,546572).
route(prodloc4,prodloc31,tr13,21022,126132).
route(prodloc4,prodloc32,tr0,18285,475410).
route(prodloc4,prodloc32,tr13,18285,109710).
route(prodloc4,prodloc33,tr0,17725,460850).
route(prodloc4,prodloc33,tr13,17725,106350).
route(prodloc5,harbor0,tr0,2839,73814).
route(prodloc5,harbor0,tr13,2839,17034).
route(prodloc5,harbor1,tr0,22229,577954).
route(prodloc5,harbor1,tr13,22229,133374).
route(prodloc5,harbor2,tr0,21957,570882).
route(prodloc5,harbor2,tr13,21957,131742).
route(prodloc5,harbor3,tr0,4471,116246).
route(prodloc5,harbor3,tr13,4471,26826).
route(prodloc5,harbor4,tr0,14334,372684).
route(prodloc5,harbor4,tr13,14334,86004).
route(prodloc5,harbor5,tr0,23177,602602).
route(prodloc5,harbor5,tr13,23177,139062).
route(prodloc5,harbor6,tr0,4594,119444).
route(prodloc5,harbor6,tr13,4594,27564).
route(prodloc5,harbor7,tr0,1112,28912).
route(prodloc5,harbor7,tr13,1112,6672).
route(prodloc5,harbor8,tr0,10177,264602).
route(prodloc5,harbor8,tr13,10177,61062).
route(prodloc5,harbor9,tr0,16761,435786).
route(prodloc5,harbor9,tr13,16761,100566).
route(prodloc5,harbor10,tr0,21646,562796).
route(prodloc5,harbor10,tr13,21646,129876).
route(prodloc5,harbor11,tr0,8793,228618).
route(prodloc5,harbor11,tr13,8793,52758).
route(prodloc5,harbor12,tr0,15508,403208).
route(prodloc5,harbor12,tr13,15508,93048).
route(prodloc5,harbor13,tr0,1543,40118).
route(prodloc5,harbor13,tr13,1543,9258).
route(prodloc5,harbor14,tr0,18230,473980).
route(prodloc5,harbor14,tr13,18230,109380).
route(prodloc5,harbor15,tr0,11640,302640).
route(prodloc5,harbor15,tr13,11640,69840).
route(prodloc5,harbor16,tr0,25028,650728).
route(prodloc5,harbor16,tr13,25028,150168).
route(prodloc5,prodloc0,tr0,11145,289770).
route(prodloc5,prodloc0,tr13,11145,66870).
route(prodloc5,prodloc1,tr0,22491,584766).
route(prodloc5,prodloc1,tr13,22491,134946).
route(prodloc5,prodloc2,tr0,3191,82966).
route(prodloc5,prodloc2,tr13,3191,19146).
route(prodloc5,prodloc3,tr0,19858,516308).
route(prodloc5,prodloc3,tr13,19858,119148).
route(prodloc5,prodloc4,tr0,11784,306384).
route(prodloc5,prodloc4,tr13,11784,70704).
route(prodloc5,prodloc6,tr0,3509,91234).
route(prodloc5,prodloc6,tr13,3509,21054).
route(prodloc5,prodloc7,tr13,19960,119760).
route(prodloc5,prodloc7,tr15,19960,638720).
route(prodloc5,prodloc8,tr0,25698,668148).
route(prodloc5,prodloc8,tr13,25698,154188).
route(prodloc5,prodloc9,tr0,11408,296608).
route(prodloc5,prodloc9,tr13,11408,68448).
route(prodloc5,prodloc10,tr13,11910,71460).
route(prodloc5,prodloc10,tr15,11910,381120).
route(prodloc5,prodloc11,tr0,26053,677378).
route(prodloc5,prodloc11,tr13,26053,156318).
route(prodloc5,prodloc12,tr0,20838,541788).
route(prodloc5,prodloc12,tr13,20838,125028).
route(prodloc5,prodloc13,tr0,9030,234780).
route(prodloc5,prodloc13,tr13,9030,54180).
route(prodloc5,prodloc14,tr0,26377,685802).
route(prodloc5,prodloc14,tr13,26377,158262).
route(prodloc5,prodloc15,tr0,15670,407420).
route(prodloc5,prodloc15,tr13,15670,94020).
route(prodloc5,prodloc16,tr0,9275,241150).
route(prodloc5,prodloc16,tr13,9275,55650).
route(prodloc5,prodloc17,tr0,16691,433966).
route(prodloc5,prodloc17,tr13,16691,100146).
route(prodloc5,prodloc18,tr0,19669,511394).
route(prodloc5,prodloc18,tr13,19669,118014).
route(prodloc5,prodloc19,tr0,4910,127660).
route(prodloc5,prodloc19,tr13,4910,29460).
route(prodloc5,prodloc20,tr0,840,21840).
route(prodloc5,prodloc20,tr13,840,5040).
route(prodloc5,prodloc21,tr0,1454,37804).
route(prodloc5,prodloc21,tr13,1454,8724).
route(prodloc5,prodloc22,tr0,11155,290030).
route(prodloc5,prodloc22,tr13,11155,66930).
route(prodloc5,prodloc23,tr0,14225,369850).
route(prodloc5,prodloc23,tr13,14225,85350).
route(prodloc5,prodloc24,tr0,27454,713804).
route(prodloc5,prodloc24,tr13,27454,164724).
route(prodloc5,prodloc25,tr0,20751,539526).
route(prodloc5,prodloc25,tr13,20751,124506).
route(prodloc5,prodloc26,tr0,271,7046).
route(prodloc5,prodloc26,tr13,271,1626).
route(prodloc5,prodloc27,tr0,11452,297752).
route(prodloc5,prodloc27,tr13,11452,68712).
route(prodloc5,prodloc28,tr0,22037,572962).
route(prodloc5,prodloc28,tr13,22037,132222).
route(prodloc5,prodloc29,tr0,17516,455416).
route(prodloc5,prodloc29,tr13,17516,105096).
route(prodloc5,prodloc30,tr0,23442,609492).
route(prodloc5,prodloc30,tr13,23442,140652).
route(prodloc5,prodloc31,tr0,1663,43238).
route(prodloc5,prodloc31,tr13,1663,9978).
route(prodloc5,prodloc32,tr0,28253,734578).
route(prodloc5,prodloc32,tr13,28253,169518).
route(prodloc5,prodloc33,tr0,21703,564278).
route(prodloc5,prodloc33,tr13,21703,130218).
route(prodloc6,harbor0,tr0,2516,65416).
route(prodloc6,harbor0,tr13,2516,15096).
route(prodloc6,harbor1,tr0,22625,588250).
route(prodloc6,harbor1,tr13,22625,135750).
route(prodloc6,harbor2,tr0,17707,460382).
route(prodloc6,harbor2,tr13,17707,106242).
route(prodloc6,harbor3,tr0,16602,431652).
route(prodloc6,harbor3,tr13,16602,99612).
route(prodloc6,harbor4,tr0,19977,519402).
route(prodloc6,harbor4,tr13,19977,119862).
route(prodloc6,harbor5,tr0,25236,656136).
route(prodloc6,harbor5,tr13,25236,151416).
route(prodloc6,harbor6,tr0,14273,371098).
route(prodloc6,harbor6,tr13,14273,85638).
route(prodloc6,harbor7,tr0,14046,365196).
route(prodloc6,harbor7,tr13,14046,84276).
route(prodloc6,harbor8,tr0,13745,357370).
route(prodloc6,harbor8,tr13,13745,82470).
route(prodloc6,harbor9,tr0,7862,204412).
route(prodloc6,harbor9,tr13,7862,47172).
route(prodloc6,harbor10,tr0,25907,673582).
route(prodloc6,harbor10,tr13,25907,155442).
route(prodloc6,harbor11,tr0,5961,154986).
route(prodloc6,harbor11,tr13,5961,35766).
route(prodloc6,harbor12,tr0,5329,138554).
route(prodloc6,harbor12,tr13,5329,31974).
route(prodloc6,harbor13,tr0,20112,522912).
route(prodloc6,harbor13,tr13,20112,120672).
route(prodloc6,harbor14,tr0,1476,38376).
route(prodloc6,harbor14,tr13,1476,8856).
route(prodloc6,harbor15,tr0,522,13572).
route(prodloc6,harbor15,tr13,522,3132).
route(prodloc6,harbor16,tr0,19435,505310).
route(prodloc6,harbor16,tr13,19435,116610).
route(prodloc6,prodloc0,tr0,24902,647452).
route(prodloc6,prodloc0,tr13,24902,149412).
route(prodloc6,prodloc1,tr0,23577,613002).
route(prodloc6,prodloc1,tr13,23577,141462).
route(prodloc6,prodloc2,tr0,27105,704730).
route(prodloc6,prodloc2,tr13,27105,162630).
route(prodloc6,prodloc3,tr0,11571,300846).
route(prodloc6,prodloc3,tr13,11571,69426).
route(prodloc6,prodloc4,tr0,22060,573560).
route(prodloc6,prodloc4,tr13,22060,132360).
route(prodloc6,prodloc5,tr0,5946,154596).
route(prodloc6,prodloc5,tr13,5946,35676).
route(prodloc6,prodloc7,tr0,9660,251160).
route(prodloc6,prodloc7,tr13,9660,57960).
route(prodloc6,prodloc8,tr0,653,16978).
route(prodloc6,prodloc8,tr13,653,3918).
route(prodloc6,prodloc9,tr0,28494,740844).
route(prodloc6,prodloc9,tr13,28494,170964).
route(prodloc6,prodloc10,tr0,1319,34294).
route(prodloc6,prodloc10,tr13,1319,7914).
route(prodloc6,prodloc11,tr0,8083,210158).
route(prodloc6,prodloc11,tr13,8083,48498).
route(prodloc6,prodloc12,tr0,18546,482196).
route(prodloc6,prodloc12,tr13,18546,111276).
route(prodloc6,prodloc13,tr0,25825,671450).
route(prodloc6,prodloc13,tr13,25825,154950).
route(prodloc6,prodloc14,tr0,7197,187122).
route(prodloc6,prodloc14,tr13,7197,43182).
route(prodloc6,prodloc15,tr0,13202,343252).
route(prodloc6,prodloc15,tr13,13202,79212).
route(prodloc6,prodloc16,tr0,2076,53976).
route(prodloc6,prodloc16,tr13,2076,12456).
route(prodloc6,prodloc17,tr0,11803,306878).
route(prodloc6,prodloc17,tr13,11803,70818).
route(prodloc6,prodloc18,tr0,3634,94484).
route(prodloc6,prodloc18,tr13,3634,21804).
route(prodloc6,prodloc19,tr0,19562,508612).
route(prodloc6,prodloc19,tr13,19562,117372).
route(prodloc6,prodloc20,tr0,2217,57642).
route(prodloc6,prodloc20,tr13,2217,13302).
route(prodloc6,prodloc21,tr0,7952,206752).
route(prodloc6,prodloc21,tr13,7952,47712).
route(prodloc6,prodloc22,tr0,7648,198848).
route(prodloc6,prodloc22,tr13,7648,45888).
route(prodloc6,prodloc23,tr0,18029,468754).
route(prodloc6,prodloc23,tr13,18029,108174).
route(prodloc6,prodloc24,tr0,6225,161850).
route(prodloc6,prodloc24,tr13,6225,37350).
route(prodloc6,prodloc25,tr0,3375,87750).
route(prodloc6,prodloc25,tr13,3375,20250).
route(prodloc6,prodloc26,tr0,207,5382).
route(prodloc6,prodloc26,tr13,207,1242).
route(prodloc6,prodloc27,tr0,22682,589732).
route(prodloc6,prodloc27,tr13,22682,136092).
route(prodloc6,prodloc28,tr0,13283,345358).
route(prodloc6,prodloc28,tr13,13283,79698).
route(prodloc6,prodloc29,tr0,2623,68198).
route(prodloc6,prodloc29,tr13,2623,15738).
route(prodloc6,prodloc30,tr0,16392,426192).
route(prodloc6,prodloc30,tr13,16392,98352).
route(prodloc6,prodloc31,tr0,27949,726674).
route(prodloc6,prodloc31,tr13,27949,167694).
route(prodloc6,prodloc32,tr0,9210,239460).
route(prodloc6,prodloc32,tr13,9210,55260).
route(prodloc6,prodloc33,tr0,19073,495898).
route(prodloc6,prodloc33,tr13,19073,114438).
route(prodloc7,harbor0,tr0,21355,555230).
route(prodloc7,harbor0,tr13,21355,128130).
route(prodloc7,harbor1,tr0,7251,188526).
route(prodloc7,harbor1,tr13,7251,43506).
route(prodloc7,harbor2,tr0,1719,44694).
route(prodloc7,harbor2,tr13,1719,10314).
route(prodloc7,harbor3,tr0,17223,447798).
route(prodloc7,harbor3,tr13,17223,103338).
route(prodloc7,harbor4,tr0,16957,440882).
route(prodloc7,harbor4,tr13,16957,101742).
route(prodloc7,harbor5,tr0,17295,449670).
route(prodloc7,harbor5,tr13,17295,103770).
route(prodloc7,harbor6,tr0,13212,343512).
route(prodloc7,harbor6,tr13,13212,79272).
route(prodloc7,harbor7,tr0,13996,363896).
route(prodloc7,harbor7,tr13,13996,83976).
route(prodloc7,harbor8,tr0,25653,666978).
route(prodloc7,harbor8,tr13,25653,153918).
route(prodloc7,harbor9,tr0,4151,107926).
route(prodloc7,harbor9,tr13,4151,24906).
route(prodloc7,harbor10,tr0,5074,131924).
route(prodloc7,harbor10,tr13,5074,30444).
route(prodloc7,harbor11,tr0,13990,363740).
route(prodloc7,harbor11,tr13,13990,83940).
route(prodloc7,harbor12,tr0,4249,110474).
route(prodloc7,harbor12,tr13,4249,25494).
route(prodloc7,harbor13,tr0,15068,391768).
route(prodloc7,harbor13,tr13,15068,90408).
route(prodloc7,harbor14,tr0,24093,626418).
route(prodloc7,harbor14,tr13,24093,144558).
route(prodloc7,harbor15,tr0,12218,317668).
route(prodloc7,harbor15,tr13,12218,73308).
route(prodloc7,harbor16,tr0,1732,45032).
route(prodloc7,harbor16,tr13,1732,10392).
route(prodloc7,prodloc0,tr0,18740,487240).
route(prodloc7,prodloc0,tr13,18740,112440).
route(prodloc7,prodloc1,tr0,5988,155688).
route(prodloc7,prodloc1,tr13,5988,35928).
route(prodloc7,prodloc2,tr0,16923,439998).
route(prodloc7,prodloc2,tr13,16923,101538).
route(prodloc7,prodloc3,tr0,26807,696982).
route(prodloc7,prodloc3,tr13,26807,160842).
route(prodloc7,prodloc4,tr0,14419,374894).
route(prodloc7,prodloc4,tr13,14419,86514).
route(prodloc7,prodloc5,tr0,14336,372736).
route(prodloc7,prodloc5,tr13,14336,86016).
route(prodloc7,prodloc6,tr0,19638,510588).
route(prodloc7,prodloc6,tr13,19638,117828).
route(prodloc7,prodloc8,tr0,26915,699790).
route(prodloc7,prodloc8,tr13,26915,161490).
route(prodloc7,prodloc9,tr0,26188,680888).
route(prodloc7,prodloc9,tr13,26188,157128).
route(prodloc7,prodloc10,tr0,28460,739960).
route(prodloc7,prodloc10,tr13,28460,170760).
route(prodloc7,prodloc11,tr0,21221,551746).
route(prodloc7,prodloc11,tr13,21221,127326).
route(prodloc7,prodloc12,tr0,14614,379964).
route(prodloc7,prodloc12,tr13,14614,87684).
route(prodloc7,prodloc13,tr0,5323,138398).
route(prodloc7,prodloc13,tr13,5323,31938).
route(prodloc7,prodloc14,tr0,16241,422266).
route(prodloc7,prodloc14,tr13,16241,97446).
route(prodloc7,prodloc15,tr0,19483,506558).
route(prodloc7,prodloc15,tr13,19483,116898).
route(prodloc7,prodloc16,tr0,4190,108940).
route(prodloc7,prodloc16,tr13,4190,25140).
route(prodloc7,prodloc17,tr0,27943,726518).
route(prodloc7,prodloc17,tr13,27943,167658).
route(prodloc7,prodloc18,tr0,11502,299052).
route(prodloc7,prodloc18,tr13,11502,69012).
route(prodloc7,prodloc19,tr0,4774,124124).
route(prodloc7,prodloc19,tr13,4774,28644).
route(prodloc7,prodloc20,tr0,756,19656).
route(prodloc7,prodloc20,tr13,756,4536).
route(prodloc7,prodloc21,tr0,8237,214162).
route(prodloc7,prodloc21,tr13,8237,49422).
route(prodloc7,prodloc22,tr0,23109,600834).
route(prodloc7,prodloc22,tr13,23109,138654).
route(prodloc7,prodloc23,tr0,6134,159484).
route(prodloc7,prodloc23,tr13,6134,36804).
route(prodloc7,prodloc24,tr0,4948,128648).
route(prodloc7,prodloc24,tr13,4948,29688).
route(prodloc7,prodloc25,tr0,20902,543452).
route(prodloc7,prodloc25,tr13,20902,125412).
route(prodloc7,prodloc26,tr0,13508,351208).
route(prodloc7,prodloc26,tr13,13508,81048).
route(prodloc7,prodloc27,tr0,18672,485472).
route(prodloc7,prodloc27,tr13,18672,112032).
route(prodloc7,prodloc28,tr0,20652,536952).
route(prodloc7,prodloc28,tr13,20652,123912).
route(prodloc7,prodloc29,tr0,8207,213382).
route(prodloc7,prodloc29,tr13,8207,49242).
route(prodloc7,prodloc30,tr0,14497,376922).
route(prodloc7,prodloc30,tr13,14497,86982).
route(prodloc7,prodloc31,tr0,15404,400504).
route(prodloc7,prodloc31,tr13,15404,92424).
route(prodloc7,prodloc32,tr0,15220,395720).
route(prodloc7,prodloc32,tr13,15220,91320).
route(prodloc7,prodloc33,tr0,6166,160316).
route(prodloc7,prodloc33,tr13,6166,36996).
route(prodloc8,harbor0,tr0,13862,360412).
route(prodloc8,harbor0,tr13,13862,83172).
route(prodloc8,harbor1,tr0,14268,370968).
route(prodloc8,harbor1,tr13,14268,85608).
route(prodloc8,harbor2,tr0,8830,229580).
route(prodloc8,harbor2,tr13,8830,52980).
route(prodloc8,harbor3,tr0,25391,660166).
route(prodloc8,harbor3,tr13,25391,152346).
route(prodloc8,harbor4,tr0,7190,186940).
route(prodloc8,harbor4,tr13,7190,43140).
route(prodloc8,harbor5,tr0,11576,300976).
route(prodloc8,harbor5,tr13,11576,69456).
route(prodloc8,harbor6,tr0,24600,639600).
route(prodloc8,harbor6,tr13,24600,147600).
route(prodloc8,harbor7,tr0,20726,538876).
route(prodloc8,harbor7,tr13,20726,124356).
route(prodloc8,harbor8,tr0,1031,26806).
route(prodloc8,harbor8,tr13,1031,6186).
route(prodloc8,harbor9,tr0,26913,699738).
route(prodloc8,harbor9,tr13,26913,161478).
route(prodloc8,harbor10,tr0,12934,336284).
route(prodloc8,harbor10,tr13,12934,77604).
route(prodloc8,harbor11,tr0,20368,529568).
route(prodloc8,harbor11,tr13,20368,122208).
route(prodloc8,harbor12,tr0,27387,712062).
route(prodloc8,harbor12,tr13,27387,164322).
route(prodloc8,harbor13,tr0,916,23816).
route(prodloc8,harbor13,tr13,916,5496).
route(prodloc8,harbor14,tr0,13978,363428).
route(prodloc8,harbor14,tr13,13978,83868).
route(prodloc8,harbor15,tr0,9906,257556).
route(prodloc8,harbor15,tr13,9906,59436).
route(prodloc8,harbor16,tr0,27526,715676).
route(prodloc8,harbor16,tr13,27526,165156).
route(prodloc8,prodloc0,tr0,792,20592).
route(prodloc8,prodloc0,tr13,792,4752).
route(prodloc8,prodloc1,tr0,17953,466778).
route(prodloc8,prodloc1,tr13,17953,107718).
route(prodloc8,prodloc2,tr0,15641,406666).
route(prodloc8,prodloc2,tr13,15641,93846).
route(prodloc8,prodloc3,tr0,18644,484744).
route(prodloc8,prodloc3,tr13,18644,111864).
route(prodloc8,prodloc4,tr0,8576,222976).
route(prodloc8,prodloc4,tr13,8576,51456).
route(prodloc8,prodloc5,tr0,22493,584818).
route(prodloc8,prodloc5,tr13,22493,134958).
route(prodloc8,prodloc6,tr0,8867,230542).
route(prodloc8,prodloc6,tr13,8867,53202).
route(prodloc8,prodloc7,tr0,8099,210574).
route(prodloc8,prodloc7,tr13,8099,48594).
route(prodloc8,prodloc9,tr0,15282,397332).
route(prodloc8,prodloc9,tr13,15282,91692).
route(prodloc8,prodloc10,tr0,23336,606736).
route(prodloc8,prodloc10,tr13,23336,140016).
route(prodloc8,prodloc11,tr0,14977,389402).
route(prodloc8,prodloc11,tr13,14977,89862).
route(prodloc8,prodloc12,tr0,11963,311038).
route(prodloc8,prodloc12,tr13,11963,71778).
route(prodloc8,prodloc13,tr0,17105,444730).
route(prodloc8,prodloc13,tr13,17105,102630).
route(prodloc8,prodloc14,tr0,27758,721708).
route(prodloc8,prodloc14,tr13,27758,166548).
route(prodloc8,prodloc15,tr0,20274,527124).
route(prodloc8,prodloc15,tr13,20274,121644).
route(prodloc8,prodloc16,tr0,15131,393406).
route(prodloc8,prodloc16,tr13,15131,90786).
route(prodloc8,prodloc17,tr0,21740,565240).
route(prodloc8,prodloc17,tr15,21740,695680).
route(prodloc8,prodloc18,tr0,8070,209820).
route(prodloc8,prodloc18,tr13,8070,48420).
route(prodloc8,prodloc19,tr0,18224,473824).
route(prodloc8,prodloc19,tr13,18224,109344).
route(prodloc8,prodloc20,tr0,27775,722150).
route(prodloc8,prodloc20,tr13,27775,166650).
route(prodloc8,prodloc21,tr0,17522,455572).
route(prodloc8,prodloc21,tr13,17522,105132).
route(prodloc8,prodloc22,tr0,5229,135954).
route(prodloc8,prodloc22,tr13,5229,31374).
route(prodloc8,prodloc23,tr0,15103,392678).
route(prodloc8,prodloc23,tr13,15103,90618).
route(prodloc8,prodloc24,tr0,9442,245492).
route(prodloc8,prodloc24,tr13,9442,56652).
route(prodloc8,prodloc25,tr0,24735,643110).
route(prodloc8,prodloc25,tr13,24735,148410).
route(prodloc8,prodloc26,tr0,11852,308152).
route(prodloc8,prodloc26,tr13,11852,71112).
route(prodloc8,prodloc27,tr0,13758,357708).
route(prodloc8,prodloc27,tr13,13758,82548).
route(prodloc8,prodloc28,tr0,3597,93522).
route(prodloc8,prodloc28,tr13,3597,21582).
route(prodloc8,prodloc29,tr0,16562,430612).
route(prodloc8,prodloc29,tr13,16562,99372).
route(prodloc8,prodloc30,tr0,22433,583258).
route(prodloc8,prodloc30,tr13,22433,134598).
route(prodloc8,prodloc31,tr0,8052,209352).
route(prodloc8,prodloc31,tr13,8052,48312).
route(prodloc8,prodloc32,tr0,24480,636480).
route(prodloc8,prodloc32,tr13,24480,146880).
route(prodloc8,prodloc33,tr0,21401,556426).
route(prodloc8,prodloc33,tr13,21401,128406).
route(prodloc9,harbor0,tr0,21632,562432).
route(prodloc9,harbor0,tr13,21632,129792).
route(prodloc9,harbor1,tr0,12677,329602).
route(prodloc9,harbor1,tr13,12677,76062).
route(prodloc9,harbor2,tr0,3841,99866).
route(prodloc9,harbor2,tr13,3841,23046).
route(prodloc9,harbor3,tr0,14179,368654).
route(prodloc9,harbor3,tr13,14179,85074).
route(prodloc9,harbor4,tr0,19597,509522).
route(prodloc9,harbor4,tr13,19597,117582).
route(prodloc9,harbor5,tr0,15123,393198).
route(prodloc9,harbor5,tr13,15123,90738).
route(prodloc9,harbor6,tr0,20456,531856).
route(prodloc9,harbor6,tr13,20456,122736).
route(prodloc9,harbor7,tr0,17083,444158).
route(prodloc9,harbor7,tr13,17083,102498).
route(prodloc9,harbor8,tr0,14898,387348).
route(prodloc9,harbor8,tr13,14898,89388).
route(prodloc9,harbor9,tr0,2956,76856).
route(prodloc9,harbor9,tr13,2956,17736).
route(prodloc9,harbor10,tr0,24312,632112).
route(prodloc9,harbor10,tr13,24312,145872).
route(prodloc9,harbor11,tr0,27298,709748).
route(prodloc9,harbor11,tr13,27298,163788).
route(prodloc9,harbor12,tr0,12799,332774).
route(prodloc9,harbor12,tr13,12799,76794).
route(prodloc9,harbor13,tr0,14831,385606).
route(prodloc9,harbor13,tr13,14831,88986).
route(prodloc9,harbor14,tr0,20196,525096).
route(prodloc9,harbor14,tr13,20196,121176).
route(prodloc9,harbor15,tr0,25093,652418).
route(prodloc9,harbor15,tr13,25093,150558).
route(prodloc9,harbor16,tr0,23311,606086).
route(prodloc9,harbor16,tr13,23311,139866).
route(prodloc9,prodloc0,tr0,22812,593112).
route(prodloc9,prodloc0,tr13,22812,136872).
route(prodloc9,prodloc1,tr0,24221,629746).
route(prodloc9,prodloc1,tr13,24221,145326).
route(prodloc9,prodloc2,tr0,11888,309088).
route(prodloc9,prodloc2,tr13,11888,71328).
route(prodloc9,prodloc3,tr0,26157,680082).
route(prodloc9,prodloc3,tr13,26157,156942).
route(prodloc9,prodloc4,tr0,18254,474604).
route(prodloc9,prodloc4,tr13,18254,109524).
route(prodloc9,prodloc5,tr0,11431,297206).
route(prodloc9,prodloc5,tr13,11431,68586).
route(prodloc9,prodloc6,tr0,5427,141102).
route(prodloc9,prodloc6,tr13,5427,32562).
route(prodloc9,prodloc7,tr0,4815,125190).
route(prodloc9,prodloc7,tr13,4815,28890).
route(prodloc9,prodloc8,tr0,7650,198900).
route(prodloc9,prodloc8,tr13,7650,45900).
route(prodloc9,prodloc10,tr0,21778,566228).
route(prodloc9,prodloc10,tr13,21778,130668).
route(prodloc9,prodloc11,tr0,21276,553176).
route(prodloc9,prodloc11,tr13,21276,127656).
route(prodloc9,prodloc12,tr0,5700,148200).
route(prodloc9,prodloc12,tr13,5700,34200).
route(prodloc9,prodloc13,tr0,13387,348062).
route(prodloc9,prodloc13,tr13,13387,80322).
route(prodloc9,prodloc14,tr0,14785,384410).
route(prodloc9,prodloc14,tr13,14785,88710).
route(prodloc9,prodloc15,tr0,16348,425048).
route(prodloc9,prodloc15,tr13,16348,98088).
route(prodloc9,prodloc16,tr0,23211,603486).
route(prodloc9,prodloc16,tr13,23211,139266).
route(prodloc9,prodloc17,tr0,23661,615186).
route(prodloc9,prodloc17,tr13,23661,141966).
route(prodloc9,prodloc18,tr0,26480,688480).
route(prodloc9,prodloc18,tr13,26480,158880).
route(prodloc9,prodloc19,tr0,5659,147134).
route(prodloc9,prodloc19,tr13,5659,33954).
route(prodloc9,prodloc20,tr0,13338,346788).
route(prodloc9,prodloc20,tr13,13338,80028).
route(prodloc9,prodloc21,tr0,8651,224926).
route(prodloc9,prodloc21,tr13,8651,51906).
route(prodloc9,prodloc22,tr0,10245,266370).
route(prodloc9,prodloc22,tr13,10245,61470).
route(prodloc9,prodloc23,tr0,18690,485940).
route(prodloc9,prodloc23,tr13,18690,112140).
route(prodloc9,prodloc24,tr0,13270,345020).
route(prodloc9,prodloc24,tr13,13270,79620).
route(prodloc9,prodloc25,tr0,9805,254930).
route(prodloc9,prodloc25,tr13,9805,58830).
route(prodloc9,prodloc26,tr0,21197,551122).
route(prodloc9,prodloc26,tr13,21197,127182).
route(prodloc9,prodloc27,tr0,23410,608660).
route(prodloc9,prodloc27,tr13,23410,140460).
route(prodloc9,prodloc28,tr0,25678,667628).
route(prodloc9,prodloc28,tr13,25678,154068).
route(prodloc9,prodloc29,tr0,8670,225420).
route(prodloc9,prodloc29,tr13,8670,52020).
route(prodloc9,prodloc30,tr0,21966,571116).
route(prodloc9,prodloc30,tr13,21966,131796).
route(prodloc9,prodloc31,tr0,10276,267176).
route(prodloc9,prodloc31,tr13,10276,61656).
route(prodloc9,prodloc32,tr0,21871,568646).
route(prodloc9,prodloc32,tr13,21871,131226).
route(prodloc9,prodloc33,tr0,379,9854).
route(prodloc9,prodloc33,tr13,379,2274).
route(prodloc10,harbor0,tr0,13136,341536).
route(prodloc10,harbor0,tr13,13136,78816).
route(prodloc10,harbor1,tr0,19411,504686).
route(prodloc10,harbor1,tr13,19411,116466).
route(prodloc10,harbor2,tr0,1321,34346).
route(prodloc10,harbor2,tr13,1321,7926).
route(prodloc10,harbor3,tr0,6754,175604).
route(prodloc10,harbor3,tr13,6754,40524).
route(prodloc10,harbor4,tr0,14902,387452).
route(prodloc10,harbor4,tr13,14902,89412).
route(prodloc10,harbor5,tr0,3322,86372).
route(prodloc10,harbor5,tr13,3322,19932).
route(prodloc10,harbor6,tr0,3747,97422).
route(prodloc10,harbor6,tr13,3747,22482).
route(prodloc10,harbor7,tr0,352,9152).
route(prodloc10,harbor7,tr13,352,2112).
route(prodloc10,harbor8,tr0,27431,713206).
route(prodloc10,harbor8,tr13,27431,164586).
route(prodloc10,harbor9,tr0,11878,308828).
route(prodloc10,harbor9,tr13,11878,71268).
route(prodloc10,harbor10,tr0,10570,274820).
route(prodloc10,harbor10,tr13,10570,63420).
route(prodloc10,harbor11,tr0,19827,515502).
route(prodloc10,harbor11,tr13,19827,118962).
route(prodloc10,harbor12,tr0,10383,269958).
route(prodloc10,harbor12,tr13,10383,62298).
route(prodloc10,harbor13,tr0,24026,624676).
route(prodloc10,harbor13,tr13,24026,144156).
route(prodloc10,harbor14,tr0,13306,345956).
route(prodloc10,harbor14,tr13,13306,79836).
route(prodloc10,harbor15,tr0,5855,152230).
route(prodloc10,harbor15,tr13,5855,35130).
route(prodloc10,harbor16,tr0,24501,637026).
route(prodloc10,harbor16,tr13,24501,147006).
route(prodloc10,prodloc0,tr0,27314,710164).
route(prodloc10,prodloc0,tr15,27314,874048).
route(prodloc10,prodloc1,tr0,10672,277472).
route(prodloc10,prodloc1,tr13,10672,64032).
route(prodloc10,prodloc2,tr0,25655,667030).
route(prodloc10,prodloc2,tr13,25655,153930).
route(prodloc10,prodloc3,tr0,2638,68588).
route(prodloc10,prodloc3,tr13,2638,15828).
route(prodloc10,prodloc4,tr0,17266,448916).
route(prodloc10,prodloc4,tr13,17266,103596).
route(prodloc10,prodloc5,tr0,19655,511030).
route(prodloc10,prodloc5,tr13,19655,117930).
route(prodloc10,prodloc6,tr0,15737,409162).
route(prodloc10,prodloc6,tr13,15737,94422).
route(prodloc10,prodloc7,tr0,13185,342810).
route(prodloc10,prodloc7,tr13,13185,79110).
route(prodloc10,prodloc8,tr0,20318,528268).
route(prodloc10,prodloc8,tr13,20318,121908).
route(prodloc10,prodloc9,tr0,7714,200564).
route(prodloc10,prodloc9,tr13,7714,46284).
route(prodloc10,prodloc11,tr0,14573,378898).
route(prodloc10,prodloc11,tr13,14573,87438).
route(prodloc10,prodloc12,tr0,3096,80496).
route(prodloc10,prodloc12,tr13,3096,18576).
route(prodloc10,prodloc13,tr0,19769,513994).
route(prodloc10,prodloc13,tr13,19769,118614).
route(prodloc10,prodloc14,tr0,606,15756).
route(prodloc10,prodloc14,tr13,606,3636).
route(prodloc10,prodloc15,tr0,11292,293592).
route(prodloc10,prodloc15,tr15,11292,361344).
route(prodloc10,prodloc16,tr0,997,25922).
route(prodloc10,prodloc16,tr13,997,5982).
route(prodloc10,prodloc17,tr0,9930,258180).
route(prodloc10,prodloc17,tr13,9930,59580).
route(prodloc10,prodloc18,tr0,16171,420446).
route(prodloc10,prodloc18,tr13,16171,97026).
route(prodloc10,prodloc19,tr0,4589,119314).
route(prodloc10,prodloc19,tr13,4589,27534).
route(prodloc10,prodloc20,tr0,23403,608478).
route(prodloc10,prodloc20,tr13,23403,140418).
route(prodloc10,prodloc21,tr0,23174,602524).
route(prodloc10,prodloc21,tr13,23174,139044).
route(prodloc10,prodloc22,tr0,1681,43706).
route(prodloc10,prodloc22,tr13,1681,10086).
route(prodloc10,prodloc23,tr0,310,8060).
route(prodloc10,prodloc23,tr13,310,1860).
route(prodloc10,prodloc24,tr0,10809,281034).
route(prodloc10,prodloc24,tr13,10809,64854).
route(prodloc10,prodloc25,tr0,13299,345774).
route(prodloc10,prodloc25,tr15,13299,425568).
route(prodloc10,prodloc26,tr0,15678,407628).
route(prodloc10,prodloc26,tr13,15678,94068).
route(prodloc10,prodloc27,tr0,21346,554996).
route(prodloc10,prodloc27,tr13,21346,128076).
route(prodloc10,prodloc28,tr0,20102,522652).
route(prodloc10,prodloc28,tr13,20102,120612).
route(prodloc10,prodloc29,tr0,165,4290).
route(prodloc10,prodloc29,tr13,165,990).
route(prodloc10,prodloc30,tr0,28677,745602).
route(prodloc10,prodloc30,tr13,28677,172062).
route(prodloc10,prodloc31,tr0,15801,410826).
route(prodloc10,prodloc31,tr13,15801,94806).
route(prodloc10,prodloc32,tr0,20936,544336).
route(prodloc10,prodloc32,tr13,20936,125616).
route(prodloc10,prodloc33,tr0,18846,489996).
route(prodloc10,prodloc33,tr13,18846,113076).
route(prodloc11,harbor0,tr0,6672,173472).
route(prodloc11,harbor0,tr13,6672,40032).
route(prodloc11,harbor1,tr0,7307,189982).
route(prodloc11,harbor1,tr13,7307,43842).
route(prodloc11,harbor2,tr0,24279,631254).
route(prodloc11,harbor2,tr13,24279,145674).
route(prodloc11,harbor3,tr0,20064,521664).
route(prodloc11,harbor3,tr13,20064,120384).
route(prodloc11,harbor4,tr0,10736,279136).
route(prodloc11,harbor4,tr13,10736,64416).
route(prodloc11,harbor5,tr0,5439,141414).
route(prodloc11,harbor5,tr13,5439,32634).
route(prodloc11,harbor6,tr0,10945,284570).
route(prodloc11,harbor6,tr13,10945,65670).
route(prodloc11,harbor7,tr0,9937,258362).
route(prodloc11,harbor7,tr13,9937,59622).
route(prodloc11,harbor8,tr0,25592,665392).
route(prodloc11,harbor8,tr13,25592,153552).
route(prodloc11,harbor9,tr0,27205,707330).
route(prodloc11,harbor9,tr13,27205,163230).
route(prodloc11,harbor10,tr0,12825,333450).
route(prodloc11,harbor10,tr13,12825,76950).
route(prodloc11,harbor11,tr0,18618,484068).
route(prodloc11,harbor11,tr13,18618,111708).
route(prodloc11,harbor12,tr0,19599,509574).
route(prodloc11,harbor12,tr13,19599,117594).
route(prodloc11,harbor13,tr0,23798,618748).
route(prodloc11,harbor13,tr13,23798,142788).
route(prodloc11,harbor14,tr0,15919,413894).
route(prodloc11,harbor14,tr13,15919,95514).
route(prodloc11,harbor15,tr0,15251,396526).
route(prodloc11,harbor15,tr13,15251,91506).
route(prodloc11,harbor16,tr0,24993,649818).
route(prodloc11,harbor16,tr13,24993,149958).
route(prodloc11,prodloc0,tr0,9156,238056).
route(prodloc11,prodloc0,tr13,9156,54936).
route(prodloc11,prodloc1,tr0,2816,73216).
route(prodloc11,prodloc1,tr13,2816,16896).
route(prodloc11,prodloc2,tr0,16507,429182).
route(prodloc11,prodloc2,tr13,16507,99042).
route(prodloc11,prodloc3,tr0,7000,182000).
route(prodloc11,prodloc3,tr13,7000,42000).
route(prodloc11,prodloc4,tr0,18783,488358).
route(prodloc11,prodloc4,tr13,18783,112698).
route(prodloc11,prodloc5,tr0,12027,312702).
route(prodloc11,prodloc5,tr13,12027,72162).
route(prodloc11,prodloc6,tr0,7923,205998).
route(prodloc11,prodloc6,tr13,7923,47538).
route(prodloc11,prodloc7,tr0,11853,308178).
route(prodloc11,prodloc7,tr13,11853,71118).
route(prodloc11,prodloc8,tr0,27704,720304).
route(prodloc11,prodloc8,tr13,27704,166224).
route(prodloc11,prodloc9,tr0,12184,316784).
route(prodloc11,prodloc9,tr13,12184,73104).
route(prodloc11,prodloc10,tr0,26259,682734).
route(prodloc11,prodloc10,tr13,26259,157554).
route(prodloc11,prodloc12,tr0,5939,154414).
route(prodloc11,prodloc12,tr13,5939,35634).
route(prodloc11,prodloc13,tr0,7937,206362).
route(prodloc11,prodloc13,tr13,7937,47622).
route(prodloc11,prodloc14,tr0,17667,459342).
route(prodloc11,prodloc14,tr13,17667,106002).
route(prodloc11,prodloc15,tr0,26588,691288).
route(prodloc11,prodloc15,tr13,26588,159528).
route(prodloc11,prodloc16,tr0,21262,552812).
route(prodloc11,prodloc16,tr13,21262,127572).
route(prodloc11,prodloc17,tr0,23655,615030).
route(prodloc11,prodloc17,tr13,23655,141930).
route(prodloc11,prodloc18,tr0,20468,532168).
route(prodloc11,prodloc18,tr13,20468,122808).
route(prodloc11,prodloc19,tr0,7373,191698).
route(prodloc11,prodloc19,tr13,7373,44238).
route(prodloc11,prodloc20,tr0,6867,178542).
route(prodloc11,prodloc20,tr13,6867,41202).
route(prodloc11,prodloc21,tr0,19202,499252).
route(prodloc11,prodloc21,tr13,19202,115212).
route(prodloc11,prodloc22,tr0,15351,399126).
route(prodloc11,prodloc22,tr13,15351,92106).
route(prodloc11,prodloc23,tr0,7805,202930).
route(prodloc11,prodloc23,tr13,7805,46830).
route(prodloc11,prodloc24,tr0,13041,339066).
route(prodloc11,prodloc24,tr13,13041,78246).
route(prodloc11,prodloc25,tr0,28275,735150).
route(prodloc11,prodloc25,tr13,28275,169650).
route(prodloc11,prodloc26,tr0,8711,226486).
route(prodloc11,prodloc26,tr13,8711,52266).
route(prodloc11,prodloc27,tr0,19251,500526).
route(prodloc11,prodloc27,tr13,19251,115506).
route(prodloc11,prodloc28,tr0,6671,173446).
route(prodloc11,prodloc28,tr13,6671,40026).
route(prodloc11,prodloc29,tr0,16740,435240).
route(prodloc11,prodloc29,tr13,16740,100440).
route(prodloc11,prodloc30,tr0,28285,735410).
route(prodloc11,prodloc30,tr13,28285,169710).
route(prodloc11,prodloc31,tr0,5298,137748).
route(prodloc11,prodloc31,tr13,5298,31788).
route(prodloc11,prodloc32,tr0,53,1378).
route(prodloc11,prodloc32,tr13,53,318).
route(prodloc11,prodloc33,tr0,13297,345722).
route(prodloc11,prodloc33,tr13,13297,79782).
route(prodloc12,harbor0,tr0,25139,653614).
route(prodloc12,harbor0,tr13,25139,150834).
route(prodloc12,harbor1,tr0,15499,402974).
route(prodloc12,harbor1,tr13,15499,92994).
route(prodloc12,harbor2,tr0,24241,630266).
route(prodloc12,harbor2,tr13,24241,145446).
route(prodloc12,harbor3,tr0,11856,308256).
route(prodloc12,harbor3,tr13,11856,71136).
route(prodloc12,harbor4,tr0,21280,553280).
route(prodloc12,harbor4,tr13,21280,127680).
route(prodloc12,harbor5,tr0,5896,153296).
route(prodloc12,harbor5,tr13,5896,35376).
route(prodloc12,harbor6,tr0,22182,576732).
route(prodloc12,harbor6,tr13,22182,133092).
route(prodloc12,harbor7,tr0,6495,168870).
route(prodloc12,harbor7,tr13,6495,38970).
route(prodloc12,harbor8,tr0,23812,619112).
route(prodloc12,harbor8,tr13,23812,142872).
route(prodloc12,harbor9,tr0,22946,596596).
route(prodloc12,harbor9,tr13,22946,137676).
route(prodloc12,harbor10,tr0,19897,517322).
route(prodloc12,harbor10,tr13,19897,119382).
route(prodloc12,harbor11,tr0,5972,155272).
route(prodloc12,harbor11,tr13,5972,35832).
route(prodloc12,harbor12,tr0,27656,719056).
route(prodloc12,harbor12,tr13,27656,165936).
route(prodloc12,harbor13,tr0,15877,412802).
route(prodloc12,harbor13,tr13,15877,95262).
route(prodloc12,harbor14,tr0,20160,524160).
route(prodloc12,harbor14,tr13,20160,120960).
route(prodloc12,harbor15,tr0,219,5694).
route(prodloc12,harbor15,tr13,219,1314).
route(prodloc12,harbor16,tr0,25921,673946).
route(prodloc12,harbor16,tr13,25921,155526).
route(prodloc12,prodloc0,tr0,24062,625612).
route(prodloc12,prodloc0,tr13,24062,144372).
route(prodloc12,prodloc1,tr0,4379,113854).
route(prodloc12,prodloc1,tr13,4379,26274).
route(prodloc12,prodloc2,tr0,6882,178932).
route(prodloc12,prodloc2,tr13,6882,41292).
route(prodloc12,prodloc3,tr0,23061,599586).
route(prodloc12,prodloc3,tr13,23061,138366).
route(prodloc12,prodloc4,tr0,7122,185172).
route(prodloc12,prodloc4,tr13,7122,42732).
route(prodloc12,prodloc5,tr0,49,1274).
route(prodloc12,prodloc5,tr13,49,294).
route(prodloc12,prodloc6,tr0,20356,529256).
route(prodloc12,prodloc6,tr13,20356,122136).
route(prodloc12,prodloc7,tr0,2751,71526).
route(prodloc12,prodloc7,tr13,2751,16506).
route(prodloc12,prodloc8,tr0,14959,388934).
route(prodloc12,prodloc8,tr13,14959,89754).
route(prodloc12,prodloc9,tr0,25522,663572).
route(prodloc12,prodloc9,tr13,25522,153132).
route(prodloc12,prodloc10,tr0,20926,544076).
route(prodloc12,prodloc10,tr13,20926,125556).
route(prodloc12,prodloc11,tr0,6455,167830).
route(prodloc12,prodloc11,tr13,6455,38730).
route(prodloc12,prodloc13,tr0,24288,631488).
route(prodloc12,prodloc13,tr13,24288,145728).
route(prodloc12,prodloc14,tr0,6060,157560).
route(prodloc12,prodloc14,tr13,6060,36360).
route(prodloc12,prodloc15,tr0,8946,232596).
route(prodloc12,prodloc15,tr13,8946,53676).
route(prodloc12,prodloc16,tr0,12959,336934).
route(prodloc12,prodloc16,tr13,12959,77754).
route(prodloc12,prodloc17,tr0,20214,525564).
route(prodloc12,prodloc17,tr13,20214,121284).
route(prodloc12,prodloc18,tr0,27423,712998).
route(prodloc12,prodloc18,tr13,27423,164538).
route(prodloc12,prodloc19,tr0,714,18564).
route(prodloc12,prodloc19,tr13,714,4284).
route(prodloc12,prodloc20,tr0,342,8892).
route(prodloc12,prodloc20,tr13,342,2052).
route(prodloc12,prodloc21,tr0,11784,306384).
route(prodloc12,prodloc21,tr13,11784,70704).
route(prodloc12,prodloc22,tr0,28755,747630).
route(prodloc12,prodloc22,tr13,28755,172530).
route(prodloc12,prodloc23,tr0,3797,98722).
route(prodloc12,prodloc23,tr13,3797,22782).
route(prodloc12,prodloc24,tr0,9991,259766).
route(prodloc12,prodloc24,tr13,9991,59946).
route(prodloc12,prodloc25,tr0,1170,30420).
route(prodloc12,prodloc25,tr13,1170,7020).
route(prodloc12,prodloc26,tr0,18713,486538).
route(prodloc12,prodloc26,tr13,18713,112278).
route(prodloc12,prodloc27,tr0,11963,311038).
route(prodloc12,prodloc27,tr13,11963,71778).
route(prodloc12,prodloc28,tr0,15488,402688).
route(prodloc12,prodloc28,tr13,15488,92928).
route(prodloc12,prodloc29,tr0,12468,324168).
route(prodloc12,prodloc29,tr13,12468,74808).
route(prodloc12,prodloc30,tr0,3989,103714).
route(prodloc12,prodloc30,tr13,3989,23934).
route(prodloc12,prodloc31,tr0,2496,64896).
route(prodloc12,prodloc31,tr13,2496,14976).
route(prodloc12,prodloc32,tr0,15165,394290).
route(prodloc12,prodloc32,tr13,15165,90990).
route(prodloc12,prodloc33,tr0,5764,149864).
route(prodloc12,prodloc33,tr13,5764,34584).
route(prodloc13,harbor0,tr0,4684,121784).
route(prodloc13,harbor0,tr13,4684,28104).
route(prodloc13,harbor1,tr0,26378,685828).
route(prodloc13,harbor1,tr13,26378,158268).
route(prodloc13,harbor2,tr0,28831,749606).
route(prodloc13,harbor2,tr13,28831,172986).
route(prodloc13,harbor3,tr0,28803,748878).
route(prodloc13,harbor3,tr13,28803,172818).
route(prodloc13,harbor4,tr0,25244,656344).
route(prodloc13,harbor4,tr13,25244,151464).
route(prodloc13,harbor5,tr0,14876,386776).
route(prodloc13,harbor5,tr13,14876,89256).
route(prodloc13,harbor6,tr0,20998,545948).
route(prodloc13,harbor6,tr13,20998,125988).
route(prodloc13,harbor7,tr0,2062,53612).
route(prodloc13,harbor7,tr13,2062,12372).
route(prodloc13,harbor8,tr0,8748,227448).
route(prodloc13,harbor8,tr13,8748,52488).
route(prodloc13,harbor9,tr0,4844,125944).
route(prodloc13,harbor9,tr13,4844,29064).
route(prodloc13,harbor10,tr0,28512,741312).
route(prodloc13,harbor10,tr13,28512,171072).
route(prodloc13,harbor11,tr0,15853,412178).
route(prodloc13,harbor11,tr13,15853,95118).
route(prodloc13,harbor12,tr0,17622,458172).
route(prodloc13,harbor12,tr13,17622,105732).
route(prodloc13,harbor13,tr0,2450,63700).
route(prodloc13,harbor13,tr13,2450,14700).
route(prodloc13,harbor14,tr0,26472,688272).
route(prodloc13,harbor14,tr13,26472,158832).
route(prodloc13,harbor15,tr0,17256,448656).
route(prodloc13,harbor15,tr13,17256,103536).
route(prodloc13,harbor16,tr0,23184,602784).
route(prodloc13,harbor16,tr13,23184,139104).
route(prodloc13,prodloc0,tr0,26179,680654).
route(prodloc13,prodloc0,tr13,26179,157074).
route(prodloc13,prodloc1,tr0,9581,249106).
route(prodloc13,prodloc1,tr13,9581,57486).
route(prodloc13,prodloc2,tr0,9389,244114).
route(prodloc13,prodloc2,tr13,9389,56334).
route(prodloc13,prodloc3,tr0,893,23218).
route(prodloc13,prodloc3,tr15,893,28576).
route(prodloc13,prodloc4,tr0,17924,466024).
route(prodloc13,prodloc4,tr13,17924,107544).
route(prodloc13,prodloc5,tr0,18361,477386).
route(prodloc13,prodloc5,tr13,18361,110166).
route(prodloc13,prodloc6,tr0,6830,177580).
route(prodloc13,prodloc6,tr13,6830,40980).
route(prodloc13,prodloc7,tr0,2551,66326).
route(prodloc13,prodloc7,tr13,2551,15306).
route(prodloc13,prodloc8,tr0,13666,355316).
route(prodloc13,prodloc8,tr13,13666,81996).
route(prodloc13,prodloc9,tr0,4119,107094).
route(prodloc13,prodloc9,tr13,4119,24714).
route(prodloc13,prodloc10,tr0,6107,158782).
route(prodloc13,prodloc10,tr13,6107,36642).
route(prodloc13,prodloc11,tr0,19231,500006).
route(prodloc13,prodloc11,tr13,19231,115386).
route(prodloc13,prodloc12,tr0,10099,262574).
route(prodloc13,prodloc12,tr13,10099,60594).
route(prodloc13,prodloc14,tr0,15204,395304).
route(prodloc13,prodloc14,tr13,15204,91224).
route(prodloc13,prodloc15,tr0,6492,168792).
route(prodloc13,prodloc15,tr13,6492,38952).
route(prodloc13,prodloc16,tr0,28091,730366).
route(prodloc13,prodloc16,tr13,28091,168546).
route(prodloc13,prodloc17,tr0,1284,33384).
route(prodloc13,prodloc17,tr13,1284,7704).
route(prodloc13,prodloc18,tr0,22819,593294).
route(prodloc13,prodloc18,tr13,22819,136914).
route(prodloc13,prodloc19,tr0,11067,287742).
route(prodloc13,prodloc19,tr13,11067,66402).
route(prodloc13,prodloc20,tr0,15051,391326).
route(prodloc13,prodloc20,tr13,15051,90306).
route(prodloc13,prodloc21,tr0,25676,667576).
route(prodloc13,prodloc21,tr13,25676,154056).
route(prodloc13,prodloc22,tr0,2048,53248).
route(prodloc13,prodloc22,tr13,2048,12288).
route(prodloc13,prodloc23,tr0,5047,131222).
route(prodloc13,prodloc23,tr13,5047,30282).
route(prodloc13,prodloc24,tr0,7485,194610).
route(prodloc13,prodloc24,tr13,7485,44910).
route(prodloc13,prodloc25,tr0,27968,727168).
route(prodloc13,prodloc25,tr13,27968,167808).
route(prodloc13,prodloc26,tr0,20273,527098).
route(prodloc13,prodloc26,tr13,20273,121638).
route(prodloc13,prodloc27,tr0,11501,299026).
route(prodloc13,prodloc27,tr13,11501,69006).
route(prodloc13,prodloc28,tr0,20812,541112).
route(prodloc13,prodloc28,tr13,20812,124872).
route(prodloc13,prodloc29,tr0,10051,261326).
route(prodloc13,prodloc29,tr13,10051,60306).
route(prodloc13,prodloc30,tr0,26359,685334).
route(prodloc13,prodloc30,tr13,26359,158154).
route(prodloc13,prodloc31,tr0,22916,595816).
route(prodloc13,prodloc31,tr13,22916,137496).
route(prodloc13,prodloc32,tr0,21138,549588).
route(prodloc13,prodloc32,tr13,21138,126828).
route(prodloc13,prodloc33,tr0,3544,92144).
route(prodloc13,prodloc33,tr13,3544,21264).
route(prodloc14,harbor0,tr0,27848,724048).
route(prodloc14,harbor0,tr13,27848,167088).
route(prodloc14,harbor1,tr0,6241,162266).
route(prodloc14,harbor1,tr13,6241,37446).
route(prodloc14,harbor2,tr0,5093,132418).
route(prodloc14,harbor2,tr13,5093,30558).
route(prodloc14,harbor3,tr0,26676,693576).
route(prodloc14,harbor3,tr13,26676,160056).
route(prodloc14,harbor4,tr0,7287,189462).
route(prodloc14,harbor4,tr13,7287,43722).
route(prodloc14,harbor5,tr0,946,24596).
route(prodloc14,harbor5,tr13,946,5676).
route(prodloc14,harbor6,tr0,10592,275392).
route(prodloc14,harbor6,tr13,10592,63552).
route(prodloc14,harbor7,tr0,3900,101400).
route(prodloc14,harbor7,tr13,3900,23400).
route(prodloc14,harbor8,tr0,8938,232388).
route(prodloc14,harbor8,tr13,8938,53628).
route(prodloc14,harbor9,tr0,3397,88322).
route(prodloc14,harbor9,tr13,3397,20382).
route(prodloc14,harbor10,tr0,12224,317824).
route(prodloc14,harbor10,tr13,12224,73344).
route(prodloc14,harbor11,tr0,25398,660348).
route(prodloc14,harbor11,tr13,25398,152388).
route(prodloc14,harbor12,tr0,2349,61074).
route(prodloc14,harbor12,tr13,2349,14094).
route(prodloc14,harbor13,tr0,16537,429962).
route(prodloc14,harbor13,tr13,16537,99222).
route(prodloc14,harbor14,tr0,26549,690274).
route(prodloc14,harbor14,tr13,26549,159294).
route(prodloc14,harbor15,tr0,27913,725738).
route(prodloc14,harbor15,tr13,27913,167478).
route(prodloc14,harbor16,tr0,23516,611416).
route(prodloc14,harbor16,tr13,23516,141096).
route(prodloc14,prodloc0,tr0,20125,523250).
route(prodloc14,prodloc0,tr13,20125,120750).
route(prodloc14,prodloc1,tr0,4447,115622).
route(prodloc14,prodloc1,tr13,4447,26682).
route(prodloc14,prodloc2,tr0,11514,299364).
route(prodloc14,prodloc2,tr13,11514,69084).
route(prodloc14,prodloc3,tr0,4302,111852).
route(prodloc14,prodloc3,tr13,4302,25812).
route(prodloc14,prodloc4,tr0,13885,361010).
route(prodloc14,prodloc4,tr13,13885,83310).
route(prodloc14,prodloc5,tr0,24007,624182).
route(prodloc14,prodloc5,tr13,24007,144042).
route(prodloc14,prodloc6,tr0,24352,633152).
route(prodloc14,prodloc6,tr13,24352,146112).
route(prodloc14,prodloc7,tr0,6424,167024).
route(prodloc14,prodloc7,tr13,6424,38544).
route(prodloc14,prodloc8,tr0,10167,264342).
route(prodloc14,prodloc8,tr13,10167,61002).
route(prodloc14,prodloc9,tr0,18127,471302).
route(prodloc14,prodloc9,tr13,18127,108762).
route(prodloc14,prodloc10,tr0,24937,648362).
route(prodloc14,prodloc10,tr13,24937,149622).
route(prodloc14,prodloc11,tr0,668,17368).
route(prodloc14,prodloc11,tr13,668,4008).
route(prodloc14,prodloc12,tr0,24653,640978).
route(prodloc14,prodloc12,tr13,24653,147918).
route(prodloc14,prodloc13,tr0,574,14924).
route(prodloc14,prodloc13,tr13,574,3444).
route(prodloc14,prodloc15,tr0,11158,290108).
route(prodloc14,prodloc15,tr13,11158,66948).
route(prodloc14,prodloc16,tr0,20934,544284).
route(prodloc14,prodloc16,tr13,20934,125604).
route(prodloc14,prodloc17,tr0,4904,127504).
route(prodloc14,prodloc17,tr13,4904,29424).
route(prodloc14,prodloc18,tr0,23574,612924).
route(prodloc14,prodloc18,tr13,23574,141444).
route(prodloc14,prodloc19,tr0,2414,62764).
route(prodloc14,prodloc19,tr13,2414,14484).
route(prodloc14,prodloc20,tr0,28218,733668).
route(prodloc14,prodloc20,tr13,28218,169308).
route(prodloc14,prodloc21,tr0,17835,463710).
route(prodloc14,prodloc21,tr13,17835,107010).
route(prodloc14,prodloc22,tr0,24683,641758).
route(prodloc14,prodloc22,tr13,24683,148098).
route(prodloc14,prodloc23,tr0,1569,40794).
route(prodloc14,prodloc23,tr13,1569,9414).
route(prodloc14,prodloc24,tr0,4487,116662).
route(prodloc14,prodloc24,tr13,4487,26922).
route(prodloc14,prodloc25,tr0,24184,628784).
route(prodloc14,prodloc25,tr13,24184,145104).
route(prodloc14,prodloc26,tr0,16164,420264).
route(prodloc14,prodloc26,tr13,16164,96984).
route(prodloc14,prodloc27,tr0,13672,355472).
route(prodloc14,prodloc27,tr13,13672,82032).
route(prodloc14,prodloc28,tr0,22180,576680).
route(prodloc14,prodloc28,tr13,22180,133080).
route(prodloc14,prodloc29,tr0,11734,305084).
route(prodloc14,prodloc29,tr13,11734,70404).
route(prodloc14,prodloc30,tr0,15751,409526).
route(prodloc14,prodloc30,tr13,15751,94506).
route(prodloc14,prodloc31,tr0,21716,564616).
route(prodloc14,prodloc31,tr13,21716,130296).
route(prodloc14,prodloc32,tr0,9666,251316).
route(prodloc14,prodloc32,tr13,9666,57996).
route(prodloc14,prodloc33,tr0,9736,253136).
route(prodloc14,prodloc33,tr13,9736,58416).
route(prodloc15,harbor0,tr0,2089,54314).
route(prodloc15,harbor0,tr13,2089,12534).
route(prodloc15,harbor1,tr0,20493,532818).
route(prodloc15,harbor1,tr13,20493,122958).
route(prodloc15,harbor2,tr0,4933,128258).
route(prodloc15,harbor2,tr13,4933,29598).
route(prodloc15,harbor3,tr0,24219,629694).
route(prodloc15,harbor3,tr13,24219,145314).
route(prodloc15,harbor4,tr0,3766,97916).
route(prodloc15,harbor4,tr13,3766,22596).
route(prodloc15,harbor5,tr0,228,5928).
route(prodloc15,harbor5,tr13,228,1368).
route(prodloc15,harbor6,tr0,26899,699374).
route(prodloc15,harbor6,tr13,26899,161394).
route(prodloc15,harbor7,tr0,2950,76700).
route(prodloc15,harbor7,tr13,2950,17700).
route(prodloc15,harbor8,tr0,4678,121628).
route(prodloc15,harbor8,tr13,4678,28068).
route(prodloc15,harbor9,tr0,11544,300144).
route(prodloc15,harbor9,tr13,11544,69264).
route(prodloc15,harbor10,tr0,27718,720668).
route(prodloc15,harbor10,tr13,27718,166308).
route(prodloc15,harbor11,tr0,23342,606892).
route(prodloc15,harbor11,tr13,23342,140052).
route(prodloc15,harbor12,tr0,5106,132756).
route(prodloc15,harbor12,tr13,5106,30636).
route(prodloc15,harbor13,tr0,9853,256178).
route(prodloc15,harbor13,tr13,9853,59118).
route(prodloc15,harbor14,tr0,25432,661232).
route(prodloc15,harbor14,tr13,25432,152592).
route(prodloc15,harbor15,tr0,18563,482638).
route(prodloc15,harbor15,tr13,18563,111378).
route(prodloc15,harbor16,tr0,22231,578006).
route(prodloc15,harbor16,tr13,22231,133386).
route(prodloc15,prodloc0,tr0,28821,749346).
route(prodloc15,prodloc0,tr13,28821,172926).
route(prodloc15,prodloc1,tr0,17557,456482).
route(prodloc15,prodloc1,tr13,17557,105342).
route(prodloc15,prodloc2,tr0,4231,110006).
route(prodloc15,prodloc2,tr13,4231,25386).
route(prodloc15,prodloc3,tr0,2928,76128).
route(prodloc15,prodloc3,tr13,2928,17568).
route(prodloc15,prodloc4,tr0,7495,194870).
route(prodloc15,prodloc4,tr13,7495,44970).
route(prodloc15,prodloc5,tr0,18732,487032).
route(prodloc15,prodloc5,tr13,18732,112392).
route(prodloc15,prodloc6,tr0,23793,618618).
route(prodloc15,prodloc6,tr13,23793,142758).
route(prodloc15,prodloc7,tr0,25525,663650).
route(prodloc15,prodloc7,tr13,25525,153150).
route(prodloc15,prodloc8,tr0,24432,635232).
route(prodloc15,prodloc8,tr13,24432,146592).
route(prodloc15,prodloc9,tr0,7531,195806).
route(prodloc15,prodloc9,tr13,7531,45186).
route(prodloc15,prodloc10,tr0,26381,685906).
route(prodloc15,prodloc10,tr13,26381,158286).
route(prodloc15,prodloc11,tr0,10972,285272).
route(prodloc15,prodloc11,tr13,10972,65832).
route(prodloc15,prodloc12,tr0,2957,76882).
route(prodloc15,prodloc12,tr13,2957,17742).
route(prodloc15,prodloc13,tr0,28675,745550).
route(prodloc15,prodloc13,tr13,28675,172050).
route(prodloc15,prodloc14,tr0,6121,159146).
route(prodloc15,prodloc14,tr13,6121,36726).
route(prodloc15,prodloc16,tr0,21868,568568).
route(prodloc15,prodloc16,tr13,21868,131208).
route(prodloc15,prodloc17,tr0,14323,372398).
route(prodloc15,prodloc17,tr13,14323,85938).
route(prodloc15,prodloc18,tr0,6883,178958).
route(prodloc15,prodloc18,tr13,6883,41298).
route(prodloc15,prodloc19,tr0,13471,350246).
route(prodloc15,prodloc19,tr13,13471,80826).
route(prodloc15,prodloc20,tr0,21284,553384).
route(prodloc15,prodloc20,tr13,21284,127704).
route(prodloc15,prodloc21,tr0,21523,559598).
route(prodloc15,prodloc21,tr13,21523,129138).
route(prodloc15,prodloc22,tr0,1229,31954).
route(prodloc15,prodloc22,tr13,1229,7374).
route(prodloc15,prodloc23,tr0,27316,710216).
route(prodloc15,prodloc23,tr13,27316,163896).
route(prodloc15,prodloc24,tr0,10951,284726).
route(prodloc15,prodloc24,tr13,10951,65706).
route(prodloc15,prodloc25,tr0,14065,365690).
route(prodloc15,prodloc25,tr13,14065,84390).
route(prodloc15,prodloc26,tr0,16301,423826).
route(prodloc15,prodloc26,tr13,16301,97806).
route(prodloc15,prodloc27,tr0,21404,556504).
route(prodloc15,prodloc27,tr13,21404,128424).
route(prodloc15,prodloc28,tr0,18360,477360).
route(prodloc15,prodloc28,tr13,18360,110160).
route(prodloc15,prodloc29,tr0,11301,293826).
route(prodloc15,prodloc29,tr13,11301,67806).
route(prodloc15,prodloc30,tr0,6056,157456).
route(prodloc15,prodloc30,tr13,6056,36336).
route(prodloc15,prodloc31,tr0,17271,449046).
route(prodloc15,prodloc31,tr13,17271,103626).
route(prodloc15,prodloc32,tr0,3855,100230).
route(prodloc15,prodloc32,tr13,3855,23130).
route(prodloc15,prodloc33,tr0,21523,559598).
route(prodloc15,prodloc33,tr13,21523,129138).
route(prodloc16,harbor0,tr0,28274,735124).
route(prodloc16,harbor0,tr13,28274,169644).
route(prodloc16,harbor1,tr0,1409,36634).
route(prodloc16,harbor1,tr13,1409,8454).
route(prodloc16,harbor2,tr0,4106,106756).
route(prodloc16,harbor2,tr13,4106,24636).
route(prodloc16,harbor3,tr0,22435,583310).
route(prodloc16,harbor3,tr13,22435,134610).
route(prodloc16,harbor4,tr0,12387,322062).
route(prodloc16,harbor4,tr13,12387,74322).
route(prodloc16,harbor5,tr0,4749,123474).
route(prodloc16,harbor5,tr13,4749,28494).
route(prodloc16,harbor6,tr0,13799,358774).
route(prodloc16,harbor6,tr13,13799,82794).
route(prodloc16,harbor7,tr0,25101,652626).
route(prodloc16,harbor7,tr13,25101,150606).
route(prodloc16,harbor8,tr0,25087,652262).
route(prodloc16,harbor8,tr13,25087,150522).
route(prodloc16,harbor9,tr0,24168,628368).
route(prodloc16,harbor9,tr13,24168,145008).
route(prodloc16,harbor10,tr0,7313,190138).
route(prodloc16,harbor10,tr13,7313,43878).
route(prodloc16,harbor11,tr0,20759,539734).
route(prodloc16,harbor11,tr13,20759,124554).
route(prodloc16,harbor12,tr0,8793,228618).
route(prodloc16,harbor12,tr13,8793,52758).
route(prodloc16,harbor13,tr0,20166,524316).
route(prodloc16,harbor13,tr13,20166,120996).
route(prodloc16,harbor14,tr0,17705,460330).
route(prodloc16,harbor14,tr13,17705,106230).
route(prodloc16,harbor15,tr0,22978,597428).
route(prodloc16,harbor15,tr13,22978,137868).
route(prodloc16,harbor16,tr0,4062,105612).
route(prodloc16,harbor16,tr13,4062,24372).
route(prodloc16,prodloc0,tr0,2823,73398).
route(prodloc16,prodloc0,tr13,2823,16938).
route(prodloc16,prodloc1,tr0,16859,438334).
route(prodloc16,prodloc1,tr13,16859,101154).
route(prodloc16,prodloc2,tr0,27331,710606).
route(prodloc16,prodloc2,tr13,27331,163986).
route(prodloc16,prodloc3,tr0,18693,486018).
route(prodloc16,prodloc3,tr13,18693,112158).
route(prodloc16,prodloc4,tr0,23611,613886).
route(prodloc16,prodloc4,tr13,23611,141666).
route(prodloc16,prodloc5,tr0,20285,527410).
route(prodloc16,prodloc5,tr13,20285,121710).
route(prodloc16,prodloc6,tr0,5811,151086).
route(prodloc16,prodloc6,tr13,5811,34866).
route(prodloc16,prodloc7,tr0,6514,169364).
route(prodloc16,prodloc7,tr13,6514,39084).
route(prodloc16,prodloc8,tr0,21685,563810).
route(prodloc16,prodloc8,tr13,21685,130110).
route(prodloc16,prodloc9,tr0,20355,529230).
route(prodloc16,prodloc9,tr13,20355,122130).
route(prodloc16,prodloc10,tr0,22109,574834).
route(prodloc16,prodloc10,tr13,22109,132654).
route(prodloc16,prodloc11,tr0,23256,604656).
route(prodloc16,prodloc11,tr13,23256,139536).
route(prodloc16,prodloc12,tr0,2371,61646).
route(prodloc16,prodloc12,tr13,2371,14226).
route(prodloc16,prodloc13,tr13,17602,105612).
route(prodloc16,prodloc13,tr15,17602,563264).
route(prodloc16,prodloc14,tr0,10280,267280).
route(prodloc16,prodloc14,tr13,10280,61680).
route(prodloc16,prodloc15,tr0,4239,110214).
route(prodloc16,prodloc15,tr13,4239,25434).
route(prodloc16,prodloc17,tr0,16470,428220).
route(prodloc16,prodloc17,tr13,16470,98820).
route(prodloc16,prodloc18,tr0,7776,202176).
route(prodloc16,prodloc18,tr13,7776,46656).
route(prodloc16,prodloc19,tr0,7792,202592).
route(prodloc16,prodloc19,tr13,7792,46752).
route(prodloc16,prodloc20,tr0,22213,577538).
route(prodloc16,prodloc20,tr13,22213,133278).
route(prodloc16,prodloc21,tr0,14922,387972).
route(prodloc16,prodloc21,tr13,14922,89532).
route(prodloc16,prodloc22,tr0,22062,573612).
route(prodloc16,prodloc22,tr13,22062,132372).
route(prodloc16,prodloc23,tr0,13308,346008).
route(prodloc16,prodloc23,tr13,13308,79848).
route(prodloc16,prodloc24,tr0,14942,388492).
route(prodloc16,prodloc24,tr13,14942,89652).
route(prodloc16,prodloc25,tr0,3497,90922).
route(prodloc16,prodloc25,tr13,3497,20982).
route(prodloc16,prodloc26,tr0,10279,267254).
route(prodloc16,prodloc26,tr13,10279,61674).
route(prodloc16,prodloc27,tr0,7606,197756).
route(prodloc16,prodloc27,tr13,7606,45636).
route(prodloc16,prodloc28,tr0,1566,40716).
route(prodloc16,prodloc28,tr13,1566,9396).
route(prodloc16,prodloc29,tr0,11286,293436).
route(prodloc16,prodloc29,tr13,11286,67716).
route(prodloc16,prodloc30,tr0,3507,91182).
route(prodloc16,prodloc30,tr13,3507,21042).
route(prodloc16,prodloc31,tr0,12901,335426).
route(prodloc16,prodloc31,tr13,12901,77406).
route(prodloc16,prodloc32,tr0,599,15574).
route(prodloc16,prodloc32,tr13,599,3594).
route(prodloc16,prodloc33,tr0,18459,479934).
route(prodloc16,prodloc33,tr13,18459,110754).
route(prodloc17,harbor0,tr0,3838,99788).
route(prodloc17,harbor0,tr13,3838,23028).
route(prodloc17,harbor1,tr0,24471,636246).
route(prodloc17,harbor1,tr13,24471,146826).
route(prodloc17,harbor2,tr0,26582,691132).
route(prodloc17,harbor2,tr13,26582,159492).
route(prodloc17,harbor3,tr0,8491,220766).
route(prodloc17,harbor3,tr13,8491,50946).
route(prodloc17,harbor4,tr0,11575,300950).
route(prodloc17,harbor4,tr13,11575,69450).
route(prodloc17,harbor5,tr0,18177,472602).
route(prodloc17,harbor5,tr13,18177,109062).
route(prodloc17,harbor6,tr0,7885,205010).
route(prodloc17,harbor6,tr13,7885,47310).
route(prodloc17,harbor7,tr0,11071,287846).
route(prodloc17,harbor7,tr13,11071,66426).
route(prodloc17,harbor8,tr0,13865,360490).
route(prodloc17,harbor8,tr13,13865,83190).
route(prodloc17,harbor9,tr0,7429,193154).
route(prodloc17,harbor9,tr13,7429,44574).
route(prodloc17,harbor10,tr0,1426,37076).
route(prodloc17,harbor10,tr13,1426,8556).
route(prodloc17,harbor11,tr0,4583,119158).
route(prodloc17,harbor11,tr13,4583,27498).
route(prodloc17,harbor12,tr0,5485,142610).
route(prodloc17,harbor12,tr13,5485,32910).
route(prodloc17,harbor13,tr0,4287,111462).
route(prodloc17,harbor13,tr13,4287,25722).
route(prodloc17,harbor14,tr0,23865,620490).
route(prodloc17,harbor14,tr13,23865,143190).
route(prodloc17,harbor15,tr0,27227,707902).
route(prodloc17,harbor15,tr13,27227,163362).
route(prodloc17,harbor16,tr0,5623,146198).
route(prodloc17,harbor16,tr13,5623,33738).
route(prodloc17,prodloc0,tr0,12842,333892).
route(prodloc17,prodloc0,tr13,12842,77052).
route(prodloc17,prodloc1,tr0,4950,128700).
route(prodloc17,prodloc1,tr13,4950,29700).
route(prodloc17,prodloc2,tr0,3420,88920).
route(prodloc17,prodloc2,tr13,3420,20520).
route(prodloc17,prodloc3,tr0,21134,549484).
route(prodloc17,prodloc3,tr13,21134,126804).
route(prodloc17,prodloc4,tr0,9847,256022).
route(prodloc17,prodloc4,tr13,9847,59082).
route(prodloc17,prodloc5,tr0,25032,650832).
route(prodloc17,prodloc5,tr13,25032,150192).
route(prodloc17,prodloc6,tr13,13969,83814).
route(prodloc17,prodloc6,tr15,13969,447008).
route(prodloc17,prodloc7,tr0,15190,394940).
route(prodloc17,prodloc7,tr13,15190,91140).
route(prodloc17,prodloc8,tr0,244,6344).
route(prodloc17,prodloc8,tr13,244,1464).
route(prodloc17,prodloc9,tr0,3622,94172).
route(prodloc17,prodloc9,tr13,3622,21732).
route(prodloc17,prodloc10,tr0,13834,359684).
route(prodloc17,prodloc10,tr13,13834,83004).
route(prodloc17,prodloc11,tr0,50,1300).
route(prodloc17,prodloc11,tr13,50,300).
route(prodloc17,prodloc12,tr0,22586,587236).
route(prodloc17,prodloc12,tr13,22586,135516).
route(prodloc17,prodloc13,tr0,3147,81822).
route(prodloc17,prodloc13,tr13,3147,18882).
route(prodloc17,prodloc14,tr13,27329,163974).
route(prodloc17,prodloc14,tr15,27329,874528).
route(prodloc17,prodloc15,tr0,1078,28028).
route(prodloc17,prodloc15,tr13,1078,6468).
route(prodloc17,prodloc16,tr0,6223,161798).
route(prodloc17,prodloc16,tr13,6223,37338).
route(prodloc17,prodloc18,tr0,14219,369694).
route(prodloc17,prodloc18,tr13,14219,85314).
route(prodloc17,prodloc19,tr0,61,1586).
route(prodloc17,prodloc19,tr13,61,366).
route(prodloc17,prodloc20,tr0,6316,164216).
route(prodloc17,prodloc20,tr13,6316,37896).
route(prodloc17,prodloc21,tr0,26050,677300).
route(prodloc17,prodloc21,tr13,26050,156300).
route(prodloc17,prodloc22,tr0,28085,730210).
route(prodloc17,prodloc22,tr13,28085,168510).
route(prodloc17,prodloc23,tr0,12459,323934).
route(prodloc17,prodloc23,tr13,12459,74754).
route(prodloc17,prodloc24,tr0,26825,697450).
route(prodloc17,prodloc24,tr13,26825,160950).
route(prodloc17,prodloc25,tr0,10281,267306).
route(prodloc17,prodloc25,tr13,10281,61686).
route(prodloc17,prodloc26,tr0,27772,722072).
route(prodloc17,prodloc26,tr13,27772,166632).
route(prodloc17,prodloc27,tr0,5069,131794).
route(prodloc17,prodloc27,tr13,5069,30414).
route(prodloc17,prodloc28,tr0,5716,148616).
route(prodloc17,prodloc28,tr13,5716,34296).
route(prodloc17,prodloc29,tr0,8796,228696).
route(prodloc17,prodloc29,tr13,8796,52776).
route(prodloc17,prodloc30,tr0,27959,726934).
route(prodloc17,prodloc30,tr13,27959,167754).
route(prodloc17,prodloc31,tr0,8726,226876).
route(prodloc17,prodloc31,tr13,8726,52356).
route(prodloc17,prodloc32,tr0,26538,689988).
route(prodloc17,prodloc32,tr13,26538,159228).
route(prodloc17,prodloc33,tr0,8420,218920).
route(prodloc17,prodloc33,tr13,8420,50520).
route(prodloc18,harbor0,tr0,18665,485290).
route(prodloc18,harbor0,tr13,18665,111990).
route(prodloc18,harbor1,tr0,7630,198380).
route(prodloc18,harbor1,tr13,7630,45780).
route(prodloc18,harbor2,tr0,16958,440908).
route(prodloc18,harbor2,tr13,16958,101748).
route(prodloc18,harbor3,tr0,26650,692900).
route(prodloc18,harbor3,tr13,26650,159900).
route(prodloc18,harbor4,tr0,10140,263640).
route(prodloc18,harbor4,tr13,10140,60840).
route(prodloc18,harbor5,tr0,10126,263276).
route(prodloc18,harbor5,tr13,10126,60756).
route(prodloc18,harbor6,tr0,18450,479700).
route(prodloc18,harbor6,tr13,18450,110700).
route(prodloc18,harbor7,tr0,13644,354744).
route(prodloc18,harbor7,tr13,13644,81864).
route(prodloc18,harbor8,tr0,16335,424710).
route(prodloc18,harbor8,tr13,16335,98010).
route(prodloc18,harbor9,tr0,15847,412022).
route(prodloc18,harbor9,tr13,15847,95082).
route(prodloc18,harbor10,tr0,28316,736216).
route(prodloc18,harbor10,tr13,28316,169896).
route(prodloc18,harbor11,tr0,27602,717652).
route(prodloc18,harbor11,tr13,27602,165612).
route(prodloc18,harbor12,tr0,12661,329186).
route(prodloc18,harbor12,tr13,12661,75966).
route(prodloc18,harbor13,tr0,25118,653068).
route(prodloc18,harbor13,tr13,25118,150708).
route(prodloc18,harbor14,tr0,9654,251004).
route(prodloc18,harbor14,tr13,9654,57924).
route(prodloc18,harbor15,tr0,12897,335322).
route(prodloc18,harbor15,tr13,12897,77382).
route(prodloc18,harbor16,tr0,5677,147602).
route(prodloc18,harbor16,tr13,5677,34062).
route(prodloc18,prodloc0,tr0,21392,556192).
route(prodloc18,prodloc0,tr13,21392,128352).
route(prodloc18,prodloc1,tr0,26395,686270).
route(prodloc18,prodloc1,tr13,26395,158370).
route(prodloc18,prodloc2,tr0,13779,358254).
route(prodloc18,prodloc2,tr13,13779,82674).
route(prodloc18,prodloc3,tr0,9655,251030).
route(prodloc18,prodloc3,tr13,9655,57930).
route(prodloc18,prodloc4,tr0,25903,673478).
route(prodloc18,prodloc4,tr13,25903,155418).
route(prodloc18,prodloc5,tr0,18894,491244).
route(prodloc18,prodloc5,tr13,18894,113364).
route(prodloc18,prodloc6,tr0,15101,392626).
route(prodloc18,prodloc6,tr13,15101,90606).
route(prodloc18,prodloc7,tr0,17274,449124).
route(prodloc18,prodloc7,tr13,17274,103644).
route(prodloc18,prodloc8,tr0,13920,361920).
route(prodloc18,prodloc8,tr13,13920,83520).
route(prodloc18,prodloc9,tr0,18834,489684).
route(prodloc18,prodloc9,tr13,18834,113004).
route(prodloc18,prodloc10,tr0,22573,586898).
route(prodloc18,prodloc10,tr13,22573,135438).
route(prodloc18,prodloc11,tr0,10548,274248).
route(prodloc18,prodloc11,tr13,10548,63288).
route(prodloc18,prodloc12,tr0,17671,459446).
route(prodloc18,prodloc12,tr13,17671,106026).
route(prodloc18,prodloc13,tr0,2361,61386).
route(prodloc18,prodloc13,tr13,2361,14166).
route(prodloc18,prodloc14,tr0,18460,479960).
route(prodloc18,prodloc14,tr13,18460,110760).
route(prodloc18,prodloc15,tr0,260,6760).
route(prodloc18,prodloc15,tr13,260,1560).
route(prodloc18,prodloc16,tr0,8372,217672).
route(prodloc18,prodloc16,tr13,8372,50232).
route(prodloc18,prodloc17,tr0,13519,351494).
route(prodloc18,prodloc17,tr13,13519,81114).
route(prodloc18,prodloc19,tr0,19075,495950).
route(prodloc18,prodloc19,tr13,19075,114450).
route(prodloc18,prodloc20,tr0,15076,391976).
route(prodloc18,prodloc20,tr13,15076,90456).
route(prodloc18,prodloc21,tr0,23730,616980).
route(prodloc18,prodloc21,tr13,23730,142380).
route(prodloc18,prodloc22,tr0,2944,76544).
route(prodloc18,prodloc22,tr13,2944,17664).
route(prodloc18,prodloc23,tr0,27465,714090).
route(prodloc18,prodloc23,tr13,27465,164790).
route(prodloc18,prodloc24,tr0,27808,723008).
route(prodloc18,prodloc24,tr13,27808,166848).
route(prodloc18,prodloc25,tr0,16441,427466).
route(prodloc18,prodloc25,tr13,16441,98646).
route(prodloc18,prodloc26,tr0,17731,461006).
route(prodloc18,prodloc26,tr13,17731,106386).
route(prodloc18,prodloc27,tr0,15411,400686).
route(prodloc18,prodloc27,tr13,15411,92466).
route(prodloc18,prodloc28,tr0,17166,446316).
route(prodloc18,prodloc28,tr13,17166,102996).
route(prodloc18,prodloc29,tr0,20939,544414).
route(prodloc18,prodloc29,tr13,20939,125634).
route(prodloc18,prodloc30,tr0,9124,237224).
route(prodloc18,prodloc30,tr13,9124,54744).
route(prodloc18,prodloc31,tr0,5166,134316).
route(prodloc18,prodloc31,tr13,5166,30996).
route(prodloc18,prodloc32,tr0,7163,186238).
route(prodloc18,prodloc32,tr13,7163,42978).
route(prodloc18,prodloc33,tr0,12127,315302).
route(prodloc18,prodloc33,tr13,12127,72762).
route(prodloc19,harbor0,tr0,26699,694174).
route(prodloc19,harbor0,tr13,26699,160194).
route(prodloc19,harbor1,tr0,3478,90428).
route(prodloc19,harbor1,tr13,3478,20868).
route(prodloc19,harbor2,tr0,24073,625898).
route(prodloc19,harbor2,tr13,24073,144438).
route(prodloc19,harbor3,tr0,7274,189124).
route(prodloc19,harbor3,tr13,7274,43644).
route(prodloc19,harbor4,tr0,6917,179842).
route(prodloc19,harbor4,tr13,6917,41502).
route(prodloc19,harbor5,tr0,14202,369252).
route(prodloc19,harbor5,tr13,14202,85212).
route(prodloc19,harbor6,tr0,4130,107380).
route(prodloc19,harbor6,tr13,4130,24780).
route(prodloc19,harbor7,tr0,16732,435032).
route(prodloc19,harbor7,tr13,16732,100392).
route(prodloc19,harbor8,tr0,6262,162812).
route(prodloc19,harbor8,tr13,6262,37572).
route(prodloc19,harbor9,tr0,16635,432510).
route(prodloc19,harbor9,tr13,16635,99810).
route(prodloc19,harbor10,tr0,12779,332254).
route(prodloc19,harbor10,tr13,12779,76674).
route(prodloc19,harbor11,tr0,26626,692276).
route(prodloc19,harbor11,tr13,26626,159756).
route(prodloc19,harbor12,tr0,5329,138554).
route(prodloc19,harbor12,tr13,5329,31974).
route(prodloc19,harbor13,tr0,28370,737620).
route(prodloc19,harbor13,tr13,28370,170220).
route(prodloc19,harbor14,tr0,2306,59956).
route(prodloc19,harbor14,tr13,2306,13836).
route(prodloc19,harbor15,tr0,10092,262392).
route(prodloc19,harbor15,tr13,10092,60552).
route(prodloc19,harbor16,tr0,26678,693628).
route(prodloc19,harbor16,tr13,26678,160068).
route(prodloc19,prodloc0,tr0,14935,388310).
route(prodloc19,prodloc0,tr13,14935,89610).
route(prodloc19,prodloc1,tr0,4635,120510).
route(prodloc19,prodloc1,tr13,4635,27810).
route(prodloc19,prodloc2,tr0,24699,642174).
route(prodloc19,prodloc2,tr13,24699,148194).
route(prodloc19,prodloc3,tr0,16891,439166).
route(prodloc19,prodloc3,tr13,16891,101346).
route(prodloc19,prodloc4,tr0,3030,78780).
route(prodloc19,prodloc4,tr13,3030,18180).
route(prodloc19,prodloc5,tr0,24149,627874).
route(prodloc19,prodloc5,tr13,24149,144894).
route(prodloc19,prodloc6,tr0,12244,318344).
route(prodloc19,prodloc6,tr13,12244,73464).
route(prodloc19,prodloc7,tr0,22261,578786).
route(prodloc19,prodloc7,tr13,22261,133566).
route(prodloc19,prodloc8,tr0,6097,158522).
route(prodloc19,prodloc8,tr13,6097,36582).
route(prodloc19,prodloc9,tr0,7213,187538).
route(prodloc19,prodloc9,tr13,7213,43278).
route(prodloc19,prodloc10,tr0,25789,670514).
route(prodloc19,prodloc10,tr13,25789,154734).
route(prodloc19,prodloc11,tr0,18118,471068).
route(prodloc19,prodloc11,tr13,18118,108708).
route(prodloc19,prodloc12,tr0,1397,36322).
route(prodloc19,prodloc12,tr13,1397,8382).
route(prodloc19,prodloc13,tr0,14288,371488).
route(prodloc19,prodloc13,tr15,14288,457216).
route(prodloc19,prodloc14,tr0,18417,478842).
route(prodloc19,prodloc14,tr13,18417,110502).
route(prodloc19,prodloc15,tr0,1028,26728).
route(prodloc19,prodloc15,tr13,1028,6168).
route(prodloc19,prodloc16,tr0,12831,333606).
route(prodloc19,prodloc16,tr13,12831,76986).
route(prodloc19,prodloc17,tr0,17906,465556).
route(prodloc19,prodloc17,tr13,17906,107436).
route(prodloc19,prodloc18,tr0,25051,651326).
route(prodloc19,prodloc18,tr13,25051,150306).
route(prodloc19,prodloc20,tr0,9916,257816).
route(prodloc19,prodloc20,tr13,9916,59496).
route(prodloc19,prodloc21,tr0,7633,198458).
route(prodloc19,prodloc21,tr13,7633,45798).
route(prodloc19,prodloc22,tr0,5292,137592).
route(prodloc19,prodloc22,tr13,5292,31752).
route(prodloc19,prodloc23,tr0,23820,619320).
route(prodloc19,prodloc23,tr13,23820,142920).
route(prodloc19,prodloc24,tr0,13060,339560).
route(prodloc19,prodloc24,tr13,13060,78360).
route(prodloc19,prodloc25,tr0,25938,674388).
route(prodloc19,prodloc25,tr13,25938,155628).
route(prodloc19,prodloc26,tr13,7261,43566).
route(prodloc19,prodloc26,tr15,7261,232352).
route(prodloc19,prodloc27,tr0,28301,735826).
route(prodloc19,prodloc27,tr13,28301,169806).
route(prodloc19,prodloc28,tr0,6572,170872).
route(prodloc19,prodloc28,tr13,6572,39432).
route(prodloc19,prodloc29,tr0,18812,489112).
route(prodloc19,prodloc29,tr13,18812,112872).
route(prodloc19,prodloc30,tr0,27016,702416).
route(prodloc19,prodloc30,tr13,27016,162096).
route(prodloc19,prodloc31,tr0,7502,195052).
route(prodloc19,prodloc31,tr13,7502,45012).
route(prodloc19,prodloc32,tr0,16448,427648).
route(prodloc19,prodloc32,tr13,16448,98688).
route(prodloc19,prodloc33,tr0,8359,217334).
route(prodloc19,prodloc33,tr13,8359,50154).
route(prodloc20,harbor0,tr0,18067,469742).
route(prodloc20,harbor0,tr13,18067,108402).
route(prodloc20,harbor1,tr0,9117,237042).
route(prodloc20,harbor1,tr13,9117,54702).
route(prodloc20,harbor2,tr0,19844,515944).
route(prodloc20,harbor2,tr13,19844,119064).
route(prodloc20,harbor3,tr0,8580,223080).
route(prodloc20,harbor3,tr13,8580,51480).
route(prodloc20,harbor4,tr0,5187,134862).
route(prodloc20,harbor4,tr13,5187,31122).
route(prodloc20,harbor5,tr0,839,21814).
route(prodloc20,harbor5,tr13,839,5034).
route(prodloc20,harbor6,tr0,21169,550394).
route(prodloc20,harbor6,tr13,21169,127014).
route(prodloc20,harbor7,tr0,20316,528216).
route(prodloc20,harbor7,tr13,20316,121896).
route(prodloc20,harbor8,tr0,13118,341068).
route(prodloc20,harbor8,tr13,13118,78708).
route(prodloc20,harbor9,tr0,16780,436280).
route(prodloc20,harbor9,tr13,16780,100680).
route(prodloc20,harbor10,tr0,23510,611260).
route(prodloc20,harbor10,tr13,23510,141060).
route(prodloc20,harbor11,tr0,1676,43576).
route(prodloc20,harbor11,tr13,1676,10056).
route(prodloc20,harbor12,tr0,1833,47658).
route(prodloc20,harbor12,tr13,1833,10998).
route(prodloc20,harbor13,tr0,25660,667160).
route(prodloc20,harbor13,tr13,25660,153960).
route(prodloc20,harbor14,tr0,16078,418028).
route(prodloc20,harbor14,tr13,16078,96468).
route(prodloc20,harbor15,tr0,6390,166140).
route(prodloc20,harbor15,tr13,6390,38340).
route(prodloc20,harbor16,tr0,18165,472290).
route(prodloc20,harbor16,tr13,18165,108990).
route(prodloc20,prodloc0,tr0,10614,275964).
route(prodloc20,prodloc0,tr13,10614,63684).
route(prodloc20,prodloc1,tr0,9588,249288).
route(prodloc20,prodloc1,tr13,9588,57528).
route(prodloc20,prodloc2,tr0,24005,624130).
route(prodloc20,prodloc2,tr13,24005,144030).
route(prodloc20,prodloc3,tr0,21167,550342).
route(prodloc20,prodloc3,tr13,21167,127002).
route(prodloc20,prodloc4,tr0,1521,39546).
route(prodloc20,prodloc4,tr13,1521,9126).
route(prodloc20,prodloc5,tr0,15319,398294).
route(prodloc20,prodloc5,tr13,15319,91914).
route(prodloc20,prodloc6,tr0,10992,285792).
route(prodloc20,prodloc6,tr13,10992,65952).
route(prodloc20,prodloc7,tr0,6039,157014).
route(prodloc20,prodloc7,tr13,6039,36234).
route(prodloc20,prodloc8,tr0,14645,380770).
route(prodloc20,prodloc8,tr13,14645,87870).
route(prodloc20,prodloc9,tr0,1563,40638).
route(prodloc20,prodloc9,tr13,1563,9378).
route(prodloc20,prodloc10,tr0,6808,177008).
route(prodloc20,prodloc10,tr13,6808,40848).
route(prodloc20,prodloc11,tr0,12041,313066).
route(prodloc20,prodloc11,tr13,12041,72246).
route(prodloc20,prodloc12,tr0,8444,219544).
route(prodloc20,prodloc12,tr13,8444,50664).
route(prodloc20,prodloc13,tr0,24371,633646).
route(prodloc20,prodloc13,tr13,24371,146226).
route(prodloc20,prodloc14,tr0,14564,378664).
route(prodloc20,prodloc14,tr13,14564,87384).
route(prodloc20,prodloc15,tr0,8661,225186).
route(prodloc20,prodloc15,tr13,8661,51966).
route(prodloc20,prodloc16,tr0,22135,575510).
route(prodloc20,prodloc16,tr13,22135,132810).
route(prodloc20,prodloc17,tr13,16466,98796).
route(prodloc20,prodloc17,tr15,16466,526912).
route(prodloc20,prodloc18,tr0,28851,750126).
route(prodloc20,prodloc18,tr13,28851,173106).
route(prodloc20,prodloc19,tr0,8199,213174).
route(prodloc20,prodloc19,tr13,8199,49194).
route(prodloc20,prodloc21,tr0,1560,40560).
route(prodloc20,prodloc21,tr13,1560,9360).
route(prodloc20,prodloc22,tr0,23582,613132).
route(prodloc20,prodloc22,tr13,23582,141492).
route(prodloc20,prodloc23,tr0,10517,273442).
route(prodloc20,prodloc23,tr13,10517,63102).
route(prodloc20,prodloc24,tr0,370,9620).
route(prodloc20,prodloc24,tr13,370,2220).
route(prodloc20,prodloc25,tr0,13695,356070).
route(prodloc20,prodloc25,tr13,13695,82170).
route(prodloc20,prodloc26,tr0,21399,556374).
route(prodloc20,prodloc26,tr13,21399,128394).
route(prodloc20,prodloc27,tr0,7412,192712).
route(prodloc20,prodloc27,tr13,7412,44472).
route(prodloc20,prodloc28,tr0,6013,156338).
route(prodloc20,prodloc28,tr13,6013,36078).
route(prodloc20,prodloc29,tr0,12551,326326).
route(prodloc20,prodloc29,tr13,12551,75306).
route(prodloc20,prodloc30,tr0,22603,587678).
route(prodloc20,prodloc30,tr13,22603,135618).
route(prodloc20,prodloc31,tr0,22333,580658).
route(prodloc20,prodloc31,tr13,22333,133998).
route(prodloc20,prodloc32,tr0,15757,409682).
route(prodloc20,prodloc32,tr13,15757,94542).
route(prodloc20,prodloc33,tr0,4414,114764).
route(prodloc20,prodloc33,tr13,4414,26484).
route(prodloc21,harbor0,tr0,13829,359554).
route(prodloc21,harbor0,tr13,13829,82974).
route(prodloc21,harbor1,tr0,22754,591604).
route(prodloc21,harbor1,tr13,22754,136524).
route(prodloc21,harbor2,tr0,9721,252746).
route(prodloc21,harbor2,tr13,9721,58326).
route(prodloc21,harbor3,tr0,2424,63024).
route(prodloc21,harbor3,tr13,2424,14544).
route(prodloc21,harbor4,tr0,21537,559962).
route(prodloc21,harbor4,tr13,21537,129222).
route(prodloc21,harbor5,tr0,5692,147992).
route(prodloc21,harbor5,tr13,5692,34152).
route(prodloc21,harbor6,tr0,25007,650182).
route(prodloc21,harbor6,tr13,25007,150042).
route(prodloc21,harbor7,tr0,25866,672516).
route(prodloc21,harbor7,tr13,25866,155196).
route(prodloc21,harbor8,tr0,1789,46514).
route(prodloc21,harbor8,tr13,1789,10734).
route(prodloc21,harbor9,tr0,13739,357214).
route(prodloc21,harbor9,tr13,13739,82434).
route(prodloc21,harbor10,tr0,27277,709202).
route(prodloc21,harbor10,tr13,27277,163662).
route(prodloc21,harbor11,tr0,2175,56550).
route(prodloc21,harbor11,tr13,2175,13050).
route(prodloc21,harbor12,tr0,17423,452998).
route(prodloc21,harbor12,tr13,17423,104538).
route(prodloc21,harbor13,tr0,19048,495248).
route(prodloc21,harbor13,tr13,19048,114288).
route(prodloc21,harbor14,tr0,5016,130416).
route(prodloc21,harbor14,tr13,5016,30096).
route(prodloc21,harbor15,tr0,698,18148).
route(prodloc21,harbor15,tr13,698,4188).
route(prodloc21,harbor16,tr0,997,25922).
route(prodloc21,harbor16,tr13,997,5982).
route(prodloc21,prodloc0,tr0,11998,311948).
route(prodloc21,prodloc0,tr13,11998,71988).
route(prodloc21,prodloc1,tr0,7013,182338).
route(prodloc21,prodloc1,tr13,7013,42078).
route(prodloc21,prodloc2,tr0,22281,579306).
route(prodloc21,prodloc2,tr13,22281,133686).
route(prodloc21,prodloc3,tr0,21369,555594).
route(prodloc21,prodloc3,tr13,21369,128214).
route(prodloc21,prodloc4,tr0,18549,482274).
route(prodloc21,prodloc4,tr13,18549,111294).
route(prodloc21,prodloc5,tr0,24858,646308).
route(prodloc21,prodloc5,tr13,24858,149148).
route(prodloc21,prodloc6,tr0,17653,458978).
route(prodloc21,prodloc6,tr13,17653,105918).
route(prodloc21,prodloc7,tr0,15605,405730).
route(prodloc21,prodloc7,tr13,15605,93630).
route(prodloc21,prodloc8,tr0,14114,366964).
route(prodloc21,prodloc8,tr13,14114,84684).
route(prodloc21,prodloc9,tr0,21954,570804).
route(prodloc21,prodloc9,tr13,21954,131724).
route(prodloc21,prodloc10,tr0,25351,659126).
route(prodloc21,prodloc10,tr13,25351,152106).
route(prodloc21,prodloc11,tr0,20077,522002).
route(prodloc21,prodloc11,tr13,20077,120462).
route(prodloc21,prodloc12,tr0,22550,586300).
route(prodloc21,prodloc12,tr13,22550,135300).
route(prodloc21,prodloc13,tr0,19325,502450).
route(prodloc21,prodloc13,tr13,19325,115950).
route(prodloc21,prodloc14,tr0,10809,281034).
route(prodloc21,prodloc14,tr13,10809,64854).
route(prodloc21,prodloc15,tr0,3380,87880).
route(prodloc21,prodloc15,tr13,3380,20280).
route(prodloc21,prodloc16,tr0,27521,715546).
route(prodloc21,prodloc16,tr13,27521,165126).
route(prodloc21,prodloc17,tr0,241,6266).
route(prodloc21,prodloc17,tr13,241,1446).
route(prodloc21,prodloc18,tr0,2524,65624).
route(prodloc21,prodloc18,tr13,2524,15144).
route(prodloc21,prodloc19,tr0,6733,175058).
route(prodloc21,prodloc19,tr13,6733,40398).
route(prodloc21,prodloc20,tr0,761,19786).
route(prodloc21,prodloc20,tr13,761,4566).
route(prodloc21,prodloc22,tr0,23618,614068).
route(prodloc21,prodloc22,tr13,23618,141708).
route(prodloc21,prodloc23,tr0,17365,451490).
route(prodloc21,prodloc23,tr13,17365,104190).
route(prodloc21,prodloc24,tr0,27765,721890).
route(prodloc21,prodloc24,tr13,27765,166590).
route(prodloc21,prodloc25,tr0,25225,655850).
route(prodloc21,prodloc25,tr13,25225,151350).
route(prodloc21,prodloc26,tr0,27186,706836).
route(prodloc21,prodloc26,tr13,27186,163116).
route(prodloc21,prodloc27,tr0,17272,449072).
route(prodloc21,prodloc27,tr13,17272,103632).
route(prodloc21,prodloc28,tr0,1000,26000).
route(prodloc21,prodloc28,tr13,1000,6000).
route(prodloc21,prodloc29,tr0,5078,132028).
route(prodloc21,prodloc29,tr13,5078,30468).
route(prodloc21,prodloc30,tr0,938,24388).
route(prodloc21,prodloc30,tr13,938,5628).
route(prodloc21,prodloc31,tr0,9678,251628).
route(prodloc21,prodloc31,tr13,9678,58068).
route(prodloc21,prodloc32,tr0,8367,217542).
route(prodloc21,prodloc32,tr13,8367,50202).
route(prodloc21,prodloc33,tr0,3931,102206).
route(prodloc21,prodloc33,tr13,3931,23586).
route(prodloc22,harbor0,tr0,594,15444).
route(prodloc22,harbor0,tr13,594,3564).
route(prodloc22,harbor1,tr0,21080,548080).
route(prodloc22,harbor1,tr13,21080,126480).
route(prodloc22,harbor2,tr0,19203,499278).
route(prodloc22,harbor2,tr13,19203,115218).
route(prodloc22,harbor3,tr0,651,16926).
route(prodloc22,harbor3,tr13,651,3906).
route(prodloc22,harbor4,tr0,11468,298168).
route(prodloc22,harbor4,tr13,11468,68808).
route(prodloc22,harbor5,tr0,9023,234598).
route(prodloc22,harbor5,tr13,9023,54138).
route(prodloc22,harbor6,tr0,3485,90610).
route(prodloc22,harbor6,tr13,3485,20910).
route(prodloc22,harbor7,tr0,12686,329836).
route(prodloc22,harbor7,tr13,12686,76116).
route(prodloc22,harbor8,tr0,21765,565890).
route(prodloc22,harbor8,tr13,21765,130590).
route(prodloc22,harbor9,tr0,21990,571740).
route(prodloc22,harbor9,tr13,21990,131940).
route(prodloc22,harbor10,tr0,20794,540644).
route(prodloc22,harbor10,tr13,20794,124764).
route(prodloc22,harbor11,tr0,21543,560118).
route(prodloc22,harbor11,tr13,21543,129258).
route(prodloc22,harbor12,tr0,6141,159666).
route(prodloc22,harbor12,tr13,6141,36846).
route(prodloc22,harbor13,tr0,13488,350688).
route(prodloc22,harbor13,tr13,13488,80928).
route(prodloc22,harbor14,tr0,294,7644).
route(prodloc22,harbor14,tr13,294,1764).
route(prodloc22,harbor15,tr0,7749,201474).
route(prodloc22,harbor15,tr13,7749,46494).
route(prodloc22,harbor16,tr0,7137,185562).
route(prodloc22,harbor16,tr13,7137,42822).
route(prodloc22,prodloc0,tr0,5344,138944).
route(prodloc22,prodloc0,tr13,5344,32064).
route(prodloc22,prodloc1,tr0,20261,526786).
route(prodloc22,prodloc1,tr13,20261,121566).
route(prodloc22,prodloc2,tr0,23478,610428).
route(prodloc22,prodloc2,tr13,23478,140868).
route(prodloc22,prodloc3,tr0,14285,371410).
route(prodloc22,prodloc3,tr13,14285,85710).
route(prodloc22,prodloc4,tr0,17818,463268).
route(prodloc22,prodloc4,tr13,17818,106908).
route(prodloc22,prodloc5,tr0,28467,740142).
route(prodloc22,prodloc5,tr13,28467,170802).
route(prodloc22,prodloc6,tr0,1081,28106).
route(prodloc22,prodloc6,tr13,1081,6486).
route(prodloc22,prodloc7,tr0,18839,489814).
route(prodloc22,prodloc7,tr13,18839,113034).
route(prodloc22,prodloc8,tr0,9066,235716).
route(prodloc22,prodloc8,tr13,9066,54396).
route(prodloc22,prodloc9,tr0,3349,87074).
route(prodloc22,prodloc9,tr13,3349,20094).
route(prodloc22,prodloc10,tr0,7853,204178).
route(prodloc22,prodloc10,tr13,7853,47118).
route(prodloc22,prodloc11,tr0,19190,498940).
route(prodloc22,prodloc11,tr13,19190,115140).
route(prodloc22,prodloc12,tr0,7954,206804).
route(prodloc22,prodloc12,tr13,7954,47724).
route(prodloc22,prodloc13,tr0,1547,40222).
route(prodloc22,prodloc13,tr13,1547,9282).
route(prodloc22,prodloc14,tr0,7080,184080).
route(prodloc22,prodloc14,tr13,7080,42480).
route(prodloc22,prodloc15,tr0,26837,697762).
route(prodloc22,prodloc15,tr13,26837,161022).
route(prodloc22,prodloc16,tr0,21892,569192).
route(prodloc22,prodloc16,tr13,21892,131352).
route(prodloc22,prodloc17,tr0,7749,201474).
route(prodloc22,prodloc17,tr13,7749,46494).
route(prodloc22,prodloc18,tr0,22280,579280).
route(prodloc22,prodloc18,tr13,22280,133680).
route(prodloc22,prodloc19,tr0,27012,702312).
route(prodloc22,prodloc19,tr13,27012,162072).
route(prodloc22,prodloc20,tr0,5767,149942).
route(prodloc22,prodloc20,tr13,5767,34602).
route(prodloc22,prodloc21,tr0,20461,531986).
route(prodloc22,prodloc21,tr13,20461,122766).
route(prodloc22,prodloc23,tr0,26646,692796).
route(prodloc22,prodloc23,tr13,26646,159876).
route(prodloc22,prodloc24,tr0,20,520).
route(prodloc22,prodloc24,tr13,20,120).
route(prodloc22,prodloc25,tr0,5592,145392).
route(prodloc22,prodloc25,tr13,5592,33552).
route(prodloc22,prodloc26,tr0,4043,105118).
route(prodloc22,prodloc26,tr13,4043,24258).
route(prodloc22,prodloc27,tr0,19106,496756).
route(prodloc22,prodloc27,tr13,19106,114636).
route(prodloc22,prodloc28,tr0,6558,170508).
route(prodloc22,prodloc28,tr13,6558,39348).
route(prodloc22,prodloc29,tr0,21146,549796).
route(prodloc22,prodloc29,tr13,21146,126876).
route(prodloc22,prodloc30,tr0,7925,206050).
route(prodloc22,prodloc30,tr13,7925,47550).
route(prodloc22,prodloc31,tr13,9226,55356).
route(prodloc22,prodloc31,tr15,9226,295232).
route(prodloc22,prodloc32,tr0,10820,281320).
route(prodloc22,prodloc32,tr13,10820,64920).
route(prodloc22,prodloc33,tr0,22657,589082).
route(prodloc22,prodloc33,tr13,22657,135942).
route(prodloc23,harbor0,tr0,2737,71162).
route(prodloc23,harbor0,tr13,2737,16422).
route(prodloc23,harbor1,tr0,28719,746694).
route(prodloc23,harbor1,tr13,28719,172314).
route(prodloc23,harbor2,tr0,21212,551512).
route(prodloc23,harbor2,tr13,21212,127272).
route(prodloc23,harbor3,tr0,6729,174954).
route(prodloc23,harbor3,tr13,6729,40374).
route(prodloc23,harbor4,tr0,20781,540306).
route(prodloc23,harbor4,tr13,20781,124686).
route(prodloc23,harbor5,tr0,4320,112320).
route(prodloc23,harbor5,tr13,4320,25920).
route(prodloc23,harbor6,tr0,18681,485706).
route(prodloc23,harbor6,tr13,18681,112086).
route(prodloc23,harbor7,tr0,25818,671268).
route(prodloc23,harbor7,tr13,25818,154908).
route(prodloc23,harbor8,tr0,8170,212420).
route(prodloc23,harbor8,tr13,8170,49020).
route(prodloc23,harbor9,tr0,3460,89960).
route(prodloc23,harbor9,tr13,3460,20760).
route(prodloc23,harbor10,tr0,11791,306566).
route(prodloc23,harbor10,tr13,11791,70746).
route(prodloc23,harbor11,tr0,16120,419120).
route(prodloc23,harbor11,tr13,16120,96720).
route(prodloc23,harbor12,tr0,22676,589576).
route(prodloc23,harbor12,tr13,22676,136056).
route(prodloc23,harbor13,tr0,6123,159198).
route(prodloc23,harbor13,tr13,6123,36738).
route(prodloc23,harbor14,tr0,6885,179010).
route(prodloc23,harbor14,tr13,6885,41310).
route(prodloc23,harbor15,tr0,6997,181922).
route(prodloc23,harbor15,tr13,6997,41982).
route(prodloc23,harbor16,tr0,12680,329680).
route(prodloc23,harbor16,tr13,12680,76080).
route(prodloc23,prodloc0,tr0,9298,241748).
route(prodloc23,prodloc0,tr13,9298,55788).
route(prodloc23,prodloc1,tr0,101,2626).
route(prodloc23,prodloc1,tr13,101,606).
route(prodloc23,prodloc2,tr0,2771,72046).
route(prodloc23,prodloc2,tr13,2771,16626).
route(prodloc23,prodloc3,tr0,7496,194896).
route(prodloc23,prodloc3,tr13,7496,44976).
route(prodloc23,prodloc4,tr0,26836,697736).
route(prodloc23,prodloc4,tr13,26836,161016).
route(prodloc23,prodloc5,tr0,18527,481702).
route(prodloc23,prodloc5,tr13,18527,111162).
route(prodloc23,prodloc6,tr0,10027,260702).
route(prodloc23,prodloc6,tr13,10027,60162).
route(prodloc23,prodloc7,tr0,21408,556608).
route(prodloc23,prodloc7,tr13,21408,128448).
route(prodloc23,prodloc8,tr0,12177,316602).
route(prodloc23,prodloc8,tr13,12177,73062).
route(prodloc23,prodloc9,tr0,9570,248820).
route(prodloc23,prodloc9,tr13,9570,57420).
route(prodloc23,prodloc10,tr0,17753,461578).
route(prodloc23,prodloc10,tr13,17753,106518).
route(prodloc23,prodloc11,tr0,25404,660504).
route(prodloc23,prodloc11,tr13,25404,152424).
route(prodloc23,prodloc12,tr0,10238,266188).
route(prodloc23,prodloc12,tr13,10238,61428).
route(prodloc23,prodloc13,tr0,21714,564564).
route(prodloc23,prodloc13,tr13,21714,130284).
route(prodloc23,prodloc14,tr0,1393,36218).
route(prodloc23,prodloc14,tr13,1393,8358).
route(prodloc23,prodloc15,tr0,25073,651898).
route(prodloc23,prodloc15,tr13,25073,150438).
route(prodloc23,prodloc16,tr0,10176,264576).
route(prodloc23,prodloc16,tr13,10176,61056).
route(prodloc23,prodloc17,tr0,2935,76310).
route(prodloc23,prodloc17,tr13,2935,17610).
route(prodloc23,prodloc18,tr0,15560,404560).
route(prodloc23,prodloc18,tr13,15560,93360).
route(prodloc23,prodloc19,tr0,16418,426868).
route(prodloc23,prodloc19,tr13,16418,98508).
route(prodloc23,prodloc20,tr0,21547,560222).
route(prodloc23,prodloc20,tr13,21547,129282).
route(prodloc23,prodloc21,tr13,4592,27552).
route(prodloc23,prodloc21,tr15,4592,146944).
route(prodloc23,prodloc22,tr0,19933,518258).
route(prodloc23,prodloc22,tr13,19933,119598).
route(prodloc23,prodloc24,tr0,18565,482690).
route(prodloc23,prodloc24,tr13,18565,111390).
route(prodloc23,prodloc25,tr0,11618,302068).
route(prodloc23,prodloc25,tr13,11618,69708).
route(prodloc23,prodloc26,tr0,9408,244608).
route(prodloc23,prodloc26,tr13,9408,56448).
route(prodloc23,prodloc27,tr0,20441,531466).
route(prodloc23,prodloc27,tr13,20441,122646).
route(prodloc23,prodloc29,tr13,19506,117036).
route(prodloc23,prodloc29,tr15,19506,624192).
route(prodloc23,prodloc30,tr0,13946,362596).
route(prodloc23,prodloc30,tr13,13946,83676).
route(prodloc23,prodloc31,tr0,21130,549380).
route(prodloc23,prodloc31,tr13,21130,126780).
route(prodloc23,prodloc32,tr0,26636,692536).
route(prodloc23,prodloc32,tr13,26636,159816).
route(prodloc23,prodloc33,tr0,3252,84552).
route(prodloc23,prodloc33,tr13,3252,19512).
route(prodloc24,harbor0,tr0,17559,456534).
route(prodloc24,harbor0,tr13,17559,105354).
route(prodloc24,harbor1,tr0,6115,158990).
route(prodloc24,harbor1,tr13,6115,36690).
route(prodloc24,harbor2,tr0,21184,550784).
route(prodloc24,harbor2,tr13,21184,127104).
route(prodloc24,harbor3,tr0,19814,515164).
route(prodloc24,harbor3,tr13,19814,118884).
route(prodloc24,harbor4,tr0,7633,198458).
route(prodloc24,harbor4,tr13,7633,45798).
route(prodloc24,harbor5,tr0,20457,531882).
route(prodloc24,harbor5,tr13,20457,122742).
route(prodloc24,harbor6,tr0,20802,540852).
route(prodloc24,harbor6,tr13,20802,124812).
route(prodloc24,harbor7,tr0,4335,112710).
route(prodloc24,harbor7,tr13,4335,26010).
route(prodloc24,harbor8,tr0,2115,54990).
route(prodloc24,harbor8,tr13,2115,12690).
route(prodloc24,harbor9,tr0,15123,393198).
route(prodloc24,harbor9,tr13,15123,90738).
route(prodloc24,harbor10,tr0,2660,69160).
route(prodloc24,harbor10,tr13,2660,15960).
route(prodloc24,harbor11,tr0,19894,517244).
route(prodloc24,harbor11,tr13,19894,119364).
route(prodloc24,harbor12,tr0,4692,121992).
route(prodloc24,harbor12,tr13,4692,28152).
route(prodloc24,harbor13,tr0,15724,408824).
route(prodloc24,harbor13,tr13,15724,94344).
route(prodloc24,harbor14,tr0,970,25220).
route(prodloc24,harbor14,tr13,970,5820).
route(prodloc24,harbor15,tr0,4963,129038).
route(prodloc24,harbor15,tr13,4963,29778).
route(prodloc24,harbor16,tr0,12311,320086).
route(prodloc24,harbor16,tr13,12311,73866).
route(prodloc24,prodloc0,tr0,6234,162084).
route(prodloc24,prodloc0,tr13,6234,37404).
route(prodloc24,prodloc1,tr0,15713,408538).
route(prodloc24,prodloc1,tr13,15713,94278).
route(prodloc24,prodloc2,tr0,12288,319488).
route(prodloc24,prodloc2,tr13,12288,73728).
route(prodloc24,prodloc3,tr0,17131,445406).
route(prodloc24,prodloc3,tr13,17131,102786).
route(prodloc24,prodloc4,tr0,21368,555568).
route(prodloc24,prodloc4,tr13,21368,128208).
route(prodloc24,prodloc5,tr0,4432,115232).
route(prodloc24,prodloc5,tr13,4432,26592).
route(prodloc24,prodloc6,tr0,14190,368940).
route(prodloc24,prodloc6,tr13,14190,85140).
route(prodloc24,prodloc7,tr0,6582,171132).
route(prodloc24,prodloc7,tr13,6582,39492).
route(prodloc24,prodloc8,tr0,3420,88920).
route(prodloc24,prodloc8,tr13,3420,20520).
route(prodloc24,prodloc9,tr0,11075,287950).
route(prodloc24,prodloc9,tr13,11075,66450).
route(prodloc24,prodloc10,tr0,11177,290602).
route(prodloc24,prodloc10,tr13,11177,67062).
route(prodloc24,prodloc11,tr0,10112,262912).
route(prodloc24,prodloc11,tr13,10112,60672).
route(prodloc24,prodloc12,tr0,14325,372450).
route(prodloc24,prodloc12,tr13,14325,85950).
route(prodloc24,prodloc13,tr0,4511,117286).
route(prodloc24,prodloc13,tr13,4511,27066).
route(prodloc24,prodloc14,tr0,8104,210704).
route(prodloc24,prodloc14,tr13,8104,48624).
route(prodloc24,prodloc15,tr0,19303,501878).
route(prodloc24,prodloc15,tr13,19303,115818).
route(prodloc24,prodloc16,tr0,8483,220558).
route(prodloc24,prodloc16,tr13,8483,50898).
route(prodloc24,prodloc17,tr0,15435,401310).
route(prodloc24,prodloc17,tr13,15435,92610).
route(prodloc24,prodloc18,tr0,26380,685880).
route(prodloc24,prodloc18,tr13,26380,158280).
route(prodloc24,prodloc19,tr0,10668,277368).
route(prodloc24,prodloc19,tr13,10668,64008).
route(prodloc24,prodloc20,tr0,54,1404).
route(prodloc24,prodloc20,tr13,54,324).
route(prodloc24,prodloc21,tr0,23927,622102).
route(prodloc24,prodloc21,tr13,23927,143562).
route(prodloc24,prodloc22,tr0,27148,705848).
route(prodloc24,prodloc22,tr13,27148,162888).
route(prodloc24,prodloc23,tr0,1488,38688).
route(prodloc24,prodloc23,tr13,1488,8928).
route(prodloc24,prodloc25,tr0,248,6448).
route(prodloc24,prodloc25,tr13,248,1488).
route(prodloc24,prodloc26,tr0,3774,98124).
route(prodloc24,prodloc26,tr13,3774,22644).
route(prodloc24,prodloc27,tr0,6786,176436).
route(prodloc24,prodloc27,tr13,6786,40716).
route(prodloc24,prodloc28,tr0,9627,250302).
route(prodloc24,prodloc28,tr13,9627,57762).
route(prodloc24,prodloc29,tr0,1854,48204).
route(prodloc24,prodloc29,tr13,1854,11124).
route(prodloc24,prodloc30,tr0,25866,672516).
route(prodloc24,prodloc30,tr13,25866,155196).
route(prodloc24,prodloc31,tr0,14493,376818).
route(prodloc24,prodloc31,tr13,14493,86958).
route(prodloc24,prodloc32,tr0,16462,428012).
route(prodloc24,prodloc32,tr13,16462,98772).
route(prodloc24,prodloc33,tr0,24877,646802).
route(prodloc24,prodloc33,tr13,24877,149262).
route(prodloc25,harbor0,tr0,7298,189748).
route(prodloc25,harbor0,tr13,7298,43788).
route(prodloc25,harbor1,tr0,6762,175812).
route(prodloc25,harbor1,tr13,6762,40572).
route(prodloc25,harbor2,tr0,7944,206544).
route(prodloc25,harbor2,tr13,7944,47664).
route(prodloc25,harbor3,tr0,27503,715078).
route(prodloc25,harbor3,tr13,27503,165018).
route(prodloc25,harbor4,tr0,2523,65598).
route(prodloc25,harbor4,tr13,2523,15138).
route(prodloc25,harbor5,tr0,1065,27690).
route(prodloc25,harbor5,tr13,1065,6390).
route(prodloc25,harbor6,tr0,885,23010).
route(prodloc25,harbor6,tr13,885,5310).
route(prodloc25,harbor7,tr0,3679,95654).
route(prodloc25,harbor7,tr13,3679,22074).
route(prodloc25,harbor8,tr0,12675,329550).
route(prodloc25,harbor8,tr13,12675,76050).
route(prodloc25,harbor9,tr0,3665,95290).
route(prodloc25,harbor9,tr13,3665,21990).
route(prodloc25,harbor10,tr0,13626,354276).
route(prodloc25,harbor10,tr13,13626,81756).
route(prodloc25,harbor11,tr0,18460,479960).
route(prodloc25,harbor11,tr13,18460,110760).
route(prodloc25,harbor12,tr0,19453,505778).
route(prodloc25,harbor12,tr13,19453,116718).
route(prodloc25,harbor13,tr0,13897,361322).
route(prodloc25,harbor13,tr13,13897,83382).
route(prodloc25,harbor14,tr0,20538,533988).
route(prodloc25,harbor14,tr13,20538,123228).
route(prodloc25,harbor15,tr0,16856,438256).
route(prodloc25,harbor15,tr13,16856,101136).
route(prodloc25,harbor16,tr0,800,20800).
route(prodloc25,harbor16,tr13,800,4800).
route(prodloc25,prodloc0,tr0,24652,640952).
route(prodloc25,prodloc0,tr13,24652,147912).
route(prodloc25,prodloc1,tr0,28804,748904).
route(prodloc25,prodloc1,tr13,28804,172824).
route(prodloc25,prodloc2,tr0,24373,633698).
route(prodloc25,prodloc2,tr13,24373,146238).
route(prodloc25,prodloc3,tr0,875,22750).
route(prodloc25,prodloc3,tr13,875,5250).
route(prodloc25,prodloc4,tr0,5668,147368).
route(prodloc25,prodloc4,tr13,5668,34008).
route(prodloc25,prodloc5,tr0,4068,105768).
route(prodloc25,prodloc5,tr13,4068,24408).
route(prodloc25,prodloc6,tr0,28664,745264).
route(prodloc25,prodloc6,tr13,28664,171984).
route(prodloc25,prodloc7,tr0,6552,170352).
route(prodloc25,prodloc7,tr13,6552,39312).
route(prodloc25,prodloc8,tr0,27143,705718).
route(prodloc25,prodloc8,tr13,27143,162858).
route(prodloc25,prodloc9,tr0,7424,193024).
route(prodloc25,prodloc9,tr13,7424,44544).
route(prodloc25,prodloc10,tr0,2648,68848).
route(prodloc25,prodloc10,tr13,2648,15888).
route(prodloc25,prodloc11,tr0,23398,608348).
route(prodloc25,prodloc11,tr13,23398,140388).
route(prodloc25,prodloc12,tr0,9147,237822).
route(prodloc25,prodloc12,tr13,9147,54882).
route(prodloc25,prodloc13,tr0,17022,442572).
route(prodloc25,prodloc13,tr13,17022,102132).
route(prodloc25,prodloc14,tr0,17601,457626).
route(prodloc25,prodloc14,tr13,17601,105606).
route(prodloc25,prodloc15,tr0,8778,228228).
route(prodloc25,prodloc15,tr13,8778,52668).
route(prodloc25,prodloc16,tr0,3717,96642).
route(prodloc25,prodloc16,tr13,3717,22302).
route(prodloc25,prodloc17,tr0,25331,658606).
route(prodloc25,prodloc17,tr13,25331,151986).
route(prodloc25,prodloc18,tr0,26435,687310).
route(prodloc25,prodloc18,tr13,26435,158610).
route(prodloc25,prodloc19,tr0,5969,155194).
route(prodloc25,prodloc19,tr13,5969,35814).
route(prodloc25,prodloc20,tr0,25222,655772).
route(prodloc25,prodloc20,tr13,25222,151332).
route(prodloc25,prodloc21,tr0,19541,508066).
route(prodloc25,prodloc21,tr13,19541,117246).
route(prodloc25,prodloc22,tr0,9896,257296).
route(prodloc25,prodloc22,tr13,9896,59376).
route(prodloc25,prodloc23,tr0,6458,167908).
route(prodloc25,prodloc23,tr13,6458,38748).
route(prodloc25,prodloc24,tr0,24127,627302).
route(prodloc25,prodloc24,tr13,24127,144762).
route(prodloc25,prodloc26,tr0,19931,518206).
route(prodloc25,prodloc26,tr13,19931,119586).
route(prodloc25,prodloc27,tr0,2833,73658).
route(prodloc25,prodloc27,tr13,2833,16998).
route(prodloc25,prodloc28,tr0,5787,150462).
route(prodloc25,prodloc28,tr13,5787,34722).
route(prodloc25,prodloc29,tr0,22304,579904).
route(prodloc25,prodloc29,tr13,22304,133824).
route(prodloc25,prodloc30,tr0,1000,26000).
route(prodloc25,prodloc30,tr13,1000,6000).
route(prodloc25,prodloc31,tr0,203,5278).
route(prodloc25,prodloc31,tr13,203,1218).
route(prodloc25,prodloc32,tr0,21893,569218).
route(prodloc25,prodloc32,tr13,21893,131358).
route(prodloc25,prodloc33,tr0,3418,88868).
route(prodloc25,prodloc33,tr15,3418,109376).
route(prodloc26,harbor0,tr0,21392,556192).
route(prodloc26,harbor0,tr13,21392,128352).
route(prodloc26,harbor1,tr0,26258,682708).
route(prodloc26,harbor1,tr13,26258,157548).
route(prodloc26,harbor2,tr0,15079,392054).
route(prodloc26,harbor2,tr13,15079,90474).
route(prodloc26,harbor3,tr0,15323,398398).
route(prodloc26,harbor3,tr13,15323,91938).
route(prodloc26,harbor4,tr0,578,15028).
route(prodloc26,harbor4,tr13,578,3468).
route(prodloc26,harbor5,tr0,21118,549068).
route(prodloc26,harbor5,tr13,21118,126708).
route(prodloc26,harbor6,tr0,19212,499512).
route(prodloc26,harbor6,tr13,19212,115272).
route(prodloc26,harbor7,tr0,88,2288).
route(prodloc26,harbor7,tr13,88,528).
route(prodloc26,harbor8,tr0,27571,716846).
route(prodloc26,harbor8,tr13,27571,165426).
route(prodloc26,harbor9,tr0,7443,193518).
route(prodloc26,harbor9,tr13,7443,44658).
route(prodloc26,harbor10,tr0,26801,696826).
route(prodloc26,harbor10,tr13,26801,160806).
route(prodloc26,harbor11,tr0,22965,597090).
route(prodloc26,harbor11,tr13,22965,137790).
route(prodloc26,harbor12,tr0,10868,282568).
route(prodloc26,harbor12,tr13,10868,65208).
route(prodloc26,harbor13,tr0,22029,572754).
route(prodloc26,harbor13,tr13,22029,132174).
route(prodloc26,harbor14,tr0,2357,61282).
route(prodloc26,harbor14,tr13,2357,14142).
route(prodloc26,harbor15,tr0,7877,204802).
route(prodloc26,harbor15,tr13,7877,47262).
route(prodloc26,harbor16,tr0,22748,591448).
route(prodloc26,harbor16,tr13,22748,136488).
route(prodloc26,prodloc0,tr0,9144,237744).
route(prodloc26,prodloc0,tr13,9144,54864).
route(prodloc26,prodloc1,tr0,25649,666874).
route(prodloc26,prodloc1,tr13,25649,153894).
route(prodloc26,prodloc2,tr0,24861,646386).
route(prodloc26,prodloc2,tr13,24861,149166).
route(prodloc26,prodloc3,tr0,28346,736996).
route(prodloc26,prodloc3,tr13,28346,170076).
route(prodloc26,prodloc4,tr0,3807,98982).
route(prodloc26,prodloc4,tr13,3807,22842).
route(prodloc26,prodloc5,tr0,5508,143208).
route(prodloc26,prodloc5,tr13,5508,33048).
route(prodloc26,prodloc6,tr0,6357,165282).
route(prodloc26,prodloc6,tr13,6357,38142).
route(prodloc26,prodloc7,tr0,2766,71916).
route(prodloc26,prodloc7,tr13,2766,16596).
route(prodloc26,prodloc8,tr0,13849,360074).
route(prodloc26,prodloc8,tr13,13849,83094).
route(prodloc26,prodloc9,tr0,27663,719238).
route(prodloc26,prodloc9,tr13,27663,165978).
route(prodloc26,prodloc10,tr0,9075,235950).
route(prodloc26,prodloc10,tr13,9075,54450).
route(prodloc26,prodloc11,tr0,27918,725868).
route(prodloc26,prodloc11,tr13,27918,167508).
route(prodloc26,prodloc12,tr0,16250,422500).
route(prodloc26,prodloc12,tr13,16250,97500).
route(prodloc26,prodloc13,tr0,3828,99528).
route(prodloc26,prodloc13,tr13,3828,22968).
route(prodloc26,prodloc14,tr0,8950,232700).
route(prodloc26,prodloc14,tr13,8950,53700).
route(prodloc26,prodloc15,tr0,19530,507780).
route(prodloc26,prodloc15,tr13,19530,117180).
route(prodloc26,prodloc16,tr0,20412,530712).
route(prodloc26,prodloc16,tr13,20412,122472).
route(prodloc26,prodloc17,tr0,4796,124696).
route(prodloc26,prodloc17,tr13,4796,28776).
route(prodloc26,prodloc18,tr0,28608,743808).
route(prodloc26,prodloc18,tr13,28608,171648).
route(prodloc26,prodloc19,tr0,10613,275938).
route(prodloc26,prodloc19,tr13,10613,63678).
route(prodloc26,prodloc20,tr0,12342,320892).
route(prodloc26,prodloc20,tr13,12342,74052).
route(prodloc26,prodloc21,tr0,7178,186628).
route(prodloc26,prodloc21,tr13,7178,43068).
route(prodloc26,prodloc22,tr0,19236,500136).
route(prodloc26,prodloc22,tr13,19236,115416).
route(prodloc26,prodloc23,tr0,7361,191386).
route(prodloc26,prodloc23,tr13,7361,44166).
route(prodloc26,prodloc24,tr0,6474,168324).
route(prodloc26,prodloc24,tr13,6474,38844).
route(prodloc26,prodloc25,tr0,28073,729898).
route(prodloc26,prodloc25,tr13,28073,168438).
route(prodloc26,prodloc27,tr0,16075,417950).
route(prodloc26,prodloc27,tr13,16075,96450).
route(prodloc26,prodloc28,tr0,14508,377208).
route(prodloc26,prodloc28,tr13,14508,87048).
route(prodloc26,prodloc29,tr0,3702,96252).
route(prodloc26,prodloc29,tr13,3702,22212).
route(prodloc26,prodloc30,tr0,15935,414310).
route(prodloc26,prodloc30,tr13,15935,95610).
route(prodloc26,prodloc31,tr0,12873,334698).
route(prodloc26,prodloc31,tr13,12873,77238).
route(prodloc26,prodloc32,tr0,21496,558896).
route(prodloc26,prodloc32,tr13,21496,128976).
route(prodloc26,prodloc33,tr0,28553,742378).
route(prodloc26,prodloc33,tr13,28553,171318).
route(prodloc27,harbor0,tr0,10459,271934).
route(prodloc27,harbor0,tr13,10459,62754).
route(prodloc27,harbor1,tr0,23424,609024).
route(prodloc27,harbor1,tr13,23424,140544).
route(prodloc27,harbor2,tr0,26637,692562).
route(prodloc27,harbor2,tr13,26637,159822).
route(prodloc27,harbor3,tr0,1965,51090).
route(prodloc27,harbor3,tr13,1965,11790).
route(prodloc27,harbor4,tr0,15050,391300).
route(prodloc27,harbor4,tr13,15050,90300).
route(prodloc27,harbor5,tr0,1375,35750).
route(prodloc27,harbor5,tr13,1375,8250).
route(prodloc27,harbor6,tr0,14077,366002).
route(prodloc27,harbor6,tr13,14077,84462).
route(prodloc27,harbor7,tr0,15045,391170).
route(prodloc27,harbor7,tr13,15045,90270).
route(prodloc27,harbor8,tr0,23781,618306).
route(prodloc27,harbor8,tr13,23781,142686).
route(prodloc27,harbor9,tr0,21850,568100).
route(prodloc27,harbor9,tr13,21850,131100).
route(prodloc27,harbor10,tr0,23256,604656).
route(prodloc27,harbor10,tr13,23256,139536).
route(prodloc27,harbor11,tr0,22671,589446).
route(prodloc27,harbor11,tr13,22671,136026).
route(prodloc27,harbor12,tr0,28672,745472).
route(prodloc27,harbor12,tr13,28672,172032).
route(prodloc27,harbor13,tr0,7834,203684).
route(prodloc27,harbor13,tr13,7834,47004).
route(prodloc27,harbor14,tr0,26514,689364).
route(prodloc27,harbor14,tr13,26514,159084).
route(prodloc27,harbor15,tr0,18114,470964).
route(prodloc27,harbor15,tr13,18114,108684).
route(prodloc27,harbor16,tr0,13357,347282).
route(prodloc27,harbor16,tr13,13357,80142).
route(prodloc27,prodloc0,tr0,18132,471432).
route(prodloc27,prodloc0,tr13,18132,108792).
route(prodloc27,prodloc1,tr0,21098,548548).
route(prodloc27,prodloc1,tr13,21098,126588).
route(prodloc27,prodloc2,tr0,24615,639990).
route(prodloc27,prodloc2,tr13,24615,147690).
route(prodloc27,prodloc3,tr0,28304,735904).
route(prodloc27,prodloc3,tr13,28304,169824).
route(prodloc27,prodloc4,tr0,1827,47502).
route(prodloc27,prodloc4,tr13,1827,10962).
route(prodloc27,prodloc5,tr0,25613,665938).
route(prodloc27,prodloc5,tr13,25613,153678).
route(prodloc27,prodloc6,tr0,21603,561678).
route(prodloc27,prodloc6,tr13,21603,129618).
route(prodloc27,prodloc7,tr0,26582,691132).
route(prodloc27,prodloc7,tr13,26582,159492).
route(prodloc27,prodloc8,tr0,17285,449410).
route(prodloc27,prodloc8,tr13,17285,103710).
route(prodloc27,prodloc9,tr0,13212,343512).
route(prodloc27,prodloc9,tr13,13212,79272).
route(prodloc27,prodloc10,tr0,8808,229008).
route(prodloc27,prodloc10,tr13,8808,52848).
route(prodloc27,prodloc11,tr0,3902,101452).
route(prodloc27,prodloc11,tr13,3902,23412).
route(prodloc27,prodloc12,tr0,14770,384020).
route(prodloc27,prodloc12,tr13,14770,88620).
route(prodloc27,prodloc13,tr0,9444,245544).
route(prodloc27,prodloc13,tr13,9444,56664).
route(prodloc27,prodloc14,tr0,9936,258336).
route(prodloc27,prodloc14,tr13,9936,59616).
route(prodloc27,prodloc15,tr0,24577,639002).
route(prodloc27,prodloc15,tr13,24577,147462).
route(prodloc27,prodloc16,tr0,13766,357916).
route(prodloc27,prodloc16,tr13,13766,82596).
route(prodloc27,prodloc17,tr0,7849,204074).
route(prodloc27,prodloc17,tr13,7849,47094).
route(prodloc27,prodloc18,tr0,24725,642850).
route(prodloc27,prodloc18,tr13,24725,148350).
route(prodloc27,prodloc19,tr0,22178,576628).
route(prodloc27,prodloc19,tr13,22178,133068).
route(prodloc27,prodloc20,tr0,28843,749918).
route(prodloc27,prodloc20,tr13,28843,173058).
route(prodloc27,prodloc21,tr0,26734,695084).
route(prodloc27,prodloc21,tr13,26734,160404).
route(prodloc27,prodloc22,tr0,27072,703872).
route(prodloc27,prodloc22,tr13,27072,162432).
route(prodloc27,prodloc23,tr0,25080,652080).
route(prodloc27,prodloc23,tr13,25080,150480).
route(prodloc27,prodloc24,tr0,5403,140478).
route(prodloc27,prodloc24,tr13,5403,32418).
route(prodloc27,prodloc25,tr13,28861,173166).
route(prodloc27,prodloc25,tr15,28861,923552).
route(prodloc27,prodloc26,tr0,22624,588224).
route(prodloc27,prodloc26,tr13,22624,135744).
route(prodloc27,prodloc28,tr0,7971,207246).
route(prodloc27,prodloc28,tr13,7971,47826).
route(prodloc27,prodloc29,tr0,28482,740532).
route(prodloc27,prodloc29,tr13,28482,170892).
route(prodloc27,prodloc30,tr0,3880,100880).
route(prodloc27,prodloc30,tr13,3880,23280).
route(prodloc27,prodloc31,tr0,24644,640744).
route(prodloc27,prodloc31,tr13,24644,147864).
route(prodloc27,prodloc32,tr0,949,24674).
route(prodloc27,prodloc32,tr13,949,5694).
route(prodloc27,prodloc33,tr0,9061,235586).
route(prodloc27,prodloc33,tr13,9061,54366).
route(prodloc28,harbor0,tr0,17550,456300).
route(prodloc28,harbor0,tr13,17550,105300).
route(prodloc28,harbor1,tr0,22940,596440).
route(prodloc28,harbor1,tr13,22940,137640).
route(prodloc28,harbor2,tr0,4195,109070).
route(prodloc28,harbor2,tr13,4195,25170).
route(prodloc28,harbor3,tr0,12776,332176).
route(prodloc28,harbor3,tr13,12776,76656).
route(prodloc28,harbor4,tr0,28841,749866).
route(prodloc28,harbor4,tr13,28841,173046).
route(prodloc28,harbor5,tr0,14178,368628).
route(prodloc28,harbor5,tr13,14178,85068).
route(prodloc28,harbor6,tr0,19080,496080).
route(prodloc28,harbor6,tr13,19080,114480).
route(prodloc28,harbor7,tr0,23948,622648).
route(prodloc28,harbor7,tr13,23948,143688).
route(prodloc28,harbor8,tr0,1049,27274).
route(prodloc28,harbor8,tr13,1049,6294).
route(prodloc28,harbor9,tr0,22156,576056).
route(prodloc28,harbor9,tr13,22156,132936).
route(prodloc28,harbor10,tr0,22476,584376).
route(prodloc28,harbor10,tr13,22476,134856).
route(prodloc28,harbor11,tr0,4458,115908).
route(prodloc28,harbor11,tr13,4458,26748).
route(prodloc28,harbor12,tr0,23153,601978).
route(prodloc28,harbor12,tr13,23153,138918).
route(prodloc28,harbor13,tr0,20999,545974).
route(prodloc28,harbor13,tr13,20999,125994).
route(prodloc28,harbor14,tr0,1438,37388).
route(prodloc28,harbor14,tr13,1438,8628).
route(prodloc28,harbor15,tr0,1958,50908).
route(prodloc28,harbor15,tr13,1958,11748).
route(prodloc28,harbor16,tr0,6784,176384).
route(prodloc28,harbor16,tr13,6784,40704).
route(prodloc28,prodloc0,tr0,1230,31980).
route(prodloc28,prodloc0,tr13,1230,7380).
route(prodloc28,prodloc1,tr0,27029,702754).
route(prodloc28,prodloc1,tr13,27029,162174).
route(prodloc28,prodloc2,tr0,23363,607438).
route(prodloc28,prodloc2,tr13,23363,140178).
route(prodloc28,prodloc3,tr0,8330,216580).
route(prodloc28,prodloc3,tr13,8330,49980).
route(prodloc28,prodloc4,tr0,17646,458796).
route(prodloc28,prodloc4,tr13,17646,105876).
route(prodloc28,prodloc5,tr0,25050,651300).
route(prodloc28,prodloc5,tr13,25050,150300).
route(prodloc28,prodloc6,tr0,27381,711906).
route(prodloc28,prodloc6,tr13,27381,164286).
route(prodloc28,prodloc7,tr0,5979,155454).
route(prodloc28,prodloc7,tr13,5979,35874).
route(prodloc28,prodloc8,tr0,5147,133822).
route(prodloc28,prodloc8,tr13,5147,30882).
route(prodloc28,prodloc9,tr0,16320,424320).
route(prodloc28,prodloc9,tr13,16320,97920).
route(prodloc28,prodloc10,tr0,11420,296920).
route(prodloc28,prodloc10,tr13,11420,68520).
route(prodloc28,prodloc11,tr0,22091,574366).
route(prodloc28,prodloc11,tr13,22091,132546).
route(prodloc28,prodloc12,tr0,2755,71630).
route(prodloc28,prodloc12,tr13,2755,16530).
route(prodloc28,prodloc13,tr0,23115,600990).
route(prodloc28,prodloc13,tr13,23115,138690).
route(prodloc28,prodloc14,tr0,14196,369096).
route(prodloc28,prodloc14,tr13,14196,85176).
route(prodloc28,prodloc15,tr0,18089,470314).
route(prodloc28,prodloc15,tr13,18089,108534).
route(prodloc28,prodloc16,tr0,19983,519558).
route(prodloc28,prodloc16,tr13,19983,119898).
route(prodloc28,prodloc17,tr13,27895,167370).
route(prodloc28,prodloc17,tr15,27895,892640).
route(prodloc28,prodloc18,tr0,5361,139386).
route(prodloc28,prodloc18,tr13,5361,32166).
route(prodloc28,prodloc19,tr0,3370,87620).
route(prodloc28,prodloc19,tr13,3370,20220).
route(prodloc28,prodloc20,tr0,13692,355992).
route(prodloc28,prodloc20,tr13,13692,82152).
route(prodloc28,prodloc21,tr0,9426,245076).
route(prodloc28,prodloc21,tr13,9426,56556).
route(prodloc28,prodloc22,tr0,8032,208832).
route(prodloc28,prodloc22,tr13,8032,48192).
route(prodloc28,prodloc23,tr0,135,3510).
route(prodloc28,prodloc23,tr13,135,810).
route(prodloc28,prodloc24,tr0,20684,537784).
route(prodloc28,prodloc24,tr13,20684,124104).
route(prodloc28,prodloc25,tr0,6836,177736).
route(prodloc28,prodloc25,tr13,6836,41016).
route(prodloc28,prodloc26,tr0,25247,656422).
route(prodloc28,prodloc26,tr13,25247,151482).
route(prodloc28,prodloc27,tr0,8731,227006).
route(prodloc28,prodloc27,tr13,8731,52386).
route(prodloc28,prodloc29,tr0,1902,49452).
route(prodloc28,prodloc29,tr13,1902,11412).
route(prodloc28,prodloc30,tr0,26873,698698).
route(prodloc28,prodloc30,tr13,26873,161238).
route(prodloc28,prodloc31,tr0,7378,191828).
route(prodloc28,prodloc31,tr13,7378,44268).
route(prodloc28,prodloc32,tr0,26654,693004).
route(prodloc28,prodloc32,tr13,26654,159924).
route(prodloc28,prodloc33,tr0,7047,183222).
route(prodloc28,prodloc33,tr13,7047,42282).
route(prodloc29,harbor0,tr0,22449,583674).
route(prodloc29,harbor0,tr13,22449,134694).
route(prodloc29,harbor1,tr0,15806,410956).
route(prodloc29,harbor1,tr13,15806,94836).
route(prodloc29,harbor2,tr0,28886,751036).
route(prodloc29,harbor2,tr13,28886,173316).
route(prodloc29,harbor3,tr0,17163,446238).
route(prodloc29,harbor3,tr13,17163,102978).
route(prodloc29,harbor4,tr0,24573,638898).
route(prodloc29,harbor4,tr13,24573,147438).
route(prodloc29,harbor5,tr0,16084,418184).
route(prodloc29,harbor5,tr13,16084,96504).
route(prodloc29,harbor6,tr0,14805,384930).
route(prodloc29,harbor6,tr13,14805,88830).
route(prodloc29,harbor7,tr0,24911,647686).
route(prodloc29,harbor7,tr13,24911,149466).
route(prodloc29,harbor8,tr0,533,13858).
route(prodloc29,harbor8,tr13,533,3198).
route(prodloc29,harbor9,tr0,1264,32864).
route(prodloc29,harbor9,tr13,1264,7584).
route(prodloc29,harbor10,tr0,10152,263952).
route(prodloc29,harbor10,tr13,10152,60912).
route(prodloc29,harbor11,tr0,13373,347698).
route(prodloc29,harbor11,tr13,13373,80238).
route(prodloc29,harbor12,tr0,27701,720226).
route(prodloc29,harbor12,tr13,27701,166206).
route(prodloc29,harbor13,tr0,17308,450008).
route(prodloc29,harbor13,tr13,17308,103848).
route(prodloc29,harbor14,tr0,20433,531258).
route(prodloc29,harbor14,tr13,20433,122598).
route(prodloc29,harbor15,tr0,21301,553826).
route(prodloc29,harbor15,tr13,21301,127806).
route(prodloc29,harbor16,tr0,17379,451854).
route(prodloc29,harbor16,tr13,17379,104274).
route(prodloc29,prodloc0,tr0,7099,184574).
route(prodloc29,prodloc0,tr13,7099,42594).
route(prodloc29,prodloc1,tr0,26877,698802).
route(prodloc29,prodloc1,tr13,26877,161262).
route(prodloc29,prodloc2,tr0,13910,361660).
route(prodloc29,prodloc2,tr13,13910,83460).
route(prodloc29,prodloc3,tr0,3232,84032).
route(prodloc29,prodloc3,tr13,3232,19392).
route(prodloc29,prodloc4,tr0,14895,387270).
route(prodloc29,prodloc4,tr13,14895,89370).
route(prodloc29,prodloc5,tr0,15114,392964).
route(prodloc29,prodloc5,tr13,15114,90684).
route(prodloc29,prodloc6,tr0,17269,448994).
route(prodloc29,prodloc6,tr13,17269,103614).
route(prodloc29,prodloc7,tr0,27212,707512).
route(prodloc29,prodloc7,tr13,27212,163272).
route(prodloc29,prodloc8,tr0,21578,561028).
route(prodloc29,prodloc8,tr13,21578,129468).
route(prodloc29,prodloc9,tr0,5595,145470).
route(prodloc29,prodloc9,tr13,5595,33570).
route(prodloc29,prodloc10,tr0,18275,475150).
route(prodloc29,prodloc10,tr13,18275,109650).
route(prodloc29,prodloc11,tr0,5692,147992).
route(prodloc29,prodloc11,tr13,5692,34152).
route(prodloc29,prodloc12,tr0,9814,255164).
route(prodloc29,prodloc12,tr13,9814,58884).
route(prodloc29,prodloc13,tr0,20203,525278).
route(prodloc29,prodloc13,tr13,20203,121218).
route(prodloc29,prodloc14,tr0,4755,123630).
route(prodloc29,prodloc14,tr13,4755,28530).
route(prodloc29,prodloc15,tr0,23478,610428).
route(prodloc29,prodloc15,tr13,23478,140868).
route(prodloc29,prodloc16,tr0,17870,464620).
route(prodloc29,prodloc16,tr13,17870,107220).
route(prodloc29,prodloc17,tr0,27905,725530).
route(prodloc29,prodloc17,tr13,27905,167430).
route(prodloc29,prodloc18,tr0,4077,106002).
route(prodloc29,prodloc18,tr13,4077,24462).
route(prodloc29,prodloc19,tr0,16922,439972).
route(prodloc29,prodloc19,tr13,16922,101532).
route(prodloc29,prodloc20,tr0,6124,159224).
route(prodloc29,prodloc20,tr13,6124,36744).
route(prodloc29,prodloc21,tr0,904,23504).
route(prodloc29,prodloc21,tr13,904,5424).
route(prodloc29,prodloc22,tr0,10955,284830).
route(prodloc29,prodloc22,tr13,10955,65730).
route(prodloc29,prodloc23,tr0,23798,618748).
route(prodloc29,prodloc23,tr13,23798,142788).
route(prodloc29,prodloc24,tr0,25662,667212).
route(prodloc29,prodloc24,tr13,25662,153972).
route(prodloc29,prodloc25,tr0,1791,46566).
route(prodloc29,prodloc25,tr13,1791,10746).
route(prodloc29,prodloc26,tr0,20028,520728).
route(prodloc29,prodloc26,tr13,20028,120168).
route(prodloc29,prodloc27,tr0,24380,633880).
route(prodloc29,prodloc27,tr13,24380,146280).
route(prodloc29,prodloc28,tr0,19935,518310).
route(prodloc29,prodloc28,tr13,19935,119610).
route(prodloc29,prodloc30,tr0,8959,232934).
route(prodloc29,prodloc30,tr13,8959,53754).
route(prodloc29,prodloc31,tr0,20572,534872).
route(prodloc29,prodloc31,tr13,20572,123432).
route(prodloc29,prodloc32,tr0,26457,687882).
route(prodloc29,prodloc32,tr13,26457,158742).
route(prodloc29,prodloc33,tr0,13002,338052).
route(prodloc29,prodloc33,tr15,13002,416064).
route(prodloc30,harbor0,tr0,10615,275990).
route(prodloc30,harbor0,tr13,10615,63690).
route(prodloc30,harbor1,tr0,19645,510770).
route(prodloc30,harbor1,tr13,19645,117870).
route(prodloc30,harbor2,tr0,19506,507156).
route(prodloc30,harbor2,tr13,19506,117036).
route(prodloc30,harbor3,tr0,18913,491738).
route(prodloc30,harbor3,tr13,18913,113478).
route(prodloc30,harbor4,tr0,20600,535600).
route(prodloc30,harbor4,tr13,20600,123600).
route(prodloc30,harbor5,tr0,4249,110474).
route(prodloc30,harbor5,tr13,4249,25494).
route(prodloc30,harbor6,tr0,2206,57356).
route(prodloc30,harbor6,tr13,2206,13236).
route(prodloc30,harbor7,tr0,18655,485030).
route(prodloc30,harbor7,tr13,18655,111930).
route(prodloc30,harbor8,tr0,8187,212862).
route(prodloc30,harbor8,tr13,8187,49122).
route(prodloc30,harbor9,tr0,4610,119860).
route(prodloc30,harbor9,tr13,4610,27660).
route(prodloc30,harbor10,tr0,19200,499200).
route(prodloc30,harbor10,tr13,19200,115200).
route(prodloc30,harbor11,tr0,11149,289874).
route(prodloc30,harbor11,tr13,11149,66894).
route(prodloc30,harbor12,tr0,23056,599456).
route(prodloc30,harbor12,tr13,23056,138336).
route(prodloc30,harbor13,tr0,10541,274066).
route(prodloc30,harbor13,tr13,10541,63246).
route(prodloc30,harbor14,tr0,1782,46332).
route(prodloc30,harbor14,tr13,1782,10692).
route(prodloc30,harbor15,tr0,26470,688220).
route(prodloc30,harbor15,tr13,26470,158820).
route(prodloc30,harbor16,tr0,27869,724594).
route(prodloc30,harbor16,tr13,27869,167214).
route(prodloc30,prodloc0,tr0,6958,180908).
route(prodloc30,prodloc0,tr13,6958,41748).
route(prodloc30,prodloc1,tr0,28653,744978).
route(prodloc30,prodloc1,tr13,28653,171918).
route(prodloc30,prodloc2,tr0,19512,507312).
route(prodloc30,prodloc2,tr13,19512,117072).
route(prodloc30,prodloc3,tr0,1613,41938).
route(prodloc30,prodloc3,tr13,1613,9678).
route(prodloc30,prodloc4,tr0,6263,162838).
route(prodloc30,prodloc4,tr13,6263,37578).
route(prodloc30,prodloc5,tr0,11844,307944).
route(prodloc30,prodloc5,tr13,11844,71064).
route(prodloc30,prodloc6,tr0,2014,52364).
route(prodloc30,prodloc6,tr13,2014,12084).
route(prodloc30,prodloc7,tr0,441,11466).
route(prodloc30,prodloc7,tr13,441,2646).
route(prodloc30,prodloc8,tr0,25321,658346).
route(prodloc30,prodloc8,tr13,25321,151926).
route(prodloc30,prodloc9,tr0,22408,582608).
route(prodloc30,prodloc9,tr13,22408,134448).
route(prodloc30,prodloc10,tr0,15922,413972).
route(prodloc30,prodloc10,tr13,15922,95532).
route(prodloc30,prodloc11,tr0,13053,339378).
route(prodloc30,prodloc11,tr13,13053,78318).
route(prodloc30,prodloc12,tr0,19822,515372).
route(prodloc30,prodloc12,tr13,19822,118932).
route(prodloc30,prodloc13,tr0,4909,127634).
route(prodloc30,prodloc13,tr13,4909,29454).
route(prodloc30,prodloc14,tr0,23096,600496).
route(prodloc30,prodloc14,tr13,23096,138576).
route(prodloc30,prodloc15,tr0,1576,40976).
route(prodloc30,prodloc15,tr13,1576,9456).
route(prodloc30,prodloc16,tr0,19461,505986).
route(prodloc30,prodloc16,tr13,19461,116766).
route(prodloc30,prodloc17,tr0,21266,552916).
route(prodloc30,prodloc17,tr13,21266,127596).
route(prodloc30,prodloc18,tr0,13650,354900).
route(prodloc30,prodloc18,tr13,13650,81900).
route(prodloc30,prodloc19,tr0,2239,58214).
route(prodloc30,prodloc19,tr13,2239,13434).
route(prodloc30,prodloc20,tr0,10548,274248).
route(prodloc30,prodloc20,tr13,10548,63288).
route(prodloc30,prodloc21,tr0,5372,139672).
route(prodloc30,prodloc21,tr13,5372,32232).
route(prodloc30,prodloc22,tr0,17371,451646).
route(prodloc30,prodloc22,tr13,17371,104226).
route(prodloc30,prodloc23,tr0,16901,439426).
route(prodloc30,prodloc23,tr13,16901,101406).
route(prodloc30,prodloc24,tr0,8063,209638).
route(prodloc30,prodloc24,tr13,8063,48378).
route(prodloc30,prodloc25,tr0,3436,89336).
route(prodloc30,prodloc25,tr13,3436,20616).
route(prodloc30,prodloc26,tr0,8599,223574).
route(prodloc30,prodloc26,tr13,8599,51594).
route(prodloc30,prodloc27,tr0,27613,717938).
route(prodloc30,prodloc27,tr13,27613,165678).
route(prodloc30,prodloc28,tr0,26571,690846).
route(prodloc30,prodloc28,tr13,26571,159426).
route(prodloc30,prodloc29,tr0,8260,214760).
route(prodloc30,prodloc29,tr13,8260,49560).
route(prodloc30,prodloc31,tr0,11215,291590).
route(prodloc30,prodloc31,tr13,11215,67290).
route(prodloc30,prodloc32,tr0,16309,424034).
route(prodloc30,prodloc32,tr13,16309,97854).
route(prodloc30,prodloc33,tr0,23628,614328).
route(prodloc30,prodloc33,tr13,23628,141768).
route(prodloc31,harbor0,tr0,22268,578968).
route(prodloc31,harbor0,tr13,22268,133608).
route(prodloc31,harbor1,tr0,9086,236236).
route(prodloc31,harbor1,tr13,9086,54516).
route(prodloc31,harbor2,tr0,15252,396552).
route(prodloc31,harbor2,tr13,15252,91512).
route(prodloc31,harbor3,tr0,23870,620620).
route(prodloc31,harbor3,tr13,23870,143220).
route(prodloc31,harbor4,tr0,25741,669266).
route(prodloc31,harbor4,tr13,25741,154446).
route(prodloc31,harbor5,tr0,6943,180518).
route(prodloc31,harbor5,tr13,6943,41658).
route(prodloc31,harbor6,tr0,10828,281528).
route(prodloc31,harbor6,tr13,10828,64968).
route(prodloc31,harbor7,tr0,18040,469040).
route(prodloc31,harbor7,tr13,18040,108240).
route(prodloc31,harbor8,tr0,120,3120).
route(prodloc31,harbor8,tr13,120,720).
route(prodloc31,harbor9,tr0,20128,523328).
route(prodloc31,harbor9,tr13,20128,120768).
route(prodloc31,harbor10,tr0,27804,722904).
route(prodloc31,harbor10,tr13,27804,166824).
route(prodloc31,harbor11,tr0,44,1144).
route(prodloc31,harbor11,tr13,44,264).
route(prodloc31,harbor12,tr0,24558,638508).
route(prodloc31,harbor12,tr13,24558,147348).
route(prodloc31,harbor13,tr0,19701,512226).
route(prodloc31,harbor13,tr13,19701,118206).
route(prodloc31,harbor14,tr0,24195,629070).
route(prodloc31,harbor14,tr13,24195,145170).
route(prodloc31,harbor15,tr0,19303,501878).
route(prodloc31,harbor15,tr13,19303,115818).
route(prodloc31,harbor16,tr0,3297,85722).
route(prodloc31,harbor16,tr13,3297,19782).
route(prodloc31,prodloc0,tr0,13377,347802).
route(prodloc31,prodloc0,tr13,13377,80262).
route(prodloc31,prodloc1,tr0,13968,363168).
route(prodloc31,prodloc1,tr13,13968,83808).
route(prodloc31,prodloc2,tr0,13795,358670).
route(prodloc31,prodloc2,tr13,13795,82770).
route(prodloc31,prodloc3,tr0,20077,522002).
route(prodloc31,prodloc3,tr13,20077,120462).
route(prodloc31,prodloc4,tr0,15028,390728).
route(prodloc31,prodloc4,tr13,15028,90168).
route(prodloc31,prodloc5,tr0,28581,743106).
route(prodloc31,prodloc5,tr13,28581,171486).
route(prodloc31,prodloc6,tr0,18464,480064).
route(prodloc31,prodloc6,tr13,18464,110784).
route(prodloc31,prodloc7,tr0,9213,239538).
route(prodloc31,prodloc7,tr13,9213,55278).
route(prodloc31,prodloc8,tr0,13681,355706).
route(prodloc31,prodloc8,tr13,13681,82086).
route(prodloc31,prodloc9,tr0,24853,646178).
route(prodloc31,prodloc9,tr13,24853,149118).
route(prodloc31,prodloc10,tr0,168,4368).
route(prodloc31,prodloc10,tr13,168,1008).
route(prodloc31,prodloc11,tr0,8334,216684).
route(prodloc31,prodloc11,tr13,8334,50004).
route(prodloc31,prodloc12,tr0,920,23920).
route(prodloc31,prodloc12,tr13,920,5520).
route(prodloc31,prodloc13,tr0,571,14846).
route(prodloc31,prodloc13,tr13,571,3426).
route(prodloc31,prodloc14,tr0,5316,138216).
route(prodloc31,prodloc14,tr13,5316,31896).
route(prodloc31,prodloc15,tr0,19956,518856).
route(prodloc31,prodloc15,tr13,19956,119736).
route(prodloc31,prodloc16,tr0,21147,549822).
route(prodloc31,prodloc16,tr13,21147,126882).
route(prodloc31,prodloc17,tr0,11444,297544).
route(prodloc31,prodloc17,tr13,11444,68664).
route(prodloc31,prodloc18,tr0,7084,184184).
route(prodloc31,prodloc18,tr13,7084,42504).
route(prodloc31,prodloc19,tr0,7076,183976).
route(prodloc31,prodloc19,tr13,7076,42456).
route(prodloc31,prodloc20,tr0,26905,699530).
route(prodloc31,prodloc20,tr13,26905,161430).
route(prodloc31,prodloc21,tr0,3023,78598).
route(prodloc31,prodloc21,tr13,3023,18138).
route(prodloc31,prodloc22,tr0,18053,469378).
route(prodloc31,prodloc22,tr13,18053,108318).
route(prodloc31,prodloc23,tr0,11601,301626).
route(prodloc31,prodloc23,tr13,11601,69606).
route(prodloc31,prodloc24,tr0,9651,250926).
route(prodloc31,prodloc24,tr13,9651,57906).
route(prodloc31,prodloc25,tr0,11109,288834).
route(prodloc31,prodloc25,tr13,11109,66654).
route(prodloc31,prodloc26,tr0,1625,42250).
route(prodloc31,prodloc26,tr13,1625,9750).
route(prodloc31,prodloc27,tr0,3640,94640).
route(prodloc31,prodloc27,tr13,3640,21840).
route(prodloc31,prodloc28,tr0,11250,292500).
route(prodloc31,prodloc28,tr13,11250,67500).
route(prodloc31,prodloc29,tr0,22133,575458).
route(prodloc31,prodloc29,tr13,22133,132798).
route(prodloc31,prodloc30,tr0,23721,616746).
route(prodloc31,prodloc30,tr13,23721,142326).
route(prodloc31,prodloc32,tr0,9806,254956).
route(prodloc31,prodloc32,tr13,9806,58836).
route(prodloc31,prodloc33,tr0,5920,153920).
route(prodloc31,prodloc33,tr13,5920,35520).
route(prodloc32,harbor0,tr0,21577,561002).
route(prodloc32,harbor0,tr13,21577,129462).
route(prodloc32,harbor1,tr0,26960,700960).
route(prodloc32,harbor1,tr13,26960,161760).
route(prodloc32,harbor2,tr0,4749,123474).
route(prodloc32,harbor2,tr13,4749,28494).
route(prodloc32,harbor3,tr0,8400,218400).
route(prodloc32,harbor3,tr13,8400,50400).
route(prodloc32,harbor4,tr0,8615,223990).
route(prodloc32,harbor4,tr13,8615,51690).
route(prodloc32,harbor5,tr0,16064,417664).
route(prodloc32,harbor5,tr13,16064,96384).
route(prodloc32,harbor6,tr0,16793,436618).
route(prodloc32,harbor6,tr13,16793,100758).
route(prodloc32,harbor7,tr0,18036,468936).
route(prodloc32,harbor7,tr13,18036,108216).
route(prodloc32,harbor8,tr0,28183,732758).
route(prodloc32,harbor8,tr13,28183,169098).
route(prodloc32,harbor9,tr0,25328,658528).
route(prodloc32,harbor9,tr13,25328,151968).
route(prodloc32,harbor10,tr0,17592,457392).
route(prodloc32,harbor10,tr13,17592,105552).
route(prodloc32,harbor11,tr0,8650,224900).
route(prodloc32,harbor11,tr13,8650,51900).
route(prodloc32,harbor12,tr0,9636,250536).
route(prodloc32,harbor12,tr13,9636,57816).
route(prodloc32,harbor13,tr0,18553,482378).
route(prodloc32,harbor13,tr13,18553,111318).
route(prodloc32,harbor14,tr0,10670,277420).
route(prodloc32,harbor14,tr13,10670,64020).
route(prodloc32,harbor15,tr0,16999,441974).
route(prodloc32,harbor15,tr13,16999,101994).
route(prodloc32,harbor16,tr0,25057,651482).
route(prodloc32,harbor16,tr13,25057,150342).
route(prodloc32,prodloc0,tr0,19269,500994).
route(prodloc32,prodloc0,tr13,19269,115614).
route(prodloc32,prodloc1,tr0,18204,473304).
route(prodloc32,prodloc1,tr13,18204,109224).
route(prodloc32,prodloc2,tr0,15250,396500).
route(prodloc32,prodloc2,tr13,15250,91500).
route(prodloc32,prodloc3,tr0,14167,368342).
route(prodloc32,prodloc3,tr13,14167,85002).
route(prodloc32,prodloc4,tr0,26611,691886).
route(prodloc32,prodloc4,tr13,26611,159666).
route(prodloc32,prodloc5,tr0,12687,329862).
route(prodloc32,prodloc5,tr13,12687,76122).
route(prodloc32,prodloc6,tr0,2746,71396).
route(prodloc32,prodloc6,tr13,2746,16476).
route(prodloc32,prodloc7,tr0,12948,336648).
route(prodloc32,prodloc7,tr13,12948,77688).
route(prodloc32,prodloc8,tr0,2623,68198).
route(prodloc32,prodloc8,tr13,2623,15738).
route(prodloc32,prodloc9,tr0,17116,445016).
route(prodloc32,prodloc9,tr13,17116,102696).
route(prodloc32,prodloc10,tr0,4910,127660).
route(prodloc32,prodloc10,tr13,4910,29460).
route(prodloc32,prodloc11,tr0,3491,90766).
route(prodloc32,prodloc11,tr13,3491,20946).
route(prodloc32,prodloc12,tr0,10514,273364).
route(prodloc32,prodloc12,tr13,10514,63084).
route(prodloc32,prodloc13,tr0,12901,335426).
route(prodloc32,prodloc13,tr13,12901,77406).
route(prodloc32,prodloc14,tr0,15851,412126).
route(prodloc32,prodloc14,tr13,15851,95106).
route(prodloc32,prodloc15,tr0,25102,652652).
route(prodloc32,prodloc15,tr13,25102,150612).
route(prodloc32,prodloc16,tr0,28592,743392).
route(prodloc32,prodloc16,tr13,28592,171552).
route(prodloc32,prodloc17,tr0,22355,581230).
route(prodloc32,prodloc17,tr13,22355,134130).
route(prodloc32,prodloc18,tr0,19015,494390).
route(prodloc32,prodloc18,tr13,19015,114090).
route(prodloc32,prodloc19,tr0,2648,68848).
route(prodloc32,prodloc19,tr13,2648,15888).
route(prodloc32,prodloc20,tr0,24405,634530).
route(prodloc32,prodloc20,tr13,24405,146430).
route(prodloc32,prodloc21,tr0,13543,352118).
route(prodloc32,prodloc21,tr13,13543,81258).
route(prodloc32,prodloc22,tr0,13164,342264).
route(prodloc32,prodloc22,tr13,13164,78984).
route(prodloc32,prodloc23,tr0,14809,385034).
route(prodloc32,prodloc23,tr13,14809,88854).
route(prodloc32,prodloc24,tr0,20252,526552).
route(prodloc32,prodloc24,tr13,20252,121512).
route(prodloc32,prodloc25,tr0,27702,720252).
route(prodloc32,prodloc25,tr13,27702,166212).
route(prodloc32,prodloc26,tr0,8763,227838).
route(prodloc32,prodloc26,tr13,8763,52578).
route(prodloc32,prodloc27,tr0,26667,693342).
route(prodloc32,prodloc27,tr13,26667,160002).
route(prodloc32,prodloc28,tr0,15830,411580).
route(prodloc32,prodloc28,tr13,15830,94980).
route(prodloc32,prodloc29,tr0,648,16848).
route(prodloc32,prodloc29,tr13,648,3888).
route(prodloc32,prodloc30,tr0,17935,466310).
route(prodloc32,prodloc30,tr13,17935,107610).
route(prodloc32,prodloc31,tr0,16302,423852).
route(prodloc32,prodloc31,tr13,16302,97812).
route(prodloc32,prodloc33,tr0,27240,708240).
route(prodloc32,prodloc33,tr13,27240,163440).
route(prodloc33,harbor0,tr0,17457,453882).
route(prodloc33,harbor0,tr13,17457,104742).
route(prodloc33,harbor1,tr0,11803,306878).
route(prodloc33,harbor1,tr13,11803,70818).
route(prodloc33,harbor2,tr0,20678,537628).
route(prodloc33,harbor2,tr13,20678,124068).
route(prodloc33,harbor3,tr0,13798,358748).
route(prodloc33,harbor3,tr13,13798,82788).
route(prodloc33,harbor4,tr0,24518,637468).
route(prodloc33,harbor4,tr13,24518,147108).
route(prodloc33,harbor5,tr0,6611,171886).
route(prodloc33,harbor5,tr13,6611,39666).
route(prodloc33,harbor6,tr0,19864,516464).
route(prodloc33,harbor6,tr13,19864,119184).
route(prodloc33,harbor7,tr0,27148,705848).
route(prodloc33,harbor7,tr13,27148,162888).
route(prodloc33,harbor8,tr0,2722,70772).
route(prodloc33,harbor8,tr13,2722,16332).
route(prodloc33,harbor9,tr0,294,7644).
route(prodloc33,harbor9,tr13,294,1764).
route(prodloc33,harbor10,tr0,5654,147004).
route(prodloc33,harbor10,tr13,5654,33924).
route(prodloc33,harbor11,tr0,27302,709852).
route(prodloc33,harbor11,tr13,27302,163812).
route(prodloc33,harbor12,tr0,22165,576290).
route(prodloc33,harbor12,tr13,22165,132990).
route(prodloc33,harbor13,tr0,8580,223080).
route(prodloc33,harbor13,tr13,8580,51480).
route(prodloc33,harbor14,tr0,23386,608036).
route(prodloc33,harbor14,tr13,23386,140316).
route(prodloc33,harbor15,tr0,860,22360).
route(prodloc33,harbor15,tr13,860,5160).
route(prodloc33,harbor16,tr0,9567,248742).
route(prodloc33,harbor16,tr13,9567,57402).
route(prodloc33,prodloc0,tr0,26638,692588).
route(prodloc33,prodloc0,tr13,26638,159828).
route(prodloc33,prodloc1,tr0,1091,28366).
route(prodloc33,prodloc1,tr13,1091,6546).
route(prodloc33,prodloc2,tr0,21552,560352).
route(prodloc33,prodloc2,tr13,21552,129312).
route(prodloc33,prodloc3,tr0,13896,361296).
route(prodloc33,prodloc3,tr13,13896,83376).
route(prodloc33,prodloc4,tr0,25499,662974).
route(prodloc33,prodloc4,tr13,25499,152994).
route(prodloc33,prodloc5,tr0,10230,265980).
route(prodloc33,prodloc5,tr13,10230,61380).
route(prodloc33,prodloc6,tr0,13012,338312).
route(prodloc33,prodloc6,tr13,13012,78072).
route(prodloc33,prodloc7,tr0,23039,599014).
route(prodloc33,prodloc7,tr13,23039,138234).
route(prodloc33,prodloc8,tr0,8121,211146).
route(prodloc33,prodloc8,tr13,8121,48726).
route(prodloc33,prodloc9,tr0,27037,702962).
route(prodloc33,prodloc9,tr13,27037,162222).
route(prodloc33,prodloc10,tr0,21777,566202).
route(prodloc33,prodloc10,tr13,21777,130662).
route(prodloc33,prodloc11,tr0,14120,367120).
route(prodloc33,prodloc11,tr13,14120,84720).
route(prodloc33,prodloc12,tr0,26497,688922).
route(prodloc33,prodloc12,tr13,26497,158982).
route(prodloc33,prodloc13,tr0,16590,431340).
route(prodloc33,prodloc13,tr13,16590,99540).
route(prodloc33,prodloc14,tr0,8800,228800).
route(prodloc33,prodloc14,tr13,8800,52800).
route(prodloc33,prodloc15,tr0,19849,516074).
route(prodloc33,prodloc15,tr13,19849,119094).
route(prodloc33,prodloc16,tr0,12306,319956).
route(prodloc33,prodloc16,tr13,12306,73836).
route(prodloc33,prodloc17,tr0,12864,334464).
route(prodloc33,prodloc17,tr13,12864,77184).
route(prodloc33,prodloc18,tr0,8868,230568).
route(prodloc33,prodloc18,tr13,8868,53208).
route(prodloc33,prodloc19,tr0,18,468).
route(prodloc33,prodloc19,tr13,18,108).
route(prodloc33,prodloc20,tr0,8679,225654).
route(prodloc33,prodloc20,tr13,8679,52074).
route(prodloc33,prodloc21,tr0,5968,155168).
route(prodloc33,prodloc21,tr13,5968,35808).
route(prodloc33,prodloc22,tr0,28387,738062).
route(prodloc33,prodloc22,tr13,28387,170322).
route(prodloc33,prodloc23,tr0,9432,245232).
route(prodloc33,prodloc23,tr13,9432,56592).
route(prodloc33,prodloc24,tr0,227,5902).
route(prodloc33,prodloc24,tr13,227,1362).
route(prodloc33,prodloc25,tr0,6521,169546).
route(prodloc33,prodloc25,tr13,6521,39126).
route(prodloc33,prodloc26,tr0,721,18746).
route(prodloc33,prodloc26,tr13,721,4326).
route(prodloc33,prodloc27,tr0,6524,169624).
route(prodloc33,prodloc27,tr13,6524,39144).
route(prodloc33,prodloc28,tr0,6031,156806).
route(prodloc33,prodloc28,tr13,6031,36186).
route(prodloc33,prodloc29,tr0,10684,277784).
route(prodloc33,prodloc29,tr13,10684,64104).
route(prodloc33,prodloc30,tr0,25716,668616).
route(prodloc33,prodloc30,tr13,25716,154296).
route(prodloc33,prodloc31,tr0,9099,236574).
route(prodloc33,prodloc31,tr13,9099,54594).
route(prodloc33,prodloc32,tr0,18681,485706).
route(prodloc33,prodloc32,tr13,18681,112086).
hub(harbor2).
hub(harbor9).
hub(harbor13).
hub(prodloc3).
hub(prodloc10).
hub(prodloc11).
hub(prodloc16).
hub(prodloc18).
hub(prodloc21).
hub(prodloc24).
