% Multibatching benchmark instance
% Source: instances.lp
% seed=12  harbors=17  prodlocs=34  hubs=10  disruptions=2

% ---- locations ----
location(harbor0).
location(harbor1).
location(harbor2).
location(harbor3).
location(harbor4).
location(harbor5).
location(harbor6).
location(harbor7).
location(harbor8).
location(harbor9).
location(harbor10).
location(harbor11).
location(harbor12).
location(harbor13).
location(harbor14).
location(harbor15).
location(harbor16).
location(prodloc0).
location(prodloc1).
location(prodloc2).
location(prodloc3).
location(prodloc4).
location(prodloc5).
location(prodloc6).
location(prodloc7).
location(prodloc8).
location(prodloc9).
location(prodloc10).
location(prodloc11).
location(prodloc12).
location(prodloc13).
location(prodloc14).
location(prodloc15).
location(prodloc16).
location(prodloc17).
location(prodloc18).
location(prodloc19).
location(prodloc20).
location(prodloc21).
location(prodloc22).
location(prodloc23).
location(prodloc24).
location(prodloc25).
location(prodloc26).
location(prodloc27).
location(prodloc28).
location(prodloc29).
location(prodloc30).
location(prodloc31).
location(prodloc32).
location(prodloc33).

% ---- transport resources ----
transportCapacity(tr0,1800).
transportCO2(tr0,1680).
transportCost(tr0,26).
transportSpeed(tr0,12).
transportCapacity(tr1,65).
transportCO2(tr1,90).
transportCost(tr1,1).
transportSpeed(tr1,35).
transportCapacity(tr10,1).
transportCO2(tr10,700).
transportCost(tr10,4).
transportSpeed(tr10,40).
transportCapacity(tr11,65).
transportCO2(tr11,62).
transportCost(tr11,1).
transportSpeed(tr11,25).
transportCapacity(tr12,65).
transportCO2(tr12,709).
transportCost(tr12,3).
transportSpeed(tr12,55).
transportCapacity(tr13,68).
transportCO2(tr13,160).
transportCost(tr13,6).
transportSpeed(tr13,25).
transportCapacity(tr14,146).
transportCO2(tr14,780).
transportCost(tr14,4).
transportSpeed(tr14,50).
transportCapacity(tr15,2217).
transportCO2(tr15,49470).
transportCost(tr15,32).
transportSpeed(tr15,625).
transportCapacity(tr2,96).
transportCO2(tr2,709).
transportCost(tr2,3).
transportSpeed(tr2,55).
transportCapacity(tr3,1).
transportCO2(tr3,6250).
transportCost(tr3,108).
transportSpeed(tr3,25).
transportCapacity(tr4,148).
transportCO2(tr4,780).
transportCost(tr4,4).
transportSpeed(tr4,50).
transportCapacity(tr5,65).
transportCO2(tr5,780).
transportCost(tr5,3).
transportSpeed(tr5,50).
transportCapacity(tr6,1).
transportCO2(tr6,100).
transportCost(tr6,40).
transportSpeed(tr6,25).
transportCapacity(tr7,1).
transportCO2(tr7,18000).
transportCost(tr7,278).
transportSpeed(tr7,10).
transportCapacity(tr8,1).
transportCO2(tr8,14400).
transportCost(tr8,107).
transportSpeed(tr8,25).
transportCapacity(tr9,65).
transportCO2(tr9,708).
transportCost(tr9,2).
transportSpeed(tr9,60).

% ---- parts ----
part(part0).
partSize(part0,21).
valid_transport(part0,tr0).
valid_transport(part0,tr15).
valid_transport(part0,tr14).
valid_transport(part0,tr13).
valid_transport(part0,tr4).
part(part1).
partSize(part1,1).
valid_transport(part1,tr0).
valid_transport(part1,tr2).
valid_transport(part1,tr15).
valid_transport(part1,tr9).
valid_transport(part1,tr12).
valid_transport(part1,tr13).
valid_transport(part1,tr11).
part(part10).
partSize(part10,1).
valid_transport(part10,tr0).
valid_transport(part10,tr2).
valid_transport(part10,tr15).
valid_transport(part10,tr9).
valid_transport(part10,tr12).
valid_transport(part10,tr13).
valid_transport(part10,tr11).
part(part11).
partSize(part11,83).
valid_transport(part11,tr0).
valid_transport(part11,tr7).
valid_transport(part11,tr8).
valid_transport(part11,tr15).
valid_transport(part11,tr3).
valid_transport(part11,tr13).
part(part12).
partSize(part12,273).
valid_transport(part12,tr0).
valid_transport(part12,tr7).
valid_transport(part12,tr8).
valid_transport(part12,tr15).
valid_transport(part12,tr3).
valid_transport(part12,tr13).
part(part13).
partSize(part13,1).
valid_transport(part13,tr0).
valid_transport(part13,tr2).
valid_transport(part13,tr15).
valid_transport(part13,tr9).
valid_transport(part13,tr12).
valid_transport(part13,tr13).
valid_transport(part13,tr11).
part(part14).
partSize(part14,68).
valid_transport(part14,tr0).
valid_transport(part14,tr15).
valid_transport(part14,tr13).
part(part15).
partSize(part15,4).
valid_transport(part15,tr0).
valid_transport(part15,tr2).
valid_transport(part15,tr15).
valid_transport(part15,tr9).
valid_transport(part15,tr12).
valid_transport(part15,tr13).
valid_transport(part15,tr11).
part(part16).
partSize(part16,4).
valid_transport(part16,tr0).
valid_transport(part16,tr2).
valid_transport(part16,tr15).
valid_transport(part16,tr9).
valid_transport(part16,tr12).
valid_transport(part16,tr13).
valid_transport(part16,tr11).
part(part17).
partSize(part17,8).
valid_transport(part17,tr0).
valid_transport(part17,tr15).
valid_transport(part17,tr14).
valid_transport(part17,tr13).
valid_transport(part17,tr4).
part(part18).
partSize(part18,24).
valid_transport(part18,tr0).
valid_transport(part18,tr15).
valid_transport(part18,tr14).
valid_transport(part18,tr13).
valid_transport(part18,tr4).
part(part19).
partSize(part19,6).
valid_transport(part19,tr0).
valid_transport(part19,tr2).
valid_transport(part19,tr15).
valid_transport(part19,tr9).
valid_transport(part19,tr12).
valid_transport(part19,tr13).
valid_transport(part19,tr11).
part(part2).
partSize(part2,19).
valid_transport(part2,tr0).
valid_transport(part2,tr15).
valid_transport(part2,tr14).
valid_transport(part2,tr13).
valid_transport(part2,tr4).
part(part20).
partSize(part20,128).
valid_transport(part20,tr0).
valid_transport(part20,tr7).
valid_transport(part20,tr8).
valid_transport(part20,tr15).
valid_transport(part20,tr3).
valid_transport(part20,tr13).
part(part21).
partSize(part21,25).
valid_transport(part21,tr0).
valid_transport(part21,tr15).
valid_transport(part21,tr14).
valid_transport(part21,tr13).
valid_transport(part21,tr4).
part(part22).
partSize(part22,7).
valid_transport(part22,tr0).
valid_transport(part22,tr2).
valid_transport(part22,tr15).
valid_transport(part22,tr9).
valid_transport(part22,tr12).
valid_transport(part22,tr13).
valid_transport(part22,tr11).
part(part23).
partSize(part23,5).
valid_transport(part23,tr0).
valid_transport(part23,tr15).
valid_transport(part23,tr14).
valid_transport(part23,tr13).
valid_transport(part23,tr4).
part(part24).
partSize(part24,55).
valid_transport(part24,tr0).
valid_transport(part24,tr7).
valid_transport(part24,tr8).
valid_transport(part24,tr15).
valid_transport(part24,tr3).
valid_transport(part24,tr13).
part(part25).
partSize(part25,5).
valid_transport(part25,tr0).
valid_transport(part25,tr4).
valid_transport(part25,tr2).
valid_transport(part25,tr15).
valid_transport(part25,tr13).
part(part26).
partSize(part26,32).
valid_transport(part26,tr0).
valid_transport(part26,tr7).
valid_transport(part26,tr8).
valid_transport(part26,tr15).
valid_transport(part26,tr3).
valid_transport(part26,tr13).
part(part27).
partSize(part27,5).
valid_transport(part27,tr0).
valid_transport(part27,tr2).
valid_transport(part27,tr15).
valid_transport(part27,tr9).
valid_transport(part27,tr12).
valid_transport(part27,tr13).
valid_transport(part27,tr11).
part(part28).
partSize(part28,3).
valid_transport(part28,tr0).
valid_transport(part28,tr4).
valid_transport(part28,tr2).
valid_transport(part28,tr15).
valid_transport(part28,tr14).
valid_transport(part28,tr13).
part(part29).
partSize(part29,627).
part(part3).
partSize(part3,48).
valid_transport(part3,tr0).
valid_transport(part3,tr7).
valid_transport(part3,tr8).
valid_transport(part3,tr15).
valid_transport(part3,tr3).
valid_transport(part3,tr13).
part(part30).
partSize(part30,2).
valid_transport(part30,tr0).
valid_transport(part30,tr2).
valid_transport(part30,tr15).
valid_transport(part30,tr9).
valid_transport(part30,tr12).
valid_transport(part30,tr13).
valid_transport(part30,tr11).
part(part31).
partSize(part31,144).
valid_transport(part31,tr0).
valid_transport(part31,tr7).
valid_transport(part31,tr8).
valid_transport(part31,tr15).
valid_transport(part31,tr3).
valid_transport(part31,tr13).
part(part32).
partSize(part32,16).
valid_transport(part32,tr0).
valid_transport(part32,tr4).
valid_transport(part32,tr2).
valid_transport(part32,tr15).
valid_transport(part32,tr14).
valid_transport(part32,tr13).
part(part33).
partSize(part33,7).
valid_transport(part33,tr0).
valid_transport(part33,tr2).
valid_transport(part33,tr15).
valid_transport(part33,tr9).
valid_transport(part33,tr12).
valid_transport(part33,tr13).
valid_transport(part33,tr11).
part(part3345).
partSize(part3345,353).
valid_transport(part3345,tr0).
valid_transport(part3345,tr7).
valid_transport(part3345,tr8).
valid_transport(part3345,tr15).
valid_transport(part3345,tr3).
valid_transport(part3345,tr13).
part(part34).
partSize(part34,2).
valid_transport(part34,tr0).
valid_transport(part34,tr2).
valid_transport(part34,tr15).
valid_transport(part34,tr9).
valid_transport(part34,tr12).
valid_transport(part34,tr13).
valid_transport(part34,tr11).
part(part4).
partSize(part4,2).
valid_transport(part4,tr0).
valid_transport(part4,tr2).
valid_transport(part4,tr15).
valid_transport(part4,tr9).
valid_transport(part4,tr12).
valid_transport(part4,tr13).
valid_transport(part4,tr11).
part(part5).
partSize(part5,2).
valid_transport(part5,tr0).
valid_transport(part5,tr2).
valid_transport(part5,tr15).
valid_transport(part5,tr9).
valid_transport(part5,tr12).
valid_transport(part5,tr14).
valid_transport(part5,tr13).
valid_transport(part5,tr11).
part(part6).
partSize(part6,111).
valid_transport(part6,tr0).
valid_transport(part6,tr7).
valid_transport(part6,tr8).
valid_transport(part6,tr15).
valid_transport(part6,tr3).
valid_transport(part6,tr13).
part(part8).
partSize(part8,163).
valid_transport(part8,tr0).
valid_transport(part8,tr7).
valid_transport(part8,tr8).
valid_transport(part8,tr15).
valid_transport(part8,tr3).
valid_transport(part8,tr13).
part(part9).
partSize(part9,2).
valid_transport(part9,tr0).
valid_transport(part9,tr2).
valid_transport(part9,tr15).
valid_transport(part9,tr9).
valid_transport(part9,tr12).
valid_transport(part9,tr13).
valid_transport(part9,tr11).

% ---- demand ----
demandOffer(part0,prodloc30,40).
demandOffer(part0,prodloc17,40).
demandOffer(part0,prodloc33,-27).
demandOffer(part0,prodloc22,-53).
demandOffer(part1,prodloc9,20).
demandOffer(part1,prodloc24,20).
demandOffer(part1,prodloc0,-20).
demandOffer(part1,prodloc23,-20).
demandOffer(part10,prodloc30,20).
demandOffer(part10,prodloc17,20).
demandOffer(part10,prodloc29,-20).
demandOffer(part10,prodloc14,-20).
demandOffer(part12,prodloc0,10).
demandOffer(part12,prodloc9,20).
demandOffer(part12,prodloc28,-10).
demandOffer(part12,prodloc23,-10).
demandOffer(part12,prodloc10,-10).
demandOffer(part13,prodloc21,20).
demandOffer(part13,prodloc13,20).
demandOffer(part13,prodloc3,-20).
demandOffer(part13,prodloc12,-20).
demandOffer(part14,prodloc4,26).
demandOffer(part14,prodloc32,-26).
demandOffer(part15,prodloc21,53).
demandOffer(part15,prodloc25,27).
demandOffer(part15,prodloc5,-53).
demandOffer(part15,prodloc1,-27).
demandOffer(part16,prodloc3,53).
demandOffer(part16,prodloc32,27).
demandOffer(part16,prodloc14,-53).
demandOffer(part16,prodloc5,-27).
demandOffer(part17,prodloc27,20).
demandOffer(part17,prodloc28,-20).
demandOffer(part18,prodloc7,40).
demandOffer(part18,prodloc27,40).
demandOffer(part18,prodloc8,-27).
demandOffer(part18,prodloc20,-53).
demandOffer(part19,prodloc10,26).
demandOffer(part19,prodloc3,-26).
demandOffer(part2,prodloc10,40).
demandOffer(part2,prodloc32,40).
demandOffer(part2,prodloc5,-27).
demandOffer(part2,prodloc25,-53).
demandOffer(part20,prodloc26,53).
demandOffer(part20,prodloc30,27).
demandOffer(part20,prodloc24,-14).
demandOffer(part20,prodloc1,-46).
demandOffer(part20,prodloc5,-20).
demandOffer(part21,prodloc12,26).
demandOffer(part21,prodloc16,-26).
demandOffer(part22,prodloc22,53).
demandOffer(part22,prodloc23,27).
demandOffer(part22,prodloc24,-53).
demandOffer(part22,prodloc19,-27).
demandOffer(part23,prodloc7,20).
demandOffer(part23,prodloc16,20).
demandOffer(part23,prodloc15,-20).
demandOffer(part23,prodloc21,-20).
demandOffer(part25,prodloc23,20).
demandOffer(part25,prodloc32,-20).
demandOffer(part26,prodloc32,20).
demandOffer(part26,prodloc11,20).
demandOffer(part26,prodloc1,-14).
demandOffer(part26,prodloc24,-26).
demandOffer(part27,prodloc27,53).
demandOffer(part27,prodloc2,27).
demandOffer(part27,prodloc33,-53).
demandOffer(part27,prodloc1,-27).
demandOffer(part28,prodloc14,20).
demandOffer(part28,prodloc27,20).
demandOffer(part28,prodloc2,-20).
demandOffer(part28,prodloc24,-20).
demandOffer(part3,prodloc13,40).
demandOffer(part3,prodloc6,-14).
demandOffer(part3,prodloc14,-26).
demandOffer(part30,prodloc11,40).
demandOffer(part30,prodloc4,40).
demandOffer(part30,prodloc17,-27).
demandOffer(part30,prodloc2,-53).
demandOffer(part31,prodloc27,7).
demandOffer(part31,prodloc17,7).
demandOffer(part31,prodloc31,-14).
demandOffer(part32,prodloc22,53).
demandOffer(part32,prodloc3,27).
demandOffer(part32,prodloc32,-53).
demandOffer(part32,prodloc29,-27).
demandOffer(part33,prodloc23,53).
demandOffer(part33,prodloc13,27).
demandOffer(part33,prodloc21,-53).
demandOffer(part33,prodloc18,-27).
demandOffer(part34,prodloc29,20).
demandOffer(part34,prodloc30,-20).
demandOffer(part4,prodloc30,26).
demandOffer(part4,prodloc15,-26).
demandOffer(part5,prodloc10,20).
demandOffer(part5,prodloc29,-20).
demandOffer(part6,prodloc23,27).
demandOffer(part6,prodloc11,53).
demandOffer(part6,prodloc12,-24).
demandOffer(part6,prodloc24,-36).
demandOffer(part6,prodloc33,-10).
demandOffer(part6,prodloc7,-10).
demandOffer(part8,prodloc0,3).
demandOffer(part8,prodloc17,17).
demandOffer(part8,prodloc21,-10).
demandOffer(part8,prodloc11,-10).
demandOffer(part9,prodloc15,20).
demandOffer(part9,prodloc0,-20).

% ---- network (ASP-generated) ----
route(harbor0,harbor1,tr13,16460,98760).
route(harbor0,harbor1,tr2,16460,49380).
route(harbor0,harbor2,tr13,1341,8046).
route(harbor0,harbor2,tr2,1341,4023).
route(harbor0,harbor3,tr13,8141,48846).
route(harbor0,harbor3,tr2,8141,24423).
route(harbor0,harbor4,tr13,20315,121890).
route(harbor0,harbor4,tr2,20315,60945).
route(harbor0,harbor5,tr13,3833,22998).
route(harbor0,harbor5,tr2,3833,11499).
route(harbor0,harbor6,tr13,11857,71142).
route(harbor0,harbor6,tr2,11857,35571).
route(harbor0,harbor7,tr13,17939,107634).
route(harbor0,harbor7,tr2,17939,53817).
route(harbor0,harbor8,tr13,16531,99186).
route(harbor0,harbor8,tr2,16531,49593).
route(harbor0,harbor9,tr13,5102,30612).
route(harbor0,harbor9,tr2,5102,15306).
route(harbor0,harbor10,tr13,813,4878).
route(harbor0,harbor10,tr2,813,2439).
route(harbor0,harbor11,tr13,10596,63576).
route(harbor0,harbor11,tr2,10596,31788).
route(harbor0,harbor12,tr13,28930,173580).
route(harbor0,harbor12,tr2,28930,86790).
route(harbor0,harbor13,tr13,25831,154986).
route(harbor0,harbor13,tr2,25831,77493).
route(harbor0,harbor14,tr13,21938,131628).
route(harbor0,harbor14,tr2,21938,65814).
route(harbor0,harbor15,tr13,27291,163746).
route(harbor0,harbor15,tr2,27291,81873).
route(harbor0,harbor16,tr13,9186,55116).
route(harbor0,harbor16,tr2,9186,27558).
route(harbor0,prodloc0,tr0,20954,544804).
route(harbor0,prodloc0,tr13,20954,125724).
route(harbor0,prodloc1,tr0,3872,100672).
route(harbor0,prodloc1,tr13,3872,23232).
route(harbor0,prodloc2,tr0,7522,195572).
route(harbor0,prodloc2,tr13,7522,45132).
route(harbor0,prodloc3,tr0,25697,668122).
route(harbor0,prodloc3,tr13,25697,154182).
route(harbor0,prodloc4,tr0,17278,449228).
route(harbor0,prodloc4,tr13,17278,103668).
route(harbor0,prodloc5,tr0,16458,427908).
route(harbor0,prodloc5,tr13,16458,98748).
route(harbor0,prodloc6,tr0,15645,406770).
route(harbor0,prodloc6,tr13,15645,93870).
route(harbor0,prodloc7,tr0,16050,417300).
route(harbor0,prodloc7,tr13,16050,96300).
route(harbor0,prodloc8,tr0,20547,534222).
route(harbor0,prodloc8,tr13,20547,123282).
route(harbor0,prodloc9,tr0,11593,301418).
route(harbor0,prodloc9,tr13,11593,69558).
route(harbor0,prodloc10,tr0,8609,223834).
route(harbor0,prodloc10,tr13,8609,51654).
route(harbor0,prodloc11,tr0,22432,583232).
route(harbor0,prodloc11,tr13,22432,134592).
route(harbor0,prodloc12,tr0,14578,379028).
route(harbor0,prodloc12,tr13,14578,87468).
route(harbor0,prodloc13,tr0,24211,629486).
route(harbor0,prodloc13,tr13,24211,145266).
route(harbor0,prodloc14,tr0,5315,138190).
route(harbor0,prodloc14,tr13,5315,31890).
route(harbor0,prodloc15,tr0,14708,382408).
route(harbor0,prodloc15,tr13,14708,88248).
route(harbor0,prodloc16,tr0,9548,248248).
route(harbor0,prodloc16,tr13,9548,57288).
route(harbor0,prodloc17,tr0,20216,525616).
route(harbor0,prodloc17,tr13,20216,121296).
route(harbor0,prodloc18,tr0,28614,743964).
route(harbor0,prodloc18,tr13,28614,171684).
route(harbor0,prodloc19,tr0,1509,39234).
route(harbor0,prodloc19,tr13,1509,9054).
route(harbor0,prodloc20,tr0,9121,237146).
route(harbor0,prodloc20,tr13,9121,54726).
route(harbor0,prodloc21,tr0,10815,281190).
route(harbor0,prodloc21,tr13,10815,64890).
route(harbor0,prodloc22,tr0,28253,734578).
route(harbor0,prodloc22,tr13,28253,169518).
route(harbor0,prodloc23,tr0,16883,438958).
route(harbor0,prodloc23,tr13,16883,101298).
route(harbor0,prodloc24,tr0,20981,545506).
route(harbor0,prodloc24,tr13,20981,125886).
route(harbor0,prodloc25,tr0,22807,592982).
route(harbor0,prodloc25,tr13,22807,136842).
route(harbor0,prodloc26,tr0,14586,379236).
route(harbor0,prodloc26,tr13,14586,87516).
route(harbor0,prodloc27,tr0,23093,600418).
route(harbor0,prodloc27,tr13,23093,138558).
route(harbor0,prodloc28,tr0,25957,674882).
route(harbor0,prodloc28,tr13,25957,155742).
route(harbor0,prodloc29,tr0,7016,182416).
route(harbor0,prodloc29,tr13,7016,42096).
route(harbor0,prodloc30,tr0,24053,625378).
route(harbor0,prodloc30,tr13,24053,144318).
route(harbor0,prodloc31,tr0,9341,242866).
route(harbor0,prodloc31,tr13,9341,56046).
route(harbor0,prodloc32,tr0,17073,443898).
route(harbor0,prodloc32,tr13,17073,102438).
route(harbor0,prodloc33,tr0,8355,217230).
route(harbor0,prodloc33,tr13,8355,50130).
route(harbor1,harbor0,tr13,964,5784).
route(harbor1,harbor0,tr2,964,2892).
route(harbor1,harbor2,tr13,22420,134520).
route(harbor1,harbor2,tr2,22420,67260).
route(harbor1,harbor3,tr13,150,900).
route(harbor1,harbor3,tr2,150,450).
route(harbor1,harbor4,tr13,22774,136644).
route(harbor1,harbor4,tr2,22774,68322).
route(harbor1,harbor5,tr13,923,5538).
route(harbor1,harbor5,tr2,923,2769).
route(harbor1,harbor6,tr13,4346,26076).
route(harbor1,harbor6,tr2,4346,13038).
route(harbor1,harbor7,tr13,18315,109890).
route(harbor1,harbor7,tr2,18315,54945).
route(harbor1,harbor8,tr13,29076,174456).
route(harbor1,harbor8,tr2,29076,87228).
route(harbor1,harbor9,tr13,8740,52440).
route(harbor1,harbor9,tr2,8740,26220).
route(harbor1,harbor10,tr13,13803,82818).
route(harbor1,harbor10,tr2,13803,41409).
route(harbor1,harbor11,tr13,4564,27384).
route(harbor1,harbor11,tr2,4564,13692).
route(harbor1,harbor12,tr13,7934,47604).
route(harbor1,harbor12,tr2,7934,23802).
route(harbor1,harbor13,tr13,6592,39552).
route(harbor1,harbor13,tr2,6592,19776).
route(harbor1,harbor14,tr13,14293,85758).
route(harbor1,harbor14,tr2,14293,42879).
route(harbor1,harbor15,tr13,15488,92928).
route(harbor1,harbor15,tr2,15488,46464).
route(harbor1,harbor16,tr13,1956,11736).
route(harbor1,harbor16,tr2,1956,5868).
route(harbor1,prodloc0,tr0,18349,477074).
route(harbor1,prodloc0,tr13,18349,110094).
route(harbor1,prodloc1,tr0,18686,485836).
route(harbor1,prodloc1,tr13,18686,112116).
route(harbor1,prodloc2,tr0,20473,532298).
route(harbor1,prodloc2,tr13,20473,122838).
route(harbor1,prodloc3,tr0,23555,612430).
route(harbor1,prodloc3,tr13,23555,141330).
route(harbor1,prodloc4,tr0,8453,219778).
route(harbor1,prodloc4,tr13,8453,50718).
route(harbor1,prodloc5,tr0,24919,647894).
route(harbor1,prodloc5,tr13,24919,149514).
route(harbor1,prodloc6,tr0,1286,33436).
route(harbor1,prodloc6,tr13,1286,7716).
route(harbor1,prodloc7,tr0,13687,355862).
route(harbor1,prodloc7,tr13,13687,82122).
route(harbor1,prodloc8,tr0,14130,367380).
route(harbor1,prodloc8,tr13,14130,84780).
route(harbor1,prodloc9,tr0,19283,501358).
route(harbor1,prodloc9,tr13,19283,115698).
route(harbor1,prodloc10,tr0,3045,79170).
route(harbor1,prodloc10,tr13,3045,18270).
route(harbor1,prodloc11,tr0,13264,344864).
route(harbor1,prodloc11,tr13,13264,79584).
route(harbor1,prodloc12,tr0,25863,672438).
route(harbor1,prodloc12,tr13,25863,155178).
route(harbor1,prodloc13,tr0,6522,169572).
route(harbor1,prodloc13,tr13,6522,39132).
route(harbor1,prodloc14,tr0,19012,494312).
route(harbor1,prodloc14,tr13,19012,114072).
route(harbor1,prodloc15,tr0,18251,474526).
route(harbor1,prodloc15,tr13,18251,109506).
route(harbor1,prodloc16,tr0,11388,296088).
route(harbor1,prodloc16,tr13,11388,68328).
route(harbor1,prodloc17,tr0,12076,313976).
route(harbor1,prodloc17,tr13,12076,72456).
route(harbor1,prodloc18,tr0,20910,543660).
route(harbor1,prodloc18,tr13,20910,125460).
route(harbor1,prodloc19,tr0,24113,626938).
route(harbor1,prodloc19,tr13,24113,144678).
route(harbor1,prodloc20,tr0,12618,328068).
route(harbor1,prodloc20,tr13,12618,75708).
route(harbor1,prodloc21,tr0,18461,479986).
route(harbor1,prodloc21,tr13,18461,110766).
route(harbor1,prodloc22,tr0,5275,137150).
route(harbor1,prodloc22,tr13,5275,31650).
route(harbor1,prodloc23,tr0,562,14612).
route(harbor1,prodloc23,tr13,562,3372).
route(harbor1,prodloc24,tr0,22572,586872).
route(harbor1,prodloc24,tr13,22572,135432).
route(harbor1,prodloc25,tr0,23271,605046).
route(harbor1,prodloc25,tr13,23271,139626).
route(harbor1,prodloc26,tr0,5094,132444).
route(harbor1,prodloc26,tr13,5094,30564).
route(harbor1,prodloc27,tr0,1014,26364).
route(harbor1,prodloc27,tr13,1014,6084).
route(harbor1,prodloc28,tr0,26142,679692).
route(harbor1,prodloc28,tr13,26142,156852).
route(harbor1,prodloc29,tr0,1244,32344).
route(harbor1,prodloc29,tr13,1244,7464).
route(harbor1,prodloc30,tr0,2393,62218).
route(harbor1,prodloc30,tr13,2393,14358).
route(harbor1,prodloc31,tr0,13616,354016).
route(harbor1,prodloc31,tr13,13616,81696).
route(harbor1,prodloc32,tr0,17530,455780).
route(harbor1,prodloc32,tr13,17530,105180).
route(harbor1,prodloc33,tr0,6561,170586).
route(harbor1,prodloc33,tr13,6561,39366).
route(harbor2,harbor0,tr13,25887,155322).
route(harbor2,harbor0,tr2,25887,77661).
route(harbor2,harbor1,tr13,12464,74784).
route(harbor2,harbor1,tr2,12464,37392).
route(harbor2,harbor3,tr13,25995,155970).
route(harbor2,harbor3,tr2,25995,77985).
route(harbor2,harbor4,tr13,3250,19500).
route(harbor2,harbor4,tr2,3250,9750).
route(harbor2,harbor5,tr13,23304,139824).
route(harbor2,harbor5,tr2,23304,69912).
route(harbor2,harbor6,tr13,11602,69612).
route(harbor2,harbor6,tr2,11602,34806).
route(harbor2,harbor7,tr13,6221,37326).
route(harbor2,harbor7,tr2,6221,18663).
route(harbor2,harbor8,tr13,10257,61542).
route(harbor2,harbor8,tr2,10257,30771).
route(harbor2,harbor9,tr13,8900,53400).
route(harbor2,harbor9,tr2,8900,26700).
route(harbor2,harbor10,tr13,26014,156084).
route(harbor2,harbor10,tr2,26014,78042).
route(harbor2,harbor11,tr13,22610,135660).
route(harbor2,harbor11,tr2,22610,67830).
route(harbor2,harbor12,tr13,22527,135162).
route(harbor2,harbor12,tr2,22527,67581).
route(harbor2,harbor13,tr13,17777,106662).
route(harbor2,harbor13,tr2,17777,53331).
route(harbor2,harbor14,tr13,16142,96852).
route(harbor2,harbor14,tr2,16142,48426).
route(harbor2,harbor15,tr13,20415,122490).
route(harbor2,harbor15,tr2,20415,61245).
route(harbor2,harbor16,tr13,20055,120330).
route(harbor2,harbor16,tr2,20055,60165).
route(harbor2,prodloc0,tr0,4088,106288).
route(harbor2,prodloc0,tr13,4088,24528).
route(harbor2,prodloc1,tr0,6946,180596).
route(harbor2,prodloc1,tr13,6946,41676).
route(harbor2,prodloc2,tr0,17508,455208).
route(harbor2,prodloc2,tr13,17508,105048).
route(harbor2,prodloc3,tr0,19630,510380).
route(harbor2,prodloc3,tr13,19630,117780).
route(harbor2,prodloc4,tr0,22959,596934).
route(harbor2,prodloc4,tr13,22959,137754).
route(harbor2,prodloc5,tr0,22255,578630).
route(harbor2,prodloc5,tr13,22255,133530).
route(harbor2,prodloc6,tr0,12917,335842).
route(harbor2,prodloc6,tr13,12917,77502).
route(harbor2,prodloc7,tr0,19029,494754).
route(harbor2,prodloc7,tr13,19029,114174).
route(harbor2,prodloc8,tr0,8055,209430).
route(harbor2,prodloc8,tr13,8055,48330).
route(harbor2,prodloc9,tr0,2352,61152).
route(harbor2,prodloc9,tr13,2352,14112).
route(harbor2,prodloc10,tr0,13334,346684).
route(harbor2,prodloc10,tr13,13334,80004).
route(harbor2,prodloc11,tr0,11659,303134).
route(harbor2,prodloc11,tr13,11659,69954).
route(harbor2,prodloc12,tr0,10605,275730).
route(harbor2,prodloc12,tr13,10605,63630).
route(harbor2,prodloc13,tr0,2700,70200).
route(harbor2,prodloc13,tr13,2700,16200).
route(harbor2,prodloc14,tr0,22457,583882).
route(harbor2,prodloc14,tr13,22457,134742).
route(harbor2,prodloc15,tr0,10896,283296).
route(harbor2,prodloc15,tr13,10896,65376).
route(harbor2,prodloc16,tr0,4648,120848).
route(harbor2,prodloc16,tr13,4648,27888).
route(harbor2,prodloc17,tr0,22498,584948).
route(harbor2,prodloc17,tr13,22498,134988).
route(harbor2,prodloc18,tr0,2968,77168).
route(harbor2,prodloc18,tr13,2968,17808).
route(harbor2,prodloc19,tr0,23618,614068).
route(harbor2,prodloc19,tr13,23618,141708).
route(harbor2,prodloc20,tr0,10241,266266).
route(harbor2,prodloc20,tr13,10241,61446).
route(harbor2,prodloc21,tr0,10179,264654).
route(harbor2,prodloc21,tr13,10179,61074).
route(harbor2,prodloc22,tr0,22801,592826).
route(harbor2,prodloc22,tr13,22801,136806).
route(harbor2,prodloc23,tr0,5890,153140).
route(harbor2,prodloc23,tr13,5890,35340).
route(harbor2,prodloc24,tr0,24893,647218).
route(harbor2,prodloc24,tr13,24893,149358).
route(harbor2,prodloc25,tr0,22232,578032).
route(harbor2,prodloc25,tr13,22232,133392).
route(harbor2,prodloc26,tr0,21608,561808).
route(harbor2,prodloc26,tr13,21608,129648).
route(harbor2,prodloc27,tr0,20879,542854).
route(harbor2,prodloc27,tr13,20879,125274).
route(harbor2,prodloc28,tr0,14289,371514).
route(harbor2,prodloc28,tr13,14289,85734).
route(harbor2,prodloc29,tr0,11982,311532).
route(harbor2,prodloc29,tr13,11982,71892).
route(harbor2,prodloc30,tr0,5762,149812).
route(harbor2,prodloc30,tr13,5762,34572).
route(harbor2,prodloc31,tr0,976,25376).
route(harbor2,prodloc31,tr13,976,5856).
route(harbor2,prodloc32,tr0,6855,178230).
route(harbor2,prodloc32,tr13,6855,41130).
route(harbor2,prodloc33,tr0,15986,415636).
route(harbor2,prodloc33,tr13,15986,95916).
route(harbor3,harbor0,tr13,20444,122664).
route(harbor3,harbor0,tr2,20444,61332).
route(harbor3,harbor1,tr13,14568,87408).
route(harbor3,harbor1,tr2,14568,43704).
route(harbor3,harbor2,tr13,15934,95604).
route(harbor3,harbor2,tr2,15934,47802).
route(harbor3,harbor4,tr13,5907,35442).
route(harbor3,harbor4,tr2,5907,17721).
route(harbor3,harbor5,tr13,1886,11316).
route(harbor3,harbor5,tr2,1886,5658).
route(harbor3,harbor6,tr13,21899,131394).
route(harbor3,harbor6,tr2,21899,65697).
route(harbor3,harbor7,tr13,19501,117006).
route(harbor3,harbor7,tr2,19501,58503).
route(harbor3,harbor8,tr13,11212,67272).
route(harbor3,harbor8,tr2,11212,33636).
route(harbor3,harbor9,tr13,15003,90018).
route(harbor3,harbor9,tr2,15003,45009).
route(harbor3,harbor10,tr13,7840,47040).
route(harbor3,harbor10,tr2,7840,23520).
route(harbor3,harbor11,tr13,29006,174036).
route(harbor3,harbor11,tr2,29006,87018).
route(harbor3,harbor12,tr13,10759,64554).
route(harbor3,harbor12,tr2,10759,32277).
route(harbor3,harbor13,tr13,3204,19224).
route(harbor3,harbor13,tr2,3204,9612).
route(harbor3,harbor14,tr13,7380,44280).
route(harbor3,harbor14,tr2,7380,22140).
route(harbor3,harbor15,tr13,283,1698).
route(harbor3,harbor15,tr2,283,849).
route(harbor3,harbor16,tr13,11836,71016).
route(harbor3,harbor16,tr2,11836,35508).
route(harbor3,prodloc0,tr0,12010,312260).
route(harbor3,prodloc0,tr13,12010,72060).
route(harbor3,prodloc1,tr0,9166,238316).
route(harbor3,prodloc1,tr13,9166,54996).
route(harbor3,prodloc2,tr0,27814,723164).
route(harbor3,prodloc2,tr13,27814,166884).
route(harbor3,prodloc3,tr0,6599,171574).
route(harbor3,prodloc3,tr13,6599,39594).
route(harbor3,prodloc4,tr0,22561,586586).
route(harbor3,prodloc4,tr13,22561,135366).
route(harbor3,prodloc5,tr0,14172,368472).
route(harbor3,prodloc5,tr13,14172,85032).
route(harbor3,prodloc6,tr0,9703,252278).
route(harbor3,prodloc6,tr13,9703,58218).
route(harbor3,prodloc7,tr0,7223,187798).
route(harbor3,prodloc7,tr13,7223,43338).
route(harbor3,prodloc8,tr0,16923,439998).
route(harbor3,prodloc8,tr13,16923,101538).
route(harbor3,prodloc9,tr0,4808,125008).
route(harbor3,prodloc9,tr13,4808,28848).
route(harbor3,prodloc10,tr0,16419,426894).
route(harbor3,prodloc10,tr13,16419,98514).
route(harbor3,prodloc11,tr0,22877,594802).
route(harbor3,prodloc11,tr13,22877,137262).
route(harbor3,prodloc12,tr0,10897,283322).
route(harbor3,prodloc12,tr13,10897,65382).
route(harbor3,prodloc13,tr0,5321,138346).
route(harbor3,prodloc13,tr13,5321,31926).
route(harbor3,prodloc14,tr0,16409,426634).
route(harbor3,prodloc14,tr13,16409,98454).
route(harbor3,prodloc15,tr0,15227,395902).
route(harbor3,prodloc15,tr13,15227,91362).
route(harbor3,prodloc16,tr0,12743,331318).
route(harbor3,prodloc16,tr13,12743,76458).
route(harbor3,prodloc17,tr0,19876,516776).
route(harbor3,prodloc17,tr13,19876,119256).
route(harbor3,prodloc18,tr0,16415,426790).
route(harbor3,prodloc18,tr13,16415,98490).
route(harbor3,prodloc19,tr0,27621,718146).
route(harbor3,prodloc19,tr13,27621,165726).
route(harbor3,prodloc20,tr0,23136,601536).
route(harbor3,prodloc20,tr13,23136,138816).
route(harbor3,prodloc21,tr0,8189,212914).
route(harbor3,prodloc21,tr13,8189,49134).
route(harbor3,prodloc22,tr0,15080,392080).
route(harbor3,prodloc22,tr13,15080,90480).
route(harbor3,prodloc23,tr0,15063,391638).
route(harbor3,prodloc23,tr13,15063,90378).
route(harbor3,prodloc24,tr0,25739,669214).
route(harbor3,prodloc24,tr13,25739,154434).
route(harbor3,prodloc25,tr0,28012,728312).
route(harbor3,prodloc25,tr13,28012,168072).
route(harbor3,prodloc26,tr0,1615,41990).
route(harbor3,prodloc26,tr13,1615,9690).
route(harbor3,prodloc27,tr0,27254,708604).
route(harbor3,prodloc27,tr13,27254,163524).
route(harbor3,prodloc28,tr0,25308,658008).
route(harbor3,prodloc28,tr13,25308,151848).
route(harbor3,prodloc29,tr0,7456,193856).
route(harbor3,prodloc29,tr13,7456,44736).
route(harbor3,prodloc30,tr0,13356,347256).
route(harbor3,prodloc30,tr13,13356,80136).
route(harbor3,prodloc31,tr0,17630,458380).
route(harbor3,prodloc31,tr13,17630,105780).
route(harbor3,prodloc32,tr0,22902,595452).
route(harbor3,prodloc32,tr13,22902,137412).
route(harbor3,prodloc33,tr0,24948,648648).
route(harbor3,prodloc33,tr13,24948,149688).
route(harbor4,harbor0,tr13,25978,155868).
route(harbor4,harbor0,tr2,25978,77934).
route(harbor4,harbor1,tr13,12982,77892).
route(harbor4,harbor1,tr2,12982,38946).
route(harbor4,harbor2,tr13,17115,102690).
route(harbor4,harbor2,tr2,17115,51345).
route(harbor4,harbor3,tr13,22095,132570).
route(harbor4,harbor3,tr2,22095,66285).
route(harbor4,harbor5,tr13,14445,86670).
route(harbor4,harbor5,tr2,14445,43335).
route(harbor4,harbor6,tr13,21764,130584).
route(harbor4,harbor6,tr2,21764,65292).
route(harbor4,harbor7,tr13,1742,10452).
route(harbor4,harbor7,tr2,1742,5226).
route(harbor4,harbor8,tr13,3513,21078).
route(harbor4,harbor8,tr2,3513,10539).
route(harbor4,harbor9,tr13,18179,109074).
route(harbor4,harbor9,tr2,18179,54537).
route(harbor4,harbor10,tr13,18721,112326).
route(harbor4,harbor10,tr2,18721,56163).
route(harbor4,harbor11,tr13,22337,134022).
route(harbor4,harbor11,tr2,22337,67011).
route(harbor4,harbor12,tr13,10255,61530).
route(harbor4,harbor12,tr2,10255,30765).
route(harbor4,harbor13,tr13,11506,69036).
route(harbor4,harbor13,tr2,11506,34518).
route(harbor4,harbor14,tr13,24998,149988).
route(harbor4,harbor14,tr2,24998,74994).
route(harbor4,harbor15,tr13,24024,144144).
route(harbor4,harbor15,tr2,24024,72072).
route(harbor4,harbor16,tr13,587,3522).
route(harbor4,harbor16,tr2,587,1761).
route(harbor4,prodloc0,tr0,10561,274586).
route(harbor4,prodloc0,tr13,10561,63366).
route(harbor4,prodloc1,tr0,25399,660374).
route(harbor4,prodloc1,tr13,25399,152394).
route(harbor4,prodloc2,tr0,16382,425932).
route(harbor4,prodloc2,tr13,16382,98292).
route(harbor4,prodloc3,tr0,11826,307476).
route(harbor4,prodloc3,tr13,11826,70956).
route(harbor4,prodloc4,tr0,20728,538928).
route(harbor4,prodloc4,tr13,20728,124368).
route(harbor4,prodloc5,tr0,10068,261768).
route(harbor4,prodloc5,tr13,10068,60408).
route(harbor4,prodloc6,tr0,5584,145184).
route(harbor4,prodloc6,tr13,5584,33504).
route(harbor4,prodloc7,tr0,4455,115830).
route(harbor4,prodloc7,tr13,4455,26730).
route(harbor4,prodloc8,tr0,15634,406484).
route(harbor4,prodloc8,tr13,15634,93804).
route(harbor4,prodloc9,tr0,7396,192296).
route(harbor4,prodloc9,tr13,7396,44376).
route(harbor4,prodloc10,tr0,26245,682370).
route(harbor4,prodloc10,tr13,26245,157470).
route(harbor4,prodloc11,tr0,17837,463762).
route(harbor4,prodloc11,tr13,17837,107022).
route(harbor4,prodloc12,tr0,4409,114634).
route(harbor4,prodloc12,tr13,4409,26454).
route(harbor4,prodloc13,tr0,8254,214604).
route(harbor4,prodloc13,tr13,8254,49524).
route(harbor4,prodloc14,tr0,16209,421434).
route(harbor4,prodloc14,tr13,16209,97254).
route(harbor4,prodloc15,tr0,1506,39156).
route(harbor4,prodloc15,tr13,1506,9036).
route(harbor4,prodloc16,tr0,14062,365612).
route(harbor4,prodloc16,tr13,14062,84372).
route(harbor4,prodloc17,tr0,26334,684684).
route(harbor4,prodloc17,tr13,26334,158004).
route(harbor4,prodloc18,tr0,11955,310830).
route(harbor4,prodloc18,tr13,11955,71730).
route(harbor4,prodloc19,tr0,9361,243386).
route(harbor4,prodloc19,tr13,9361,56166).
route(harbor4,prodloc20,tr0,13388,348088).
route(harbor4,prodloc20,tr13,13388,80328).
route(harbor4,prodloc21,tr0,20563,534638).
route(harbor4,prodloc21,tr13,20563,123378).
route(harbor4,prodloc22,tr0,19623,510198).
route(harbor4,prodloc22,tr13,19623,117738).
route(harbor4,prodloc23,tr0,9268,240968).
route(harbor4,prodloc23,tr13,9268,55608).
route(harbor4,prodloc24,tr0,12751,331526).
route(harbor4,prodloc24,tr13,12751,76506).
route(harbor4,prodloc25,tr0,26639,692614).
route(harbor4,prodloc25,tr13,26639,159834).
route(harbor4,prodloc26,tr0,28611,743886).
route(harbor4,prodloc26,tr13,28611,171666).
route(harbor4,prodloc27,tr0,25869,672594).
route(harbor4,prodloc27,tr13,25869,155214).
route(harbor4,prodloc28,tr0,19898,517348).
route(harbor4,prodloc28,tr13,19898,119388).
route(harbor4,prodloc29,tr0,10519,273494).
route(harbor4,prodloc29,tr13,10519,63114).
route(harbor4,prodloc30,tr0,4858,126308).
route(harbor4,prodloc30,tr13,4858,29148).
route(harbor4,prodloc31,tr0,4125,107250).
route(harbor4,prodloc31,tr13,4125,24750).
route(harbor4,prodloc32,tr0,8498,220948).
route(harbor4,prodloc32,tr13,8498,50988).
route(harbor4,prodloc33,tr0,21004,546104).
route(harbor4,prodloc33,tr13,21004,126024).
route(harbor5,harbor0,tr13,1097,6582).
route(harbor5,harbor0,tr2,1097,3291).
route(harbor5,harbor1,tr13,27643,165858).
route(harbor5,harbor1,tr2,27643,82929).
route(harbor5,harbor2,tr13,21598,129588).
route(harbor5,harbor2,tr2,21598,64794).
route(harbor5,harbor3,tr13,19969,119814).
route(harbor5,harbor3,tr2,19969,59907).
route(harbor5,harbor4,tr13,26116,156696).
route(harbor5,harbor4,tr2,26116,78348).
route(harbor5,harbor6,tr13,25731,154386).
route(harbor5,harbor6,tr2,25731,77193).
route(harbor5,harbor7,tr13,12430,74580).
route(harbor5,harbor7,tr2,12430,37290).
route(harbor5,harbor8,tr13,13544,81264).
route(harbor5,harbor8,tr2,13544,40632).
route(harbor5,harbor9,tr13,13918,83508).
route(harbor5,harbor9,tr2,13918,41754).
route(harbor5,harbor10,tr13,20274,121644).
route(harbor5,harbor10,tr2,20274,60822).
route(harbor5,harbor11,tr13,21607,129642).
route(harbor5,harbor11,tr2,21607,64821).
route(harbor5,harbor12,tr13,8654,51924).
route(harbor5,harbor12,tr2,8654,25962).
route(harbor5,harbor13,tr13,11165,66990).
route(harbor5,harbor13,tr2,11165,33495).
route(harbor5,harbor14,tr13,13363,80178).
route(harbor5,harbor14,tr2,13363,40089).
route(harbor5,harbor15,tr13,25217,151302).
route(harbor5,harbor15,tr2,25217,75651).
route(harbor5,harbor16,tr13,12471,74826).
route(harbor5,harbor16,tr2,12471,37413).
route(harbor5,prodloc0,tr0,16138,419588).
route(harbor5,prodloc0,tr13,16138,96828).
route(harbor5,prodloc1,tr0,12606,327756).
route(harbor5,prodloc1,tr13,12606,75636).
route(harbor5,prodloc2,tr0,13094,340444).
route(harbor5,prodloc2,tr13,13094,78564).
route(harbor5,prodloc3,tr0,26698,694148).
route(harbor5,prodloc3,tr13,26698,160188).
route(harbor5,prodloc4,tr0,26451,687726).
route(harbor5,prodloc4,tr13,26451,158706).
route(harbor5,prodloc5,tr0,5988,155688).
route(harbor5,prodloc5,tr13,5988,35928).
route(harbor5,prodloc6,tr0,5566,144716).
route(harbor5,prodloc6,tr13,5566,33396).
route(harbor5,prodloc7,tr0,25848,672048).
route(harbor5,prodloc7,tr13,25848,155088).
route(harbor5,prodloc8,tr0,6722,174772).
route(harbor5,prodloc8,tr13,6722,40332).
route(harbor5,prodloc9,tr0,27387,712062).
route(harbor5,prodloc9,tr13,27387,164322).
route(harbor5,prodloc10,tr0,8347,217022).
route(harbor5,prodloc10,tr13,8347,50082).
route(harbor5,prodloc11,tr0,3595,93470).
route(harbor5,prodloc11,tr13,3595,21570).
route(harbor5,prodloc12,tr0,8780,228280).
route(harbor5,prodloc12,tr13,8780,52680).
route(harbor5,prodloc13,tr0,17131,445406).
route(harbor5,prodloc13,tr13,17131,102786).
route(harbor5,prodloc14,tr0,1736,45136).
route(harbor5,prodloc14,tr13,1736,10416).
route(harbor5,prodloc15,tr0,28457,739882).
route(harbor5,prodloc15,tr13,28457,170742).
route(harbor5,prodloc16,tr0,27376,711776).
route(harbor5,prodloc16,tr13,27376,164256).
route(harbor5,prodloc17,tr0,21399,556374).
route(harbor5,prodloc17,tr13,21399,128394).
route(harbor5,prodloc18,tr0,28625,744250).
route(harbor5,prodloc18,tr13,28625,171750).
route(harbor5,prodloc19,tr0,24314,632164).
route(harbor5,prodloc19,tr13,24314,145884).
route(harbor5,prodloc20,tr0,26909,699634).
route(harbor5,prodloc20,tr13,26909,161454).
route(harbor5,prodloc21,tr0,23444,609544).
route(harbor5,prodloc21,tr13,23444,140664).
route(harbor5,prodloc22,tr0,11758,305708).
route(harbor5,prodloc22,tr13,11758,70548).
route(harbor5,prodloc23,tr0,24074,625924).
route(harbor5,prodloc23,tr13,24074,144444).
route(harbor5,prodloc24,tr0,10012,260312).
route(harbor5,prodloc24,tr13,10012,60072).
route(harbor5,prodloc25,tr0,25259,656734).
route(harbor5,prodloc25,tr13,25259,151554).
route(harbor5,prodloc26,tr0,4500,117000).
route(harbor5,prodloc26,tr13,4500,27000).
route(harbor5,prodloc27,tr0,28148,731848).
route(harbor5,prodloc27,tr13,28148,168888).
route(harbor5,prodloc28,tr0,28355,737230).
route(harbor5,prodloc28,tr13,28355,170130).
route(harbor5,prodloc29,tr0,10194,265044).
route(harbor5,prodloc29,tr13,10194,61164).
route(harbor5,prodloc30,tr0,27298,709748).
route(harbor5,prodloc30,tr13,27298,163788).
route(harbor5,prodloc31,tr0,28597,743522).
route(harbor5,prodloc31,tr13,28597,171582).
route(harbor5,prodloc32,tr0,6922,179972).
route(harbor5,prodloc32,tr13,6922,41532).
route(harbor5,prodloc33,tr0,24545,638170).
route(harbor5,prodloc33,tr13,24545,147270).
route(harbor6,harbor0,tr13,28859,173154).
route(harbor6,harbor0,tr2,28859,86577).
route(harbor6,harbor1,tr13,28195,169170).
route(harbor6,harbor1,tr2,28195,84585).
route(harbor6,harbor2,tr13,835,5010).
route(harbor6,harbor2,tr2,835,2505).
route(harbor6,harbor3,tr13,18236,109416).
route(harbor6,harbor3,tr2,18236,54708).
route(harbor6,harbor4,tr13,10136,60816).
route(harbor6,harbor4,tr2,10136,30408).
route(harbor6,harbor5,tr13,1424,8544).
route(harbor6,harbor5,tr2,1424,4272).
route(harbor6,harbor7,tr13,454,2724).
route(harbor6,harbor7,tr2,454,1362).
route(harbor6,harbor8,tr13,26581,159486).
route(harbor6,harbor8,tr2,26581,79743).
route(harbor6,harbor9,tr13,5634,33804).
route(harbor6,harbor9,tr2,5634,16902).
route(harbor6,harbor10,tr13,6433,38598).
route(harbor6,harbor10,tr2,6433,19299).
route(harbor6,harbor11,tr13,5379,32274).
route(harbor6,harbor11,tr2,5379,16137).
route(harbor6,harbor12,tr13,6481,38886).
route(harbor6,harbor12,tr2,6481,19443).
route(harbor6,harbor13,tr13,23486,140916).
route(harbor6,harbor13,tr2,23486,70458).
route(harbor6,harbor14,tr13,26527,159162).
route(harbor6,harbor14,tr2,26527,79581).
route(harbor6,harbor15,tr13,9748,58488).
route(harbor6,harbor15,tr2,9748,29244).
route(harbor6,harbor16,tr13,6257,37542).
route(harbor6,harbor16,tr2,6257,18771).
route(harbor6,prodloc0,tr0,6033,156858).
route(harbor6,prodloc0,tr13,6033,36198).
route(harbor6,prodloc1,tr0,25347,659022).
route(harbor6,prodloc1,tr13,25347,152082).
route(harbor6,prodloc2,tr0,10224,265824).
route(harbor6,prodloc2,tr13,10224,61344).
route(harbor6,prodloc3,tr0,17898,465348).
route(harbor6,prodloc3,tr13,17898,107388).
route(harbor6,prodloc4,tr0,28253,734578).
route(harbor6,prodloc4,tr13,28253,169518).
route(harbor6,prodloc5,tr0,713,18538).
route(harbor6,prodloc5,tr13,713,4278).
route(harbor6,prodloc6,tr0,19887,517062).
route(harbor6,prodloc6,tr13,19887,119322).
route(harbor6,prodloc7,tr0,3355,87230).
route(harbor6,prodloc7,tr13,3355,20130).
route(harbor6,prodloc8,tr0,11950,310700).
route(harbor6,prodloc8,tr13,11950,71700).
route(harbor6,prodloc9,tr0,22447,583622).
route(harbor6,prodloc9,tr13,22447,134682).
route(harbor6,prodloc10,tr0,16328,424528).
route(harbor6,prodloc10,tr13,16328,97968).
route(harbor6,prodloc11,tr0,17573,456898).
route(harbor6,prodloc11,tr13,17573,105438).
route(harbor6,prodloc12,tr0,6563,170638).
route(harbor6,prodloc12,tr13,6563,39378).
route(harbor6,prodloc13,tr0,14696,382096).
route(harbor6,prodloc13,tr13,14696,88176).
route(harbor6,prodloc14,tr0,3217,83642).
route(harbor6,prodloc14,tr13,3217,19302).
route(harbor6,prodloc15,tr0,17289,449514).
route(harbor6,prodloc15,tr13,17289,103734).
route(harbor6,prodloc16,tr0,205,5330).
route(harbor6,prodloc16,tr13,205,1230).
route(harbor6,prodloc17,tr0,21350,555100).
route(harbor6,prodloc17,tr13,21350,128100).
route(harbor6,prodloc18,tr0,4151,107926).
route(harbor6,prodloc18,tr13,4151,24906).
route(harbor6,prodloc19,tr0,26239,682214).
route(harbor6,prodloc19,tr13,26239,157434).
route(harbor6,prodloc20,tr0,12871,334646).
route(harbor6,prodloc20,tr13,12871,77226).
route(harbor6,prodloc21,tr0,16559,430534).
route(harbor6,prodloc21,tr13,16559,99354).
route(harbor6,prodloc22,tr0,15939,414414).
route(harbor6,prodloc22,tr13,15939,95634).
route(harbor6,prodloc23,tr0,20827,541502).
route(harbor6,prodloc23,tr13,20827,124962).
route(harbor6,prodloc24,tr0,9616,250016).
route(harbor6,prodloc24,tr13,9616,57696).
route(harbor6,prodloc25,tr0,15314,398164).
route(harbor6,prodloc25,tr13,15314,91884).
route(harbor6,prodloc26,tr0,11664,303264).
route(harbor6,prodloc26,tr13,11664,69984).
route(harbor6,prodloc27,tr0,20779,540254).
route(harbor6,prodloc27,tr13,20779,124674).
route(harbor6,prodloc28,tr0,27539,716014).
route(harbor6,prodloc28,tr13,27539,165234).
route(harbor6,prodloc29,tr0,12731,331006).
route(harbor6,prodloc29,tr13,12731,76386).
route(harbor6,prodloc30,tr0,27947,726622).
route(harbor6,prodloc30,tr13,27947,167682).
route(harbor6,prodloc31,tr0,13596,353496).
route(harbor6,prodloc31,tr13,13596,81576).
route(harbor6,prodloc32,tr0,16931,440206).
route(harbor6,prodloc32,tr13,16931,101586).
route(harbor6,prodloc33,tr0,925,24050).
route(harbor6,prodloc33,tr13,925,5550).
route(harbor7,harbor0,tr13,23459,140754).
route(harbor7,harbor0,tr2,23459,70377).
route(harbor7,harbor1,tr13,27716,166296).
route(harbor7,harbor1,tr2,27716,83148).
route(harbor7,harbor2,tr13,9156,54936).
route(harbor7,harbor2,tr2,9156,27468).
route(harbor7,harbor3,tr13,702,4212).
route(harbor7,harbor3,tr2,702,2106).
route(harbor7,harbor4,tr13,5110,30660).
route(harbor7,harbor4,tr2,5110,15330).
route(harbor7,harbor5,tr13,16136,96816).
route(harbor7,harbor5,tr2,16136,48408).
route(harbor7,harbor6,tr13,24839,149034).
route(harbor7,harbor6,tr2,24839,74517).
route(harbor7,harbor8,tr13,28063,168378).
route(harbor7,harbor8,tr2,28063,84189).
route(harbor7,harbor9,tr13,12037,72222).
route(harbor7,harbor9,tr2,12037,36111).
route(harbor7,harbor10,tr13,22652,135912).
route(harbor7,harbor10,tr2,22652,67956).
route(harbor7,harbor11,tr13,3406,20436).
route(harbor7,harbor11,tr2,3406,10218).
route(harbor7,harbor12,tr13,27662,165972).
route(harbor7,harbor12,tr2,27662,82986).
route(harbor7,harbor13,tr13,22392,134352).
route(harbor7,harbor13,tr2,22392,67176).
route(harbor7,harbor14,tr13,26119,156714).
route(harbor7,harbor14,tr2,26119,78357).
route(harbor7,harbor15,tr13,14016,84096).
route(harbor7,harbor15,tr2,14016,42048).
route(harbor7,harbor16,tr13,18012,108072).
route(harbor7,harbor16,tr2,18012,54036).
route(harbor7,prodloc0,tr0,13301,345826).
route(harbor7,prodloc0,tr13,13301,79806).
route(harbor7,prodloc1,tr0,19914,517764).
route(harbor7,prodloc1,tr13,19914,119484).
route(harbor7,prodloc2,tr0,12289,319514).
route(harbor7,prodloc2,tr13,12289,73734).
route(harbor7,prodloc3,tr0,24704,642304).
route(harbor7,prodloc3,tr13,24704,148224).
route(harbor7,prodloc4,tr0,2354,61204).
route(harbor7,prodloc4,tr13,2354,14124).
route(harbor7,prodloc5,tr0,27495,714870).
route(harbor7,prodloc5,tr13,27495,164970).
route(harbor7,prodloc6,tr0,4239,110214).
route(harbor7,prodloc6,tr13,4239,25434).
route(harbor7,prodloc7,tr0,11418,296868).
route(harbor7,prodloc7,tr13,11418,68508).
route(harbor7,prodloc8,tr0,2046,53196).
route(harbor7,prodloc8,tr13,2046,12276).
route(harbor7,prodloc9,tr0,7594,197444).
route(harbor7,prodloc9,tr13,7594,45564).
route(harbor7,prodloc10,tr0,3545,92170).
route(harbor7,prodloc10,tr13,3545,21270).
route(harbor7,prodloc11,tr0,13864,360464).
route(harbor7,prodloc11,tr13,13864,83184).
route(harbor7,prodloc12,tr0,2762,71812).
route(harbor7,prodloc12,tr13,2762,16572).
route(harbor7,prodloc13,tr0,26408,686608).
route(harbor7,prodloc13,tr13,26408,158448).
route(harbor7,prodloc14,tr0,1851,48126).
route(harbor7,prodloc14,tr13,1851,11106).
route(harbor7,prodloc15,tr0,27425,713050).
route(harbor7,prodloc15,tr13,27425,164550).
route(harbor7,prodloc16,tr0,277,7202).
route(harbor7,prodloc16,tr13,277,1662).
route(harbor7,prodloc17,tr0,8178,212628).
route(harbor7,prodloc17,tr13,8178,49068).
route(harbor7,prodloc18,tr0,1017,26442).
route(harbor7,prodloc18,tr13,1017,6102).
route(harbor7,prodloc19,tr0,3710,96460).
route(harbor7,prodloc19,tr13,3710,22260).
route(harbor7,prodloc20,tr0,22500,585000).
route(harbor7,prodloc20,tr13,22500,135000).
route(harbor7,prodloc21,tr0,22456,583856).
route(harbor7,prodloc21,tr13,22456,134736).
route(harbor7,prodloc22,tr0,18509,481234).
route(harbor7,prodloc22,tr13,18509,111054).
route(harbor7,prodloc23,tr0,20180,524680).
route(harbor7,prodloc23,tr13,20180,121080).
route(harbor7,prodloc24,tr0,23782,618332).
route(harbor7,prodloc24,tr13,23782,142692).
route(harbor7,prodloc25,tr0,21312,554112).
route(harbor7,prodloc25,tr13,21312,127872).
route(harbor7,prodloc26,tr0,24470,636220).
route(harbor7,prodloc26,tr13,24470,146820).
route(harbor7,prodloc27,tr0,27707,720382).
route(harbor7,prodloc27,tr13,27707,166242).
route(harbor7,prodloc28,tr0,921,23946).
route(harbor7,prodloc28,tr13,921,5526).
route(harbor7,prodloc29,tr0,19439,505414).
route(harbor7,prodloc29,tr13,19439,116634).
route(harbor7,prodloc30,tr0,7471,194246).
route(harbor7,prodloc30,tr13,7471,44826).
route(harbor7,prodloc31,tr0,19239,500214).
route(harbor7,prodloc31,tr13,19239,115434).
route(harbor7,prodloc32,tr0,26327,684502).
route(harbor7,prodloc32,tr13,26327,157962).
route(harbor7,prodloc33,tr0,15581,405106).
route(harbor7,prodloc33,tr13,15581,93486).
route(harbor8,harbor0,tr13,20648,123888).
route(harbor8,harbor0,tr2,20648,61944).
route(harbor8,harbor1,tr13,6799,40794).
route(harbor8,harbor1,tr2,6799,20397).
route(harbor8,harbor2,tr13,15133,90798).
route(harbor8,harbor2,tr2,15133,45399).
route(harbor8,harbor3,tr13,24829,148974).
route(harbor8,harbor3,tr2,24829,74487).
route(harbor8,harbor4,tr13,11063,66378).
route(harbor8,harbor4,tr2,11063,33189).
route(harbor8,harbor5,tr13,13908,83448).
route(harbor8,harbor5,tr2,13908,41724).
route(harbor8,harbor6,tr13,21325,127950).
route(harbor8,harbor6,tr2,21325,63975).
route(harbor8,harbor7,tr13,17826,106956).
route(harbor8,harbor7,tr2,17826,53478).
route(harbor8,harbor9,tr13,27241,163446).
route(harbor8,harbor9,tr2,27241,81723).
route(harbor8,harbor10,tr13,10382,62292).
route(harbor8,harbor10,tr2,10382,31146).
route(harbor8,harbor11,tr13,26247,157482).
route(harbor8,harbor11,tr2,26247,78741).
route(harbor8,harbor12,tr13,7950,47700).
route(harbor8,harbor12,tr2,7950,23850).
route(harbor8,harbor13,tr13,12834,77004).
route(harbor8,harbor13,tr2,12834,38502).
route(harbor8,harbor14,tr13,2886,17316).
route(harbor8,harbor14,tr2,2886,8658).
route(harbor8,harbor15,tr13,21526,129156).
route(harbor8,harbor15,tr2,21526,64578).
route(harbor8,harbor16,tr13,19915,119490).
route(harbor8,harbor16,tr2,19915,59745).
route(harbor8,prodloc0,tr0,11055,287430).
route(harbor8,prodloc0,tr13,11055,66330).
route(harbor8,prodloc1,tr0,1926,50076).
route(harbor8,prodloc1,tr13,1926,11556).
route(harbor8,prodloc2,tr0,26113,678938).
route(harbor8,prodloc2,tr13,26113,156678).
route(harbor8,prodloc3,tr0,25076,651976).
route(harbor8,prodloc3,tr13,25076,150456).
route(harbor8,prodloc4,tr0,22466,584116).
route(harbor8,prodloc4,tr13,22466,134796).
route(harbor8,prodloc5,tr0,11871,308646).
route(harbor8,prodloc5,tr13,11871,71226).
route(harbor8,prodloc6,tr0,4659,121134).
route(harbor8,prodloc6,tr13,4659,27954).
route(harbor8,prodloc7,tr0,9772,254072).
route(harbor8,prodloc7,tr13,9772,58632).
route(harbor8,prodloc8,tr0,4014,104364).
route(harbor8,prodloc8,tr13,4014,24084).
route(harbor8,prodloc9,tr0,15913,413738).
route(harbor8,prodloc9,tr13,15913,95478).
route(harbor8,prodloc10,tr0,19666,511316).
route(harbor8,prodloc10,tr13,19666,117996).
route(harbor8,prodloc11,tr0,4481,116506).
route(harbor8,prodloc11,tr13,4481,26886).
route(harbor8,prodloc12,tr0,21927,570102).
route(harbor8,prodloc12,tr13,21927,131562).
route(harbor8,prodloc13,tr0,9105,236730).
route(harbor8,prodloc13,tr13,9105,54630).
route(harbor8,prodloc14,tr0,412,10712).
route(harbor8,prodloc14,tr13,412,2472).
route(harbor8,prodloc15,tr0,6473,168298).
route(harbor8,prodloc15,tr13,6473,38838).
route(harbor8,prodloc16,tr0,7490,194740).
route(harbor8,prodloc16,tr13,7490,44940).
route(harbor8,prodloc17,tr0,4039,105014).
route(harbor8,prodloc17,tr13,4039,24234).
route(harbor8,prodloc18,tr0,15810,411060).
route(harbor8,prodloc18,tr13,15810,94860).
route(harbor8,prodloc19,tr0,14286,371436).
route(harbor8,prodloc19,tr13,14286,85716).
route(harbor8,prodloc20,tr0,23955,622830).
route(harbor8,prodloc20,tr13,23955,143730).
route(harbor8,prodloc21,tr0,11146,289796).
route(harbor8,prodloc21,tr13,11146,66876).
route(harbor8,prodloc22,tr0,27061,703586).
route(harbor8,prodloc22,tr13,27061,162366).
route(harbor8,prodloc23,tr0,13283,345358).
route(harbor8,prodloc23,tr13,13283,79698).
route(harbor8,prodloc24,tr0,24817,645242).
route(harbor8,prodloc24,tr13,24817,148902).
route(harbor8,prodloc25,tr0,10413,270738).
route(harbor8,prodloc25,tr13,10413,62478).
route(harbor8,prodloc26,tr0,11133,289458).
route(harbor8,prodloc26,tr13,11133,66798).
route(harbor8,prodloc27,tr0,19467,506142).
route(harbor8,prodloc27,tr13,19467,116802).
route(harbor8,prodloc28,tr0,12507,325182).
route(harbor8,prodloc28,tr13,12507,75042).
route(harbor8,prodloc29,tr0,25077,652002).
route(harbor8,prodloc29,tr13,25077,150462).
route(harbor8,prodloc30,tr0,28259,734734).
route(harbor8,prodloc30,tr13,28259,169554).
route(harbor8,prodloc31,tr0,28896,751296).
route(harbor8,prodloc31,tr13,28896,173376).
route(harbor8,prodloc32,tr0,26586,691236).
route(harbor8,prodloc32,tr13,26586,159516).
route(harbor8,prodloc33,tr0,15894,413244).
route(harbor8,prodloc33,tr13,15894,95364).
route(harbor9,harbor0,tr13,11254,67524).
route(harbor9,harbor0,tr2,11254,33762).
route(harbor9,harbor1,tr13,6412,38472).
route(harbor9,harbor1,tr2,6412,19236).
route(harbor9,harbor2,tr13,29174,175044).
route(harbor9,harbor2,tr2,29174,87522).
route(harbor9,harbor3,tr13,20491,122946).
route(harbor9,harbor3,tr2,20491,61473).
route(harbor9,harbor4,tr13,20854,125124).
route(harbor9,harbor4,tr2,20854,62562).
route(harbor9,harbor5,tr13,17591,105546).
route(harbor9,harbor5,tr2,17591,52773).
route(harbor9,harbor6,tr13,20331,121986).
route(harbor9,harbor6,tr2,20331,60993).
route(harbor9,harbor7,tr13,11881,71286).
route(harbor9,harbor7,tr2,11881,35643).
route(harbor9,harbor8,tr13,2138,12828).
route(harbor9,harbor8,tr2,2138,6414).
route(harbor9,harbor10,tr13,7583,45498).
route(harbor9,harbor10,tr2,7583,22749).
route(harbor9,harbor11,tr13,11215,67290).
route(harbor9,harbor11,tr2,11215,33645).
route(harbor9,harbor12,tr13,12657,75942).
route(harbor9,harbor12,tr2,12657,37971).
route(harbor9,harbor13,tr13,8763,52578).
route(harbor9,harbor13,tr2,8763,26289).
route(harbor9,harbor14,tr13,20097,120582).
route(harbor9,harbor14,tr2,20097,60291).
route(harbor9,harbor15,tr13,18524,111144).
route(harbor9,harbor15,tr2,18524,55572).
route(harbor9,harbor16,tr13,4186,25116).
route(harbor9,harbor16,tr2,4186,12558).
route(harbor9,prodloc0,tr0,27477,714402).
route(harbor9,prodloc0,tr13,27477,164862).
route(harbor9,prodloc1,tr0,17727,460902).
route(harbor9,prodloc1,tr13,17727,106362).
route(harbor9,prodloc2,tr0,21832,567632).
route(harbor9,prodloc2,tr13,21832,130992).
route(harbor9,prodloc3,tr0,14431,375206).
route(harbor9,prodloc3,tr13,14431,86586).
route(harbor9,prodloc4,tr0,24412,634712).
route(harbor9,prodloc4,tr13,24412,146472).
route(harbor9,prodloc5,tr0,9145,237770).
route(harbor9,prodloc5,tr13,9145,54870).
route(harbor9,prodloc6,tr0,8263,214838).
route(harbor9,prodloc6,tr13,8263,49578).
route(harbor9,prodloc7,tr0,11254,292604).
route(harbor9,prodloc7,tr13,11254,67524).
route(harbor9,prodloc8,tr0,13714,356564).
route(harbor9,prodloc8,tr13,13714,82284).
route(harbor9,prodloc9,tr0,3355,87230).
route(harbor9,prodloc9,tr13,3355,20130).
route(harbor9,prodloc10,tr0,3909,101634).
route(harbor9,prodloc10,tr13,3909,23454).
route(harbor9,prodloc11,tr0,24153,627978).
route(harbor9,prodloc11,tr13,24153,144918).
route(harbor9,prodloc12,tr0,19233,500058).
route(harbor9,prodloc12,tr13,19233,115398).
route(harbor9,prodloc13,tr0,20706,538356).
route(harbor9,prodloc13,tr13,20706,124236).
route(harbor9,prodloc14,tr0,16138,419588).
route(harbor9,prodloc14,tr13,16138,96828).
route(harbor9,prodloc15,tr0,5665,147290).
route(harbor9,prodloc15,tr13,5665,33990).
route(harbor9,prodloc16,tr0,11886,309036).
route(harbor9,prodloc16,tr13,11886,71316).
route(harbor9,prodloc17,tr0,17961,466986).
route(harbor9,prodloc17,tr13,17961,107766).
route(harbor9,prodloc18,tr0,5114,132964).
route(harbor9,prodloc18,tr13,5114,30684).
route(harbor9,prodloc19,tr0,19526,507676).
route(harbor9,prodloc19,tr13,19526,117156).
route(harbor9,prodloc20,tr0,20352,529152).
route(harbor9,prodloc20,tr13,20352,122112).
route(harbor9,prodloc21,tr0,18915,491790).
route(harbor9,prodloc21,tr13,18915,113490).
route(harbor9,prodloc22,tr0,9053,235378).
route(harbor9,prodloc22,tr13,9053,54318).
route(harbor9,prodloc23,tr0,12401,322426).
route(harbor9,prodloc23,tr13,12401,74406).
route(harbor9,prodloc24,tr0,11002,286052).
route(harbor9,prodloc24,tr13,11002,66012).
route(harbor9,prodloc25,tr0,10154,264004).
route(harbor9,prodloc25,tr13,10154,60924).
route(harbor9,prodloc26,tr0,12268,318968).
route(harbor9,prodloc26,tr13,12268,73608).
route(harbor9,prodloc27,tr0,11629,302354).
route(harbor9,prodloc27,tr13,11629,69774).
route(harbor9,prodloc28,tr0,10827,281502).
route(harbor9,prodloc28,tr13,10827,64962).
route(harbor9,prodloc29,tr0,16466,428116).
route(harbor9,prodloc29,tr13,16466,98796).
route(harbor9,prodloc30,tr0,19606,509756).
route(harbor9,prodloc30,tr13,19606,117636).
route(harbor9,prodloc31,tr0,15072,391872).
route(harbor9,prodloc31,tr13,15072,90432).
route(harbor9,prodloc32,tr0,2334,60684).
route(harbor9,prodloc32,tr13,2334,14004).
route(harbor9,prodloc33,tr0,5671,147446).
route(harbor9,prodloc33,tr13,5671,34026).
route(harbor10,harbor0,tr13,20499,122994).
route(harbor10,harbor0,tr2,20499,61497).
route(harbor10,harbor1,tr13,13129,78774).
route(harbor10,harbor1,tr2,13129,39387).
route(harbor10,harbor2,tr13,29172,175032).
route(harbor10,harbor2,tr2,29172,87516).
route(harbor10,harbor3,tr13,6746,40476).
route(harbor10,harbor3,tr2,6746,20238).
route(harbor10,harbor4,tr13,10592,63552).
route(harbor10,harbor4,tr2,10592,31776).
route(harbor10,harbor5,tr13,20363,122178).
route(harbor10,harbor5,tr2,20363,61089).
route(harbor10,harbor6,tr13,12060,72360).
route(harbor10,harbor6,tr2,12060,36180).
route(harbor10,harbor7,tr13,20214,121284).
route(harbor10,harbor7,tr2,20214,60642).
route(harbor10,harbor8,tr13,11495,68970).
route(harbor10,harbor8,tr2,11495,34485).
route(harbor10,harbor9,tr13,28157,168942).
route(harbor10,harbor9,tr2,28157,84471).
route(harbor10,harbor11,tr13,4678,28068).
route(harbor10,harbor11,tr2,4678,14034).
route(harbor10,harbor12,tr13,9757,58542).
route(harbor10,harbor12,tr2,9757,29271).
route(harbor10,harbor13,tr13,11050,66300).
route(harbor10,harbor13,tr2,11050,33150).
route(harbor10,harbor14,tr13,10921,65526).
route(harbor10,harbor14,tr2,10921,32763).
route(harbor10,harbor15,tr13,21576,129456).
route(harbor10,harbor15,tr2,21576,64728).
route(harbor10,harbor16,tr13,21077,126462).
route(harbor10,harbor16,tr2,21077,63231).
route(harbor10,prodloc0,tr0,13019,338494).
route(harbor10,prodloc0,tr13,13019,78114).
route(harbor10,prodloc1,tr0,1405,36530).
route(harbor10,prodloc1,tr13,1405,8430).
route(harbor10,prodloc2,tr0,16901,439426).
route(harbor10,prodloc2,tr13,16901,101406).
route(harbor10,prodloc3,tr0,10769,279994).
route(harbor10,prodloc3,tr13,10769,64614).
route(harbor10,prodloc4,tr0,21220,551720).
route(harbor10,prodloc4,tr13,21220,127320).
route(harbor10,prodloc5,tr0,17611,457886).
route(harbor10,prodloc5,tr13,17611,105666).
route(harbor10,prodloc6,tr0,2416,62816).
route(harbor10,prodloc6,tr13,2416,14496).
route(harbor10,prodloc7,tr0,27361,711386).
route(harbor10,prodloc7,tr13,27361,164166).
route(harbor10,prodloc8,tr0,22007,572182).
route(harbor10,prodloc8,tr13,22007,132042).
route(harbor10,prodloc9,tr0,17221,447746).
route(harbor10,prodloc9,tr13,17221,103326).
route(harbor10,prodloc10,tr0,3316,86216).
route(harbor10,prodloc10,tr13,3316,19896).
route(harbor10,prodloc11,tr0,28364,737464).
route(harbor10,prodloc11,tr13,28364,170184).
route(harbor10,prodloc12,tr0,8201,213226).
route(harbor10,prodloc12,tr13,8201,49206).
route(harbor10,prodloc13,tr0,5365,139490).
route(harbor10,prodloc13,tr13,5365,32190).
route(harbor10,prodloc14,tr0,26536,689936).
route(harbor10,prodloc14,tr13,26536,159216).
route(harbor10,prodloc15,tr0,15910,413660).
route(harbor10,prodloc15,tr13,15910,95460).
route(harbor10,prodloc16,tr0,2973,77298).
route(harbor10,prodloc16,tr13,2973,17838).
route(harbor10,prodloc17,tr0,22078,574028).
route(harbor10,prodloc17,tr13,22078,132468).
route(harbor10,prodloc18,tr0,10187,264862).
route(harbor10,prodloc18,tr13,10187,61122).
route(harbor10,prodloc19,tr0,5624,146224).
route(harbor10,prodloc19,tr13,5624,33744).
route(harbor10,prodloc20,tr0,25991,675766).
route(harbor10,prodloc20,tr13,25991,155946).
route(harbor10,prodloc21,tr0,14362,373412).
route(harbor10,prodloc21,tr13,14362,86172).
route(harbor10,prodloc22,tr0,7490,194740).
route(harbor10,prodloc22,tr13,7490,44940).
route(harbor10,prodloc23,tr0,9263,240838).
route(harbor10,prodloc23,tr13,9263,55578).
route(harbor10,prodloc24,tr0,2203,57278).
route(harbor10,prodloc24,tr13,2203,13218).
route(harbor10,prodloc25,tr0,27565,716690).
route(harbor10,prodloc25,tr13,27565,165390).
route(harbor10,prodloc26,tr0,22540,586040).
route(harbor10,prodloc26,tr13,22540,135240).
route(harbor10,prodloc27,tr0,7643,198718).
route(harbor10,prodloc27,tr13,7643,45858).
route(harbor10,prodloc28,tr0,6152,159952).
route(harbor10,prodloc28,tr13,6152,36912).
route(harbor10,prodloc29,tr0,6432,167232).
route(harbor10,prodloc29,tr13,6432,38592).
route(harbor10,prodloc30,tr0,8978,233428).
route(harbor10,prodloc30,tr13,8978,53868).
route(harbor10,prodloc31,tr0,20910,543660).
route(harbor10,prodloc31,tr13,20910,125460).
route(harbor10,prodloc32,tr0,4000,104000).
route(harbor10,prodloc32,tr13,4000,24000).
route(harbor10,prodloc33,tr0,20881,542906).
route(harbor10,prodloc33,tr13,20881,125286).
route(harbor11,harbor0,tr13,6981,41886).
route(harbor11,harbor0,tr2,6981,20943).
route(harbor11,harbor1,tr13,19354,116124).
route(harbor11,harbor1,tr2,19354,58062).
route(harbor11,harbor2,tr13,6027,36162).
route(harbor11,harbor2,tr2,6027,18081).
route(harbor11,harbor3,tr13,15720,94320).
route(harbor11,harbor3,tr2,15720,47160).
route(harbor11,harbor4,tr13,24393,146358).
route(harbor11,harbor4,tr2,24393,73179).
route(harbor11,harbor5,tr13,10191,61146).
route(harbor11,harbor5,tr2,10191,30573).
route(harbor11,harbor6,tr13,15052,90312).
route(harbor11,harbor6,tr2,15052,45156).
route(harbor11,harbor7,tr13,4370,26220).
route(harbor11,harbor7,tr2,4370,13110).
route(harbor11,harbor8,tr13,15875,95250).
route(harbor11,harbor8,tr2,15875,47625).
route(harbor11,harbor9,tr13,12866,77196).
route(harbor11,harbor9,tr2,12866,38598).
route(harbor11,harbor10,tr13,14492,86952).
route(harbor11,harbor10,tr2,14492,43476).
route(harbor11,harbor12,tr13,15278,91668).
route(harbor11,harbor12,tr2,15278,45834).
route(harbor11,harbor13,tr13,12767,76602).
route(harbor11,harbor13,tr2,12767,38301).
route(harbor11,harbor14,tr13,11807,70842).
route(harbor11,harbor14,tr2,11807,35421).
route(harbor11,harbor15,tr13,8975,53850).
route(harbor11,harbor15,tr2,8975,26925).
route(harbor11,harbor16,tr13,23463,140778).
route(harbor11,harbor16,tr2,23463,70389).
route(harbor11,prodloc0,tr0,24627,640302).
route(harbor11,prodloc0,tr13,24627,147762).
route(harbor11,prodloc1,tr0,6440,167440).
route(harbor11,prodloc1,tr13,6440,38640).
route(harbor11,prodloc2,tr0,7839,203814).
route(harbor11,prodloc2,tr13,7839,47034).
route(harbor11,prodloc3,tr0,19342,502892).
route(harbor11,prodloc3,tr13,19342,116052).
route(harbor11,prodloc4,tr0,17238,448188).
route(harbor11,prodloc4,tr13,17238,103428).
route(harbor11,prodloc5,tr0,25704,668304).
route(harbor11,prodloc5,tr13,25704,154224).
route(harbor11,prodloc6,tr0,23807,618982).
route(harbor11,prodloc6,tr13,23807,142842).
route(harbor11,prodloc7,tr0,15892,413192).
route(harbor11,prodloc7,tr13,15892,95352).
route(harbor11,prodloc8,tr0,16437,427362).
route(harbor11,prodloc8,tr13,16437,98622).
route(harbor11,prodloc9,tr0,21603,561678).
route(harbor11,prodloc9,tr13,21603,129618).
route(harbor11,prodloc10,tr0,21707,564382).
route(harbor11,prodloc10,tr13,21707,130242).
route(harbor11,prodloc11,tr0,23452,609752).
route(harbor11,prodloc11,tr13,23452,140712).
route(harbor11,prodloc12,tr0,20193,525018).
route(harbor11,prodloc12,tr13,20193,121158).
route(harbor11,prodloc13,tr0,27828,723528).
route(harbor11,prodloc13,tr13,27828,166968).
route(harbor11,prodloc14,tr0,23409,608634).
route(harbor11,prodloc14,tr13,23409,140454).
route(harbor11,prodloc15,tr0,11130,289380).
route(harbor11,prodloc15,tr13,11130,66780).
route(harbor11,prodloc16,tr0,11643,302718).
route(harbor11,prodloc16,tr13,11643,69858).
route(harbor11,prodloc17,tr0,13076,339976).
route(harbor11,prodloc17,tr13,13076,78456).
route(harbor11,prodloc18,tr0,10047,261222).
route(harbor11,prodloc18,tr13,10047,60282).
route(harbor11,prodloc19,tr0,4481,116506).
route(harbor11,prodloc19,tr13,4481,26886).
route(harbor11,prodloc20,tr0,809,21034).
route(harbor11,prodloc20,tr13,809,4854).
route(harbor11,prodloc21,tr0,2437,63362).
route(harbor11,prodloc21,tr13,2437,14622).
route(harbor11,prodloc22,tr0,21947,570622).
route(harbor11,prodloc22,tr13,21947,131682).
route(harbor11,prodloc23,tr0,25884,672984).
route(harbor11,prodloc23,tr13,25884,155304).
route(harbor11,prodloc24,tr0,9571,248846).
route(harbor11,prodloc24,tr13,9571,57426).
route(harbor11,prodloc25,tr0,12790,332540).
route(harbor11,prodloc25,tr13,12790,76740).
route(harbor11,prodloc26,tr0,22021,572546).
route(harbor11,prodloc26,tr13,22021,132126).
route(harbor11,prodloc27,tr0,9501,247026).
route(harbor11,prodloc27,tr13,9501,57006).
route(harbor11,prodloc28,tr0,15756,409656).
route(harbor11,prodloc28,tr13,15756,94536).
route(harbor11,prodloc29,tr0,4966,129116).
route(harbor11,prodloc29,tr13,4966,29796).
route(harbor11,prodloc30,tr0,22611,587886).
route(harbor11,prodloc30,tr13,22611,135666).
route(harbor11,prodloc31,tr0,27418,712868).
route(harbor11,prodloc31,tr13,27418,164508).
route(harbor11,prodloc32,tr0,17051,443326).
route(harbor11,prodloc32,tr13,17051,102306).
route(harbor11,prodloc33,tr0,13792,358592).
route(harbor11,prodloc33,tr13,13792,82752).
route(harbor12,harbor0,tr13,18942,113652).
route(harbor12,harbor0,tr2,18942,56826).
route(harbor12,harbor1,tr13,10327,61962).
route(harbor12,harbor1,tr2,10327,30981).
route(harbor12,harbor2,tr13,5904,35424).
route(harbor12,harbor2,tr2,5904,17712).
route(harbor12,harbor3,tr13,8521,51126).
route(harbor12,harbor3,tr2,8521,25563).
route(harbor12,harbor4,tr13,13879,83274).
route(harbor12,harbor4,tr2,13879,41637).
route(harbor12,harbor5,tr13,13589,81534).
route(harbor12,harbor5,tr2,13589,40767).
route(harbor12,harbor6,tr13,27259,163554).
route(harbor12,harbor6,tr2,27259,81777).
route(harbor12,harbor7,tr13,1727,10362).
route(harbor12,harbor7,tr2,1727,5181).
route(harbor12,harbor8,tr13,4689,28134).
route(harbor12,harbor8,tr2,4689,14067).
route(harbor12,harbor9,tr13,1682,10092).
route(harbor12,harbor9,tr2,1682,5046).
route(harbor12,harbor10,tr13,14874,89244).
route(harbor12,harbor10,tr2,14874,44622).
route(harbor12,harbor11,tr13,3859,23154).
route(harbor12,harbor11,tr2,3859,11577).
route(harbor12,harbor13,tr13,17434,104604).
route(harbor12,harbor13,tr2,17434,52302).
route(harbor12,harbor14,tr13,10099,60594).
route(harbor12,harbor14,tr2,10099,30297).
route(harbor12,harbor15,tr13,8079,48474).
route(harbor12,harbor15,tr2,8079,24237).
route(harbor12,harbor16,tr13,5223,31338).
route(harbor12,harbor16,tr2,5223,15669).
route(harbor12,prodloc0,tr0,6909,179634).
route(harbor12,prodloc0,tr13,6909,41454).
route(harbor12,prodloc1,tr0,3994,103844).
route(harbor12,prodloc1,tr13,3994,23964).
route(harbor12,prodloc2,tr0,25537,663962).
route(harbor12,prodloc2,tr13,25537,153222).
route(harbor12,prodloc3,tr0,27261,708786).
route(harbor12,prodloc3,tr13,27261,163566).
route(harbor12,prodloc4,tr0,18080,470080).
route(harbor12,prodloc4,tr13,18080,108480).
route(harbor12,prodloc5,tr0,12442,323492).
route(harbor12,prodloc5,tr13,12442,74652).
route(harbor12,prodloc6,tr0,16784,436384).
route(harbor12,prodloc6,tr13,16784,100704).
route(harbor12,prodloc7,tr0,16067,417742).
route(harbor12,prodloc7,tr13,16067,96402).
route(harbor12,prodloc8,tr0,10077,262002).
route(harbor12,prodloc8,tr13,10077,60462).
route(harbor12,prodloc9,tr0,19703,512278).
route(harbor12,prodloc9,tr13,19703,118218).
route(harbor12,prodloc10,tr0,3054,79404).
route(harbor12,prodloc10,tr13,3054,18324).
route(harbor12,prodloc11,tr0,6311,164086).
route(harbor12,prodloc11,tr13,6311,37866).
route(harbor12,prodloc12,tr0,4789,124514).
route(harbor12,prodloc12,tr13,4789,28734).
route(harbor12,prodloc13,tr0,27483,714558).
route(harbor12,prodloc13,tr13,27483,164898).
route(harbor12,prodloc14,tr0,7475,194350).
route(harbor12,prodloc14,tr13,7475,44850).
route(harbor12,prodloc15,tr0,12451,323726).
route(harbor12,prodloc15,tr13,12451,74706).
route(harbor12,prodloc16,tr0,28194,733044).
route(harbor12,prodloc16,tr13,28194,169164).
route(harbor12,prodloc17,tr0,17329,450554).
route(harbor12,prodloc17,tr13,17329,103974).
route(harbor12,prodloc18,tr0,8403,218478).
route(harbor12,prodloc18,tr13,8403,50418).
route(harbor12,prodloc19,tr0,17316,450216).
route(harbor12,prodloc19,tr13,17316,103896).
route(harbor12,prodloc20,tr0,26883,698958).
route(harbor12,prodloc20,tr13,26883,161298).
route(harbor12,prodloc21,tr0,12029,312754).
route(harbor12,prodloc21,tr13,12029,72174).
route(harbor12,prodloc22,tr0,25736,669136).
route(harbor12,prodloc22,tr13,25736,154416).
route(harbor12,prodloc23,tr0,6183,160758).
route(harbor12,prodloc23,tr13,6183,37098).
route(harbor12,prodloc24,tr0,4125,107250).
route(harbor12,prodloc24,tr13,4125,24750).
route(harbor12,prodloc25,tr0,6797,176722).
route(harbor12,prodloc25,tr13,6797,40782).
route(harbor12,prodloc26,tr0,25080,652080).
route(harbor12,prodloc26,tr13,25080,150480).
route(harbor12,prodloc27,tr0,27658,719108).
route(harbor12,prodloc27,tr13,27658,165948).
route(harbor12,prodloc28,tr0,18078,470028).
route(harbor12,prodloc28,tr13,18078,108468).
route(harbor12,prodloc29,tr0,3551,92326).
route(harbor12,prodloc29,tr13,3551,21306).
route(harbor12,prodloc30,tr0,25934,674284).
route(harbor12,prodloc30,tr13,25934,155604).
route(harbor12,prodloc31,tr0,7835,203710).
route(harbor12,prodloc31,tr13,7835,47010).
route(harbor12,prodloc32,tr0,8545,222170).
route(harbor12,prodloc32,tr13,8545,51270).
route(harbor12,prodloc33,tr0,1125,29250).
route(harbor12,prodloc33,tr13,1125,6750).
route(harbor13,harbor0,tr13,17519,105114).
route(harbor13,harbor0,tr2,17519,52557).
route(harbor13,harbor1,tr13,17931,107586).
route(harbor13,harbor1,tr2,17931,53793).
route(harbor13,harbor2,tr13,14565,87390).
route(harbor13,harbor2,tr2,14565,43695).
route(harbor13,harbor3,tr13,3588,21528).
route(harbor13,harbor3,tr2,3588,10764).
route(harbor13,harbor4,tr13,16069,96414).
route(harbor13,harbor4,tr2,16069,48207).
route(harbor13,harbor5,tr13,20259,121554).
route(harbor13,harbor5,tr2,20259,60777).
route(harbor13,harbor6,tr13,17062,102372).
route(harbor13,harbor6,tr2,17062,51186).
route(harbor13,harbor7,tr13,6103,36618).
route(harbor13,harbor7,tr2,6103,18309).
route(harbor13,harbor8,tr13,27482,164892).
route(harbor13,harbor8,tr2,27482,82446).
route(harbor13,harbor9,tr13,18645,111870).
route(harbor13,harbor9,tr2,18645,55935).
route(harbor13,harbor10,tr13,27530,165180).
route(harbor13,harbor10,tr2,27530,82590).
route(harbor13,harbor11,tr13,27772,166632).
route(harbor13,harbor11,tr2,27772,83316).
route(harbor13,harbor12,tr13,21135,126810).
route(harbor13,harbor12,tr2,21135,63405).
route(harbor13,harbor14,tr13,1925,11550).
route(harbor13,harbor14,tr2,1925,5775).
route(harbor13,harbor15,tr13,14315,85890).
route(harbor13,harbor15,tr2,14315,42945).
route(harbor13,harbor16,tr13,9900,59400).
route(harbor13,harbor16,tr2,9900,29700).
route(harbor13,prodloc0,tr0,706,18356).
route(harbor13,prodloc0,tr13,706,4236).
route(harbor13,prodloc1,tr0,16191,420966).
route(harbor13,prodloc1,tr13,16191,97146).
route(harbor13,prodloc2,tr0,12587,327262).
route(harbor13,prodloc2,tr13,12587,75522).
route(harbor13,prodloc3,tr0,11771,306046).
route(harbor13,prodloc3,tr13,11771,70626).
route(harbor13,prodloc4,tr0,27578,717028).
route(harbor13,prodloc4,tr13,27578,165468).
route(harbor13,prodloc5,tr0,13113,340938).
route(harbor13,prodloc5,tr13,13113,78678).
route(harbor13,prodloc6,tr0,2786,72436).
route(harbor13,prodloc6,tr13,2786,16716).
route(harbor13,prodloc7,tr0,2548,66248).
route(harbor13,prodloc7,tr13,2548,15288).
route(harbor13,prodloc8,tr0,17904,465504).
route(harbor13,prodloc8,tr13,17904,107424).
route(harbor13,prodloc9,tr0,17107,444782).
route(harbor13,prodloc9,tr13,17107,102642).
route(harbor13,prodloc10,tr0,14911,387686).
route(harbor13,prodloc10,tr13,14911,89466).
route(harbor13,prodloc11,tr0,18407,478582).
route(harbor13,prodloc11,tr13,18407,110442).
route(harbor13,prodloc12,tr0,25843,671918).
route(harbor13,prodloc12,tr13,25843,155058).
route(harbor13,prodloc13,tr0,27602,717652).
route(harbor13,prodloc13,tr13,27602,165612).
route(harbor13,prodloc14,tr0,24827,645502).
route(harbor13,prodloc14,tr13,24827,148962).
route(harbor13,prodloc15,tr0,18013,468338).
route(harbor13,prodloc15,tr13,18013,108078).
route(harbor13,prodloc16,tr0,13097,340522).
route(harbor13,prodloc16,tr13,13097,78582).
route(harbor13,prodloc17,tr0,17827,463502).
route(harbor13,prodloc17,tr13,17827,106962).
route(harbor13,prodloc18,tr0,267,6942).
route(harbor13,prodloc18,tr13,267,1602).
route(harbor13,prodloc19,tr0,27758,721708).
route(harbor13,prodloc19,tr13,27758,166548).
route(harbor13,prodloc20,tr0,16528,429728).
route(harbor13,prodloc20,tr13,16528,99168).
route(harbor13,prodloc21,tr0,12209,317434).
route(harbor13,prodloc21,tr13,12209,73254).
route(harbor13,prodloc22,tr0,13600,353600).
route(harbor13,prodloc22,tr13,13600,81600).
route(harbor13,prodloc23,tr0,4632,120432).
route(harbor13,prodloc23,tr13,4632,27792).
route(harbor13,prodloc24,tr0,799,20774).
route(harbor13,prodloc24,tr13,799,4794).
route(harbor13,prodloc25,tr0,10993,285818).
route(harbor13,prodloc25,tr13,10993,65958).
route(harbor13,prodloc26,tr0,26089,678314).
route(harbor13,prodloc26,tr13,26089,156534).
route(harbor13,prodloc27,tr0,2383,61958).
route(harbor13,prodloc27,tr13,2383,14298).
route(harbor13,prodloc28,tr0,17295,449670).
route(harbor13,prodloc28,tr13,17295,103770).
route(harbor13,prodloc29,tr0,22210,577460).
route(harbor13,prodloc29,tr13,22210,133260).
route(harbor13,prodloc30,tr0,20396,530296).
route(harbor13,prodloc30,tr13,20396,122376).
route(harbor13,prodloc31,tr0,9076,235976).
route(harbor13,prodloc31,tr13,9076,54456).
route(harbor13,prodloc32,tr0,10213,265538).
route(harbor13,prodloc32,tr13,10213,61278).
route(harbor13,prodloc33,tr0,7206,187356).
route(harbor13,prodloc33,tr13,7206,43236).
route(harbor14,harbor0,tr13,9847,59082).
route(harbor14,harbor0,tr2,9847,29541).
route(harbor14,harbor1,tr13,13378,80268).
route(harbor14,harbor1,tr2,13378,40134).
route(harbor14,harbor2,tr13,9201,55206).
route(harbor14,harbor2,tr2,9201,27603).
route(harbor14,harbor3,tr13,26231,157386).
route(harbor14,harbor3,tr2,26231,78693).
route(harbor14,harbor4,tr13,16911,101466).
route(harbor14,harbor4,tr2,16911,50733).
route(harbor14,harbor5,tr13,24498,146988).
route(harbor14,harbor5,tr2,24498,73494).
route(harbor14,harbor6,tr13,12930,77580).
route(harbor14,harbor6,tr2,12930,38790).
route(harbor14,harbor7,tr13,17207,103242).
route(harbor14,harbor7,tr2,17207,51621).
route(harbor14,harbor8,tr13,2677,16062).
route(harbor14,harbor8,tr2,2677,8031).
route(harbor14,harbor9,tr13,25491,152946).
route(harbor14,harbor9,tr2,25491,76473).
route(harbor14,harbor10,tr13,22300,133800).
route(harbor14,harbor10,tr2,22300,66900).
route(harbor14,harbor11,tr13,22222,133332).
route(harbor14,harbor11,tr2,22222,66666).
route(harbor14,harbor12,tr13,1502,9012).
route(harbor14,harbor12,tr2,1502,4506).
route(harbor14,harbor13,tr13,28510,171060).
route(harbor14,harbor13,tr2,28510,85530).
route(harbor14,harbor15,tr13,9420,56520).
route(harbor14,harbor15,tr2,9420,28260).
route(harbor14,harbor16,tr13,21334,128004).
route(harbor14,harbor16,tr2,21334,64002).
route(harbor14,prodloc0,tr0,11906,309556).
route(harbor14,prodloc0,tr13,11906,71436).
route(harbor14,prodloc1,tr0,22690,589940).
route(harbor14,prodloc1,tr13,22690,136140).
route(harbor14,prodloc2,tr0,9399,244374).
route(harbor14,prodloc2,tr13,9399,56394).
route(harbor14,prodloc3,tr0,11360,295360).
route(harbor14,prodloc3,tr13,11360,68160).
route(harbor14,prodloc4,tr0,2690,69940).
route(harbor14,prodloc4,tr13,2690,16140).
route(harbor14,prodloc5,tr0,21438,557388).
route(harbor14,prodloc5,tr13,21438,128628).
route(harbor14,prodloc6,tr0,4042,105092).
route(harbor14,prodloc6,tr13,4042,24252).
route(harbor14,prodloc7,tr0,27040,703040).
route(harbor14,prodloc7,tr13,27040,162240).
route(harbor14,prodloc8,tr0,1395,36270).
route(harbor14,prodloc8,tr13,1395,8370).
route(harbor14,prodloc9,tr0,3764,97864).
route(harbor14,prodloc9,tr13,3764,22584).
route(harbor14,prodloc10,tr0,26469,688194).
route(harbor14,prodloc10,tr13,26469,158814).
route(harbor14,prodloc11,tr0,4612,119912).
route(harbor14,prodloc11,tr13,4612,27672).
route(harbor14,prodloc12,tr0,2100,54600).
route(harbor14,prodloc12,tr13,2100,12600).
route(harbor14,prodloc13,tr0,19755,513630).
route(harbor14,prodloc13,tr13,19755,118530).
route(harbor14,prodloc14,tr0,4927,128102).
route(harbor14,prodloc14,tr13,4927,29562).
route(harbor14,prodloc15,tr0,4396,114296).
route(harbor14,prodloc15,tr13,4396,26376).
route(harbor14,prodloc16,tr0,25776,670176).
route(harbor14,prodloc16,tr13,25776,154656).
route(harbor14,prodloc17,tr0,16500,429000).
route(harbor14,prodloc17,tr13,16500,99000).
route(harbor14,prodloc18,tr0,17459,453934).
route(harbor14,prodloc18,tr13,17459,104754).
route(harbor14,prodloc19,tr0,5494,142844).
route(harbor14,prodloc19,tr13,5494,32964).
route(harbor14,prodloc20,tr0,5803,150878).
route(harbor14,prodloc20,tr13,5803,34818).
route(harbor14,prodloc21,tr0,17968,467168).
route(harbor14,prodloc21,tr13,17968,107808).
route(harbor14,prodloc22,tr0,27088,704288).
route(harbor14,prodloc22,tr13,27088,162528).
route(harbor14,prodloc23,tr0,28186,732836).
route(harbor14,prodloc23,tr13,28186,169116).
route(harbor14,prodloc24,tr0,11574,300924).
route(harbor14,prodloc24,tr13,11574,69444).
route(harbor14,prodloc25,tr0,7321,190346).
route(harbor14,prodloc25,tr13,7321,43926).
route(harbor14,prodloc26,tr0,27271,709046).
route(harbor14,prodloc26,tr13,27271,163626).
route(harbor14,prodloc27,tr0,13192,342992).
route(harbor14,prodloc27,tr13,13192,79152).
route(harbor14,prodloc28,tr0,641,16666).
route(harbor14,prodloc28,tr13,641,3846).
route(harbor14,prodloc29,tr0,21654,563004).
route(harbor14,prodloc29,tr13,21654,129924).
route(harbor14,prodloc30,tr0,4739,123214).
route(harbor14,prodloc30,tr13,4739,28434).
route(harbor14,prodloc31,tr0,9259,240734).
route(harbor14,prodloc31,tr13,9259,55554).
route(harbor14,prodloc32,tr0,15012,390312).
route(harbor14,prodloc32,tr13,15012,90072).
route(harbor14,prodloc33,tr0,18657,485082).
route(harbor14,prodloc33,tr13,18657,111942).
route(harbor15,harbor0,tr13,14962,89772).
route(harbor15,harbor0,tr2,14962,44886).
route(harbor15,harbor1,tr13,23003,138018).
route(harbor15,harbor1,tr2,23003,69009).
route(harbor15,harbor2,tr13,10718,64308).
route(harbor15,harbor2,tr2,10718,32154).
route(harbor15,harbor3,tr13,24656,147936).
route(harbor15,harbor3,tr2,24656,73968).
route(harbor15,harbor4,tr13,5528,33168).
route(harbor15,harbor4,tr2,5528,16584).
route(harbor15,harbor5,tr13,27029,162174).
route(harbor15,harbor5,tr2,27029,81087).
route(harbor15,harbor6,tr13,8277,49662).
route(harbor15,harbor6,tr2,8277,24831).
route(harbor15,harbor7,tr13,24635,147810).
route(harbor15,harbor7,tr2,24635,73905).
route(harbor15,harbor8,tr13,368,2208).
route(harbor15,harbor8,tr2,368,1104).
route(harbor15,harbor9,tr13,9382,56292).
route(harbor15,harbor9,tr2,9382,28146).
route(harbor15,harbor10,tr13,14198,85188).
route(harbor15,harbor10,tr2,14198,42594).
route(harbor15,harbor11,tr13,24787,148722).
route(harbor15,harbor11,tr2,24787,74361).
route(harbor15,harbor12,tr13,25057,150342).
route(harbor15,harbor12,tr2,25057,75171).
route(harbor15,harbor13,tr13,14241,85446).
route(harbor15,harbor13,tr2,14241,42723).
route(harbor15,harbor14,tr13,6783,40698).
route(harbor15,harbor14,tr2,6783,20349).
route(harbor15,harbor16,tr13,5581,33486).
route(harbor15,harbor16,tr2,5581,16743).
route(harbor15,prodloc0,tr0,680,17680).
route(harbor15,prodloc0,tr13,680,4080).
route(harbor15,prodloc1,tr0,20392,530192).
route(harbor15,prodloc1,tr13,20392,122352).
route(harbor15,prodloc2,tr0,11634,302484).
route(harbor15,prodloc2,tr13,11634,69804).
route(harbor15,prodloc3,tr0,11731,305006).
route(harbor15,prodloc3,tr13,11731,70386).
route(harbor15,prodloc4,tr0,9589,249314).
route(harbor15,prodloc4,tr13,9589,57534).
route(harbor15,prodloc5,tr0,3082,80132).
route(harbor15,prodloc5,tr13,3082,18492).
route(harbor15,prodloc6,tr0,20089,522314).
route(harbor15,prodloc6,tr13,20089,120534).
route(harbor15,prodloc7,tr0,16060,417560).
route(harbor15,prodloc7,tr13,16060,96360).
route(harbor15,prodloc8,tr0,12188,316888).
route(harbor15,prodloc8,tr13,12188,73128).
route(harbor15,prodloc9,tr0,13597,353522).
route(harbor15,prodloc9,tr13,13597,81582).
route(harbor15,prodloc10,tr0,11655,303030).
route(harbor15,prodloc10,tr13,11655,69930).
route(harbor15,prodloc11,tr0,10659,277134).
route(harbor15,prodloc11,tr13,10659,63954).
route(harbor15,prodloc12,tr0,1316,34216).
route(harbor15,prodloc12,tr13,1316,7896).
route(harbor15,prodloc13,tr0,18556,482456).
route(harbor15,prodloc13,tr13,18556,111336).
route(harbor15,prodloc14,tr0,9918,257868).
route(harbor15,prodloc14,tr13,9918,59508).
route(harbor15,prodloc15,tr0,17657,459082).
route(harbor15,prodloc15,tr13,17657,105942).
route(harbor15,prodloc16,tr0,28574,742924).
route(harbor15,prodloc16,tr13,28574,171444).
route(harbor15,prodloc17,tr0,17362,451412).
route(harbor15,prodloc17,tr13,17362,104172).
route(harbor15,prodloc18,tr0,20383,529958).
route(harbor15,prodloc18,tr13,20383,122298).
route(harbor15,prodloc19,tr0,18181,472706).
route(harbor15,prodloc19,tr13,18181,109086).
route(harbor15,prodloc20,tr0,317,8242).
route(harbor15,prodloc20,tr13,317,1902).
route(harbor15,prodloc21,tr0,9789,254514).
route(harbor15,prodloc21,tr13,9789,58734).
route(harbor15,prodloc22,tr0,20436,531336).
route(harbor15,prodloc22,tr13,20436,122616).
route(harbor15,prodloc23,tr0,28575,742950).
route(harbor15,prodloc23,tr13,28575,171450).
route(harbor15,prodloc24,tr0,18328,476528).
route(harbor15,prodloc24,tr13,18328,109968).
route(harbor15,prodloc25,tr0,10328,268528).
route(harbor15,prodloc25,tr13,10328,61968).
route(harbor15,prodloc26,tr0,4567,118742).
route(harbor15,prodloc26,tr13,4567,27402).
route(harbor15,prodloc27,tr0,27489,714714).
route(harbor15,prodloc27,tr13,27489,164934).
route(harbor15,prodloc28,tr0,1889,49114).
route(harbor15,prodloc28,tr13,1889,11334).
route(harbor15,prodloc29,tr0,10423,270998).
route(harbor15,prodloc29,tr13,10423,62538).
route(harbor15,prodloc30,tr0,7841,203866).
route(harbor15,prodloc30,tr13,7841,47046).
route(harbor15,prodloc31,tr0,17872,464672).
route(harbor15,prodloc31,tr13,17872,107232).
route(harbor15,prodloc32,tr0,21675,563550).
route(harbor15,prodloc32,tr13,21675,130050).
route(harbor15,prodloc33,tr0,25623,666198).
route(harbor15,prodloc33,tr13,25623,153738).
route(harbor16,harbor0,tr13,23180,139080).
route(harbor16,harbor0,tr2,23180,69540).
route(harbor16,harbor1,tr13,29303,175818).
route(harbor16,harbor1,tr2,29303,87909).
route(harbor16,harbor2,tr13,6728,40368).
route(harbor16,harbor2,tr2,6728,20184).
route(harbor16,harbor3,tr13,29010,174060).
route(harbor16,harbor3,tr2,29010,87030).
route(harbor16,harbor4,tr13,4016,24096).
route(harbor16,harbor4,tr2,4016,12048).
route(harbor16,harbor5,tr13,2893,17358).
route(harbor16,harbor5,tr2,2893,8679).
route(harbor16,harbor6,tr13,2190,13140).
route(harbor16,harbor6,tr2,2190,6570).
route(harbor16,harbor7,tr13,20006,120036).
route(harbor16,harbor7,tr2,20006,60018).
route(harbor16,harbor8,tr13,5777,34662).
route(harbor16,harbor8,tr2,5777,17331).
route(harbor16,harbor9,tr13,24375,146250).
route(harbor16,harbor9,tr2,24375,73125).
route(harbor16,harbor10,tr13,14147,84882).
route(harbor16,harbor10,tr2,14147,42441).
route(harbor16,harbor11,tr13,26873,161238).
route(harbor16,harbor11,tr2,26873,80619).
route(harbor16,harbor12,tr13,22287,133722).
route(harbor16,harbor12,tr2,22287,66861).
route(harbor16,harbor13,tr13,11186,67116).
route(harbor16,harbor13,tr2,11186,33558).
route(harbor16,harbor14,tr13,8798,52788).
route(harbor16,harbor14,tr2,8798,26394).
route(harbor16,harbor15,tr13,25565,153390).
route(harbor16,harbor15,tr2,25565,76695).
route(harbor16,prodloc0,tr0,1477,38402).
route(harbor16,prodloc0,tr13,1477,8862).
route(harbor16,prodloc1,tr0,14330,372580).
route(harbor16,prodloc1,tr13,14330,85980).
route(harbor16,prodloc2,tr0,7177,186602).
route(harbor16,prodloc2,tr13,7177,43062).
route(harbor16,prodloc3,tr0,12250,318500).
route(harbor16,prodloc3,tr13,12250,73500).
route(harbor16,prodloc4,tr0,10377,269802).
route(harbor16,prodloc4,tr13,10377,62262).
route(harbor16,prodloc5,tr0,11052,287352).
route(harbor16,prodloc5,tr13,11052,66312).
route(harbor16,prodloc6,tr0,1689,43914).
route(harbor16,prodloc6,tr13,1689,10134).
route(harbor16,prodloc7,tr0,20691,537966).
route(harbor16,prodloc7,tr13,20691,124146).
route(harbor16,prodloc8,tr0,28876,750776).
route(harbor16,prodloc8,tr13,28876,173256).
route(harbor16,prodloc9,tr0,10329,268554).
route(harbor16,prodloc9,tr13,10329,61974).
route(harbor16,prodloc10,tr0,21638,562588).
route(harbor16,prodloc10,tr13,21638,129828).
route(harbor16,prodloc11,tr0,22615,587990).
route(harbor16,prodloc11,tr13,22615,135690).
route(harbor16,prodloc12,tr0,15731,409006).
route(harbor16,prodloc12,tr13,15731,94386).
route(harbor16,prodloc13,tr0,6679,173654).
route(harbor16,prodloc13,tr13,6679,40074).
route(harbor16,prodloc14,tr0,28191,732966).
route(harbor16,prodloc14,tr13,28191,169146).
route(harbor16,prodloc15,tr0,7188,186888).
route(harbor16,prodloc15,tr13,7188,43128).
route(harbor16,prodloc16,tr0,20353,529178).
route(harbor16,prodloc16,tr13,20353,122118).
route(harbor16,prodloc17,tr0,2212,57512).
route(harbor16,prodloc17,tr13,2212,13272).
route(harbor16,prodloc18,tr0,27072,703872).
route(harbor16,prodloc18,tr13,27072,162432).
route(harbor16,prodloc19,tr0,3080,80080).
route(harbor16,prodloc19,tr13,3080,18480).
route(harbor16,prodloc20,tr0,21916,569816).
route(harbor16,prodloc20,tr13,21916,131496).
route(harbor16,prodloc21,tr0,15700,408200).
route(harbor16,prodloc21,tr13,15700,94200).
route(harbor16,prodloc22,tr0,16173,420498).
route(harbor16,prodloc22,tr13,16173,97038).
route(harbor16,prodloc23,tr0,26473,688298).
route(harbor16,prodloc23,tr13,26473,158838).
route(harbor16,prodloc24,tr0,5375,139750).
route(harbor16,prodloc24,tr13,5375,32250).
route(harbor16,prodloc25,tr0,16856,438256).
route(harbor16,prodloc25,tr13,16856,101136).
route(harbor16,prodloc26,tr0,6634,172484).
route(harbor16,prodloc26,tr13,6634,39804).
route(harbor16,prodloc27,tr0,22071,573846).
route(harbor16,prodloc27,tr13,22071,132426).
route(harbor16,prodloc28,tr0,15334,398684).
route(harbor16,prodloc28,tr13,15334,92004).
route(harbor16,prodloc29,tr0,17495,454870).
route(harbor16,prodloc29,tr13,17495,104970).
route(harbor16,prodloc30,tr0,25436,661336).
route(harbor16,prodloc30,tr13,25436,152616).
route(harbor16,prodloc31,tr0,12778,332228).
route(harbor16,prodloc31,tr13,12778,76668).
route(harbor16,prodloc32,tr0,23145,601770).
route(harbor16,prodloc32,tr13,23145,138870).
route(harbor16,prodloc33,tr0,11018,286468).
route(harbor16,prodloc33,tr13,11018,66108).
route(prodloc0,harbor0,tr0,6262,162812).
route(prodloc0,harbor0,tr13,6262,37572).
route(prodloc0,harbor1,tr0,27712,720512).
route(prodloc0,harbor1,tr13,27712,166272).
route(prodloc0,harbor2,tr0,22216,577616).
route(prodloc0,harbor2,tr13,22216,133296).
route(prodloc0,harbor3,tr0,4418,114868).
route(prodloc0,harbor3,tr13,4418,26508).
route(prodloc0,harbor4,tr0,19346,502996).
route(prodloc0,harbor4,tr13,19346,116076).
route(prodloc0,harbor5,tr0,22366,581516).
route(prodloc0,harbor5,tr13,22366,134196).
route(prodloc0,harbor6,tr0,5529,143754).
route(prodloc0,harbor6,tr13,5529,33174).
route(prodloc0,harbor7,tr0,17373,451698).
route(prodloc0,harbor7,tr13,17373,104238).
route(prodloc0,harbor8,tr0,15454,401804).
route(prodloc0,harbor8,tr13,15454,92724).
route(prodloc0,harbor9,tr0,23503,611078).
route(prodloc0,harbor9,tr13,23503,141018).
route(prodloc0,harbor10,tr0,14670,381420).
route(prodloc0,harbor10,tr13,14670,88020).
route(prodloc0,harbor11,tr0,5058,131508).
route(prodloc0,harbor11,tr13,5058,30348).
route(prodloc0,harbor12,tr0,3759,97734).
route(prodloc0,harbor12,tr13,3759,22554).
route(prodloc0,harbor13,tr0,6610,171860).
route(prodloc0,harbor13,tr13,6610,39660).
route(prodloc0,harbor14,tr0,21302,553852).
route(prodloc0,harbor14,tr13,21302,127812).
route(prodloc0,harbor15,tr0,13480,350480).
route(prodloc0,harbor15,tr13,13480,80880).
route(prodloc0,harbor16,tr0,6992,181792).
route(prodloc0,harbor16,tr13,6992,41952).
route(prodloc0,prodloc1,tr0,5763,149838).
route(prodloc0,prodloc1,tr13,5763,34578).
route(prodloc0,prodloc2,tr0,8402,218452).
route(prodloc0,prodloc2,tr13,8402,50412).
route(prodloc0,prodloc3,tr0,20454,531804).
route(prodloc0,prodloc3,tr13,20454,122724).
route(prodloc0,prodloc4,tr0,2315,60190).
route(prodloc0,prodloc4,tr13,2315,13890).
route(prodloc0,prodloc5,tr0,10750,279500).
route(prodloc0,prodloc5,tr13,10750,64500).
route(prodloc0,prodloc6,tr0,15393,400218).
route(prodloc0,prodloc6,tr13,15393,92358).
route(prodloc0,prodloc7,tr0,22418,582868).
route(prodloc0,prodloc7,tr13,22418,134508).
route(prodloc0,prodloc8,tr0,14771,384046).
route(prodloc0,prodloc8,tr13,14771,88626).
route(prodloc0,prodloc9,tr0,16930,440180).
route(prodloc0,prodloc9,tr13,16930,101580).
route(prodloc0,prodloc10,tr0,2970,77220).
route(prodloc0,prodloc10,tr13,2970,17820).
route(prodloc0,prodloc11,tr0,14220,369720).
route(prodloc0,prodloc11,tr15,14220,455040).
route(prodloc0,prodloc12,tr0,21473,558298).
route(prodloc0,prodloc12,tr13,21473,128838).
route(prodloc0,prodloc13,tr0,12835,333710).
route(prodloc0,prodloc13,tr13,12835,77010).
route(prodloc0,prodloc14,tr0,6568,170768).
route(prodloc0,prodloc14,tr13,6568,39408).
route(prodloc0,prodloc15,tr0,5536,143936).
route(prodloc0,prodloc15,tr13,5536,33216).
route(prodloc0,prodloc16,tr0,27702,720252).
route(prodloc0,prodloc16,tr13,27702,166212).
route(prodloc0,prodloc17,tr0,18707,486382).
route(prodloc0,prodloc17,tr13,18707,112242).
route(prodloc0,prodloc18,tr0,21303,553878).
route(prodloc0,prodloc18,tr13,21303,127818).
route(prodloc0,prodloc19,tr0,5872,152672).
route(prodloc0,prodloc19,tr13,5872,35232).
route(prodloc0,prodloc20,tr0,21304,553904).
route(prodloc0,prodloc20,tr13,21304,127824).
route(prodloc0,prodloc21,tr13,18914,113484).
route(prodloc0,prodloc21,tr15,18914,605248).
route(prodloc0,prodloc22,tr0,4723,122798).
route(prodloc0,prodloc22,tr13,4723,28338).
route(prodloc0,prodloc23,tr13,2759,16554).
route(prodloc0,prodloc23,tr15,2759,88288).
route(prodloc0,prodloc24,tr0,17745,461370).
route(prodloc0,prodloc24,tr13,17745,106470).
route(prodloc0,prodloc25,tr0,22983,597558).
route(prodloc0,prodloc25,tr13,22983,137898).
route(prodloc0,prodloc26,tr0,5473,142298).
route(prodloc0,prodloc26,tr13,5473,32838).
route(prodloc0,prodloc27,tr0,23702,616252).
route(prodloc0,prodloc27,tr13,23702,142212).
route(prodloc0,prodloc28,tr0,10628,276328).
route(prodloc0,prodloc28,tr13,10628,63768).
route(prodloc0,prodloc29,tr0,20518,533468).
route(prodloc0,prodloc29,tr13,20518,123108).
route(prodloc0,prodloc30,tr0,19239,500214).
route(prodloc0,prodloc30,tr13,19239,115434).
route(prodloc0,prodloc31,tr0,21722,564772).
route(prodloc0,prodloc31,tr13,21722,130332).
route(prodloc0,prodloc32,tr0,5578,145028).
route(prodloc0,prodloc32,tr13,5578,33468).
route(prodloc0,prodloc33,tr0,1421,36946).
route(prodloc0,prodloc33,tr13,1421,8526).
route(prodloc1,harbor0,tr0,7641,198666).
route(prodloc1,harbor0,tr13,7641,45846).
route(prodloc1,harbor1,tr0,15463,402038).
route(prodloc1,harbor1,tr13,15463,92778).
route(prodloc1,harbor2,tr0,23937,622362).
route(prodloc1,harbor2,tr13,23937,143622).
route(prodloc1,harbor3,tr0,27914,725764).
route(prodloc1,harbor3,tr13,27914,167484).
route(prodloc1,harbor4,tr0,15886,413036).
route(prodloc1,harbor4,tr13,15886,95316).
route(prodloc1,harbor5,tr0,24298,631748).
route(prodloc1,harbor5,tr13,24298,145788).
route(prodloc1,harbor6,tr0,4584,119184).
route(prodloc1,harbor6,tr13,4584,27504).
route(prodloc1,harbor7,tr0,5219,135694).
route(prodloc1,harbor7,tr13,5219,31314).
route(prodloc1,harbor8,tr0,2902,75452).
route(prodloc1,harbor8,tr13,2902,17412).
route(prodloc1,harbor9,tr0,28101,730626).
route(prodloc1,harbor9,tr13,28101,168606).
route(prodloc1,harbor10,tr0,15087,392262).
route(prodloc1,harbor10,tr13,15087,90522).
route(prodloc1,harbor11,tr0,19950,518700).
route(prodloc1,harbor11,tr13,19950,119700).
route(prodloc1,harbor12,tr0,22725,590850).
route(prodloc1,harbor12,tr13,22725,136350).
route(prodloc1,harbor13,tr0,18417,478842).
route(prodloc1,harbor13,tr13,18417,110502).
route(prodloc1,harbor14,tr0,18231,474006).
route(prodloc1,harbor14,tr13,18231,109386).
route(prodloc1,harbor15,tr0,7524,195624).
route(prodloc1,harbor15,tr13,7524,45144).
route(prodloc1,harbor16,tr0,4872,126672).
route(prodloc1,harbor16,tr13,4872,29232).
route(prodloc1,prodloc0,tr0,16238,422188).
route(prodloc1,prodloc0,tr13,16238,97428).
route(prodloc1,prodloc2,tr0,25994,675844).
route(prodloc1,prodloc2,tr13,25994,155964).
route(prodloc1,prodloc3,tr0,4794,124644).
route(prodloc1,prodloc3,tr13,4794,28764).
route(prodloc1,prodloc4,tr0,9021,234546).
route(prodloc1,prodloc4,tr13,9021,54126).
route(prodloc1,prodloc5,tr0,16928,440128).
route(prodloc1,prodloc5,tr13,16928,101568).
route(prodloc1,prodloc6,tr0,17994,467844).
route(prodloc1,prodloc6,tr13,17994,107964).
route(prodloc1,prodloc7,tr0,19482,506532).
route(prodloc1,prodloc7,tr13,19482,116892).
route(prodloc1,prodloc8,tr0,8114,210964).
route(prodloc1,prodloc8,tr13,8114,48684).
route(prodloc1,prodloc9,tr0,17192,446992).
route(prodloc1,prodloc9,tr13,17192,103152).
route(prodloc1,prodloc10,tr0,28171,732446).
route(prodloc1,prodloc10,tr13,28171,169026).
route(prodloc1,prodloc11,tr0,20672,537472).
route(prodloc1,prodloc11,tr13,20672,124032).
route(prodloc1,prodloc12,tr0,8545,222170).
route(prodloc1,prodloc12,tr13,8545,51270).
route(prodloc1,prodloc13,tr0,8198,213148).
route(prodloc1,prodloc13,tr13,8198,49188).
route(prodloc1,prodloc14,tr0,2592,67392).
route(prodloc1,prodloc14,tr13,2592,15552).
route(prodloc1,prodloc15,tr0,12875,334750).
route(prodloc1,prodloc15,tr13,12875,77250).
route(prodloc1,prodloc16,tr0,5342,138892).
route(prodloc1,prodloc16,tr13,5342,32052).
route(prodloc1,prodloc17,tr0,17971,467246).
route(prodloc1,prodloc17,tr13,17971,107826).
route(prodloc1,prodloc18,tr0,8909,231634).
route(prodloc1,prodloc18,tr13,8909,53454).
route(prodloc1,prodloc19,tr0,17858,464308).
route(prodloc1,prodloc19,tr13,17858,107148).
route(prodloc1,prodloc20,tr0,28783,748358).
route(prodloc1,prodloc20,tr13,28783,172698).
route(prodloc1,prodloc21,tr0,18817,489242).
route(prodloc1,prodloc21,tr13,18817,112902).
route(prodloc1,prodloc22,tr0,21944,570544).
route(prodloc1,prodloc22,tr13,21944,131664).
route(prodloc1,prodloc23,tr0,972,25272).
route(prodloc1,prodloc23,tr13,972,5832).
route(prodloc1,prodloc24,tr0,13977,363402).
route(prodloc1,prodloc24,tr13,13977,83862).
route(prodloc1,prodloc25,tr0,19672,511472).
route(prodloc1,prodloc25,tr13,19672,118032).
route(prodloc1,prodloc26,tr0,1359,35334).
route(prodloc1,prodloc26,tr13,1359,8154).
route(prodloc1,prodloc27,tr0,14768,383968).
route(prodloc1,prodloc27,tr13,14768,88608).
route(prodloc1,prodloc28,tr0,27249,708474).
route(prodloc1,prodloc28,tr13,27249,163494).
route(prodloc1,prodloc29,tr0,17055,443430).
route(prodloc1,prodloc29,tr13,17055,102330).
route(prodloc1,prodloc30,tr0,4129,107354).
route(prodloc1,prodloc30,tr13,4129,24774).
route(prodloc1,prodloc31,tr0,6557,170482).
route(prodloc1,prodloc31,tr13,6557,39342).
route(prodloc1,prodloc32,tr0,20653,536978).
route(prodloc1,prodloc32,tr13,20653,123918).
route(prodloc1,prodloc33,tr0,14258,370708).
route(prodloc1,prodloc33,tr13,14258,85548).
route(prodloc2,harbor0,tr0,25178,654628).
route(prodloc2,harbor0,tr13,25178,151068).
route(prodloc2,harbor1,tr0,28263,734838).
route(prodloc2,harbor1,tr13,28263,169578).
route(prodloc2,harbor2,tr0,18249,474474).
route(prodloc2,harbor2,tr13,18249,109494).
route(prodloc2,harbor3,tr0,5994,155844).
route(prodloc2,harbor3,tr13,5994,35964).
route(prodloc2,harbor4,tr0,22028,572728).
route(prodloc2,harbor4,tr13,22028,132168).
route(prodloc2,harbor5,tr0,2048,53248).
route(prodloc2,harbor5,tr13,2048,12288).
route(prodloc2,harbor6,tr0,22032,572832).
route(prodloc2,harbor6,tr13,22032,132192).
route(prodloc2,harbor7,tr0,609,15834).
route(prodloc2,harbor7,tr13,609,3654).
route(prodloc2,harbor8,tr0,274,7124).
route(prodloc2,harbor8,tr13,274,1644).
route(prodloc2,harbor9,tr0,4006,104156).
route(prodloc2,harbor9,tr13,4006,24036).
route(prodloc2,harbor10,tr0,24061,625586).
route(prodloc2,harbor10,tr13,24061,144366).
route(prodloc2,harbor11,tr0,17467,454142).
route(prodloc2,harbor11,tr13,17467,104802).
route(prodloc2,harbor12,tr0,4612,119912).
route(prodloc2,harbor12,tr13,4612,27672).
route(prodloc2,harbor13,tr0,13211,343486).
route(prodloc2,harbor13,tr13,13211,79266).
route(prodloc2,harbor14,tr0,9798,254748).
route(prodloc2,harbor14,tr13,9798,58788).
route(prodloc2,harbor15,tr0,18293,475618).
route(prodloc2,harbor15,tr13,18293,109758).
route(prodloc2,harbor16,tr0,6805,176930).
route(prodloc2,harbor16,tr13,6805,40830).
route(prodloc2,prodloc0,tr0,2916,75816).
route(prodloc2,prodloc0,tr13,2916,17496).
route(prodloc2,prodloc1,tr13,14383,86298).
route(prodloc2,prodloc1,tr15,14383,460256).
route(prodloc2,prodloc3,tr0,21338,554788).
route(prodloc2,prodloc3,tr13,21338,128028).
route(prodloc2,prodloc4,tr0,23233,604058).
route(prodloc2,prodloc4,tr13,23233,139398).
route(prodloc2,prodloc5,tr0,27526,715676).
route(prodloc2,prodloc5,tr13,27526,165156).
route(prodloc2,prodloc6,tr0,27518,715468).
route(prodloc2,prodloc6,tr13,27518,165108).
route(prodloc2,prodloc7,tr0,17563,456638).
route(prodloc2,prodloc7,tr13,17563,105378).
route(prodloc2,prodloc8,tr0,26735,695110).
route(prodloc2,prodloc8,tr13,26735,160410).
route(prodloc2,prodloc9,tr0,2875,74750).
route(prodloc2,prodloc9,tr13,2875,17250).
route(prodloc2,prodloc10,tr0,16732,435032).
route(prodloc2,prodloc10,tr13,16732,100392).
route(prodloc2,prodloc11,tr0,5758,149708).
route(prodloc2,prodloc11,tr13,5758,34548).
route(prodloc2,prodloc12,tr0,25991,675766).
route(prodloc2,prodloc12,tr13,25991,155946).
route(prodloc2,prodloc13,tr0,9680,251680).
route(prodloc2,prodloc13,tr13,9680,58080).
route(prodloc2,prodloc14,tr0,2265,58890).
route(prodloc2,prodloc14,tr13,2265,13590).
route(prodloc2,prodloc15,tr0,26019,676494).
route(prodloc2,prodloc15,tr13,26019,156114).
route(prodloc2,prodloc16,tr0,5357,139282).
route(prodloc2,prodloc16,tr13,5357,32142).
route(prodloc2,prodloc17,tr0,13258,344708).
route(prodloc2,prodloc17,tr13,13258,79548).
route(prodloc2,prodloc18,tr0,836,21736).
route(prodloc2,prodloc18,tr13,836,5016).
route(prodloc2,prodloc19,tr0,27600,717600).
route(prodloc2,prodloc19,tr13,27600,165600).
route(prodloc2,prodloc20,tr0,10955,284830).
route(prodloc2,prodloc20,tr13,10955,65730).
route(prodloc2,prodloc21,tr0,351,9126).
route(prodloc2,prodloc21,tr13,351,2106).
route(prodloc2,prodloc22,tr0,4947,128622).
route(prodloc2,prodloc22,tr13,4947,29682).
route(prodloc2,prodloc23,tr0,3522,91572).
route(prodloc2,prodloc23,tr13,3522,21132).
route(prodloc2,prodloc24,tr0,2619,68094).
route(prodloc2,prodloc24,tr13,2619,15714).
route(prodloc2,prodloc25,tr0,330,8580).
route(prodloc2,prodloc25,tr13,330,1980).
route(prodloc2,prodloc26,tr0,8713,226538).
route(prodloc2,prodloc26,tr13,8713,52278).
route(prodloc2,prodloc27,tr0,24897,647322).
route(prodloc2,prodloc27,tr13,24897,149382).
route(prodloc2,prodloc28,tr0,12160,316160).
route(prodloc2,prodloc28,tr13,12160,72960).
route(prodloc2,prodloc29,tr0,8624,224224).
route(prodloc2,prodloc29,tr13,8624,51744).
route(prodloc2,prodloc30,tr0,9983,259558).
route(prodloc2,prodloc30,tr13,9983,59898).
route(prodloc2,prodloc31,tr0,23633,614458).
route(prodloc2,prodloc31,tr13,23633,141798).
route(prodloc2,prodloc32,tr0,11733,305058).
route(prodloc2,prodloc32,tr13,11733,70398).
route(prodloc2,prodloc33,tr0,3897,101322).
route(prodloc2,prodloc33,tr13,3897,23382).
route(prodloc3,harbor0,tr0,21563,560638).
route(prodloc3,harbor0,tr13,21563,129378).
route(prodloc3,harbor1,tr0,19164,498264).
route(prodloc3,harbor1,tr13,19164,114984).
route(prodloc3,harbor2,tr0,5541,144066).
route(prodloc3,harbor2,tr13,5541,33246).
route(prodloc3,harbor3,tr0,14375,373750).
route(prodloc3,harbor3,tr13,14375,86250).
route(prodloc3,harbor4,tr0,19499,506974).
route(prodloc3,harbor4,tr13,19499,116994).
route(prodloc3,harbor5,tr0,26124,679224).
route(prodloc3,harbor5,tr13,26124,156744).
route(prodloc3,harbor6,tr0,24332,632632).
route(prodloc3,harbor6,tr13,24332,145992).
route(prodloc3,harbor7,tr0,3168,82368).
route(prodloc3,harbor7,tr13,3168,19008).
route(prodloc3,harbor8,tr0,28793,748618).
route(prodloc3,harbor8,tr13,28793,172758).
route(prodloc3,harbor9,tr0,22974,597324).
route(prodloc3,harbor9,tr13,22974,137844).
route(prodloc3,harbor10,tr0,14290,371540).
route(prodloc3,harbor10,tr13,14290,85740).
route(prodloc3,harbor11,tr0,26993,701818).
route(prodloc3,harbor11,tr13,26993,161958).
route(prodloc3,harbor12,tr0,25667,667342).
route(prodloc3,harbor12,tr13,25667,154002).
route(prodloc3,harbor13,tr0,13315,346190).
route(prodloc3,harbor13,tr13,13315,79890).
route(prodloc3,harbor14,tr0,12180,316680).
route(prodloc3,harbor14,tr13,12180,73080).
route(prodloc3,harbor15,tr0,9179,238654).
route(prodloc3,harbor15,tr13,9179,55074).
route(prodloc3,harbor16,tr0,11856,308256).
route(prodloc3,harbor16,tr13,11856,71136).
route(prodloc3,prodloc0,tr0,3565,92690).
route(prodloc3,prodloc0,tr13,3565,21390).
route(prodloc3,prodloc1,tr0,3470,90220).
route(prodloc3,prodloc1,tr13,3470,20820).
route(prodloc3,prodloc2,tr0,10740,279240).
route(prodloc3,prodloc2,tr13,10740,64440).
route(prodloc3,prodloc4,tr0,8963,233038).
route(prodloc3,prodloc4,tr13,8963,53778).
route(prodloc3,prodloc5,tr0,7548,196248).
route(prodloc3,prodloc5,tr13,7548,45288).
route(prodloc3,prodloc6,tr0,22812,593112).
route(prodloc3,prodloc6,tr13,22812,136872).
route(prodloc3,prodloc7,tr0,10677,277602).
route(prodloc3,prodloc7,tr13,10677,64062).
route(prodloc3,prodloc8,tr0,8415,218790).
route(prodloc3,prodloc8,tr13,8415,50490).
route(prodloc3,prodloc9,tr0,25485,662610).
route(prodloc3,prodloc9,tr13,25485,152910).
route(prodloc3,prodloc10,tr0,25176,654576).
route(prodloc3,prodloc10,tr13,25176,151056).
route(prodloc3,prodloc11,tr0,15698,408148).
route(prodloc3,prodloc11,tr13,15698,94188).
route(prodloc3,prodloc12,tr0,15631,406406).
route(prodloc3,prodloc12,tr13,15631,93786).
route(prodloc3,prodloc13,tr0,11160,290160).
route(prodloc3,prodloc13,tr13,11160,66960).
route(prodloc3,prodloc14,tr0,133,3458).
route(prodloc3,prodloc14,tr15,133,4256).
route(prodloc3,prodloc15,tr0,3921,101946).
route(prodloc3,prodloc15,tr13,3921,23526).
route(prodloc3,prodloc16,tr0,2789,72514).
route(prodloc3,prodloc16,tr13,2789,16734).
route(prodloc3,prodloc17,tr0,13115,340990).
route(prodloc3,prodloc17,tr13,13115,78690).
route(prodloc3,prodloc18,tr0,240,6240).
route(prodloc3,prodloc18,tr13,240,1440).
route(prodloc3,prodloc19,tr0,5184,134784).
route(prodloc3,prodloc19,tr13,5184,31104).
route(prodloc3,prodloc20,tr0,7491,194766).
route(prodloc3,prodloc20,tr13,7491,44946).
route(prodloc3,prodloc21,tr0,14360,373360).
route(prodloc3,prodloc21,tr13,14360,86160).
route(prodloc3,prodloc22,tr0,16349,425074).
route(prodloc3,prodloc22,tr13,16349,98094).
route(prodloc3,prodloc23,tr0,22264,578864).
route(prodloc3,prodloc23,tr13,22264,133584).
route(prodloc3,prodloc24,tr0,17604,457704).
route(prodloc3,prodloc24,tr13,17604,105624).
route(prodloc3,prodloc25,tr0,28284,735384).
route(prodloc3,prodloc25,tr13,28284,169704).
route(prodloc3,prodloc26,tr0,28127,731302).
route(prodloc3,prodloc26,tr13,28127,168762).
route(prodloc3,prodloc27,tr0,26418,686868).
route(prodloc3,prodloc27,tr13,26418,158508).
route(prodloc3,prodloc28,tr0,12871,334646).
route(prodloc3,prodloc28,tr13,12871,77226).
route(prodloc3,prodloc29,tr13,22815,136890).
route(prodloc3,prodloc29,tr15,22815,730080).
route(prodloc3,prodloc30,tr0,25078,652028).
route(prodloc3,prodloc30,tr13,25078,150468).
route(prodloc3,prodloc31,tr0,21448,557648).
route(prodloc3,prodloc31,tr13,21448,128688).
route(prodloc3,prodloc32,tr0,12671,329446).
route(prodloc3,prodloc32,tr13,12671,76026).
route(prodloc3,prodloc33,tr0,22675,589550).
route(prodloc3,prodloc33,tr13,22675,136050).
route(prodloc4,harbor0,tr0,2208,57408).
route(prodloc4,harbor0,tr13,2208,13248).
route(prodloc4,harbor1,tr0,3036,78936).
route(prodloc4,harbor1,tr13,3036,18216).
route(prodloc4,harbor2,tr0,5146,133796).
route(prodloc4,harbor2,tr13,5146,30876).
route(prodloc4,harbor3,tr0,19918,517868).
route(prodloc4,harbor3,tr13,19918,119508).
route(prodloc4,harbor4,tr0,14596,379496).
route(prodloc4,harbor4,tr13,14596,87576).
route(prodloc4,harbor5,tr0,5511,143286).
route(prodloc4,harbor5,tr13,5511,33066).
route(prodloc4,harbor6,tr0,22533,585858).
route(prodloc4,harbor6,tr13,22533,135198).
route(prodloc4,harbor7,tr0,24402,634452).
route(prodloc4,harbor7,tr13,24402,146412).
route(prodloc4,harbor8,tr0,27705,720330).
route(prodloc4,harbor8,tr13,27705,166230).
route(prodloc4,harbor9,tr0,27078,704028).
route(prodloc4,harbor9,tr13,27078,162468).
route(prodloc4,harbor10,tr0,14716,382616).
route(prodloc4,harbor10,tr13,14716,88296).
route(prodloc4,harbor11,tr0,10235,266110).
route(prodloc4,harbor11,tr13,10235,61410).
route(prodloc4,harbor12,tr0,18056,469456).
route(prodloc4,harbor12,tr13,18056,108336).
route(prodloc4,harbor13,tr0,9767,253942).
route(prodloc4,harbor13,tr13,9767,58602).
route(prodloc4,harbor14,tr0,23844,619944).
route(prodloc4,harbor14,tr13,23844,143064).
route(prodloc4,harbor15,tr0,7739,201214).
route(prodloc4,harbor15,tr13,7739,46434).
route(prodloc4,harbor16,tr0,1543,40118).
route(prodloc4,harbor16,tr13,1543,9258).
route(prodloc4,prodloc0,tr0,80,2080).
route(prodloc4,prodloc0,tr13,80,480).
route(prodloc4,prodloc1,tr0,28625,744250).
route(prodloc4,prodloc1,tr13,28625,171750).
route(prodloc4,prodloc2,tr0,6426,167076).
route(prodloc4,prodloc2,tr13,6426,38556).
route(prodloc4,prodloc3,tr0,10334,268684).
route(prodloc4,prodloc3,tr13,10334,62004).
route(prodloc4,prodloc5,tr0,16174,420524).
route(prodloc4,prodloc5,tr13,16174,97044).
route(prodloc4,prodloc6,tr0,12861,334386).
route(prodloc4,prodloc6,tr13,12861,77166).
route(prodloc4,prodloc7,tr0,18375,477750).
route(prodloc4,prodloc7,tr13,18375,110250).
route(prodloc4,prodloc8,tr0,10254,266604).
route(prodloc4,prodloc8,tr13,10254,61524).
route(prodloc4,prodloc9,tr0,24795,644670).
route(prodloc4,prodloc9,tr13,24795,148770).
route(prodloc4,prodloc10,tr0,23385,608010).
route(prodloc4,prodloc10,tr13,23385,140310).
route(prodloc4,prodloc11,tr0,5700,148200).
route(prodloc4,prodloc11,tr13,5700,34200).
route(prodloc4,prodloc12,tr0,4439,115414).
route(prodloc4,prodloc12,tr13,4439,26634).
route(prodloc4,prodloc13,tr0,26328,684528).
route(prodloc4,prodloc13,tr13,26328,157968).
route(prodloc4,prodloc14,tr0,2170,56420).
route(prodloc4,prodloc14,tr13,2170,13020).
route(prodloc4,prodloc15,tr0,13557,352482).
route(prodloc4,prodloc15,tr13,13557,81342).
route(prodloc4,prodloc16,tr0,4292,111592).
route(prodloc4,prodloc16,tr13,4292,25752).
route(prodloc4,prodloc17,tr0,2588,67288).
route(prodloc4,prodloc17,tr13,2588,15528).
route(prodloc4,prodloc18,tr0,20420,530920).
route(prodloc4,prodloc18,tr13,20420,122520).
route(prodloc4,prodloc19,tr0,10785,280410).
route(prodloc4,prodloc19,tr13,10785,64710).
route(prodloc4,prodloc20,tr0,12495,324870).
route(prodloc4,prodloc20,tr13,12495,74970).
route(prodloc4,prodloc21,tr0,195,5070).
route(prodloc4,prodloc21,tr13,195,1170).
route(prodloc4,prodloc22,tr0,10435,271310).
route(prodloc4,prodloc22,tr13,10435,62610).
route(prodloc4,prodloc23,tr0,15149,393874).
route(prodloc4,prodloc23,tr13,15149,90894).
route(prodloc4,prodloc24,tr0,9040,235040).
route(prodloc4,prodloc24,tr13,9040,54240).
route(prodloc4,prodloc25,tr0,11649,302874).
route(prodloc4,prodloc25,tr13,11649,69894).
route(prodloc4,prodloc26,tr0,2486,64636).
route(prodloc4,prodloc26,tr13,2486,14916).
route(prodloc4,prodloc27,tr0,10159,264134).
route(prodloc4,prodloc27,tr13,10159,60954).
route(prodloc4,prodloc28,tr0,11081,288106).
route(prodloc4,prodloc28,tr13,11081,66486).
route(prodloc4,prodloc29,tr0,11263,292838).
route(prodloc4,prodloc29,tr13,11263,67578).
route(prodloc4,prodloc30,tr0,678,17628).
route(prodloc4,prodloc30,tr13,678,4068).
route(prodloc4,prodloc31,tr0,3541,92066).
route(prodloc4,prodloc31,tr13,3541,21246).
route(prodloc4,prodloc32,tr0,11031,286806).
route(prodloc4,prodloc32,tr13,11031,66186).
route(prodloc4,prodloc33,tr0,13889,361114).
route(prodloc4,prodloc33,tr13,13889,83334).
route(prodloc5,harbor0,tr0,7740,201240).
route(prodloc5,harbor0,tr13,7740,46440).
route(prodloc5,harbor1,tr0,8727,226902).
route(prodloc5,harbor1,tr13,8727,52362).
route(prodloc5,harbor2,tr0,6390,166140).
route(prodloc5,harbor2,tr13,6390,38340).
route(prodloc5,harbor3,tr0,1956,50856).
route(prodloc5,harbor3,tr13,1956,11736).
route(prodloc5,harbor4,tr0,13573,352898).
route(prodloc5,harbor4,tr13,13573,81438).
route(prodloc5,harbor5,tr0,4420,114920).
route(prodloc5,harbor5,tr13,4420,26520).
route(prodloc5,harbor6,tr0,6772,176072).
route(prodloc5,harbor6,tr13,6772,40632).
route(prodloc5,harbor7,tr0,25593,665418).
route(prodloc5,harbor7,tr13,25593,153558).
route(prodloc5,harbor8,tr0,23537,611962).
route(prodloc5,harbor8,tr13,23537,141222).
route(prodloc5,harbor9,tr0,20247,526422).
route(prodloc5,harbor9,tr13,20247,121482).
route(prodloc5,harbor10,tr0,26671,693446).
route(prodloc5,harbor10,tr13,26671,160026).
route(prodloc5,harbor11,tr0,328,8528).
route(prodloc5,harbor11,tr13,328,1968).
route(prodloc5,harbor12,tr0,24199,629174).
route(prodloc5,harbor12,tr13,24199,145194).
route(prodloc5,harbor13,tr0,28151,731926).
route(prodloc5,harbor13,tr13,28151,168906).
route(prodloc5,harbor14,tr0,7432,193232).
route(prodloc5,harbor14,tr13,7432,44592).
route(prodloc5,harbor15,tr0,9500,247000).
route(prodloc5,harbor15,tr13,9500,57000).
route(prodloc5,harbor16,tr0,3568,92768).
route(prodloc5,harbor16,tr13,3568,21408).
route(prodloc5,prodloc0,tr0,1684,43784).
route(prodloc5,prodloc0,tr13,1684,10104).
route(prodloc5,prodloc1,tr0,26069,677794).
route(prodloc5,prodloc1,tr13,26069,156414).
route(prodloc5,prodloc2,tr0,22432,583232).
route(prodloc5,prodloc2,tr13,22432,134592).
route(prodloc5,prodloc3,tr0,21342,554892).
route(prodloc5,prodloc3,tr13,21342,128052).
route(prodloc5,prodloc4,tr0,23692,615992).
route(prodloc5,prodloc4,tr13,23692,142152).
route(prodloc5,prodloc6,tr0,23191,602966).
route(prodloc5,prodloc6,tr13,23191,139146).
route(prodloc5,prodloc7,tr0,4705,122330).
route(prodloc5,prodloc7,tr13,4705,28230).
route(prodloc5,prodloc8,tr0,710,18460).
route(prodloc5,prodloc8,tr13,710,4260).
route(prodloc5,prodloc9,tr0,25945,674570).
route(prodloc5,prodloc9,tr13,25945,155670).
route(prodloc5,prodloc10,tr0,12093,314418).
route(prodloc5,prodloc10,tr13,12093,72558).
route(prodloc5,prodloc11,tr0,17544,456144).
route(prodloc5,prodloc11,tr13,17544,105264).
route(prodloc5,prodloc12,tr0,28064,729664).
route(prodloc5,prodloc12,tr13,28064,168384).
route(prodloc5,prodloc13,tr0,2882,74932).
route(prodloc5,prodloc13,tr13,2882,17292).
route(prodloc5,prodloc14,tr0,12052,313352).
route(prodloc5,prodloc14,tr13,12052,72312).
route(prodloc5,prodloc15,tr0,6895,179270).
route(prodloc5,prodloc15,tr13,6895,41370).
route(prodloc5,prodloc16,tr0,5645,146770).
route(prodloc5,prodloc16,tr13,5645,33870).
route(prodloc5,prodloc17,tr0,14238,370188).
route(prodloc5,prodloc17,tr13,14238,85428).
route(prodloc5,prodloc18,tr0,20406,530556).
route(prodloc5,prodloc18,tr13,20406,122436).
route(prodloc5,prodloc19,tr0,3846,99996).
route(prodloc5,prodloc19,tr13,3846,23076).
route(prodloc5,prodloc20,tr0,2979,77454).
route(prodloc5,prodloc20,tr13,2979,17874).
route(prodloc5,prodloc21,tr0,27705,720330).
route(prodloc5,prodloc21,tr13,27705,166230).
route(prodloc5,prodloc22,tr0,2655,69030).
route(prodloc5,prodloc22,tr13,2655,15930).
route(prodloc5,prodloc23,tr0,24591,639366).
route(prodloc5,prodloc23,tr13,24591,147546).
route(prodloc5,prodloc24,tr0,18341,476866).
route(prodloc5,prodloc24,tr13,18341,110046).
route(prodloc5,prodloc25,tr0,11542,300092).
route(prodloc5,prodloc25,tr13,11542,69252).
route(prodloc5,prodloc26,tr0,27507,715182).
route(prodloc5,prodloc26,tr13,27507,165042).
route(prodloc5,prodloc27,tr0,15664,407264).
route(prodloc5,prodloc27,tr13,15664,93984).
route(prodloc5,prodloc28,tr0,6064,157664).
route(prodloc5,prodloc28,tr13,6064,36384).
route(prodloc5,prodloc29,tr0,4492,116792).
route(prodloc5,prodloc29,tr13,4492,26952).
route(prodloc5,prodloc30,tr0,20548,534248).
route(prodloc5,prodloc30,tr13,20548,123288).
route(prodloc5,prodloc31,tr0,5840,151840).
route(prodloc5,prodloc31,tr13,5840,35040).
route(prodloc5,prodloc32,tr0,23597,613522).
route(prodloc5,prodloc32,tr13,23597,141582).
route(prodloc5,prodloc33,tr0,16296,423696).
route(prodloc5,prodloc33,tr13,16296,97776).
route(prodloc6,harbor0,tr0,11056,287456).
route(prodloc6,harbor0,tr13,11056,66336).
route(prodloc6,harbor1,tr0,14006,364156).
route(prodloc6,harbor1,tr13,14006,84036).
route(prodloc6,harbor2,tr0,3310,86060).
route(prodloc6,harbor2,tr13,3310,19860).
route(prodloc6,harbor3,tr0,6095,158470).
route(prodloc6,harbor3,tr13,6095,36570).
route(prodloc6,harbor4,tr0,24208,629408).
route(prodloc6,harbor4,tr13,24208,145248).
route(prodloc6,harbor5,tr0,4935,128310).
route(prodloc6,harbor5,tr13,4935,29610).
route(prodloc6,harbor6,tr0,9996,259896).
route(prodloc6,harbor6,tr13,9996,59976).
route(prodloc6,harbor7,tr0,14577,379002).
route(prodloc6,harbor7,tr13,14577,87462).
route(prodloc6,harbor8,tr0,24743,643318).
route(prodloc6,harbor8,tr13,24743,148458).
route(prodloc6,harbor9,tr0,3718,96668).
route(prodloc6,harbor9,tr13,3718,22308).
route(prodloc6,harbor10,tr0,2033,52858).
route(prodloc6,harbor10,tr13,2033,12198).
route(prodloc6,harbor11,tr0,926,24076).
route(prodloc6,harbor11,tr13,926,5556).
route(prodloc6,harbor12,tr0,15519,403494).
route(prodloc6,harbor12,tr13,15519,93114).
route(prodloc6,harbor13,tr0,1882,48932).
route(prodloc6,harbor13,tr13,1882,11292).
route(prodloc6,harbor14,tr0,1679,43654).
route(prodloc6,harbor14,tr13,1679,10074).
route(prodloc6,harbor15,tr0,16833,437658).
route(prodloc6,harbor15,tr13,16833,100998).
route(prodloc6,harbor16,tr0,24060,625560).
route(prodloc6,harbor16,tr13,24060,144360).
route(prodloc6,prodloc0,tr0,7889,205114).
route(prodloc6,prodloc0,tr13,7889,47334).
route(prodloc6,prodloc1,tr0,25161,654186).
route(prodloc6,prodloc1,tr13,25161,150966).
route(prodloc6,prodloc2,tr0,10371,269646).
route(prodloc6,prodloc2,tr13,10371,62226).
route(prodloc6,prodloc3,tr0,23116,601016).
route(prodloc6,prodloc3,tr13,23116,138696).
route(prodloc6,prodloc4,tr0,425,11050).
route(prodloc6,prodloc4,tr13,425,2550).
route(prodloc6,prodloc5,tr0,10201,265226).
route(prodloc6,prodloc5,tr13,10201,61206).
route(prodloc6,prodloc7,tr0,5432,141232).
route(prodloc6,prodloc7,tr13,5432,32592).
route(prodloc6,prodloc8,tr0,17905,465530).
route(prodloc6,prodloc8,tr13,17905,107430).
route(prodloc6,prodloc9,tr0,13823,359398).
route(prodloc6,prodloc9,tr13,13823,82938).
route(prodloc6,prodloc10,tr0,20563,534638).
route(prodloc6,prodloc10,tr13,20563,123378).
route(prodloc6,prodloc11,tr0,13595,353470).
route(prodloc6,prodloc11,tr13,13595,81570).
route(prodloc6,prodloc12,tr0,28303,735878).
route(prodloc6,prodloc12,tr13,28303,169818).
route(prodloc6,prodloc13,tr0,2372,61672).
route(prodloc6,prodloc13,tr13,2372,14232).
route(prodloc6,prodloc14,tr0,10756,279656).
route(prodloc6,prodloc14,tr13,10756,64536).
route(prodloc6,prodloc15,tr0,28174,732524).
route(prodloc6,prodloc15,tr13,28174,169044).
route(prodloc6,prodloc16,tr0,4079,106054).
route(prodloc6,prodloc16,tr13,4079,24474).
route(prodloc6,prodloc17,tr0,1336,34736).
route(prodloc6,prodloc17,tr13,1336,8016).
route(prodloc6,prodloc18,tr0,15945,414570).
route(prodloc6,prodloc18,tr13,15945,95670).
route(prodloc6,prodloc19,tr0,27718,720668).
route(prodloc6,prodloc19,tr13,27718,166308).
route(prodloc6,prodloc20,tr0,22143,575718).
route(prodloc6,prodloc20,tr13,22143,132858).
route(prodloc6,prodloc21,tr0,3280,85280).
route(prodloc6,prodloc21,tr13,3280,19680).
route(prodloc6,prodloc22,tr0,1969,51194).
route(prodloc6,prodloc22,tr13,1969,11814).
route(prodloc6,prodloc23,tr0,15466,402116).
route(prodloc6,prodloc23,tr13,15466,92796).
route(prodloc6,prodloc24,tr0,21008,546208).
route(prodloc6,prodloc24,tr13,21008,126048).
route(prodloc6,prodloc25,tr0,13834,359684).
route(prodloc6,prodloc25,tr13,13834,83004).
route(prodloc6,prodloc26,tr0,25501,663026).
route(prodloc6,prodloc26,tr13,25501,153006).
route(prodloc6,prodloc27,tr0,26876,698776).
route(prodloc6,prodloc27,tr13,26876,161256).
route(prodloc6,prodloc28,tr0,19007,494182).
route(prodloc6,prodloc28,tr13,19007,114042).
route(prodloc6,prodloc29,tr0,10150,263900).
route(prodloc6,prodloc29,tr13,10150,60900).
route(prodloc6,prodloc30,tr0,21245,552370).
route(prodloc6,prodloc30,tr13,21245,127470).
route(prodloc6,prodloc31,tr0,17326,450476).
route(prodloc6,prodloc31,tr13,17326,103956).
route(prodloc6,prodloc32,tr0,15789,410514).
route(prodloc6,prodloc32,tr13,15789,94734).
route(prodloc6,prodloc33,tr0,16318,424268).
route(prodloc6,prodloc33,tr13,16318,97908).
route(prodloc7,harbor0,tr0,27959,726934).
route(prodloc7,harbor0,tr13,27959,167754).
route(prodloc7,harbor1,tr0,14020,364520).
route(prodloc7,harbor1,tr13,14020,84120).
route(prodloc7,harbor2,tr0,18953,492778).
route(prodloc7,harbor2,tr13,18953,113718).
route(prodloc7,harbor3,tr0,7970,207220).
route(prodloc7,harbor3,tr13,7970,47820).
route(prodloc7,harbor4,tr0,17942,466492).
route(prodloc7,harbor4,tr13,17942,107652).
route(prodloc7,harbor5,tr0,15603,405678).
route(prodloc7,harbor5,tr13,15603,93618).
route(prodloc7,harbor6,tr0,13274,345124).
route(prodloc7,harbor6,tr13,13274,79644).
route(prodloc7,harbor7,tr0,4331,112606).
route(prodloc7,harbor7,tr13,4331,25986).
route(prodloc7,harbor8,tr0,20586,535236).
route(prodloc7,harbor8,tr13,20586,123516).
route(prodloc7,harbor9,tr0,6442,167492).
route(prodloc7,harbor9,tr13,6442,38652).
route(prodloc7,harbor10,tr0,19223,499798).
route(prodloc7,harbor10,tr13,19223,115338).
route(prodloc7,harbor11,tr0,248,6448).
route(prodloc7,harbor11,tr13,248,1488).
route(prodloc7,harbor12,tr0,15256,396656).
route(prodloc7,harbor12,tr13,15256,91536).
route(prodloc7,harbor13,tr0,25328,658528).
route(prodloc7,harbor13,tr13,25328,151968).
route(prodloc7,harbor14,tr0,10811,281086).
route(prodloc7,harbor14,tr13,10811,64866).
route(prodloc7,harbor15,tr0,5617,146042).
route(prodloc7,harbor15,tr13,5617,33702).
route(prodloc7,harbor16,tr0,23597,613522).
route(prodloc7,harbor16,tr13,23597,141582).
route(prodloc7,prodloc0,tr0,7659,199134).
route(prodloc7,prodloc0,tr13,7659,45954).
route(prodloc7,prodloc1,tr0,26570,690820).
route(prodloc7,prodloc1,tr13,26570,159420).
route(prodloc7,prodloc2,tr0,15781,410306).
route(prodloc7,prodloc2,tr13,15781,94686).
route(prodloc7,prodloc3,tr0,9202,239252).
route(prodloc7,prodloc3,tr13,9202,55212).
route(prodloc7,prodloc4,tr0,17238,448188).
route(prodloc7,prodloc4,tr13,17238,103428).
route(prodloc7,prodloc5,tr0,19484,506584).
route(prodloc7,prodloc5,tr13,19484,116904).
route(prodloc7,prodloc6,tr0,23822,619372).
route(prodloc7,prodloc6,tr13,23822,142932).
route(prodloc7,prodloc8,tr0,25536,663936).
route(prodloc7,prodloc8,tr13,25536,153216).
route(prodloc7,prodloc9,tr0,2377,61802).
route(prodloc7,prodloc9,tr13,2377,14262).
route(prodloc7,prodloc10,tr0,6792,176592).
route(prodloc7,prodloc10,tr13,6792,40752).
route(prodloc7,prodloc11,tr0,4805,124930).
route(prodloc7,prodloc11,tr13,4805,28830).
route(prodloc7,prodloc12,tr0,27039,703014).
route(prodloc7,prodloc12,tr13,27039,162234).
route(prodloc7,prodloc13,tr0,5988,155688).
route(prodloc7,prodloc13,tr13,5988,35928).
route(prodloc7,prodloc14,tr0,27140,705640).
route(prodloc7,prodloc14,tr13,27140,162840).
route(prodloc7,prodloc15,tr0,20311,528086).
route(prodloc7,prodloc15,tr13,20311,121866).
route(prodloc7,prodloc16,tr0,725,18850).
route(prodloc7,prodloc16,tr13,725,4350).
route(prodloc7,prodloc17,tr0,5588,145288).
route(prodloc7,prodloc17,tr13,5588,33528).
route(prodloc7,prodloc18,tr0,16158,420108).
route(prodloc7,prodloc18,tr13,16158,96948).
route(prodloc7,prodloc19,tr0,18340,476840).
route(prodloc7,prodloc19,tr13,18340,110040).
route(prodloc7,prodloc20,tr0,26609,691834).
route(prodloc7,prodloc20,tr13,26609,159654).
route(prodloc7,prodloc21,tr0,28892,751192).
route(prodloc7,prodloc21,tr13,28892,173352).
route(prodloc7,prodloc22,tr0,21143,549718).
route(prodloc7,prodloc22,tr13,21143,126858).
route(prodloc7,prodloc23,tr0,14010,364260).
route(prodloc7,prodloc23,tr13,14010,84060).
route(prodloc7,prodloc24,tr0,28572,742872).
route(prodloc7,prodloc24,tr13,28572,171432).
route(prodloc7,prodloc25,tr0,7326,190476).
route(prodloc7,prodloc25,tr13,7326,43956).
route(prodloc7,prodloc26,tr0,19569,508794).
route(prodloc7,prodloc26,tr13,19569,117414).
route(prodloc7,prodloc27,tr0,22833,593658).
route(prodloc7,prodloc27,tr13,22833,136998).
route(prodloc7,prodloc28,tr0,13481,350506).
route(prodloc7,prodloc28,tr13,13481,80886).
route(prodloc7,prodloc29,tr0,21726,564876).
route(prodloc7,prodloc29,tr13,21726,130356).
route(prodloc7,prodloc30,tr0,14316,372216).
route(prodloc7,prodloc30,tr13,14316,85896).
route(prodloc7,prodloc31,tr0,5367,139542).
route(prodloc7,prodloc31,tr13,5367,32202).
route(prodloc7,prodloc32,tr0,5842,151892).
route(prodloc7,prodloc32,tr13,5842,35052).
route(prodloc7,prodloc33,tr0,22369,581594).
route(prodloc7,prodloc33,tr13,22369,134214).
route(prodloc8,harbor0,tr0,11306,293956).
route(prodloc8,harbor0,tr13,11306,67836).
route(prodloc8,harbor1,tr0,18025,468650).
route(prodloc8,harbor1,tr13,18025,108150).
route(prodloc8,harbor2,tr0,16271,423046).
route(prodloc8,harbor2,tr13,16271,97626).
route(prodloc8,harbor3,tr0,10434,271284).
route(prodloc8,harbor3,tr13,10434,62604).
route(prodloc8,harbor4,tr0,22356,581256).
route(prodloc8,harbor4,tr13,22356,134136).
route(prodloc8,harbor5,tr0,5634,146484).
route(prodloc8,harbor5,tr13,5634,33804).
route(prodloc8,harbor6,tr0,14345,372970).
route(prodloc8,harbor6,tr13,14345,86070).
route(prodloc8,harbor7,tr0,5759,149734).
route(prodloc8,harbor7,tr13,5759,34554).
route(prodloc8,harbor8,tr0,699,18174).
route(prodloc8,harbor8,tr13,699,4194).
route(prodloc8,harbor9,tr0,17673,459498).
route(prodloc8,harbor9,tr13,17673,106038).
route(prodloc8,harbor10,tr0,3391,88166).
route(prodloc8,harbor10,tr13,3391,20346).
route(prodloc8,harbor11,tr0,28666,745316).
route(prodloc8,harbor11,tr13,28666,171996).
route(prodloc8,harbor12,tr0,8090,210340).
route(prodloc8,harbor12,tr13,8090,48540).
route(prodloc8,harbor13,tr0,25849,672074).
route(prodloc8,harbor13,tr13,25849,155094).
route(prodloc8,harbor14,tr0,19919,517894).
route(prodloc8,harbor14,tr13,19919,119514).
route(prodloc8,harbor15,tr0,8406,218556).
route(prodloc8,harbor15,tr13,8406,50436).
route(prodloc8,harbor16,tr0,23441,609466).
route(prodloc8,harbor16,tr13,23441,140646).
route(prodloc8,prodloc0,tr0,13468,350168).
route(prodloc8,prodloc0,tr13,13468,80808).
route(prodloc8,prodloc1,tr0,18449,479674).
route(prodloc8,prodloc1,tr13,18449,110694).
route(prodloc8,prodloc2,tr0,9308,242008).
route(prodloc8,prodloc2,tr13,9308,55848).
route(prodloc8,prodloc3,tr0,14822,385372).
route(prodloc8,prodloc3,tr13,14822,88932).
route(prodloc8,prodloc4,tr0,11013,286338).
route(prodloc8,prodloc4,tr13,11013,66078).
route(prodloc8,prodloc5,tr0,20544,534144).
route(prodloc8,prodloc5,tr13,20544,123264).
route(prodloc8,prodloc6,tr0,14962,389012).
route(prodloc8,prodloc6,tr13,14962,89772).
route(prodloc8,prodloc7,tr0,14210,369460).
route(prodloc8,prodloc7,tr13,14210,85260).
route(prodloc8,prodloc9,tr0,21539,560014).
route(prodloc8,prodloc9,tr13,21539,129234).
route(prodloc8,prodloc10,tr0,2170,56420).
route(prodloc8,prodloc10,tr13,2170,13020).
route(prodloc8,prodloc11,tr0,22779,592254).
route(prodloc8,prodloc11,tr13,22779,136674).
route(prodloc8,prodloc12,tr0,20449,531674).
route(prodloc8,prodloc12,tr13,20449,122694).
route(prodloc8,prodloc13,tr0,185,4810).
route(prodloc8,prodloc13,tr13,185,1110).
route(prodloc8,prodloc14,tr0,3999,103974).
route(prodloc8,prodloc14,tr13,3999,23994).
route(prodloc8,prodloc15,tr0,20947,544622).
route(prodloc8,prodloc15,tr13,20947,125682).
route(prodloc8,prodloc16,tr0,21686,563836).
route(prodloc8,prodloc16,tr13,21686,130116).
route(prodloc8,prodloc17,tr0,23101,600626).
route(prodloc8,prodloc17,tr13,23101,138606).
route(prodloc8,prodloc18,tr0,17137,445562).
route(prodloc8,prodloc18,tr13,17137,102822).
route(prodloc8,prodloc19,tr0,28398,738348).
route(prodloc8,prodloc19,tr13,28398,170388).
route(prodloc8,prodloc20,tr0,3861,100386).
route(prodloc8,prodloc20,tr13,3861,23166).
route(prodloc8,prodloc21,tr0,17565,456690).
route(prodloc8,prodloc21,tr13,17565,105390).
route(prodloc8,prodloc22,tr0,16389,426114).
route(prodloc8,prodloc22,tr13,16389,98334).
route(prodloc8,prodloc23,tr0,17740,461240).
route(prodloc8,prodloc23,tr13,17740,106440).
route(prodloc8,prodloc24,tr0,1027,26702).
route(prodloc8,prodloc24,tr13,1027,6162).
route(prodloc8,prodloc25,tr0,4752,123552).
route(prodloc8,prodloc25,tr13,4752,28512).
route(prodloc8,prodloc26,tr0,25056,651456).
route(prodloc8,prodloc26,tr13,25056,150336).
route(prodloc8,prodloc27,tr0,6417,166842).
route(prodloc8,prodloc27,tr13,6417,38502).
route(prodloc8,prodloc28,tr0,17457,453882).
route(prodloc8,prodloc28,tr13,17457,104742).
route(prodloc8,prodloc29,tr0,2040,53040).
route(prodloc8,prodloc29,tr13,2040,12240).
route(prodloc8,prodloc30,tr0,868,22568).
route(prodloc8,prodloc30,tr13,868,5208).
route(prodloc8,prodloc31,tr0,27643,718718).
route(prodloc8,prodloc31,tr13,27643,165858).
route(prodloc8,prodloc32,tr0,4052,105352).
route(prodloc8,prodloc32,tr13,4052,24312).
route(prodloc8,prodloc33,tr0,14169,368394).
route(prodloc8,prodloc33,tr13,14169,85014).
route(prodloc9,harbor0,tr0,12587,327262).
route(prodloc9,harbor0,tr13,12587,75522).
route(prodloc9,harbor1,tr0,14339,372814).
route(prodloc9,harbor1,tr13,14339,86034).
route(prodloc9,harbor2,tr0,20394,530244).
route(prodloc9,harbor2,tr13,20394,122364).
route(prodloc9,harbor3,tr0,979,25454).
route(prodloc9,harbor3,tr13,979,5874).
route(prodloc9,harbor4,tr0,20091,522366).
route(prodloc9,harbor4,tr13,20091,120546).
route(prodloc9,harbor5,tr0,14649,380874).
route(prodloc9,harbor5,tr13,14649,87894).
route(prodloc9,harbor6,tr0,27686,719836).
route(prodloc9,harbor6,tr13,27686,166116).
route(prodloc9,harbor7,tr0,26163,680238).
route(prodloc9,harbor7,tr13,26163,156978).
route(prodloc9,harbor8,tr0,12592,327392).
route(prodloc9,harbor8,tr13,12592,75552).
route(prodloc9,harbor9,tr0,1417,36842).
route(prodloc9,harbor9,tr13,1417,8502).
route(prodloc9,harbor10,tr0,5764,149864).
route(prodloc9,harbor10,tr13,5764,34584).
route(prodloc9,harbor11,tr0,11458,297908).
route(prodloc9,harbor11,tr13,11458,68748).
route(prodloc9,harbor12,tr0,1955,50830).
route(prodloc9,harbor12,tr13,1955,11730).
route(prodloc9,harbor13,tr0,6539,170014).
route(prodloc9,harbor13,tr13,6539,39234).
route(prodloc9,harbor14,tr0,13078,340028).
route(prodloc9,harbor14,tr13,13078,78468).
route(prodloc9,harbor15,tr0,3424,89024).
route(prodloc9,harbor15,tr13,3424,20544).
route(prodloc9,harbor16,tr0,8830,229580).
route(prodloc9,harbor16,tr13,8830,52980).
route(prodloc9,prodloc0,tr0,21939,570414).
route(prodloc9,prodloc0,tr15,21939,702048).
route(prodloc9,prodloc1,tr0,20898,543348).
route(prodloc9,prodloc1,tr13,20898,125388).
route(prodloc9,prodloc2,tr0,18047,469222).
route(prodloc9,prodloc2,tr13,18047,108282).
route(prodloc9,prodloc3,tr0,9173,238498).
route(prodloc9,prodloc3,tr13,9173,55038).
route(prodloc9,prodloc4,tr0,12379,321854).
route(prodloc9,prodloc4,tr13,12379,74274).
route(prodloc9,prodloc5,tr0,18280,475280).
route(prodloc9,prodloc5,tr13,18280,109680).
route(prodloc9,prodloc6,tr0,6158,160108).
route(prodloc9,prodloc6,tr13,6158,36948).
route(prodloc9,prodloc7,tr0,22482,584532).
route(prodloc9,prodloc7,tr13,22482,134892).
route(prodloc9,prodloc8,tr0,12845,333970).
route(prodloc9,prodloc8,tr13,12845,77070).
route(prodloc9,prodloc10,tr13,6816,40896).
route(prodloc9,prodloc10,tr15,6816,218112).
route(prodloc9,prodloc11,tr0,10489,272714).
route(prodloc9,prodloc11,tr13,10489,62934).
route(prodloc9,prodloc12,tr0,8018,208468).
route(prodloc9,prodloc12,tr13,8018,48108).
route(prodloc9,prodloc13,tr0,3560,92560).
route(prodloc9,prodloc13,tr13,3560,21360).
route(prodloc9,prodloc14,tr0,5147,133822).
route(prodloc9,prodloc14,tr13,5147,30882).
route(prodloc9,prodloc15,tr0,6808,177008).
route(prodloc9,prodloc15,tr13,6808,40848).
route(prodloc9,prodloc16,tr0,23785,618410).
route(prodloc9,prodloc16,tr13,23785,142710).
route(prodloc9,prodloc17,tr0,16013,416338).
route(prodloc9,prodloc17,tr13,16013,96078).
route(prodloc9,prodloc18,tr0,19750,513500).
route(prodloc9,prodloc18,tr13,19750,118500).
route(prodloc9,prodloc19,tr0,14903,387478).
route(prodloc9,prodloc19,tr13,14903,89418).
route(prodloc9,prodloc20,tr0,28676,745576).
route(prodloc9,prodloc20,tr13,28676,172056).
route(prodloc9,prodloc21,tr0,25489,662714).
route(prodloc9,prodloc21,tr13,25489,152934).
route(prodloc9,prodloc22,tr0,28087,730262).
route(prodloc9,prodloc22,tr13,28087,168522).
route(prodloc9,prodloc23,tr0,6312,164112).
route(prodloc9,prodloc23,tr15,6312,201984).
route(prodloc9,prodloc24,tr0,25028,650728).
route(prodloc9,prodloc24,tr13,25028,150168).
route(prodloc9,prodloc25,tr0,5213,135538).
route(prodloc9,prodloc25,tr13,5213,31278).
route(prodloc9,prodloc26,tr0,20525,533650).
route(prodloc9,prodloc26,tr13,20525,123150).
route(prodloc9,prodloc27,tr0,3745,97370).
route(prodloc9,prodloc27,tr13,3745,22470).
route(prodloc9,prodloc28,tr0,17718,460668).
route(prodloc9,prodloc28,tr13,17718,106308).
route(prodloc9,prodloc29,tr0,1945,50570).
route(prodloc9,prodloc29,tr13,1945,11670).
route(prodloc9,prodloc30,tr0,3005,78130).
route(prodloc9,prodloc30,tr13,3005,18030).
route(prodloc9,prodloc31,tr0,25382,659932).
route(prodloc9,prodloc31,tr13,25382,152292).
route(prodloc9,prodloc32,tr0,18813,489138).
route(prodloc9,prodloc32,tr13,18813,112878).
route(prodloc9,prodloc33,tr0,4814,125164).
route(prodloc9,prodloc33,tr13,4814,28884).
route(prodloc10,harbor0,tr0,14192,368992).
route(prodloc10,harbor0,tr13,14192,85152).
route(prodloc10,harbor1,tr0,25933,674258).
route(prodloc10,harbor1,tr13,25933,155598).
route(prodloc10,harbor2,tr0,24768,643968).
route(prodloc10,harbor2,tr13,24768,148608).
route(prodloc10,harbor3,tr0,25261,656786).
route(prodloc10,harbor3,tr13,25261,151566).
route(prodloc10,harbor4,tr0,12325,320450).
route(prodloc10,harbor4,tr13,12325,73950).
route(prodloc10,harbor5,tr0,12153,315978).
route(prodloc10,harbor5,tr13,12153,72918).
route(prodloc10,harbor6,tr0,4003,104078).
route(prodloc10,harbor6,tr13,4003,24018).
route(prodloc10,harbor7,tr0,16543,430118).
route(prodloc10,harbor7,tr13,16543,99258).
route(prodloc10,harbor8,tr0,12564,326664).
route(prodloc10,harbor8,tr13,12564,75384).
route(prodloc10,harbor9,tr0,19637,510562).
route(prodloc10,harbor9,tr13,19637,117822).
route(prodloc10,harbor10,tr0,27239,708214).
route(prodloc10,harbor10,tr13,27239,163434).
route(prodloc10,harbor11,tr0,18032,468832).
route(prodloc10,harbor11,tr13,18032,108192).
route(prodloc10,harbor12,tr0,16272,423072).
route(prodloc10,harbor12,tr13,16272,97632).
route(prodloc10,harbor13,tr0,19986,519636).
route(prodloc10,harbor13,tr13,19986,119916).
route(prodloc10,harbor14,tr0,21906,569556).
route(prodloc10,harbor14,tr13,21906,131436).
route(prodloc10,harbor15,tr0,14202,369252).
route(prodloc10,harbor15,tr13,14202,85212).
route(prodloc10,harbor16,tr0,1854,48204).
route(prodloc10,harbor16,tr13,1854,11124).
route(prodloc10,prodloc0,tr0,22245,578370).
route(prodloc10,prodloc0,tr13,22245,133470).
route(prodloc10,prodloc1,tr0,7260,188760).
route(prodloc10,prodloc1,tr13,7260,43560).
route(prodloc10,prodloc2,tr0,4743,123318).
route(prodloc10,prodloc2,tr13,4743,28458).
route(prodloc10,prodloc3,tr0,8716,226616).
route(prodloc10,prodloc3,tr13,8716,52296).
route(prodloc10,prodloc4,tr0,26575,690950).
route(prodloc10,prodloc4,tr13,26575,159450).
route(prodloc10,prodloc5,tr0,15873,412698).
route(prodloc10,prodloc5,tr13,15873,95238).
route(prodloc10,prodloc6,tr0,14664,381264).
route(prodloc10,prodloc6,tr13,14664,87984).
route(prodloc10,prodloc7,tr0,3901,101426).
route(prodloc10,prodloc7,tr13,3901,23406).
route(prodloc10,prodloc8,tr0,22262,578812).
route(prodloc10,prodloc8,tr13,22262,133572).
route(prodloc10,prodloc9,tr0,26452,687752).
route(prodloc10,prodloc9,tr13,26452,158712).
route(prodloc10,prodloc11,tr0,10856,282256).
route(prodloc10,prodloc11,tr13,10856,65136).
route(prodloc10,prodloc12,tr0,9367,243542).
route(prodloc10,prodloc12,tr13,9367,56202).
route(prodloc10,prodloc13,tr0,32,832).
route(prodloc10,prodloc13,tr13,32,192).
route(prodloc10,prodloc14,tr0,6721,174746).
route(prodloc10,prodloc14,tr13,6721,40326).
route(prodloc10,prodloc15,tr0,7859,204334).
route(prodloc10,prodloc15,tr13,7859,47154).
route(prodloc10,prodloc16,tr0,22589,587314).
route(prodloc10,prodloc16,tr13,22589,135534).
route(prodloc10,prodloc17,tr0,16439,427414).
route(prodloc10,prodloc17,tr13,16439,98634).
route(prodloc10,prodloc18,tr0,13767,357942).
route(prodloc10,prodloc18,tr13,13767,82602).
route(prodloc10,prodloc19,tr0,20180,524680).
route(prodloc10,prodloc19,tr13,20180,121080).
route(prodloc10,prodloc20,tr0,20139,523614).
route(prodloc10,prodloc20,tr13,20139,120834).
route(prodloc10,prodloc21,tr0,26694,694044).
route(prodloc10,prodloc21,tr13,26694,160164).
route(prodloc10,prodloc22,tr0,4107,106782).
route(prodloc10,prodloc22,tr13,4107,24642).
route(prodloc10,prodloc23,tr0,2839,73814).
route(prodloc10,prodloc23,tr13,2839,17034).
route(prodloc10,prodloc24,tr0,1223,31798).
route(prodloc10,prodloc24,tr13,1223,7338).
route(prodloc10,prodloc25,tr0,13288,345488).
route(prodloc10,prodloc25,tr15,13288,425216).
route(prodloc10,prodloc26,tr0,28037,728962).
route(prodloc10,prodloc26,tr13,28037,168222).
route(prodloc10,prodloc27,tr0,902,23452).
route(prodloc10,prodloc27,tr13,902,5412).
route(prodloc10,prodloc28,tr0,16861,438386).
route(prodloc10,prodloc28,tr13,16861,101166).
route(prodloc10,prodloc29,tr0,21206,551356).
route(prodloc10,prodloc29,tr13,21206,127236).
route(prodloc10,prodloc30,tr0,8962,233012).
route(prodloc10,prodloc30,tr13,8962,53772).
route(prodloc10,prodloc31,tr0,10053,261378).
route(prodloc10,prodloc31,tr13,10053,60318).
route(prodloc10,prodloc32,tr0,7559,196534).
route(prodloc10,prodloc32,tr13,7559,45354).
route(prodloc10,prodloc33,tr0,4877,126802).
route(prodloc10,prodloc33,tr13,4877,29262).
route(prodloc11,harbor0,tr0,1429,37154).
route(prodloc11,harbor0,tr13,1429,8574).
route(prodloc11,harbor1,tr0,335,8710).
route(prodloc11,harbor1,tr13,335,2010).
route(prodloc11,harbor2,tr0,20264,526864).
route(prodloc11,harbor2,tr13,20264,121584).
route(prodloc11,harbor3,tr0,27331,710606).
route(prodloc11,harbor3,tr13,27331,163986).
route(prodloc11,harbor4,tr0,23340,606840).
route(prodloc11,harbor4,tr13,23340,140040).
route(prodloc11,harbor5,tr0,14623,380198).
route(prodloc11,harbor5,tr13,14623,87738).
route(prodloc11,harbor6,tr0,24794,644644).
route(prodloc11,harbor6,tr13,24794,148764).
route(prodloc11,harbor7,tr0,19723,512798).
route(prodloc11,harbor7,tr13,19723,118338).
route(prodloc11,harbor8,tr0,20015,520390).
route(prodloc11,harbor8,tr13,20015,120090).
route(prodloc11,harbor9,tr0,15621,406146).
route(prodloc11,harbor9,tr13,15621,93726).
route(prodloc11,harbor10,tr0,1426,37076).
route(prodloc11,harbor10,tr13,1426,8556).
route(prodloc11,harbor11,tr0,22564,586664).
route(prodloc11,harbor11,tr13,22564,135384).
route(prodloc11,harbor12,tr0,11342,294892).
route(prodloc11,harbor12,tr13,11342,68052).
route(prodloc11,harbor13,tr0,3260,84760).
route(prodloc11,harbor13,tr13,3260,19560).
route(prodloc11,harbor14,tr0,20762,539812).
route(prodloc11,harbor14,tr13,20762,124572).
route(prodloc11,harbor15,tr0,24712,642512).
route(prodloc11,harbor15,tr13,24712,148272).
route(prodloc11,harbor16,tr0,339,8814).
route(prodloc11,harbor16,tr13,339,2034).
route(prodloc11,prodloc0,tr0,5741,149266).
route(prodloc11,prodloc0,tr13,5741,34446).
route(prodloc11,prodloc1,tr0,9095,236470).
route(prodloc11,prodloc1,tr13,9095,54570).
route(prodloc11,prodloc2,tr0,19370,503620).
route(prodloc11,prodloc2,tr13,19370,116220).
route(prodloc11,prodloc3,tr0,26244,682344).
route(prodloc11,prodloc3,tr13,26244,157464).
route(prodloc11,prodloc4,tr0,20405,530530).
route(prodloc11,prodloc4,tr13,20405,122430).
route(prodloc11,prodloc5,tr0,27786,722436).
route(prodloc11,prodloc5,tr13,27786,166716).
route(prodloc11,prodloc6,tr0,20143,523718).
route(prodloc11,prodloc6,tr13,20143,120858).
route(prodloc11,prodloc7,tr0,16066,417716).
route(prodloc11,prodloc7,tr13,16066,96396).
route(prodloc11,prodloc8,tr0,5843,151918).
route(prodloc11,prodloc8,tr13,5843,35058).
route(prodloc11,prodloc9,tr0,4415,114790).
route(prodloc11,prodloc9,tr13,4415,26490).
route(prodloc11,prodloc10,tr0,26720,694720).
route(prodloc11,prodloc10,tr13,26720,160320).
route(prodloc11,prodloc12,tr0,16064,417664).
route(prodloc11,prodloc12,tr13,16064,96384).
route(prodloc11,prodloc13,tr0,12259,318734).
route(prodloc11,prodloc13,tr13,12259,73554).
route(prodloc11,prodloc14,tr0,18458,479908).
route(prodloc11,prodloc14,tr13,18458,110748).
route(prodloc11,prodloc15,tr0,19471,506246).
route(prodloc11,prodloc15,tr13,19471,116826).
route(prodloc11,prodloc16,tr0,26228,681928).
route(prodloc11,prodloc16,tr13,26228,157368).
route(prodloc11,prodloc17,tr0,1166,30316).
route(prodloc11,prodloc17,tr15,1166,37312).
route(prodloc11,prodloc18,tr0,3414,88764).
route(prodloc11,prodloc18,tr13,3414,20484).
route(prodloc11,prodloc19,tr0,27367,711542).
route(prodloc11,prodloc19,tr13,27367,164202).
route(prodloc11,prodloc20,tr0,14902,387452).
route(prodloc11,prodloc20,tr13,14902,89412).
route(prodloc11,prodloc21,tr0,11868,308568).
route(prodloc11,prodloc21,tr13,11868,71208).
route(prodloc11,prodloc22,tr0,10303,267878).
route(prodloc11,prodloc22,tr13,10303,61818).
route(prodloc11,prodloc23,tr0,25170,654420).
route(prodloc11,prodloc23,tr13,25170,151020).
route(prodloc11,prodloc24,tr0,27752,721552).
route(prodloc11,prodloc24,tr13,27752,166512).
route(prodloc11,prodloc25,tr0,13034,338884).
route(prodloc11,prodloc25,tr13,13034,78204).
route(prodloc11,prodloc26,tr0,7305,189930).
route(prodloc11,prodloc26,tr13,7305,43830).
route(prodloc11,prodloc27,tr0,26007,676182).
route(prodloc11,prodloc27,tr13,26007,156042).
route(prodloc11,prodloc28,tr0,18576,482976).
route(prodloc11,prodloc28,tr13,18576,111456).
route(prodloc11,prodloc29,tr0,13737,357162).
route(prodloc11,prodloc29,tr13,13737,82422).
route(prodloc11,prodloc30,tr0,28197,733122).
route(prodloc11,prodloc30,tr13,28197,169182).
route(prodloc11,prodloc31,tr0,25012,650312).
route(prodloc11,prodloc31,tr13,25012,150072).
route(prodloc11,prodloc32,tr0,23199,603174).
route(prodloc11,prodloc32,tr13,23199,139194).
route(prodloc11,prodloc33,tr0,22262,578812).
route(prodloc11,prodloc33,tr13,22262,133572).
route(prodloc12,harbor0,tr0,10299,267774).
route(prodloc12,harbor0,tr13,10299,61794).
route(prodloc12,harbor1,tr0,3840,99840).
route(prodloc12,harbor1,tr13,3840,23040).
route(prodloc12,harbor2,tr0,7262,188812).
route(prodloc12,harbor2,tr13,7262,43572).
route(prodloc12,harbor3,tr0,9727,252902).
route(prodloc12,harbor3,tr13,9727,58362).
route(prodloc12,harbor4,tr0,15488,402688).
route(prodloc12,harbor4,tr13,15488,92928).
route(prodloc12,harbor5,tr0,4449,115674).
route(prodloc12,harbor5,tr13,4449,26694).
route(prodloc12,harbor6,tr0,27276,709176).
route(prodloc12,harbor6,tr13,27276,163656).
route(prodloc12,harbor7,tr0,25412,660712).
route(prodloc12,harbor7,tr13,25412,152472).
route(prodloc12,harbor8,tr0,12962,337012).
route(prodloc12,harbor8,tr13,12962,77772).
route(prodloc12,harbor9,tr0,27011,702286).
route(prodloc12,harbor9,tr13,27011,162066).
route(prodloc12,harbor10,tr0,9854,256204).
route(prodloc12,harbor10,tr13,9854,59124).
route(prodloc12,harbor11,tr0,20571,534846).
route(prodloc12,harbor11,tr13,20571,123426).
route(prodloc12,harbor12,tr0,23504,611104).
route(prodloc12,harbor12,tr13,23504,141024).
route(prodloc12,harbor13,tr0,28854,750204).
route(prodloc12,harbor13,tr13,28854,173124).
route(prodloc12,harbor14,tr0,4627,120302).
route(prodloc12,harbor14,tr13,4627,27762).
route(prodloc12,harbor15,tr0,2128,55328).
route(prodloc12,harbor15,tr13,2128,12768).
route(prodloc12,harbor16,tr0,22659,589134).
route(prodloc12,harbor16,tr13,22659,135954).
route(prodloc12,prodloc0,tr0,24642,640692).
route(prodloc12,prodloc0,tr13,24642,147852).
route(prodloc12,prodloc1,tr0,7489,194714).
route(prodloc12,prodloc1,tr13,7489,44934).
route(prodloc12,prodloc2,tr0,2184,56784).
route(prodloc12,prodloc2,tr13,2184,13104).
route(prodloc12,prodloc3,tr0,25926,674076).
route(prodloc12,prodloc3,tr13,25926,155556).
route(prodloc12,prodloc4,tr0,6182,160732).
route(prodloc12,prodloc4,tr13,6182,37092).
route(prodloc12,prodloc5,tr0,24448,635648).
route(prodloc12,prodloc5,tr13,24448,146688).
route(prodloc12,prodloc6,tr0,4680,121680).
route(prodloc12,prodloc6,tr13,4680,28080).
route(prodloc12,prodloc7,tr0,25183,654758).
route(prodloc12,prodloc7,tr13,25183,151098).
route(prodloc12,prodloc8,tr0,28267,734942).
route(prodloc12,prodloc8,tr13,28267,169602).
route(prodloc12,prodloc9,tr0,19109,496834).
route(prodloc12,prodloc9,tr13,19109,114654).
route(prodloc12,prodloc10,tr0,13728,356928).
route(prodloc12,prodloc10,tr13,13728,82368).
route(prodloc12,prodloc11,tr0,4021,104546).
route(prodloc12,prodloc11,tr13,4021,24126).
route(prodloc12,prodloc13,tr0,10221,265746).
route(prodloc12,prodloc13,tr13,10221,61326).
route(prodloc12,prodloc14,tr0,27913,725738).
route(prodloc12,prodloc14,tr13,27913,167478).
route(prodloc12,prodloc15,tr0,3625,94250).
route(prodloc12,prodloc15,tr13,3625,21750).
route(prodloc12,prodloc16,tr0,22784,592384).
route(prodloc12,prodloc16,tr13,22784,136704).
route(prodloc12,prodloc17,tr0,19010,494260).
route(prodloc12,prodloc17,tr13,19010,114060).
route(prodloc12,prodloc18,tr0,27274,709124).
route(prodloc12,prodloc18,tr13,27274,163644).
route(prodloc12,prodloc19,tr0,3164,82264).
route(prodloc12,prodloc19,tr13,3164,18984).
route(prodloc12,prodloc20,tr0,8796,228696).
route(prodloc12,prodloc20,tr13,8796,52776).
route(prodloc12,prodloc21,tr0,14328,372528).
route(prodloc12,prodloc21,tr13,14328,85968).
route(prodloc12,prodloc22,tr0,15748,409448).
route(prodloc12,prodloc22,tr13,15748,94488).
route(prodloc12,prodloc23,tr0,18100,470600).
route(prodloc12,prodloc23,tr13,18100,108600).
route(prodloc12,prodloc24,tr0,22149,575874).
route(prodloc12,prodloc24,tr13,22149,132894).
route(prodloc12,prodloc25,tr0,4635,120510).
route(prodloc12,prodloc25,tr13,4635,27810).
route(prodloc12,prodloc26,tr0,21175,550550).
route(prodloc12,prodloc26,tr13,21175,127050).
route(prodloc12,prodloc27,tr0,8045,209170).
route(prodloc12,prodloc27,tr13,8045,48270).
route(prodloc12,prodloc28,tr0,10604,275704).
route(prodloc12,prodloc28,tr13,10604,63624).
route(prodloc12,prodloc29,tr0,13645,354770).
route(prodloc12,prodloc29,tr13,13645,81870).
route(prodloc12,prodloc30,tr0,6639,172614).
route(prodloc12,prodloc30,tr13,6639,39834).
route(prodloc12,prodloc31,tr0,23465,610090).
route(prodloc12,prodloc31,tr13,23465,140790).
route(prodloc12,prodloc32,tr0,14224,369824).
route(prodloc12,prodloc32,tr13,14224,85344).
route(prodloc12,prodloc33,tr0,5696,148096).
route(prodloc12,prodloc33,tr13,5696,34176).
route(prodloc13,harbor0,tr0,22437,583362).
route(prodloc13,harbor0,tr13,22437,134622).
route(prodloc13,harbor1,tr0,22276,579176).
route(prodloc13,harbor1,tr13,22276,133656).
route(prodloc13,harbor2,tr0,6108,158808).
route(prodloc13,harbor2,tr13,6108,36648).
route(prodloc13,harbor3,tr0,27921,725946).
route(prodloc13,harbor3,tr13,27921,167526).
route(prodloc13,harbor4,tr0,17764,461864).
route(prodloc13,harbor4,tr13,17764,106584).
route(prodloc13,harbor5,tr0,19713,512538).
route(prodloc13,harbor5,tr13,19713,118278).
route(prodloc13,harbor6,tr0,24147,627822).
route(prodloc13,harbor6,tr13,24147,144882).
route(prodloc13,harbor7,tr0,8075,209950).
route(prodloc13,harbor7,tr13,8075,48450).
route(prodloc13,harbor8,tr0,8682,225732).
route(prodloc13,harbor8,tr13,8682,52092).
route(prodloc13,harbor9,tr0,10065,261690).
route(prodloc13,harbor9,tr13,10065,60390).
route(prodloc13,harbor10,tr0,9489,246714).
route(prodloc13,harbor10,tr13,9489,56934).
route(prodloc13,harbor11,tr0,28371,737646).
route(prodloc13,harbor11,tr13,28371,170226).
route(prodloc13,harbor12,tr0,15054,391404).
route(prodloc13,harbor12,tr13,15054,90324).
route(prodloc13,harbor13,tr0,8413,218738).
route(prodloc13,harbor13,tr13,8413,50478).
route(prodloc13,harbor14,tr0,16212,421512).
route(prodloc13,harbor14,tr13,16212,97272).
route(prodloc13,harbor15,tr0,4153,107978).
route(prodloc13,harbor15,tr13,4153,24918).
route(prodloc13,harbor16,tr0,8838,229788).
route(prodloc13,harbor16,tr13,8838,53028).
route(prodloc13,prodloc0,tr0,4859,126334).
route(prodloc13,prodloc0,tr13,4859,29154).
route(prodloc13,prodloc1,tr0,28613,743938).
route(prodloc13,prodloc1,tr13,28613,171678).
route(prodloc13,prodloc2,tr0,28909,751634).
route(prodloc13,prodloc2,tr13,28909,173454).
route(prodloc13,prodloc3,tr0,28338,736788).
route(prodloc13,prodloc3,tr15,28338,906816).
route(prodloc13,prodloc4,tr0,26963,701038).
route(prodloc13,prodloc4,tr13,26963,161778).
route(prodloc13,prodloc5,tr0,17255,448630).
route(prodloc13,prodloc5,tr13,17255,103530).
route(prodloc13,prodloc6,tr13,6492,38952).
route(prodloc13,prodloc6,tr15,6492,207744).
route(prodloc13,prodloc7,tr0,16989,441714).
route(prodloc13,prodloc7,tr13,16989,101934).
route(prodloc13,prodloc8,tr0,24307,631982).
route(prodloc13,prodloc8,tr13,24307,145842).
route(prodloc13,prodloc9,tr0,7553,196378).
route(prodloc13,prodloc9,tr13,7553,45318).
route(prodloc13,prodloc10,tr0,6469,168194).
route(prodloc13,prodloc10,tr13,6469,38814).
route(prodloc13,prodloc11,tr0,19876,516776).
route(prodloc13,prodloc11,tr13,19876,119256).
route(prodloc13,prodloc12,tr0,20365,529490).
route(prodloc13,prodloc12,tr13,20365,122190).
route(prodloc13,prodloc14,tr0,10627,276302).
route(prodloc13,prodloc14,tr15,10627,340064).
route(prodloc13,prodloc15,tr0,346,8996).
route(prodloc13,prodloc15,tr13,346,2076).
route(prodloc13,prodloc16,tr0,364,9464).
route(prodloc13,prodloc16,tr13,364,2184).
route(prodloc13,prodloc17,tr0,18902,491452).
route(prodloc13,prodloc17,tr13,18902,113412).
route(prodloc13,prodloc18,tr0,28601,743626).
route(prodloc13,prodloc18,tr13,28601,171606).
route(prodloc13,prodloc19,tr0,24593,639418).
route(prodloc13,prodloc19,tr13,24593,147558).
route(prodloc13,prodloc20,tr0,19783,514358).
route(prodloc13,prodloc20,tr13,19783,118698).
route(prodloc13,prodloc21,tr0,16546,430196).
route(prodloc13,prodloc21,tr13,16546,99276).
route(prodloc13,prodloc22,tr0,26498,688948).
route(prodloc13,prodloc22,tr13,26498,158988).
route(prodloc13,prodloc23,tr0,20577,535002).
route(prodloc13,prodloc23,tr13,20577,123462).
route(prodloc13,prodloc24,tr0,23224,603824).
route(prodloc13,prodloc24,tr13,23224,139344).
route(prodloc13,prodloc25,tr0,3858,100308).
route(prodloc13,prodloc25,tr13,3858,23148).
route(prodloc13,prodloc26,tr0,15059,391534).
route(prodloc13,prodloc26,tr13,15059,90354).
route(prodloc13,prodloc27,tr0,15001,390026).
route(prodloc13,prodloc27,tr13,15001,90006).
route(prodloc13,prodloc28,tr0,25676,667576).
route(prodloc13,prodloc28,tr13,25676,154056).
route(prodloc13,prodloc29,tr0,5708,148408).
route(prodloc13,prodloc29,tr13,5708,34248).
route(prodloc13,prodloc30,tr0,12229,317954).
route(prodloc13,prodloc30,tr13,12229,73374).
route(prodloc13,prodloc31,tr0,15514,403364).
route(prodloc13,prodloc31,tr13,15514,93084).
route(prodloc13,prodloc32,tr0,24374,633724).
route(prodloc13,prodloc32,tr13,24374,146244).
route(prodloc13,prodloc33,tr0,20115,522990).
route(prodloc13,prodloc33,tr13,20115,120690).
route(prodloc14,harbor0,tr0,19628,510328).
route(prodloc14,harbor0,tr13,19628,117768).
route(prodloc14,harbor1,tr0,21433,557258).
route(prodloc14,harbor1,tr13,21433,128598).
route(prodloc14,harbor2,tr0,26476,688376).
route(prodloc14,harbor2,tr13,26476,158856).
route(prodloc14,harbor3,tr0,24214,629564).
route(prodloc14,harbor3,tr13,24214,145284).
route(prodloc14,harbor4,tr0,3910,101660).
route(prodloc14,harbor4,tr13,3910,23460).
route(prodloc14,harbor5,tr0,9994,259844).
route(prodloc14,harbor5,tr13,9994,59964).
route(prodloc14,harbor6,tr0,17790,462540).
route(prodloc14,harbor6,tr13,17790,106740).
route(prodloc14,harbor7,tr0,26842,697892).
route(prodloc14,harbor7,tr13,26842,161052).
route(prodloc14,harbor8,tr0,4530,117780).
route(prodloc14,harbor8,tr13,4530,27180).
route(prodloc14,harbor9,tr0,26768,695968).
route(prodloc14,harbor9,tr13,26768,160608).
route(prodloc14,harbor10,tr0,16536,429936).
route(prodloc14,harbor10,tr13,16536,99216).
route(prodloc14,harbor11,tr0,13998,363948).
route(prodloc14,harbor11,tr13,13998,83988).
route(prodloc14,harbor12,tr0,23679,615654).
route(prodloc14,harbor12,tr13,23679,142074).
route(prodloc14,harbor13,tr0,23552,612352).
route(prodloc14,harbor13,tr13,23552,141312).
route(prodloc14,harbor14,tr0,13264,344864).
route(prodloc14,harbor14,tr13,13264,79584).
route(prodloc14,harbor15,tr0,13575,352950).
route(prodloc14,harbor15,tr13,13575,81450).
route(prodloc14,harbor16,tr0,15977,415402).
route(prodloc14,harbor16,tr13,15977,95862).
route(prodloc14,prodloc0,tr0,18879,490854).
route(prodloc14,prodloc0,tr13,18879,113274).
route(prodloc14,prodloc1,tr0,12063,313638).
route(prodloc14,prodloc1,tr13,12063,72378).
route(prodloc14,prodloc2,tr0,10640,276640).
route(prodloc14,prodloc2,tr13,10640,63840).
route(prodloc14,prodloc3,tr0,12021,312546).
route(prodloc14,prodloc3,tr13,12021,72126).
route(prodloc14,prodloc4,tr0,15134,393484).
route(prodloc14,prodloc4,tr13,15134,90804).
route(prodloc14,prodloc5,tr0,23245,604370).
route(prodloc14,prodloc5,tr13,23245,139470).
route(prodloc14,prodloc6,tr0,10104,262704).
route(prodloc14,prodloc6,tr13,10104,60624).
route(prodloc14,prodloc7,tr0,21460,557960).
route(prodloc14,prodloc7,tr13,21460,128760).
route(prodloc14,prodloc8,tr0,24461,635986).
route(prodloc14,prodloc8,tr13,24461,146766).
route(prodloc14,prodloc9,tr0,20091,522366).
route(prodloc14,prodloc9,tr13,20091,120546).
route(prodloc14,prodloc10,tr0,11404,296504).
route(prodloc14,prodloc10,tr13,11404,68424).
route(prodloc14,prodloc11,tr0,20112,522912).
route(prodloc14,prodloc11,tr13,20112,120672).
route(prodloc14,prodloc12,tr0,28684,745784).
route(prodloc14,prodloc12,tr13,28684,172104).
route(prodloc14,prodloc13,tr0,17132,445432).
route(prodloc14,prodloc13,tr13,17132,102792).
route(prodloc14,prodloc15,tr0,426,11076).
route(prodloc14,prodloc15,tr13,426,2556).
route(prodloc14,prodloc16,tr0,15216,395616).
route(prodloc14,prodloc16,tr13,15216,91296).
route(prodloc14,prodloc17,tr0,5715,148590).
route(prodloc14,prodloc17,tr13,5715,34290).
route(prodloc14,prodloc18,tr0,18842,489892).
route(prodloc14,prodloc18,tr13,18842,113052).
route(prodloc14,prodloc19,tr0,21198,551148).
route(prodloc14,prodloc19,tr13,21198,127188).
route(prodloc14,prodloc20,tr0,9205,239330).
route(prodloc14,prodloc20,tr13,9205,55230).
route(prodloc14,prodloc21,tr0,14618,380068).
route(prodloc14,prodloc21,tr13,14618,87708).
route(prodloc14,prodloc22,tr0,888,23088).
route(prodloc14,prodloc22,tr13,888,5328).
route(prodloc14,prodloc23,tr0,11272,293072).
route(prodloc14,prodloc23,tr13,11272,67632).
route(prodloc14,prodloc24,tr0,17477,454402).
route(prodloc14,prodloc24,tr13,17477,104862).
route(prodloc14,prodloc25,tr0,16802,436852).
route(prodloc14,prodloc25,tr13,16802,100812).
route(prodloc14,prodloc26,tr0,23919,621894).
route(prodloc14,prodloc26,tr13,23919,143514).
route(prodloc14,prodloc27,tr0,4282,111332).
route(prodloc14,prodloc27,tr13,4282,25692).
route(prodloc14,prodloc28,tr0,13677,355602).
route(prodloc14,prodloc28,tr13,13677,82062).
route(prodloc14,prodloc29,tr0,21246,552396).
route(prodloc14,prodloc29,tr13,21246,127476).
route(prodloc14,prodloc30,tr0,17780,462280).
route(prodloc14,prodloc30,tr13,17780,106680).
route(prodloc14,prodloc31,tr0,25655,667030).
route(prodloc14,prodloc31,tr13,25655,153930).
route(prodloc14,prodloc32,tr0,12010,312260).
route(prodloc14,prodloc32,tr13,12010,72060).
route(prodloc14,prodloc33,tr0,26298,683748).
route(prodloc14,prodloc33,tr13,26298,157788).
route(prodloc15,harbor0,tr0,5292,137592).
route(prodloc15,harbor0,tr13,5292,31752).
route(prodloc15,harbor1,tr0,4725,122850).
route(prodloc15,harbor1,tr13,4725,28350).
route(prodloc15,harbor2,tr0,22145,575770).
route(prodloc15,harbor2,tr13,22145,132870).
route(prodloc15,harbor3,tr0,20308,528008).
route(prodloc15,harbor3,tr13,20308,121848).
route(prodloc15,harbor4,tr0,24188,628888).
route(prodloc15,harbor4,tr13,24188,145128).
route(prodloc15,harbor5,tr0,10440,271440).
route(prodloc15,harbor5,tr13,10440,62640).
route(prodloc15,harbor6,tr0,25719,668694).
route(prodloc15,harbor6,tr13,25719,154314).
route(prodloc15,harbor7,tr0,2958,76908).
route(prodloc15,harbor7,tr13,2958,17748).
route(prodloc15,harbor8,tr0,16638,432588).
route(prodloc15,harbor8,tr13,16638,99828).
route(prodloc15,harbor9,tr0,18788,488488).
route(prodloc15,harbor9,tr13,18788,112728).
route(prodloc15,harbor10,tr0,14153,367978).
route(prodloc15,harbor10,tr13,14153,84918).
route(prodloc15,harbor11,tr0,7184,186784).
route(prodloc15,harbor11,tr13,7184,43104).
route(prodloc15,harbor12,tr0,4585,119210).
route(prodloc15,harbor12,tr13,4585,27510).
route(prodloc15,harbor13,tr0,9919,257894).
route(prodloc15,harbor13,tr13,9919,59514).
route(prodloc15,harbor14,tr0,23484,610584).
route(prodloc15,harbor14,tr13,23484,140904).
route(prodloc15,harbor15,tr0,19330,502580).
route(prodloc15,harbor15,tr13,19330,115980).
route(prodloc15,harbor16,tr0,9070,235820).
route(prodloc15,harbor16,tr13,9070,54420).
route(prodloc15,prodloc0,tr0,16656,433056).
route(prodloc15,prodloc0,tr13,16656,99936).
route(prodloc15,prodloc1,tr0,13341,346866).
route(prodloc15,prodloc1,tr13,13341,80046).
route(prodloc15,prodloc2,tr0,242,6292).
route(prodloc15,prodloc2,tr13,242,1452).
route(prodloc15,prodloc3,tr0,2843,73918).
route(prodloc15,prodloc3,tr13,2843,17058).
route(prodloc15,prodloc4,tr0,7358,191308).
route(prodloc15,prodloc4,tr13,7358,44148).
route(prodloc15,prodloc5,tr0,26802,696852).
route(prodloc15,prodloc5,tr13,26802,160812).
route(prodloc15,prodloc6,tr0,18295,475670).
route(prodloc15,prodloc6,tr13,18295,109770).
route(prodloc15,prodloc7,tr0,28368,737568).
route(prodloc15,prodloc7,tr13,28368,170208).
route(prodloc15,prodloc8,tr0,28924,752024).
route(prodloc15,prodloc8,tr13,28924,173544).
route(prodloc15,prodloc9,tr0,27635,718510).
route(prodloc15,prodloc9,tr13,27635,165810).
route(prodloc15,prodloc10,tr0,13984,363584).
route(prodloc15,prodloc10,tr13,13984,83904).
route(prodloc15,prodloc11,tr0,22302,579852).
route(prodloc15,prodloc11,tr13,22302,133812).
route(prodloc15,prodloc12,tr0,16320,424320).
route(prodloc15,prodloc12,tr13,16320,97920).
route(prodloc15,prodloc13,tr0,8393,218218).
route(prodloc15,prodloc13,tr13,8393,50358).
route(prodloc15,prodloc14,tr0,24200,629200).
route(prodloc15,prodloc14,tr13,24200,145200).
route(prodloc15,prodloc16,tr0,3388,88088).
route(prodloc15,prodloc16,tr13,3388,20328).
route(prodloc15,prodloc17,tr0,6967,181142).
route(prodloc15,prodloc17,tr13,6967,41802).
route(prodloc15,prodloc18,tr0,27506,715156).
route(prodloc15,prodloc18,tr13,27506,165036).
route(prodloc15,prodloc19,tr0,22679,589654).
route(prodloc15,prodloc19,tr13,22679,136074).
route(prodloc15,prodloc20,tr0,12375,321750).
route(prodloc15,prodloc20,tr13,12375,74250).
route(prodloc15,prodloc21,tr0,15685,407810).
route(prodloc15,prodloc21,tr13,15685,94110).
route(prodloc15,prodloc22,tr0,9184,238784).
route(prodloc15,prodloc22,tr13,9184,55104).
route(prodloc15,prodloc23,tr0,14561,378586).
route(prodloc15,prodloc23,tr13,14561,87366).
route(prodloc15,prodloc24,tr0,11625,302250).
route(prodloc15,prodloc24,tr13,11625,69750).
route(prodloc15,prodloc25,tr0,20050,521300).
route(prodloc15,prodloc25,tr13,20050,120300).
route(prodloc15,prodloc26,tr0,22978,597428).
route(prodloc15,prodloc26,tr13,22978,137868).
route(prodloc15,prodloc27,tr0,7209,187434).
route(prodloc15,prodloc27,tr13,7209,43254).
route(prodloc15,prodloc28,tr0,16967,441142).
route(prodloc15,prodloc28,tr13,16967,101802).
route(prodloc15,prodloc29,tr0,3488,90688).
route(prodloc15,prodloc29,tr13,3488,20928).
route(prodloc15,prodloc30,tr0,19310,502060).
route(prodloc15,prodloc30,tr13,19310,115860).
route(prodloc15,prodloc31,tr0,19573,508898).
route(prodloc15,prodloc31,tr13,19573,117438).
route(prodloc15,prodloc32,tr0,27223,707798).
route(prodloc15,prodloc32,tr13,27223,163338).
route(prodloc15,prodloc33,tr0,21552,560352).
route(prodloc15,prodloc33,tr13,21552,129312).
route(prodloc16,harbor0,tr0,10624,276224).
route(prodloc16,harbor0,tr13,10624,63744).
route(prodloc16,harbor1,tr0,18366,477516).
route(prodloc16,harbor1,tr13,18366,110196).
route(prodloc16,harbor2,tr0,2794,72644).
route(prodloc16,harbor2,tr13,2794,16764).
route(prodloc16,harbor3,tr0,5239,136214).
route(prodloc16,harbor3,tr13,5239,31434).
route(prodloc16,harbor4,tr0,14620,380120).
route(prodloc16,harbor4,tr13,14620,87720).
route(prodloc16,harbor5,tr0,28205,733330).
route(prodloc16,harbor5,tr13,28205,169230).
route(prodloc16,harbor6,tr0,3937,102362).
route(prodloc16,harbor6,tr13,3937,23622).
route(prodloc16,harbor7,tr0,14088,366288).
route(prodloc16,harbor7,tr13,14088,84528).
route(prodloc16,harbor8,tr0,15649,406874).
route(prodloc16,harbor8,tr13,15649,93894).
route(prodloc16,harbor9,tr0,17763,461838).
route(prodloc16,harbor9,tr13,17763,106578).
route(prodloc16,harbor10,tr0,1058,27508).
route(prodloc16,harbor10,tr13,1058,6348).
route(prodloc16,harbor11,tr0,16784,436384).
route(prodloc16,harbor11,tr13,16784,100704).
route(prodloc16,harbor12,tr0,4383,113958).
route(prodloc16,harbor12,tr13,4383,26298).
route(prodloc16,harbor13,tr0,15381,399906).
route(prodloc16,harbor13,tr13,15381,92286).
route(prodloc16,harbor14,tr0,16254,422604).
route(prodloc16,harbor14,tr13,16254,97524).
route(prodloc16,harbor15,tr0,28444,739544).
route(prodloc16,harbor15,tr13,28444,170664).
route(prodloc16,harbor16,tr0,13887,361062).
route(prodloc16,harbor16,tr13,13887,83322).
route(prodloc16,prodloc0,tr0,18701,486226).
route(prodloc16,prodloc0,tr13,18701,112206).
route(prodloc16,prodloc1,tr0,20922,543972).
route(prodloc16,prodloc1,tr13,20922,125532).
route(prodloc16,prodloc2,tr0,12581,327106).
route(prodloc16,prodloc2,tr13,12581,75486).
route(prodloc16,prodloc3,tr0,7389,192114).
route(prodloc16,prodloc3,tr13,7389,44334).
route(prodloc16,prodloc4,tr0,27893,725218).
route(prodloc16,prodloc4,tr13,27893,167358).
route(prodloc16,prodloc5,tr0,7893,205218).
route(prodloc16,prodloc5,tr13,7893,47358).
route(prodloc16,prodloc6,tr0,7439,193414).
route(prodloc16,prodloc6,tr13,7439,44634).
route(prodloc16,prodloc7,tr0,23883,620958).
route(prodloc16,prodloc7,tr13,23883,143298).
route(prodloc16,prodloc8,tr0,18301,475826).
route(prodloc16,prodloc8,tr13,18301,109806).
route(prodloc16,prodloc9,tr0,15248,396448).
route(prodloc16,prodloc9,tr13,15248,91488).
route(prodloc16,prodloc10,tr0,9843,255918).
route(prodloc16,prodloc10,tr13,9843,59058).
route(prodloc16,prodloc11,tr0,23916,621816).
route(prodloc16,prodloc11,tr13,23916,143496).
route(prodloc16,prodloc12,tr0,28542,742092).
route(prodloc16,prodloc12,tr13,28542,171252).
route(prodloc16,prodloc13,tr0,19918,517868).
route(prodloc16,prodloc13,tr13,19918,119508).
route(prodloc16,prodloc14,tr0,23827,619502).
route(prodloc16,prodloc14,tr13,23827,142962).
route(prodloc16,prodloc15,tr0,22174,576524).
route(prodloc16,prodloc15,tr13,22174,133044).
route(prodloc16,prodloc17,tr0,13325,346450).
route(prodloc16,prodloc17,tr13,13325,79950).
route(prodloc16,prodloc18,tr0,23932,622232).
route(prodloc16,prodloc18,tr13,23932,143592).
route(prodloc16,prodloc19,tr0,27023,702598).
route(prodloc16,prodloc19,tr13,27023,162138).
route(prodloc16,prodloc20,tr0,8665,225290).
route(prodloc16,prodloc20,tr13,8665,51990).
route(prodloc16,prodloc21,tr13,18811,112866).
route(prodloc16,prodloc21,tr15,18811,601952).
route(prodloc16,prodloc22,tr0,22094,574444).
route(prodloc16,prodloc22,tr13,22094,132564).
route(prodloc16,prodloc23,tr0,25647,666822).
route(prodloc16,prodloc23,tr13,25647,153882).
route(prodloc16,prodloc24,tr0,19080,496080).
route(prodloc16,prodloc24,tr13,19080,114480).
route(prodloc16,prodloc25,tr0,16825,437450).
route(prodloc16,prodloc25,tr13,16825,100950).
route(prodloc16,prodloc26,tr0,3975,103350).
route(prodloc16,prodloc26,tr13,3975,23850).
route(prodloc16,prodloc27,tr0,24951,648726).
route(prodloc16,prodloc27,tr13,24951,149706).
route(prodloc16,prodloc28,tr0,24715,642590).
route(prodloc16,prodloc28,tr13,24715,148290).
route(prodloc16,prodloc29,tr0,22770,592020).
route(prodloc16,prodloc29,tr13,22770,136620).
route(prodloc16,prodloc30,tr0,13275,345150).
route(prodloc16,prodloc30,tr13,13275,79650).
route(prodloc16,prodloc31,tr0,12765,331890).
route(prodloc16,prodloc31,tr13,12765,76590).
route(prodloc16,prodloc32,tr0,11200,291200).
route(prodloc16,prodloc32,tr13,11200,67200).
route(prodloc16,prodloc33,tr0,20507,533182).
route(prodloc16,prodloc33,tr13,20507,123042).
route(prodloc17,harbor0,tr0,1035,26910).
route(prodloc17,harbor0,tr13,1035,6210).
route(prodloc17,harbor1,tr0,23175,602550).
route(prodloc17,harbor1,tr13,23175,139050).
route(prodloc17,harbor2,tr0,6778,176228).
route(prodloc17,harbor2,tr13,6778,40668).
route(prodloc17,harbor3,tr0,2620,68120).
route(prodloc17,harbor3,tr13,2620,15720).
route(prodloc17,harbor4,tr0,281,7306).
route(prodloc17,harbor4,tr13,281,1686).
route(prodloc17,harbor5,tr0,8493,220818).
route(prodloc17,harbor5,tr13,8493,50958).
route(prodloc17,harbor6,tr0,2921,75946).
route(prodloc17,harbor6,tr13,2921,17526).
route(prodloc17,harbor7,tr0,5408,140608).
route(prodloc17,harbor7,tr13,5408,32448).
route(prodloc17,harbor8,tr0,16886,439036).
route(prodloc17,harbor8,tr13,16886,101316).
route(prodloc17,harbor9,tr0,22375,581750).
route(prodloc17,harbor9,tr13,22375,134250).
route(prodloc17,harbor10,tr0,7476,194376).
route(prodloc17,harbor10,tr13,7476,44856).
route(prodloc17,harbor11,tr0,16766,435916).
route(prodloc17,harbor11,tr13,16766,100596).
route(prodloc17,harbor12,tr0,21761,565786).
route(prodloc17,harbor12,tr13,21761,130566).
route(prodloc17,harbor13,tr0,26402,686452).
route(prodloc17,harbor13,tr13,26402,158412).
route(prodloc17,harbor14,tr0,3331,86606).
route(prodloc17,harbor14,tr13,3331,19986).
route(prodloc17,harbor15,tr0,1289,33514).
route(prodloc17,harbor15,tr13,1289,7734).
route(prodloc17,harbor16,tr0,15843,411918).
route(prodloc17,harbor16,tr13,15843,95058).
route(prodloc17,prodloc0,tr0,28558,742508).
route(prodloc17,prodloc0,tr13,28558,171348).
route(prodloc17,prodloc1,tr0,20157,524082).
route(prodloc17,prodloc1,tr13,20157,120942).
route(prodloc17,prodloc2,tr0,26450,687700).
route(prodloc17,prodloc2,tr13,26450,158700).
route(prodloc17,prodloc3,tr0,7435,193310).
route(prodloc17,prodloc3,tr13,7435,44610).
route(prodloc17,prodloc4,tr0,18083,470158).
route(prodloc17,prodloc4,tr13,18083,108498).
route(prodloc17,prodloc5,tr0,27379,711854).
route(prodloc17,prodloc5,tr13,27379,164274).
route(prodloc17,prodloc6,tr0,9137,237562).
route(prodloc17,prodloc6,tr13,9137,54822).
route(prodloc17,prodloc7,tr0,22405,582530).
route(prodloc17,prodloc7,tr13,22405,134430).
route(prodloc17,prodloc8,tr0,21265,552890).
route(prodloc17,prodloc8,tr13,21265,127590).
route(prodloc17,prodloc9,tr0,25139,653614).
route(prodloc17,prodloc9,tr13,25139,150834).
route(prodloc17,prodloc10,tr0,18008,468208).
route(prodloc17,prodloc10,tr13,18008,108048).
route(prodloc17,prodloc11,tr0,749,19474).
route(prodloc17,prodloc11,tr13,749,4494).
route(prodloc17,prodloc12,tr0,8943,232518).
route(prodloc17,prodloc12,tr13,8943,53658).
route(prodloc17,prodloc13,tr0,25808,671008).
route(prodloc17,prodloc13,tr13,25808,154848).
route(prodloc17,prodloc14,tr13,145,870).
route(prodloc17,prodloc14,tr15,145,4640).
route(prodloc17,prodloc15,tr0,26885,699010).
route(prodloc17,prodloc15,tr13,26885,161310).
route(prodloc17,prodloc16,tr0,13944,362544).
route(prodloc17,prodloc16,tr13,13944,83664).
route(prodloc17,prodloc18,tr0,11826,307476).
route(prodloc17,prodloc18,tr13,11826,70956).
route(prodloc17,prodloc19,tr0,18663,485238).
route(prodloc17,prodloc19,tr13,18663,111978).
route(prodloc17,prodloc20,tr0,6158,160108).
route(prodloc17,prodloc20,tr13,6158,36948).
route(prodloc17,prodloc21,tr0,16725,434850).
route(prodloc17,prodloc21,tr13,16725,100350).
route(prodloc17,prodloc22,tr0,354,9204).
route(prodloc17,prodloc22,tr13,354,2124).
route(prodloc17,prodloc23,tr0,11112,288912).
route(prodloc17,prodloc23,tr13,11112,66672).
route(prodloc17,prodloc24,tr0,22750,591500).
route(prodloc17,prodloc24,tr13,22750,136500).
route(prodloc17,prodloc25,tr0,16652,432952).
route(prodloc17,prodloc25,tr13,16652,99912).
route(prodloc17,prodloc26,tr0,10351,269126).
route(prodloc17,prodloc26,tr13,10351,62106).
route(prodloc17,prodloc27,tr0,1476,38376).
route(prodloc17,prodloc27,tr13,1476,8856).
route(prodloc17,prodloc28,tr0,21684,563784).
route(prodloc17,prodloc28,tr13,21684,130104).
route(prodloc17,prodloc29,tr0,26317,684242).
route(prodloc17,prodloc29,tr15,26317,842144).
route(prodloc17,prodloc30,tr0,987,25662).
route(prodloc17,prodloc30,tr13,987,5922).
route(prodloc17,prodloc31,tr0,11297,293722).
route(prodloc17,prodloc31,tr13,11297,67782).
route(prodloc17,prodloc32,tr0,25526,663676).
route(prodloc17,prodloc32,tr13,25526,153156).
route(prodloc17,prodloc33,tr0,21345,554970).
route(prodloc17,prodloc33,tr15,21345,683040).
route(prodloc18,harbor0,tr0,13631,354406).
route(prodloc18,harbor0,tr13,13631,81786).
route(prodloc18,harbor1,tr0,14969,389194).
route(prodloc18,harbor1,tr13,14969,89814).
route(prodloc18,harbor2,tr0,16151,419926).
route(prodloc18,harbor2,tr13,16151,96906).
route(prodloc18,harbor3,tr0,650,16900).
route(prodloc18,harbor3,tr13,650,3900).
route(prodloc18,harbor4,tr0,19602,509652).
route(prodloc18,harbor4,tr13,19602,117612).
route(prodloc18,harbor5,tr0,15050,391300).
route(prodloc18,harbor5,tr13,15050,90300).
route(prodloc18,harbor6,tr0,14217,369642).
route(prodloc18,harbor6,tr13,14217,85302).
route(prodloc18,harbor7,tr0,17118,445068).
route(prodloc18,harbor7,tr13,17118,102708).
route(prodloc18,harbor8,tr0,28638,744588).
route(prodloc18,harbor8,tr13,28638,171828).
route(prodloc18,harbor9,tr0,23942,622492).
route(prodloc18,harbor9,tr13,23942,143652).
route(prodloc18,harbor10,tr0,8246,214396).
route(prodloc18,harbor10,tr13,8246,49476).
route(prodloc18,harbor11,tr0,12548,326248).
route(prodloc18,harbor11,tr13,12548,75288).
route(prodloc18,harbor12,tr0,4960,128960).
route(prodloc18,harbor12,tr13,4960,29760).
route(prodloc18,harbor13,tr0,1009,26234).
route(prodloc18,harbor13,tr13,1009,6054).
route(prodloc18,harbor14,tr0,17212,447512).
route(prodloc18,harbor14,tr13,17212,103272).
route(prodloc18,harbor15,tr0,14400,374400).
route(prodloc18,harbor15,tr13,14400,86400).
route(prodloc18,harbor16,tr0,26564,690664).
route(prodloc18,harbor16,tr13,26564,159384).
route(prodloc18,prodloc0,tr0,17849,464074).
route(prodloc18,prodloc0,tr13,17849,107094).
route(prodloc18,prodloc1,tr0,20514,533364).
route(prodloc18,prodloc1,tr13,20514,123084).
route(prodloc18,prodloc2,tr0,12281,319306).
route(prodloc18,prodloc2,tr13,12281,73686).
route(prodloc18,prodloc3,tr0,26658,693108).
route(prodloc18,prodloc3,tr13,26658,159948).
route(prodloc18,prodloc4,tr0,28605,743730).
route(prodloc18,prodloc4,tr13,28605,171630).
route(prodloc18,prodloc5,tr0,12860,334360).
route(prodloc18,prodloc5,tr13,12860,77160).
route(prodloc18,prodloc6,tr0,16559,430534).
route(prodloc18,prodloc6,tr13,16559,99354).
route(prodloc18,prodloc7,tr0,13398,348348).
route(prodloc18,prodloc7,tr13,13398,80388).
route(prodloc18,prodloc8,tr0,22344,580944).
route(prodloc18,prodloc8,tr13,22344,134064).
route(prodloc18,prodloc9,tr0,4282,111332).
route(prodloc18,prodloc9,tr13,4282,25692).
route(prodloc18,prodloc10,tr0,27062,703612).
route(prodloc18,prodloc10,tr13,27062,162372).
route(prodloc18,prodloc11,tr0,11941,310466).
route(prodloc18,prodloc11,tr13,11941,71646).
route(prodloc18,prodloc12,tr0,17942,466492).
route(prodloc18,prodloc12,tr13,17942,107652).
route(prodloc18,prodloc13,tr0,11097,288522).
route(prodloc18,prodloc13,tr13,11097,66582).
route(prodloc18,prodloc14,tr0,20473,532298).
route(prodloc18,prodloc14,tr13,20473,122838).
route(prodloc18,prodloc15,tr0,21292,553592).
route(prodloc18,prodloc15,tr13,21292,127752).
route(prodloc18,prodloc16,tr0,27059,703534).
route(prodloc18,prodloc16,tr13,27059,162354).
route(prodloc18,prodloc17,tr0,16772,436072).
route(prodloc18,prodloc17,tr13,16772,100632).
route(prodloc18,prodloc19,tr0,19367,503542).
route(prodloc18,prodloc19,tr13,19367,116202).
route(prodloc18,prodloc20,tr0,4273,111098).
route(prodloc18,prodloc20,tr13,4273,25638).
route(prodloc18,prodloc21,tr0,18345,476970).
route(prodloc18,prodloc21,tr13,18345,110070).
route(prodloc18,prodloc22,tr0,19822,515372).
route(prodloc18,prodloc22,tr13,19822,118932).
route(prodloc18,prodloc23,tr0,388,10088).
route(prodloc18,prodloc23,tr13,388,2328).
route(prodloc18,prodloc24,tr0,12138,315588).
route(prodloc18,prodloc24,tr13,12138,72828).
route(prodloc18,prodloc25,tr0,18324,476424).
route(prodloc18,prodloc25,tr13,18324,109944).
route(prodloc18,prodloc26,tr0,7073,183898).
route(prodloc18,prodloc26,tr13,7073,42438).
route(prodloc18,prodloc27,tr0,1914,49764).
route(prodloc18,prodloc27,tr13,1914,11484).
route(prodloc18,prodloc28,tr0,8552,222352).
route(prodloc18,prodloc28,tr13,8552,51312).
route(prodloc18,prodloc29,tr0,17250,448500).
route(prodloc18,prodloc29,tr13,17250,103500).
route(prodloc18,prodloc30,tr0,9819,255294).
route(prodloc18,prodloc30,tr13,9819,58914).
route(prodloc18,prodloc31,tr0,7324,190424).
route(prodloc18,prodloc31,tr13,7324,43944).
route(prodloc18,prodloc32,tr0,3536,91936).
route(prodloc18,prodloc32,tr13,3536,21216).
route(prodloc18,prodloc33,tr0,19909,517634).
route(prodloc18,prodloc33,tr13,19909,119454).
route(prodloc19,harbor0,tr0,9192,238992).
route(prodloc19,harbor0,tr13,9192,55152).
route(prodloc19,harbor1,tr0,5172,134472).
route(prodloc19,harbor1,tr13,5172,31032).
route(prodloc19,harbor2,tr0,462,12012).
route(prodloc19,harbor2,tr13,462,2772).
route(prodloc19,harbor3,tr0,10733,279058).
route(prodloc19,harbor3,tr13,10733,64398).
route(prodloc19,harbor4,tr0,1641,42666).
route(prodloc19,harbor4,tr13,1641,9846).
route(prodloc19,harbor5,tr0,25236,656136).
route(prodloc19,harbor5,tr13,25236,151416).
route(prodloc19,harbor6,tr0,17228,447928).
route(prodloc19,harbor6,tr13,17228,103368).
route(prodloc19,harbor7,tr0,18989,493714).
route(prodloc19,harbor7,tr13,18989,113934).
route(prodloc19,harbor8,tr0,2267,58942).
route(prodloc19,harbor8,tr13,2267,13602).
route(prodloc19,harbor9,tr0,4363,113438).
route(prodloc19,harbor9,tr13,4363,26178).
route(prodloc19,harbor10,tr0,8247,214422).
route(prodloc19,harbor10,tr13,8247,49482).
route(prodloc19,harbor11,tr0,12474,324324).
route(prodloc19,harbor11,tr13,12474,74844).
route(prodloc19,harbor12,tr0,712,18512).
route(prodloc19,harbor12,tr13,712,4272).
route(prodloc19,harbor13,tr0,2556,66456).
route(prodloc19,harbor13,tr13,2556,15336).
route(prodloc19,harbor14,tr0,13526,351676).
route(prodloc19,harbor14,tr13,13526,81156).
route(prodloc19,harbor15,tr0,11993,311818).
route(prodloc19,harbor15,tr13,11993,71958).
route(prodloc19,harbor16,tr0,23391,608166).
route(prodloc19,harbor16,tr13,23391,140346).
route(prodloc19,prodloc0,tr0,21949,570674).
route(prodloc19,prodloc0,tr13,21949,131694).
route(prodloc19,prodloc1,tr0,19043,495118).
route(prodloc19,prodloc1,tr13,19043,114258).
route(prodloc19,prodloc2,tr0,19340,502840).
route(prodloc19,prodloc2,tr13,19340,116040).
route(prodloc19,prodloc3,tr0,21378,555828).
route(prodloc19,prodloc3,tr13,21378,128268).
route(prodloc19,prodloc4,tr0,8205,213330).
route(prodloc19,prodloc4,tr13,8205,49230).
route(prodloc19,prodloc5,tr0,3147,81822).
route(prodloc19,prodloc5,tr13,3147,18882).
route(prodloc19,prodloc6,tr0,27187,706862).
route(prodloc19,prodloc6,tr13,27187,163122).
route(prodloc19,prodloc7,tr0,16655,433030).
route(prodloc19,prodloc7,tr13,16655,99930).
route(prodloc19,prodloc8,tr0,7210,187460).
route(prodloc19,prodloc8,tr13,7210,43260).
route(prodloc19,prodloc9,tr0,8249,214474).
route(prodloc19,prodloc9,tr13,8249,49494).
route(prodloc19,prodloc10,tr0,23634,614484).
route(prodloc19,prodloc10,tr13,23634,141804).
route(prodloc19,prodloc11,tr0,19642,510692).
route(prodloc19,prodloc11,tr13,19642,117852).
route(prodloc19,prodloc12,tr0,17282,449332).
route(prodloc19,prodloc12,tr13,17282,103692).
route(prodloc19,prodloc13,tr0,15223,395798).
route(prodloc19,prodloc13,tr13,15223,91338).
route(prodloc19,prodloc14,tr0,21310,554060).
route(prodloc19,prodloc14,tr13,21310,127860).
route(prodloc19,prodloc15,tr0,20619,536094).
route(prodloc19,prodloc15,tr13,20619,123714).
route(prodloc19,prodloc16,tr0,16875,438750).
route(prodloc19,prodloc16,tr13,16875,101250).
route(prodloc19,prodloc17,tr0,26232,682032).
route(prodloc19,prodloc17,tr13,26232,157392).
route(prodloc19,prodloc18,tr0,2399,62374).
route(prodloc19,prodloc18,tr13,2399,14394).
route(prodloc19,prodloc20,tr0,16443,427518).
route(prodloc19,prodloc20,tr13,16443,98658).
route(prodloc19,prodloc21,tr0,20269,526994).
route(prodloc19,prodloc21,tr13,20269,121614).
route(prodloc19,prodloc22,tr0,13865,360490).
route(prodloc19,prodloc22,tr13,13865,83190).
route(prodloc19,prodloc23,tr0,11911,309686).
route(prodloc19,prodloc23,tr13,11911,71466).
route(prodloc19,prodloc24,tr0,18234,474084).
route(prodloc19,prodloc24,tr13,18234,109404).
route(prodloc19,prodloc25,tr0,18550,482300).
route(prodloc19,prodloc25,tr13,18550,111300).
route(prodloc19,prodloc26,tr0,5508,143208).
route(prodloc19,prodloc26,tr13,5508,33048).
route(prodloc19,prodloc27,tr0,10563,274638).
route(prodloc19,prodloc27,tr13,10563,63378).
route(prodloc19,prodloc28,tr0,12785,332410).
route(prodloc19,prodloc28,tr13,12785,76710).
route(prodloc19,prodloc29,tr0,1685,43810).
route(prodloc19,prodloc29,tr13,1685,10110).
route(prodloc19,prodloc30,tr0,16344,424944).
route(prodloc19,prodloc30,tr13,16344,98064).
route(prodloc19,prodloc31,tr0,25436,661336).
route(prodloc19,prodloc31,tr13,25436,152616).
route(prodloc19,prodloc32,tr0,27539,716014).
route(prodloc19,prodloc32,tr13,27539,165234).
route(prodloc19,prodloc33,tr0,25001,650026).
route(prodloc19,prodloc33,tr13,25001,150006).
route(prodloc20,harbor0,tr0,27310,710060).
route(prodloc20,harbor0,tr13,27310,163860).
route(prodloc20,harbor1,tr0,22133,575458).
route(prodloc20,harbor1,tr13,22133,132798).
route(prodloc20,harbor2,tr0,23213,603538).
route(prodloc20,harbor2,tr13,23213,139278).
route(prodloc20,harbor3,tr0,1236,32136).
route(prodloc20,harbor3,tr13,1236,7416).
route(prodloc20,harbor4,tr0,17421,452946).
route(prodloc20,harbor4,tr13,17421,104526).
route(prodloc20,harbor5,tr0,21936,570336).
route(prodloc20,harbor5,tr13,21936,131616).
route(prodloc20,harbor6,tr0,14082,366132).
route(prodloc20,harbor6,tr13,14082,84492).
route(prodloc20,harbor7,tr0,17503,455078).
route(prodloc20,harbor7,tr13,17503,105018).
route(prodloc20,harbor8,tr0,25494,662844).
route(prodloc20,harbor8,tr13,25494,152964).
route(prodloc20,harbor9,tr0,9697,252122).
route(prodloc20,harbor9,tr13,9697,58182).
route(prodloc20,harbor10,tr0,20340,528840).
route(prodloc20,harbor10,tr13,20340,122040).
route(prodloc20,harbor11,tr0,3665,95290).
route(prodloc20,harbor11,tr13,3665,21990).
route(prodloc20,harbor12,tr0,343,8918).
route(prodloc20,harbor12,tr13,343,2058).
route(prodloc20,harbor13,tr0,11694,304044).
route(prodloc20,harbor13,tr13,11694,70164).
route(prodloc20,harbor14,tr0,18452,479752).
route(prodloc20,harbor14,tr13,18452,110712).
route(prodloc20,harbor15,tr0,3239,84214).
route(prodloc20,harbor15,tr13,3239,19434).
route(prodloc20,harbor16,tr0,21922,569972).
route(prodloc20,harbor16,tr13,21922,131532).
route(prodloc20,prodloc0,tr0,26994,701844).
route(prodloc20,prodloc0,tr13,26994,161964).
route(prodloc20,prodloc1,tr0,11758,305708).
route(prodloc20,prodloc1,tr13,11758,70548).
route(prodloc20,prodloc2,tr0,10167,264342).
route(prodloc20,prodloc2,tr13,10167,61002).
route(prodloc20,prodloc3,tr0,27197,707122).
route(prodloc20,prodloc3,tr13,27197,163182).
route(prodloc20,prodloc4,tr0,8526,221676).
route(prodloc20,prodloc4,tr13,8526,51156).
route(prodloc20,prodloc5,tr0,24299,631774).
route(prodloc20,prodloc5,tr13,24299,145794).
route(prodloc20,prodloc6,tr0,23511,611286).
route(prodloc20,prodloc6,tr13,23511,141066).
route(prodloc20,prodloc7,tr0,1693,44018).
route(prodloc20,prodloc7,tr13,1693,10158).
route(prodloc20,prodloc8,tr0,9574,248924).
route(prodloc20,prodloc8,tr13,9574,57444).
route(prodloc20,prodloc9,tr0,21687,563862).
route(prodloc20,prodloc9,tr13,21687,130122).
route(prodloc20,prodloc10,tr0,7435,193310).
route(prodloc20,prodloc10,tr13,7435,44610).
route(prodloc20,prodloc11,tr0,18389,478114).
route(prodloc20,prodloc11,tr13,18389,110334).
route(prodloc20,prodloc12,tr0,23102,600652).
route(prodloc20,prodloc12,tr13,23102,138612).
route(prodloc20,prodloc13,tr0,11171,290446).
route(prodloc20,prodloc13,tr13,11171,67026).
route(prodloc20,prodloc14,tr0,18055,469430).
route(prodloc20,prodloc14,tr13,18055,108330).
route(prodloc20,prodloc15,tr0,9754,253604).
route(prodloc20,prodloc15,tr13,9754,58524).
route(prodloc20,prodloc16,tr0,13744,357344).
route(prodloc20,prodloc16,tr13,13744,82464).
route(prodloc20,prodloc17,tr0,2889,75114).
route(prodloc20,prodloc17,tr13,2889,17334).
route(prodloc20,prodloc18,tr0,13146,341796).
route(prodloc20,prodloc18,tr13,13146,78876).
route(prodloc20,prodloc19,tr0,27399,712374).
route(prodloc20,prodloc19,tr13,27399,164394).
route(prodloc20,prodloc21,tr0,21187,550862).
route(prodloc20,prodloc21,tr13,21187,127122).
route(prodloc20,prodloc22,tr0,9040,235040).
route(prodloc20,prodloc22,tr13,9040,54240).
route(prodloc20,prodloc23,tr0,21283,553358).
route(prodloc20,prodloc23,tr13,21283,127698).
route(prodloc20,prodloc24,tr0,11354,295204).
route(prodloc20,prodloc24,tr13,11354,68124).
route(prodloc20,prodloc25,tr0,3306,85956).
route(prodloc20,prodloc25,tr13,3306,19836).
route(prodloc20,prodloc26,tr0,8341,216866).
route(prodloc20,prodloc26,tr13,8341,50046).
route(prodloc20,prodloc27,tr0,2598,67548).
route(prodloc20,prodloc27,tr13,2598,15588).
route(prodloc20,prodloc28,tr0,18243,474318).
route(prodloc20,prodloc28,tr13,18243,109458).
route(prodloc20,prodloc29,tr0,17178,446628).
route(prodloc20,prodloc29,tr13,17178,103068).
route(prodloc20,prodloc30,tr0,16203,421278).
route(prodloc20,prodloc30,tr13,16203,97218).
route(prodloc20,prodloc31,tr0,3547,92222).
route(prodloc20,prodloc31,tr13,3547,21282).
route(prodloc20,prodloc32,tr0,28392,738192).
route(prodloc20,prodloc32,tr13,28392,170352).
route(prodloc20,prodloc33,tr0,23115,600990).
route(prodloc20,prodloc33,tr13,23115,138690).
route(prodloc21,harbor0,tr0,2608,67808).
route(prodloc21,harbor0,tr13,2608,15648).
route(prodloc21,harbor1,tr0,255,6630).
route(prodloc21,harbor1,tr13,255,1530).
route(prodloc21,harbor2,tr0,11243,292318).
route(prodloc21,harbor2,tr13,11243,67458).
route(prodloc21,harbor3,tr0,15356,399256).
route(prodloc21,harbor3,tr13,15356,92136).
route(prodloc21,harbor4,tr0,27377,711802).
route(prodloc21,harbor4,tr13,27377,164262).
route(prodloc21,harbor5,tr0,21923,569998).
route(prodloc21,harbor5,tr13,21923,131538).
route(prodloc21,harbor6,tr0,26012,676312).
route(prodloc21,harbor6,tr13,26012,156072).
route(prodloc21,harbor7,tr0,1231,32006).
route(prodloc21,harbor7,tr13,1231,7386).
route(prodloc21,harbor8,tr0,2097,54522).
route(prodloc21,harbor8,tr13,2097,12582).
route(prodloc21,harbor9,tr0,16472,428272).
route(prodloc21,harbor9,tr13,16472,98832).
route(prodloc21,harbor10,tr0,14630,380380).
route(prodloc21,harbor10,tr13,14630,87780).
route(prodloc21,harbor11,tr0,24983,649558).
route(prodloc21,harbor11,tr13,24983,149898).
route(prodloc21,harbor12,tr0,95,2470).
route(prodloc21,harbor12,tr13,95,570).
route(prodloc21,harbor13,tr0,18059,469534).
route(prodloc21,harbor13,tr13,18059,108354).
route(prodloc21,harbor14,tr0,10425,271050).
route(prodloc21,harbor14,tr13,10425,62550).
route(prodloc21,harbor15,tr0,21085,548210).
route(prodloc21,harbor15,tr13,21085,126510).
route(prodloc21,harbor16,tr0,24385,634010).
route(prodloc21,harbor16,tr13,24385,146310).
route(prodloc21,prodloc0,tr0,6340,164840).
route(prodloc21,prodloc0,tr13,6340,38040).
route(prodloc21,prodloc1,tr0,10844,281944).
route(prodloc21,prodloc1,tr13,10844,65064).
route(prodloc21,prodloc2,tr0,18766,487916).
route(prodloc21,prodloc2,tr13,18766,112596).
route(prodloc21,prodloc3,tr0,2119,55094).
route(prodloc21,prodloc3,tr15,2119,67808).
route(prodloc21,prodloc4,tr0,28266,734916).
route(prodloc21,prodloc4,tr13,28266,169596).
route(prodloc21,prodloc5,tr0,24587,639262).
route(prodloc21,prodloc5,tr13,24587,147522).
route(prodloc21,prodloc6,tr0,4109,106834).
route(prodloc21,prodloc6,tr13,4109,24654).
route(prodloc21,prodloc7,tr0,15552,404352).
route(prodloc21,prodloc7,tr13,15552,93312).
route(prodloc21,prodloc8,tr0,5209,135434).
route(prodloc21,prodloc8,tr13,5209,31254).
route(prodloc21,prodloc9,tr0,14799,384774).
route(prodloc21,prodloc9,tr13,14799,88794).
route(prodloc21,prodloc10,tr0,27943,726518).
route(prodloc21,prodloc10,tr13,27943,167658).
route(prodloc21,prodloc11,tr0,11259,292734).
route(prodloc21,prodloc11,tr13,11259,67554).
route(prodloc21,prodloc12,tr13,15613,93678).
route(prodloc21,prodloc12,tr15,15613,499616).
route(prodloc21,prodloc13,tr0,26153,679978).
route(prodloc21,prodloc13,tr13,26153,156918).
route(prodloc21,prodloc14,tr0,12351,321126).
route(prodloc21,prodloc14,tr13,12351,74106).
route(prodloc21,prodloc15,tr0,24460,635960).
route(prodloc21,prodloc15,tr13,24460,146760).
route(prodloc21,prodloc16,tr0,10840,281840).
route(prodloc21,prodloc16,tr13,10840,65040).
route(prodloc21,prodloc17,tr0,5655,147030).
route(prodloc21,prodloc17,tr13,5655,33930).
route(prodloc21,prodloc18,tr0,14229,369954).
route(prodloc21,prodloc18,tr13,14229,85374).
route(prodloc21,prodloc19,tr0,792,20592).
route(prodloc21,prodloc19,tr13,792,4752).
route(prodloc21,prodloc20,tr0,18652,484952).
route(prodloc21,prodloc20,tr13,18652,111912).
route(prodloc21,prodloc22,tr0,5582,145132).
route(prodloc21,prodloc22,tr13,5582,33492).
route(prodloc21,prodloc23,tr0,28808,749008).
route(prodloc21,prodloc23,tr13,28808,172848).
route(prodloc21,prodloc24,tr0,19870,516620).
route(prodloc21,prodloc24,tr13,19870,119220).
route(prodloc21,prodloc25,tr0,23514,611364).
route(prodloc21,prodloc25,tr13,23514,141084).
route(prodloc21,prodloc26,tr0,3609,93834).
route(prodloc21,prodloc26,tr13,3609,21654).
route(prodloc21,prodloc27,tr0,7642,198692).
route(prodloc21,prodloc27,tr13,7642,45852).
route(prodloc21,prodloc28,tr0,2410,62660).
route(prodloc21,prodloc28,tr13,2410,14460).
route(prodloc21,prodloc29,tr0,11829,307554).
route(prodloc21,prodloc29,tr13,11829,70974).
route(prodloc21,prodloc30,tr0,12519,325494).
route(prodloc21,prodloc30,tr13,12519,75114).
route(prodloc21,prodloc31,tr0,22670,589420).
route(prodloc21,prodloc31,tr13,22670,136020).
route(prodloc21,prodloc32,tr0,1757,45682).
route(prodloc21,prodloc32,tr13,1757,10542).
route(prodloc21,prodloc33,tr0,3039,79014).
route(prodloc21,prodloc33,tr13,3039,18234).
route(prodloc22,harbor0,tr0,10069,261794).
route(prodloc22,harbor0,tr13,10069,60414).
route(prodloc22,harbor1,tr0,14866,386516).
route(prodloc22,harbor1,tr13,14866,89196).
route(prodloc22,harbor2,tr0,20658,537108).
route(prodloc22,harbor2,tr13,20658,123948).
route(prodloc22,harbor3,tr0,14426,375076).
route(prodloc22,harbor3,tr13,14426,86556).
route(prodloc22,harbor4,tr0,7441,193466).
route(prodloc22,harbor4,tr13,7441,44646).
route(prodloc22,harbor5,tr0,25913,673738).
route(prodloc22,harbor5,tr13,25913,155478).
route(prodloc22,harbor6,tr0,3677,95602).
route(prodloc22,harbor6,tr13,3677,22062).
route(prodloc22,harbor7,tr0,8544,222144).
route(prodloc22,harbor7,tr13,8544,51264).
route(prodloc22,harbor8,tr0,14866,386516).
route(prodloc22,harbor8,tr13,14866,89196).
route(prodloc22,harbor9,tr0,11953,310778).
route(prodloc22,harbor9,tr13,11953,71718).
route(prodloc22,harbor10,tr0,8535,221910).
route(prodloc22,harbor10,tr13,8535,51210).
route(prodloc22,harbor11,tr0,13246,344396).
route(prodloc22,harbor11,tr13,13246,79476).
route(prodloc22,harbor12,tr0,28741,747266).
route(prodloc22,harbor12,tr13,28741,172446).
route(prodloc22,harbor13,tr0,27831,723606).
route(prodloc22,harbor13,tr13,27831,166986).
route(prodloc22,harbor14,tr0,28112,730912).
route(prodloc22,harbor14,tr13,28112,168672).
route(prodloc22,harbor15,tr0,1570,40820).
route(prodloc22,harbor15,tr13,1570,9420).
route(prodloc22,harbor16,tr0,5924,154024).
route(prodloc22,harbor16,tr13,5924,35544).
route(prodloc22,prodloc0,tr0,26583,691158).
route(prodloc22,prodloc0,tr13,26583,159498).
route(prodloc22,prodloc1,tr0,9591,249366).
route(prodloc22,prodloc1,tr13,9591,57546).
route(prodloc22,prodloc2,tr0,3100,80600).
route(prodloc22,prodloc2,tr13,3100,18600).
route(prodloc22,prodloc3,tr0,23463,610038).
route(prodloc22,prodloc3,tr13,23463,140778).
route(prodloc22,prodloc4,tr0,6558,170508).
route(prodloc22,prodloc4,tr13,6558,39348).
route(prodloc22,prodloc5,tr0,18206,473356).
route(prodloc22,prodloc5,tr13,18206,109236).
route(prodloc22,prodloc6,tr0,18954,492804).
route(prodloc22,prodloc6,tr13,18954,113724).
route(prodloc22,prodloc7,tr0,24579,639054).
route(prodloc22,prodloc7,tr13,24579,147474).
route(prodloc22,prodloc8,tr0,8339,216814).
route(prodloc22,prodloc8,tr13,8339,50034).
route(prodloc22,prodloc9,tr0,16869,438594).
route(prodloc22,prodloc9,tr13,16869,101214).
route(prodloc22,prodloc10,tr0,24042,625092).
route(prodloc22,prodloc10,tr13,24042,144252).
route(prodloc22,prodloc11,tr0,21967,571142).
route(prodloc22,prodloc11,tr13,21967,131802).
route(prodloc22,prodloc12,tr0,10234,266084).
route(prodloc22,prodloc12,tr13,10234,61404).
route(prodloc22,prodloc13,tr0,22507,585182).
route(prodloc22,prodloc13,tr13,22507,135042).
route(prodloc22,prodloc14,tr0,4785,124410).
route(prodloc22,prodloc14,tr13,4785,28710).
route(prodloc22,prodloc15,tr0,19829,515554).
route(prodloc22,prodloc15,tr13,19829,118974).
route(prodloc22,prodloc16,tr0,6348,165048).
route(prodloc22,prodloc16,tr13,6348,38088).
route(prodloc22,prodloc17,tr0,21976,571376).
route(prodloc22,prodloc17,tr13,21976,131856).
route(prodloc22,prodloc18,tr0,11543,300118).
route(prodloc22,prodloc18,tr13,11543,69258).
route(prodloc22,prodloc19,tr0,7188,186888).
route(prodloc22,prodloc19,tr13,7188,43128).
route(prodloc22,prodloc20,tr0,18545,482170).
route(prodloc22,prodloc20,tr13,18545,111270).
route(prodloc22,prodloc21,tr0,7965,207090).
route(prodloc22,prodloc21,tr13,7965,47790).
route(prodloc22,prodloc23,tr0,11820,307320).
route(prodloc22,prodloc23,tr13,11820,70920).
route(prodloc22,prodloc24,tr0,1702,44252).
route(prodloc22,prodloc24,tr13,1702,10212).
route(prodloc22,prodloc25,tr0,13656,355056).
route(prodloc22,prodloc25,tr13,13656,81936).
route(prodloc22,prodloc26,tr0,23377,607802).
route(prodloc22,prodloc26,tr13,23377,140262).
route(prodloc22,prodloc27,tr0,17291,449566).
route(prodloc22,prodloc27,tr13,17291,103746).
route(prodloc22,prodloc28,tr0,25820,671320).
route(prodloc22,prodloc28,tr13,25820,154920).
route(prodloc22,prodloc29,tr0,3330,86580).
route(prodloc22,prodloc29,tr13,3330,19980).
route(prodloc22,prodloc30,tr0,1224,31824).
route(prodloc22,prodloc30,tr13,1224,7344).
route(prodloc22,prodloc31,tr0,21959,570934).
route(prodloc22,prodloc31,tr13,21959,131754).
route(prodloc22,prodloc32,tr0,28239,734214).
route(prodloc22,prodloc32,tr13,28239,169434).
route(prodloc22,prodloc33,tr0,3760,97760).
route(prodloc22,prodloc33,tr13,3760,22560).
route(prodloc23,harbor0,tr0,5031,130806).
route(prodloc23,harbor0,tr13,5031,30186).
route(prodloc23,harbor1,tr0,16255,422630).
route(prodloc23,harbor1,tr13,16255,97530).
route(prodloc23,harbor2,tr0,16845,437970).
route(prodloc23,harbor2,tr13,16845,101070).
route(prodloc23,harbor3,tr0,15650,406900).
route(prodloc23,harbor3,tr13,15650,93900).
route(prodloc23,harbor4,tr0,8281,215306).
route(prodloc23,harbor4,tr13,8281,49686).
route(prodloc23,harbor5,tr0,18466,480116).
route(prodloc23,harbor5,tr13,18466,110796).
route(prodloc23,harbor6,tr0,10614,275964).
route(prodloc23,harbor6,tr13,10614,63684).
route(prodloc23,harbor7,tr0,16098,418548).
route(prodloc23,harbor7,tr13,16098,96588).
route(prodloc23,harbor8,tr0,16479,428454).
route(prodloc23,harbor8,tr13,16479,98874).
route(prodloc23,harbor9,tr0,25667,667342).
route(prodloc23,harbor9,tr13,25667,154002).
route(prodloc23,harbor10,tr0,26201,681226).
route(prodloc23,harbor10,tr13,26201,157206).
route(prodloc23,harbor11,tr0,8337,216762).
route(prodloc23,harbor11,tr13,8337,50022).
route(prodloc23,harbor12,tr0,27802,722852).
route(prodloc23,harbor12,tr13,27802,166812).
route(prodloc23,harbor13,tr0,7624,198224).
route(prodloc23,harbor13,tr13,7624,45744).
route(prodloc23,harbor14,tr0,16931,440206).
route(prodloc23,harbor14,tr13,16931,101586).
route(prodloc23,harbor15,tr0,27279,709254).
route(prodloc23,harbor15,tr13,27279,163674).
route(prodloc23,harbor16,tr0,8688,225888).
route(prodloc23,harbor16,tr13,8688,52128).
route(prodloc23,prodloc0,tr0,7808,203008).
route(prodloc23,prodloc0,tr13,7808,46848).
route(prodloc23,prodloc1,tr0,3391,88166).
route(prodloc23,prodloc1,tr13,3391,20346).
route(prodloc23,prodloc2,tr0,25636,666536).
route(prodloc23,prodloc2,tr13,25636,153816).
route(prodloc23,prodloc3,tr0,2392,62192).
route(prodloc23,prodloc3,tr13,2392,14352).
route(prodloc23,prodloc4,tr0,21729,564954).
route(prodloc23,prodloc4,tr13,21729,130374).
route(prodloc23,prodloc5,tr0,7024,182624).
route(prodloc23,prodloc5,tr13,7024,42144).
route(prodloc23,prodloc6,tr0,17344,450944).
route(prodloc23,prodloc6,tr13,17344,104064).
route(prodloc23,prodloc7,tr0,6125,159250).
route(prodloc23,prodloc7,tr13,6125,36750).
route(prodloc23,prodloc8,tr0,28614,743964).
route(prodloc23,prodloc8,tr13,28614,171684).
route(prodloc23,prodloc9,tr0,17897,465322).
route(prodloc23,prodloc9,tr13,17897,107382).
route(prodloc23,prodloc10,tr0,10525,273650).
route(prodloc23,prodloc10,tr13,10525,63150).
route(prodloc23,prodloc11,tr0,11338,294788).
route(prodloc23,prodloc11,tr13,11338,68028).
route(prodloc23,prodloc12,tr13,11175,67050).
route(prodloc23,prodloc12,tr15,11175,357600).
route(prodloc23,prodloc13,tr0,13845,359970).
route(prodloc23,prodloc13,tr13,13845,83070).
route(prodloc23,prodloc14,tr0,141,3666).
route(prodloc23,prodloc14,tr13,141,846).
route(prodloc23,prodloc15,tr0,12729,330954).
route(prodloc23,prodloc15,tr13,12729,76374).
route(prodloc23,prodloc16,tr0,4244,110344).
route(prodloc23,prodloc16,tr13,4244,25464).
route(prodloc23,prodloc17,tr0,19314,502164).
route(prodloc23,prodloc17,tr13,19314,115884).
route(prodloc23,prodloc18,tr0,19897,517322).
route(prodloc23,prodloc18,tr15,19897,636704).
route(prodloc23,prodloc19,tr0,1105,28730).
route(prodloc23,prodloc19,tr15,1105,35360).
route(prodloc23,prodloc20,tr0,16274,423124).
route(prodloc23,prodloc20,tr13,16274,97644).
route(prodloc23,prodloc21,tr13,11931,71586).
route(prodloc23,prodloc21,tr15,11931,381792).
route(prodloc23,prodloc22,tr0,28263,734838).
route(prodloc23,prodloc22,tr13,28263,169578).
route(prodloc23,prodloc25,tr0,14596,379496).
route(prodloc23,prodloc25,tr13,14596,87576).
route(prodloc23,prodloc26,tr0,8893,231218).
route(prodloc23,prodloc26,tr13,8893,53358).
route(prodloc23,prodloc27,tr0,26802,696852).
route(prodloc23,prodloc27,tr13,26802,160812).
route(prodloc23,prodloc28,tr0,12893,335218).
route(prodloc23,prodloc28,tr13,12893,77358).
route(prodloc23,prodloc29,tr0,4489,116714).
route(prodloc23,prodloc29,tr13,4489,26934).
route(prodloc23,prodloc30,tr0,4580,119080).
route(prodloc23,prodloc30,tr13,4580,27480).
route(prodloc23,prodloc31,tr0,18702,486252).
route(prodloc23,prodloc31,tr13,18702,112212).
route(prodloc23,prodloc32,tr0,15733,409058).
route(prodloc23,prodloc32,tr13,15733,94398).
route(prodloc23,prodloc33,tr0,25273,657098).
route(prodloc23,prodloc33,tr13,25273,151638).
route(prodloc24,harbor0,tr0,22675,589550).
route(prodloc24,harbor0,tr13,22675,136050).
route(prodloc24,harbor1,tr0,15090,392340).
route(prodloc24,harbor1,tr13,15090,90540).
route(prodloc24,harbor2,tr0,6044,157144).
route(prodloc24,harbor2,tr13,6044,36264).
route(prodloc24,harbor3,tr0,20625,536250).
route(prodloc24,harbor3,tr13,20625,123750).
route(prodloc24,harbor4,tr0,19130,497380).
route(prodloc24,harbor4,tr13,19130,114780).
route(prodloc24,harbor5,tr0,22754,591604).
route(prodloc24,harbor5,tr13,22754,136524).
route(prodloc24,harbor6,tr0,5852,152152).
route(prodloc24,harbor6,tr13,5852,35112).
route(prodloc24,harbor7,tr0,22831,593606).
route(prodloc24,harbor7,tr13,22831,136986).
route(prodloc24,harbor8,tr0,10413,270738).
route(prodloc24,harbor8,tr13,10413,62478).
route(prodloc24,harbor9,tr0,10126,263276).
route(prodloc24,harbor9,tr13,10126,60756).
route(prodloc24,harbor10,tr0,21138,549588).
route(prodloc24,harbor10,tr13,21138,126828).
route(prodloc24,harbor11,tr0,3492,90792).
route(prodloc24,harbor11,tr13,3492,20952).
route(prodloc24,harbor12,tr0,3603,93678).
route(prodloc24,harbor12,tr13,3603,21618).
route(prodloc24,harbor13,tr0,3576,92976).
route(prodloc24,harbor13,tr13,3576,21456).
route(prodloc24,harbor14,tr0,17874,464724).
route(prodloc24,harbor14,tr13,17874,107244).
route(prodloc24,harbor15,tr0,26500,689000).
route(prodloc24,harbor15,tr13,26500,159000).
route(prodloc24,harbor16,tr0,23178,602628).
route(prodloc24,harbor16,tr13,23178,139068).
route(prodloc24,prodloc0,tr0,9631,250406).
route(prodloc24,prodloc0,tr13,9631,57786).
route(prodloc24,prodloc1,tr0,20464,532064).
route(prodloc24,prodloc1,tr13,20464,122784).
route(prodloc24,prodloc2,tr0,15637,406562).
route(prodloc24,prodloc2,tr13,15637,93822).
route(prodloc24,prodloc3,tr0,18396,478296).
route(prodloc24,prodloc3,tr13,18396,110376).
route(prodloc24,prodloc4,tr0,3640,94640).
route(prodloc24,prodloc4,tr13,3640,21840).
route(prodloc24,prodloc5,tr0,11491,298766).
route(prodloc24,prodloc5,tr13,11491,68946).
route(prodloc24,prodloc6,tr0,22519,585494).
route(prodloc24,prodloc6,tr13,22519,135114).
route(prodloc24,prodloc7,tr0,27432,713232).
route(prodloc24,prodloc7,tr13,27432,164592).
route(prodloc24,prodloc8,tr0,3392,88192).
route(prodloc24,prodloc8,tr13,3392,20352).
route(prodloc24,prodloc9,tr0,16878,438828).
route(prodloc24,prodloc9,tr13,16878,101268).
route(prodloc24,prodloc10,tr0,572,14872).
route(prodloc24,prodloc10,tr13,572,3432).
route(prodloc24,prodloc11,tr0,27039,703014).
route(prodloc24,prodloc11,tr13,27039,162234).
route(prodloc24,prodloc12,tr0,6141,159666).
route(prodloc24,prodloc12,tr13,6141,36846).
route(prodloc24,prodloc13,tr0,24067,625742).
route(prodloc24,prodloc13,tr13,24067,144402).
route(prodloc24,prodloc14,tr0,10956,284856).
route(prodloc24,prodloc14,tr13,10956,65736).
route(prodloc24,prodloc15,tr0,23338,606788).
route(prodloc24,prodloc15,tr13,23338,140028).
route(prodloc24,prodloc16,tr0,26717,694642).
route(prodloc24,prodloc16,tr13,26717,160302).
route(prodloc24,prodloc17,tr0,11466,298116).
route(prodloc24,prodloc17,tr13,11466,68796).
route(prodloc24,prodloc18,tr0,9652,250952).
route(prodloc24,prodloc18,tr13,9652,57912).
route(prodloc24,prodloc19,tr0,20189,524914).
route(prodloc24,prodloc19,tr13,20189,121134).
route(prodloc24,prodloc20,tr0,9407,244582).
route(prodloc24,prodloc20,tr13,9407,56442).
route(prodloc24,prodloc21,tr0,27619,718094).
route(prodloc24,prodloc21,tr13,27619,165714).
route(prodloc24,prodloc22,tr0,18755,487630).
route(prodloc24,prodloc22,tr13,18755,112530).
route(prodloc24,prodloc23,tr0,20964,545064).
route(prodloc24,prodloc23,tr13,20964,125784).
route(prodloc24,prodloc25,tr0,20375,529750).
route(prodloc24,prodloc25,tr13,20375,122250).
route(prodloc24,prodloc26,tr0,6770,176020).
route(prodloc24,prodloc26,tr13,6770,40620).
route(prodloc24,prodloc27,tr0,6552,170352).
route(prodloc24,prodloc27,tr13,6552,39312).
route(prodloc24,prodloc28,tr0,5276,137176).
route(prodloc24,prodloc28,tr13,5276,31656).
route(prodloc24,prodloc29,tr0,27211,707486).
route(prodloc24,prodloc29,tr13,27211,163266).
route(prodloc24,prodloc30,tr0,14270,371020).
route(prodloc24,prodloc30,tr13,14270,85620).
route(prodloc24,prodloc31,tr0,10087,262262).
route(prodloc24,prodloc31,tr13,10087,60522).
route(prodloc24,prodloc32,tr0,3611,93886).
route(prodloc24,prodloc32,tr13,3611,21666).
route(prodloc24,prodloc33,tr0,4787,124462).
route(prodloc24,prodloc33,tr13,4787,28722).
route(prodloc25,harbor0,tr0,24505,637130).
route(prodloc25,harbor0,tr13,24505,147030).
route(prodloc25,harbor1,tr0,18955,492830).
route(prodloc25,harbor1,tr13,18955,113730).
route(prodloc25,harbor2,tr0,13684,355784).
route(prodloc25,harbor2,tr13,13684,82104).
route(prodloc25,harbor3,tr0,25821,671346).
route(prodloc25,harbor3,tr13,25821,154926).
route(prodloc25,harbor4,tr0,24237,630162).
route(prodloc25,harbor4,tr13,24237,145422).
route(prodloc25,harbor5,tr0,5890,153140).
route(prodloc25,harbor5,tr13,5890,35340).
route(prodloc25,harbor6,tr0,16762,435812).
route(prodloc25,harbor6,tr13,16762,100572).
route(prodloc25,harbor7,tr0,18953,492778).
route(prodloc25,harbor7,tr13,18953,113718).
route(prodloc25,harbor8,tr0,28755,747630).
route(prodloc25,harbor8,tr13,28755,172530).
route(prodloc25,harbor9,tr0,5643,146718).
route(prodloc25,harbor9,tr13,5643,33858).
route(prodloc25,harbor10,tr0,16652,432952).
route(prodloc25,harbor10,tr13,16652,99912).
route(prodloc25,harbor11,tr0,12739,331214).
route(prodloc25,harbor11,tr13,12739,76434).
route(prodloc25,harbor12,tr0,14893,387218).
route(prodloc25,harbor12,tr13,14893,89358).
route(prodloc25,harbor13,tr0,12907,335582).
route(prodloc25,harbor13,tr13,12907,77442).
route(prodloc25,harbor14,tr0,27992,727792).
route(prodloc25,harbor14,tr13,27992,167952).
route(prodloc25,harbor15,tr0,4262,110812).
route(prodloc25,harbor15,tr13,4262,25572).
route(prodloc25,harbor16,tr0,15688,407888).
route(prodloc25,harbor16,tr13,15688,94128).
route(prodloc25,prodloc0,tr0,4724,122824).
route(prodloc25,prodloc0,tr13,4724,28344).
route(prodloc25,prodloc1,tr0,495,12870).
route(prodloc25,prodloc1,tr13,495,2970).
route(prodloc25,prodloc2,tr0,10294,267644).
route(prodloc25,prodloc2,tr13,10294,61764).
route(prodloc25,prodloc3,tr0,957,24882).
route(prodloc25,prodloc3,tr13,957,5742).
route(prodloc25,prodloc4,tr0,17994,467844).
route(prodloc25,prodloc4,tr13,17994,107964).
route(prodloc25,prodloc5,tr13,4493,26958).
route(prodloc25,prodloc5,tr15,4493,143776).
route(prodloc25,prodloc6,tr0,1648,42848).
route(prodloc25,prodloc6,tr13,1648,9888).
route(prodloc25,prodloc7,tr0,20793,540618).
route(prodloc25,prodloc7,tr13,20793,124758).
route(prodloc25,prodloc8,tr0,12264,318864).
route(prodloc25,prodloc8,tr13,12264,73584).
route(prodloc25,prodloc9,tr0,6661,173186).
route(prodloc25,prodloc9,tr13,6661,39966).
route(prodloc25,prodloc10,tr0,9842,255892).
route(prodloc25,prodloc10,tr13,9842,59052).
route(prodloc25,prodloc11,tr0,25441,661466).
route(prodloc25,prodloc11,tr13,25441,152646).
route(prodloc25,prodloc12,tr0,27875,724750).
route(prodloc25,prodloc12,tr13,27875,167250).
route(prodloc25,prodloc13,tr0,13165,342290).
route(prodloc25,prodloc13,tr13,13165,78990).
route(prodloc25,prodloc14,tr0,24311,632086).
route(prodloc25,prodloc14,tr13,24311,145866).
route(prodloc25,prodloc15,tr0,25715,668590).
route(prodloc25,prodloc15,tr13,25715,154290).
route(prodloc25,prodloc16,tr0,14592,379392).
route(prodloc25,prodloc16,tr13,14592,87552).
route(prodloc25,prodloc17,tr0,5433,141258).
route(prodloc25,prodloc17,tr13,5433,32598).
route(prodloc25,prodloc18,tr0,8515,221390).
route(prodloc25,prodloc18,tr13,8515,51090).
route(prodloc25,prodloc19,tr0,9933,258258).
route(prodloc25,prodloc19,tr13,9933,59598).
route(prodloc25,prodloc20,tr0,16703,434278).
route(prodloc25,prodloc20,tr13,16703,100218).
route(prodloc25,prodloc21,tr0,2553,66378).
route(prodloc25,prodloc21,tr13,2553,15318).
route(prodloc25,prodloc22,tr0,21249,552474).
route(prodloc25,prodloc22,tr13,21249,127494).
route(prodloc25,prodloc23,tr0,18600,483600).
route(prodloc25,prodloc23,tr13,18600,111600).
route(prodloc25,prodloc24,tr0,24918,647868).
route(prodloc25,prodloc24,tr13,24918,149508).
route(prodloc25,prodloc26,tr0,9560,248560).
route(prodloc25,prodloc26,tr13,9560,57360).
route(prodloc25,prodloc27,tr0,21697,564122).
route(prodloc25,prodloc27,tr13,21697,130182).
route(prodloc25,prodloc28,tr0,3570,92820).
route(prodloc25,prodloc28,tr13,3570,21420).
route(prodloc25,prodloc29,tr0,36,936).
route(prodloc25,prodloc29,tr13,36,216).
route(prodloc25,prodloc30,tr0,9853,256178).
route(prodloc25,prodloc30,tr13,9853,59118).
route(prodloc25,prodloc31,tr0,5199,135174).
route(prodloc25,prodloc31,tr13,5199,31194).
route(prodloc25,prodloc32,tr0,3260,84760).
route(prodloc25,prodloc32,tr13,3260,19560).
route(prodloc25,prodloc33,tr0,9894,257244).
route(prodloc25,prodloc33,tr13,9894,59364).
route(prodloc26,harbor0,tr0,17909,465634).
route(prodloc26,harbor0,tr13,17909,107454).
route(prodloc26,harbor1,tr0,18872,490672).
route(prodloc26,harbor1,tr13,18872,113232).
route(prodloc26,harbor2,tr0,16832,437632).
route(prodloc26,harbor2,tr13,16832,100992).
route(prodloc26,harbor3,tr0,25324,658424).
route(prodloc26,harbor3,tr13,25324,151944).
route(prodloc26,harbor4,tr0,3751,97526).
route(prodloc26,harbor4,tr13,3751,22506).
route(prodloc26,harbor5,tr0,25411,660686).
route(prodloc26,harbor5,tr13,25411,152466).
route(prodloc26,harbor6,tr0,25775,670150).
route(prodloc26,harbor6,tr13,25775,154650).
route(prodloc26,harbor7,tr0,16281,423306).
route(prodloc26,harbor7,tr13,16281,97686).
route(prodloc26,harbor8,tr0,27080,704080).
route(prodloc26,harbor8,tr13,27080,162480).
route(prodloc26,harbor9,tr0,12769,331994).
route(prodloc26,harbor9,tr13,12769,76614).
route(prodloc26,harbor10,tr0,10171,264446).
route(prodloc26,harbor10,tr13,10171,61026).
route(prodloc26,harbor11,tr0,4648,120848).
route(prodloc26,harbor11,tr13,4648,27888).
route(prodloc26,harbor12,tr0,8888,231088).
route(prodloc26,harbor12,tr13,8888,53328).
route(prodloc26,harbor13,tr0,28336,736736).
route(prodloc26,harbor13,tr13,28336,170016).
route(prodloc26,harbor14,tr0,2394,62244).
route(prodloc26,harbor14,tr13,2394,14364).
route(prodloc26,harbor15,tr0,16557,430482).
route(prodloc26,harbor15,tr13,16557,99342).
route(prodloc26,harbor16,tr0,10033,260858).
route(prodloc26,harbor16,tr13,10033,60198).
route(prodloc26,prodloc0,tr0,9201,239226).
route(prodloc26,prodloc0,tr13,9201,55206).
route(prodloc26,prodloc1,tr13,16802,100812).
route(prodloc26,prodloc1,tr15,16802,537664).
route(prodloc26,prodloc2,tr0,5982,155532).
route(prodloc26,prodloc2,tr13,5982,35892).
route(prodloc26,prodloc3,tr0,14642,380692).
route(prodloc26,prodloc3,tr13,14642,87852).
route(prodloc26,prodloc4,tr0,5660,147160).
route(prodloc26,prodloc4,tr13,5660,33960).
route(prodloc26,prodloc5,tr0,284,7384).
route(prodloc26,prodloc5,tr13,284,1704).
route(prodloc26,prodloc6,tr0,10859,282334).
route(prodloc26,prodloc6,tr13,10859,65154).
route(prodloc26,prodloc7,tr0,3210,83460).
route(prodloc26,prodloc7,tr13,3210,19260).
route(prodloc26,prodloc8,tr0,21774,566124).
route(prodloc26,prodloc8,tr13,21774,130644).
route(prodloc26,prodloc9,tr0,7726,200876).
route(prodloc26,prodloc9,tr13,7726,46356).
route(prodloc26,prodloc10,tr0,21244,552344).
route(prodloc26,prodloc10,tr13,21244,127464).
route(prodloc26,prodloc11,tr0,27224,707824).
route(prodloc26,prodloc11,tr13,27224,163344).
route(prodloc26,prodloc12,tr0,6383,165958).
route(prodloc26,prodloc12,tr13,6383,38298).
route(prodloc26,prodloc13,tr0,25566,664716).
route(prodloc26,prodloc13,tr13,25566,153396).
route(prodloc26,prodloc14,tr0,28244,734344).
route(prodloc26,prodloc14,tr13,28244,169464).
route(prodloc26,prodloc15,tr0,27696,720096).
route(prodloc26,prodloc15,tr13,27696,166176).
route(prodloc26,prodloc16,tr0,16168,420368).
route(prodloc26,prodloc16,tr13,16168,97008).
route(prodloc26,prodloc17,tr0,4355,113230).
route(prodloc26,prodloc17,tr13,4355,26130).
route(prodloc26,prodloc18,tr0,11877,308802).
route(prodloc26,prodloc18,tr13,11877,71262).
route(prodloc26,prodloc19,tr0,4868,126568).
route(prodloc26,prodloc19,tr13,4868,29208).
route(prodloc26,prodloc20,tr0,22028,572728).
route(prodloc26,prodloc20,tr13,22028,132168).
route(prodloc26,prodloc21,tr0,24762,643812).
route(prodloc26,prodloc21,tr13,24762,148572).
route(prodloc26,prodloc22,tr0,1650,42900).
route(prodloc26,prodloc22,tr13,1650,9900).
route(prodloc26,prodloc23,tr0,21180,550680).
route(prodloc26,prodloc23,tr13,21180,127080).
route(prodloc26,prodloc24,tr0,15671,407446).
route(prodloc26,prodloc24,tr15,15671,501472).
route(prodloc26,prodloc25,tr0,22955,596830).
route(prodloc26,prodloc25,tr13,22955,137730).
route(prodloc26,prodloc27,tr0,28290,735540).
route(prodloc26,prodloc27,tr13,28290,169740).
route(prodloc26,prodloc28,tr0,26115,678990).
route(prodloc26,prodloc28,tr13,26115,156690).
route(prodloc26,prodloc29,tr0,17240,448240).
route(prodloc26,prodloc29,tr13,17240,103440).
route(prodloc26,prodloc30,tr0,19936,518336).
route(prodloc26,prodloc30,tr13,19936,119616).
route(prodloc26,prodloc31,tr0,8373,217698).
route(prodloc26,prodloc31,tr13,8373,50238).
route(prodloc26,prodloc32,tr0,19645,510770).
route(prodloc26,prodloc32,tr13,19645,117870).
route(prodloc26,prodloc33,tr0,24050,625300).
route(prodloc26,prodloc33,tr13,24050,144300).
route(prodloc27,harbor0,tr0,4038,104988).
route(prodloc27,harbor0,tr13,4038,24228).
route(prodloc27,harbor1,tr0,7420,192920).
route(prodloc27,harbor1,tr13,7420,44520).
route(prodloc27,harbor2,tr0,12605,327730).
route(prodloc27,harbor2,tr13,12605,75630).
route(prodloc27,harbor3,tr0,25228,655928).
route(prodloc27,harbor3,tr13,25228,151368).
route(prodloc27,harbor4,tr0,24988,649688).
route(prodloc27,harbor4,tr13,24988,149928).
route(prodloc27,harbor5,tr0,5369,139594).
route(prodloc27,harbor5,tr13,5369,32214).
route(prodloc27,harbor6,tr0,26233,682058).
route(prodloc27,harbor6,tr13,26233,157398).
route(prodloc27,harbor7,tr0,3916,101816).
route(prodloc27,harbor7,tr13,3916,23496).
route(prodloc27,harbor8,tr0,1697,44122).
route(prodloc27,harbor8,tr13,1697,10182).
route(prodloc27,harbor9,tr0,17551,456326).
route(prodloc27,harbor9,tr13,17551,105306).
route(prodloc27,harbor10,tr0,26437,687362).
route(prodloc27,harbor10,tr13,26437,158622).
route(prodloc27,harbor11,tr0,5335,138710).
route(prodloc27,harbor11,tr13,5335,32010).
route(prodloc27,harbor12,tr0,7962,207012).
route(prodloc27,harbor12,tr13,7962,47772).
route(prodloc27,harbor13,tr0,16347,425022).
route(prodloc27,harbor13,tr13,16347,98082).
route(prodloc27,harbor14,tr0,4153,107978).
route(prodloc27,harbor14,tr13,4153,24918).
route(prodloc27,harbor15,tr0,22410,582660).
route(prodloc27,harbor15,tr13,22410,134460).
route(prodloc27,harbor16,tr0,1594,41444).
route(prodloc27,harbor16,tr13,1594,9564).
route(prodloc27,prodloc0,tr0,2848,74048).
route(prodloc27,prodloc0,tr13,2848,17088).
route(prodloc27,prodloc1,tr0,15120,393120).
route(prodloc27,prodloc1,tr13,15120,90720).
route(prodloc27,prodloc2,tr0,6412,166712).
route(prodloc27,prodloc2,tr13,6412,38472).
route(prodloc27,prodloc3,tr0,14851,386126).
route(prodloc27,prodloc3,tr13,14851,89106).
route(prodloc27,prodloc4,tr0,17766,461916).
route(prodloc27,prodloc4,tr13,17766,106596).
route(prodloc27,prodloc5,tr0,6099,158574).
route(prodloc27,prodloc5,tr13,6099,36594).
route(prodloc27,prodloc6,tr0,12419,322894).
route(prodloc27,prodloc6,tr13,12419,74514).
route(prodloc27,prodloc7,tr0,23358,607308).
route(prodloc27,prodloc7,tr13,23358,140148).
route(prodloc27,prodloc8,tr0,3667,95342).
route(prodloc27,prodloc8,tr13,3667,22002).
route(prodloc27,prodloc9,tr0,6084,158184).
route(prodloc27,prodloc9,tr13,6084,36504).
route(prodloc27,prodloc10,tr0,22511,585286).
route(prodloc27,prodloc10,tr13,22511,135066).
route(prodloc27,prodloc11,tr0,4718,122668).
route(prodloc27,prodloc11,tr13,4718,28308).
route(prodloc27,prodloc12,tr0,11518,299468).
route(prodloc27,prodloc12,tr13,11518,69108).
route(prodloc27,prodloc13,tr0,10913,283738).
route(prodloc27,prodloc13,tr13,10913,65478).
route(prodloc27,prodloc14,tr0,6696,174096).
route(prodloc27,prodloc14,tr13,6696,40176).
route(prodloc27,prodloc15,tr0,739,19214).
route(prodloc27,prodloc15,tr13,739,4434).
route(prodloc27,prodloc16,tr0,21195,551070).
route(prodloc27,prodloc16,tr13,21195,127170).
route(prodloc27,prodloc17,tr0,2293,59618).
route(prodloc27,prodloc17,tr13,2293,13758).
route(prodloc27,prodloc18,tr0,27479,714454).
route(prodloc27,prodloc18,tr13,27479,164874).
route(prodloc27,prodloc19,tr0,17528,455728).
route(prodloc27,prodloc19,tr13,17528,105168).
route(prodloc27,prodloc20,tr0,5754,149604).
route(prodloc27,prodloc20,tr13,5754,34524).
route(prodloc27,prodloc21,tr0,11616,302016).
route(prodloc27,prodloc21,tr13,11616,69696).
route(prodloc27,prodloc22,tr0,25519,663494).
route(prodloc27,prodloc22,tr13,25519,153114).
route(prodloc27,prodloc23,tr0,12167,316342).
route(prodloc27,prodloc23,tr13,12167,73002).
route(prodloc27,prodloc24,tr0,13400,348400).
route(prodloc27,prodloc24,tr13,13400,80400).
route(prodloc27,prodloc25,tr0,26524,689624).
route(prodloc27,prodloc25,tr13,26524,159144).
route(prodloc27,prodloc26,tr0,8430,219180).
route(prodloc27,prodloc26,tr13,8430,50580).
route(prodloc27,prodloc28,tr13,5280,31680).
route(prodloc27,prodloc28,tr15,5280,168960).
route(prodloc27,prodloc29,tr0,25112,652912).
route(prodloc27,prodloc29,tr13,25112,150672).
route(prodloc27,prodloc30,tr0,4983,129558).
route(prodloc27,prodloc30,tr13,4983,29898).
route(prodloc27,prodloc31,tr0,25044,651144).
route(prodloc27,prodloc31,tr13,25044,150264).
route(prodloc27,prodloc32,tr0,20801,540826).
route(prodloc27,prodloc32,tr13,20801,124806).
route(prodloc27,prodloc33,tr0,22303,579878).
route(prodloc27,prodloc33,tr13,22303,133818).
route(prodloc28,harbor0,tr0,1010,26260).
route(prodloc28,harbor0,tr13,1010,6060).
route(prodloc28,harbor1,tr0,7245,188370).
route(prodloc28,harbor1,tr13,7245,43470).
route(prodloc28,harbor2,tr0,7483,194558).
route(prodloc28,harbor2,tr13,7483,44898).
route(prodloc28,harbor3,tr0,14524,377624).
route(prodloc28,harbor3,tr13,14524,87144).
route(prodloc28,harbor4,tr0,26729,694954).
route(prodloc28,harbor4,tr13,26729,160374).
route(prodloc28,harbor5,tr0,24774,644124).
route(prodloc28,harbor5,tr13,24774,148644).
route(prodloc28,harbor6,tr0,5091,132366).
route(prodloc28,harbor6,tr13,5091,30546).
route(prodloc28,harbor7,tr0,21194,551044).
route(prodloc28,harbor7,tr13,21194,127164).
route(prodloc28,harbor8,tr0,9110,236860).
route(prodloc28,harbor8,tr13,9110,54660).
route(prodloc28,harbor9,tr0,2894,75244).
route(prodloc28,harbor9,tr13,2894,17364).
route(prodloc28,harbor10,tr0,11480,298480).
route(prodloc28,harbor10,tr13,11480,68880).
route(prodloc28,harbor11,tr0,20368,529568).
route(prodloc28,harbor11,tr13,20368,122208).
route(prodloc28,harbor12,tr0,26580,691080).
route(prodloc28,harbor12,tr13,26580,159480).
route(prodloc28,harbor13,tr0,20860,542360).
route(prodloc28,harbor13,tr13,20860,125160).
route(prodloc28,harbor14,tr0,1777,46202).
route(prodloc28,harbor14,tr13,1777,10662).
route(prodloc28,harbor15,tr0,17870,464620).
route(prodloc28,harbor15,tr13,17870,107220).
route(prodloc28,harbor16,tr0,21202,551252).
route(prodloc28,harbor16,tr13,21202,127212).
route(prodloc28,prodloc0,tr0,23139,601614).
route(prodloc28,prodloc0,tr13,23139,138834).
route(prodloc28,prodloc1,tr0,22513,585338).
route(prodloc28,prodloc1,tr13,22513,135078).
route(prodloc28,prodloc2,tr0,16924,440024).
route(prodloc28,prodloc2,tr13,16924,101544).
route(prodloc28,prodloc3,tr0,22754,591604).
route(prodloc28,prodloc3,tr13,22754,136524).
route(prodloc28,prodloc4,tr0,18117,471042).
route(prodloc28,prodloc4,tr13,18117,108702).
route(prodloc28,prodloc5,tr0,395,10270).
route(prodloc28,prodloc5,tr13,395,2370).
route(prodloc28,prodloc6,tr0,10628,276328).
route(prodloc28,prodloc6,tr13,10628,63768).
route(prodloc28,prodloc7,tr0,24640,640640).
route(prodloc28,prodloc7,tr13,24640,147840).
route(prodloc28,prodloc8,tr0,26269,682994).
route(prodloc28,prodloc8,tr13,26269,157614).
route(prodloc28,prodloc9,tr0,23688,615888).
route(prodloc28,prodloc9,tr13,23688,142128).
route(prodloc28,prodloc10,tr0,16490,428740).
route(prodloc28,prodloc10,tr13,16490,98940).
route(prodloc28,prodloc11,tr0,24209,629434).
route(prodloc28,prodloc11,tr13,24209,145254).
route(prodloc28,prodloc12,tr0,16164,420264).
route(prodloc28,prodloc12,tr13,16164,96984).
route(prodloc28,prodloc13,tr0,2204,57304).
route(prodloc28,prodloc13,tr13,2204,13224).
route(prodloc28,prodloc14,tr0,17581,457106).
route(prodloc28,prodloc14,tr13,17581,105486).
route(prodloc28,prodloc15,tr0,22717,590642).
route(prodloc28,prodloc15,tr13,22717,136302).
route(prodloc28,prodloc16,tr0,26734,695084).
route(prodloc28,prodloc16,tr13,26734,160404).
route(prodloc28,prodloc17,tr0,12308,320008).
route(prodloc28,prodloc17,tr13,12308,73848).
route(prodloc28,prodloc18,tr0,4251,110526).
route(prodloc28,prodloc18,tr13,4251,25506).
route(prodloc28,prodloc19,tr0,3012,78312).
route(prodloc28,prodloc19,tr13,3012,18072).
route(prodloc28,prodloc20,tr0,8557,222482).
route(prodloc28,prodloc20,tr13,8557,51342).
route(prodloc28,prodloc21,tr0,8701,226226).
route(prodloc28,prodloc21,tr13,8701,52206).
route(prodloc28,prodloc22,tr0,11273,293098).
route(prodloc28,prodloc22,tr13,11273,67638).
route(prodloc28,prodloc23,tr0,15260,396760).
route(prodloc28,prodloc23,tr13,15260,91560).
route(prodloc28,prodloc24,tr0,3768,97968).
route(prodloc28,prodloc24,tr13,3768,22608).
route(prodloc28,prodloc25,tr0,10073,261898).
route(prodloc28,prodloc25,tr13,10073,60438).
route(prodloc28,prodloc26,tr0,5385,140010).
route(prodloc28,prodloc26,tr13,5385,32310).
route(prodloc28,prodloc27,tr0,3673,95498).
route(prodloc28,prodloc27,tr13,3673,22038).
route(prodloc28,prodloc29,tr0,23103,600678).
route(prodloc28,prodloc29,tr13,23103,138618).
route(prodloc28,prodloc30,tr0,9541,248066).
route(prodloc28,prodloc30,tr13,9541,57246).
route(prodloc28,prodloc31,tr0,27021,702546).
route(prodloc28,prodloc31,tr13,27021,162126).
route(prodloc28,prodloc32,tr0,20078,522028).
route(prodloc28,prodloc32,tr13,20078,120468).
route(prodloc28,prodloc33,tr0,21397,556322).
route(prodloc28,prodloc33,tr13,21397,128382).
route(prodloc29,harbor0,tr0,20935,544310).
route(prodloc29,harbor0,tr13,20935,125610).
route(prodloc29,harbor1,tr0,10040,261040).
route(prodloc29,harbor1,tr13,10040,60240).
route(prodloc29,harbor2,tr0,24497,636922).
route(prodloc29,harbor2,tr13,24497,146982).
route(prodloc29,harbor3,tr0,14425,375050).
route(prodloc29,harbor3,tr13,14425,86550).
route(prodloc29,harbor4,tr0,4990,129740).
route(prodloc29,harbor4,tr13,4990,29940).
route(prodloc29,harbor5,tr0,1016,26416).
route(prodloc29,harbor5,tr13,1016,6096).
route(prodloc29,harbor6,tr0,8974,233324).
route(prodloc29,harbor6,tr13,8974,53844).
route(prodloc29,harbor7,tr0,3520,91520).
route(prodloc29,harbor7,tr13,3520,21120).
route(prodloc29,harbor8,tr0,27224,707824).
route(prodloc29,harbor8,tr13,27224,163344).
route(prodloc29,harbor9,tr0,5350,139100).
route(prodloc29,harbor9,tr13,5350,32100).
route(prodloc29,harbor10,tr0,17191,446966).
route(prodloc29,harbor10,tr13,17191,103146).
route(prodloc29,harbor11,tr0,2190,56940).
route(prodloc29,harbor11,tr13,2190,13140).
route(prodloc29,harbor12,tr0,24214,629564).
route(prodloc29,harbor12,tr13,24214,145284).
route(prodloc29,harbor13,tr0,14038,364988).
route(prodloc29,harbor13,tr13,14038,84228).
route(prodloc29,harbor14,tr0,15126,393276).
route(prodloc29,harbor14,tr13,15126,90756).
route(prodloc29,harbor15,tr0,26504,689104).
route(prodloc29,harbor15,tr13,26504,159024).
route(prodloc29,harbor16,tr0,13766,357916).
route(prodloc29,harbor16,tr13,13766,82596).
route(prodloc29,prodloc0,tr0,5879,152854).
route(prodloc29,prodloc0,tr13,5879,35274).
route(prodloc29,prodloc1,tr0,1084,28184).
route(prodloc29,prodloc1,tr13,1084,6504).
route(prodloc29,prodloc2,tr0,19885,517010).
route(prodloc29,prodloc2,tr13,19885,119310).
route(prodloc29,prodloc3,tr0,27571,716846).
route(prodloc29,prodloc3,tr13,27571,165426).
route(prodloc29,prodloc4,tr0,16,416).
route(prodloc29,prodloc4,tr13,16,96).
route(prodloc29,prodloc5,tr0,6871,178646).
route(prodloc29,prodloc5,tr13,6871,41226).
route(prodloc29,prodloc6,tr0,23438,609388).
route(prodloc29,prodloc6,tr13,23438,140628).
route(prodloc29,prodloc7,tr0,24013,624338).
route(prodloc29,prodloc7,tr13,24013,144078).
route(prodloc29,prodloc8,tr0,7084,184184).
route(prodloc29,prodloc8,tr13,7084,42504).
route(prodloc29,prodloc9,tr0,8571,222846).
route(prodloc29,prodloc9,tr13,8571,51426).
route(prodloc29,prodloc10,tr0,20640,536640).
route(prodloc29,prodloc10,tr13,20640,123840).
route(prodloc29,prodloc11,tr0,13267,344942).
route(prodloc29,prodloc11,tr13,13267,79602).
route(prodloc29,prodloc12,tr0,22287,579462).
route(prodloc29,prodloc12,tr13,22287,133722).
route(prodloc29,prodloc13,tr0,9234,240084).
route(prodloc29,prodloc13,tr13,9234,55404).
route(prodloc29,prodloc14,tr0,17244,448344).
route(prodloc29,prodloc14,tr13,17244,103464).
route(prodloc29,prodloc15,tr0,12342,320892).
route(prodloc29,prodloc15,tr13,12342,74052).
route(prodloc29,prodloc16,tr0,28375,737750).
route(prodloc29,prodloc16,tr13,28375,170250).
route(prodloc29,prodloc17,tr0,8613,223938).
route(prodloc29,prodloc17,tr13,8613,51678).
route(prodloc29,prodloc18,tr0,27450,713700).
route(prodloc29,prodloc18,tr13,27450,164700).
route(prodloc29,prodloc19,tr0,20023,520598).
route(prodloc29,prodloc19,tr13,20023,120138).
route(prodloc29,prodloc20,tr0,18261,474786).
route(prodloc29,prodloc20,tr13,18261,109566).
route(prodloc29,prodloc21,tr0,1542,40092).
route(prodloc29,prodloc21,tr13,1542,9252).
route(prodloc29,prodloc22,tr0,5768,149968).
route(prodloc29,prodloc22,tr13,5768,34608).
route(prodloc29,prodloc23,tr0,747,19422).
route(prodloc29,prodloc23,tr13,747,4482).
route(prodloc29,prodloc24,tr0,19063,495638).
route(prodloc29,prodloc24,tr13,19063,114378).
route(prodloc29,prodloc25,tr0,1415,36790).
route(prodloc29,prodloc25,tr13,1415,8490).
route(prodloc29,prodloc26,tr0,17888,465088).
route(prodloc29,prodloc26,tr13,17888,107328).
route(prodloc29,prodloc27,tr0,9988,259688).
route(prodloc29,prodloc27,tr13,9988,59928).
route(prodloc29,prodloc28,tr0,21300,553800).
route(prodloc29,prodloc28,tr13,21300,127800).
route(prodloc29,prodloc30,tr0,18932,492232).
route(prodloc29,prodloc30,tr15,18932,605824).
route(prodloc29,prodloc31,tr0,28835,749710).
route(prodloc29,prodloc31,tr13,28835,173010).
route(prodloc29,prodloc32,tr0,15862,412412).
route(prodloc29,prodloc32,tr13,15862,95172).
route(prodloc29,prodloc33,tr0,2757,71682).
route(prodloc29,prodloc33,tr13,2757,16542).
route(prodloc30,harbor0,tr0,4830,125580).
route(prodloc30,harbor0,tr13,4830,28980).
route(prodloc30,harbor1,tr0,18268,474968).
route(prodloc30,harbor1,tr13,18268,109608).
route(prodloc30,harbor2,tr0,4249,110474).
route(prodloc30,harbor2,tr13,4249,25494).
route(prodloc30,harbor3,tr0,25061,651586).
route(prodloc30,harbor3,tr13,25061,150366).
route(prodloc30,harbor4,tr0,2191,56966).
route(prodloc30,harbor4,tr13,2191,13146).
route(prodloc30,harbor5,tr0,16744,435344).
route(prodloc30,harbor5,tr13,16744,100464).
route(prodloc30,harbor6,tr0,10935,284310).
route(prodloc30,harbor6,tr13,10935,65610).
route(prodloc30,harbor7,tr0,12075,313950).
route(prodloc30,harbor7,tr13,12075,72450).
route(prodloc30,harbor8,tr0,8439,219414).
route(prodloc30,harbor8,tr13,8439,50634).
route(prodloc30,harbor9,tr0,10876,282776).
route(prodloc30,harbor9,tr13,10876,65256).
route(prodloc30,harbor10,tr0,25641,666666).
route(prodloc30,harbor10,tr13,25641,153846).
route(prodloc30,harbor11,tr0,28021,728546).
route(prodloc30,harbor11,tr13,28021,168126).
route(prodloc30,harbor12,tr0,18485,480610).
route(prodloc30,harbor12,tr13,18485,110910).
route(prodloc30,harbor13,tr0,27846,723996).
route(prodloc30,harbor13,tr13,27846,167076).
route(prodloc30,harbor14,tr0,20988,545688).
route(prodloc30,harbor14,tr13,20988,125928).
route(prodloc30,harbor15,tr0,20163,524238).
route(prodloc30,harbor15,tr13,20163,120978).
route(prodloc30,harbor16,tr0,9125,237250).
route(prodloc30,harbor16,tr13,9125,54750).
route(prodloc30,prodloc0,tr0,28782,748332).
route(prodloc30,prodloc0,tr13,28782,172692).
route(prodloc30,prodloc1,tr13,12858,77148).
route(prodloc30,prodloc1,tr15,12858,411456).
route(prodloc30,prodloc2,tr0,12763,331838).
route(prodloc30,prodloc2,tr13,12763,76578).
route(prodloc30,prodloc3,tr0,3735,97110).
route(prodloc30,prodloc3,tr13,3735,22410).
route(prodloc30,prodloc4,tr0,9416,244816).
route(prodloc30,prodloc4,tr13,9416,56496).
route(prodloc30,prodloc5,tr0,6960,180960).
route(prodloc30,prodloc5,tr15,6960,222720).
route(prodloc30,prodloc6,tr0,14012,364312).
route(prodloc30,prodloc6,tr13,14012,84072).
route(prodloc30,prodloc7,tr0,21944,570544).
route(prodloc30,prodloc7,tr13,21944,131664).
route(prodloc30,prodloc8,tr0,9559,248534).
route(prodloc30,prodloc8,tr13,9559,57354).
route(prodloc30,prodloc9,tr0,11032,286832).
route(prodloc30,prodloc9,tr13,11032,66192).
route(prodloc30,prodloc10,tr0,19318,502268).
route(prodloc30,prodloc10,tr13,19318,115908).
route(prodloc30,prodloc11,tr0,20622,536172).
route(prodloc30,prodloc11,tr13,20622,123732).
route(prodloc30,prodloc12,tr0,7786,202436).
route(prodloc30,prodloc12,tr13,7786,46716).
route(prodloc30,prodloc13,tr0,12216,317616).
route(prodloc30,prodloc13,tr13,12216,73296).
route(prodloc30,prodloc14,tr0,26592,691392).
route(prodloc30,prodloc14,tr13,26592,159552).
route(prodloc30,prodloc15,tr0,22792,592592).
route(prodloc30,prodloc15,tr13,22792,136752).
route(prodloc30,prodloc16,tr0,17209,447434).
route(prodloc30,prodloc16,tr13,17209,103254).
route(prodloc30,prodloc17,tr0,15634,406484).
route(prodloc30,prodloc17,tr13,15634,93804).
route(prodloc30,prodloc18,tr0,5119,133094).
route(prodloc30,prodloc18,tr13,5119,30714).
route(prodloc30,prodloc19,tr0,12828,333528).
route(prodloc30,prodloc19,tr13,12828,76968).
route(prodloc30,prodloc20,tr0,1704,44304).
route(prodloc30,prodloc20,tr13,1704,10224).
route(prodloc30,prodloc21,tr0,5828,151528).
route(prodloc30,prodloc21,tr13,5828,34968).
route(prodloc30,prodloc22,tr0,2316,60216).
route(prodloc30,prodloc22,tr13,2316,13896).
route(prodloc30,prodloc23,tr0,21801,566826).
route(prodloc30,prodloc23,tr13,21801,130806).
route(prodloc30,prodloc24,tr0,26885,699010).
route(prodloc30,prodloc24,tr15,26885,860320).
route(prodloc30,prodloc25,tr0,4304,111904).
route(prodloc30,prodloc25,tr13,4304,25824).
route(prodloc30,prodloc26,tr0,25594,665444).
route(prodloc30,prodloc26,tr13,25594,153564).
route(prodloc30,prodloc27,tr0,22951,596726).
route(prodloc30,prodloc27,tr13,22951,137706).
route(prodloc30,prodloc28,tr0,24779,644254).
route(prodloc30,prodloc28,tr13,24779,148674).
route(prodloc30,prodloc29,tr13,23686,142116).
route(prodloc30,prodloc29,tr15,23686,757952).
route(prodloc30,prodloc31,tr0,20005,520130).
route(prodloc30,prodloc31,tr13,20005,120030).
route(prodloc30,prodloc32,tr0,4588,119288).
route(prodloc30,prodloc32,tr13,4588,27528).
route(prodloc30,prodloc33,tr13,2326,13956).
route(prodloc30,prodloc33,tr15,2326,74432).
route(prodloc31,harbor0,tr0,19005,494130).
route(prodloc31,harbor0,tr13,19005,114030).
route(prodloc31,harbor1,tr0,17113,444938).
route(prodloc31,harbor1,tr13,17113,102678).
route(prodloc31,harbor2,tr0,304,7904).
route(prodloc31,harbor2,tr13,304,1824).
route(prodloc31,harbor3,tr0,21700,564200).
route(prodloc31,harbor3,tr13,21700,130200).
route(prodloc31,harbor4,tr0,1044,27144).
route(prodloc31,harbor4,tr13,1044,6264).
route(prodloc31,harbor5,tr0,25328,658528).
route(prodloc31,harbor5,tr13,25328,151968).
route(prodloc31,harbor6,tr0,20307,527982).
route(prodloc31,harbor6,tr13,20307,121842).
route(prodloc31,harbor7,tr0,26415,686790).
route(prodloc31,harbor7,tr13,26415,158490).
route(prodloc31,harbor8,tr0,243,6318).
route(prodloc31,harbor8,tr13,243,1458).
route(prodloc31,harbor9,tr0,13532,351832).
route(prodloc31,harbor9,tr13,13532,81192).
route(prodloc31,harbor10,tr0,28951,752726).
route(prodloc31,harbor10,tr13,28951,173706).
route(prodloc31,harbor11,tr0,11559,300534).
route(prodloc31,harbor11,tr13,11559,69354).
route(prodloc31,harbor12,tr0,28498,740948).
route(prodloc31,harbor12,tr13,28498,170988).
route(prodloc31,harbor13,tr0,2233,58058).
route(prodloc31,harbor13,tr13,2233,13398).
route(prodloc31,harbor14,tr0,11505,299130).
route(prodloc31,harbor14,tr13,11505,69030).
route(prodloc31,harbor15,tr0,4580,119080).
route(prodloc31,harbor15,tr13,4580,27480).
route(prodloc31,harbor16,tr0,6731,175006).
route(prodloc31,harbor16,tr13,6731,40386).
route(prodloc31,prodloc0,tr0,10173,264498).
route(prodloc31,prodloc0,tr13,10173,61038).
route(prodloc31,prodloc1,tr0,22284,579384).
route(prodloc31,prodloc1,tr13,22284,133704).
route(prodloc31,prodloc2,tr0,9440,245440).
route(prodloc31,prodloc2,tr13,9440,56640).
route(prodloc31,prodloc3,tr0,5056,131456).
route(prodloc31,prodloc3,tr13,5056,30336).
route(prodloc31,prodloc4,tr0,2974,77324).
route(prodloc31,prodloc4,tr13,2974,17844).
route(prodloc31,prodloc5,tr0,10895,283270).
route(prodloc31,prodloc5,tr13,10895,65370).
route(prodloc31,prodloc6,tr0,3359,87334).
route(prodloc31,prodloc6,tr13,3359,20154).
route(prodloc31,prodloc7,tr0,20267,526942).
route(prodloc31,prodloc7,tr13,20267,121602).
route(prodloc31,prodloc8,tr0,9925,258050).
route(prodloc31,prodloc8,tr13,9925,59550).
route(prodloc31,prodloc9,tr0,5932,154232).
route(prodloc31,prodloc9,tr13,5932,35592).
route(prodloc31,prodloc10,tr0,8235,214110).
route(prodloc31,prodloc10,tr13,8235,49410).
route(prodloc31,prodloc11,tr0,6588,171288).
route(prodloc31,prodloc11,tr13,6588,39528).
route(prodloc31,prodloc12,tr0,5571,144846).
route(prodloc31,prodloc12,tr13,5571,33426).
route(prodloc31,prodloc13,tr0,23427,609102).
route(prodloc31,prodloc13,tr13,23427,140562).
route(prodloc31,prodloc14,tr0,1070,27820).
route(prodloc31,prodloc14,tr13,1070,6420).
route(prodloc31,prodloc15,tr0,14390,374140).
route(prodloc31,prodloc15,tr13,14390,86340).
route(prodloc31,prodloc16,tr0,12586,327236).
route(prodloc31,prodloc16,tr13,12586,75516).
route(prodloc31,prodloc17,tr0,23100,600600).
route(prodloc31,prodloc17,tr13,23100,138600).
route(prodloc31,prodloc18,tr0,15420,400920).
route(prodloc31,prodloc18,tr13,15420,92520).
route(prodloc31,prodloc19,tr0,6856,178256).
route(prodloc31,prodloc19,tr13,6856,41136).
route(prodloc31,prodloc20,tr0,13207,343382).
route(prodloc31,prodloc20,tr13,13207,79242).
route(prodloc31,prodloc21,tr0,18647,484822).
route(prodloc31,prodloc21,tr13,18647,111882).
route(prodloc31,prodloc22,tr0,15576,404976).
route(prodloc31,prodloc22,tr13,15576,93456).
route(prodloc31,prodloc23,tr0,28013,728338).
route(prodloc31,prodloc23,tr13,28013,168078).
route(prodloc31,prodloc24,tr0,20319,528294).
route(prodloc31,prodloc24,tr13,20319,121914).
route(prodloc31,prodloc25,tr0,9401,244426).
route(prodloc31,prodloc25,tr13,9401,56406).
route(prodloc31,prodloc26,tr0,332,8632).
route(prodloc31,prodloc26,tr13,332,1992).
route(prodloc31,prodloc27,tr0,27331,710606).
route(prodloc31,prodloc27,tr13,27331,163986).
route(prodloc31,prodloc28,tr0,11938,310388).
route(prodloc31,prodloc28,tr13,11938,71628).
route(prodloc31,prodloc29,tr0,4714,122564).
route(prodloc31,prodloc29,tr13,4714,28284).
route(prodloc31,prodloc30,tr0,9826,255476).
route(prodloc31,prodloc30,tr13,9826,58956).
route(prodloc31,prodloc32,tr0,21809,567034).
route(prodloc31,prodloc32,tr13,21809,130854).
route(prodloc31,prodloc33,tr0,5047,131222).
route(prodloc31,prodloc33,tr13,5047,30282).
route(prodloc32,harbor0,tr0,1367,35542).
route(prodloc32,harbor0,tr13,1367,8202).
route(prodloc32,harbor1,tr0,19343,502918).
route(prodloc32,harbor1,tr13,19343,116058).
route(prodloc32,harbor2,tr0,7992,207792).
route(prodloc32,harbor2,tr13,7992,47952).
route(prodloc32,harbor3,tr0,10759,279734).
route(prodloc32,harbor3,tr13,10759,64554).
route(prodloc32,harbor4,tr0,2359,61334).
route(prodloc32,harbor4,tr13,2359,14154).
route(prodloc32,harbor5,tr0,1352,35152).
route(prodloc32,harbor5,tr13,1352,8112).
route(prodloc32,harbor6,tr0,6460,167960).
route(prodloc32,harbor6,tr13,6460,38760).
route(prodloc32,harbor7,tr0,17361,451386).
route(prodloc32,harbor7,tr13,17361,104166).
route(prodloc32,harbor8,tr0,11493,298818).
route(prodloc32,harbor8,tr13,11493,68958).
route(prodloc32,harbor9,tr0,26605,691730).
route(prodloc32,harbor9,tr13,26605,159630).
route(prodloc32,harbor10,tr0,10617,276042).
route(prodloc32,harbor10,tr13,10617,63702).
route(prodloc32,harbor11,tr0,26653,692978).
route(prodloc32,harbor11,tr13,26653,159918).
route(prodloc32,harbor12,tr0,16011,416286).
route(prodloc32,harbor12,tr13,16011,96066).
route(prodloc32,harbor13,tr0,5910,153660).
route(prodloc32,harbor13,tr13,5910,35460).
route(prodloc32,harbor14,tr0,8101,210626).
route(prodloc32,harbor14,tr13,8101,48606).
route(prodloc32,harbor15,tr0,8999,233974).
route(prodloc32,harbor15,tr13,8999,53994).
route(prodloc32,harbor16,tr0,7235,188110).
route(prodloc32,harbor16,tr13,7235,43410).
route(prodloc32,prodloc0,tr0,13960,362960).
route(prodloc32,prodloc0,tr13,13960,83760).
route(prodloc32,prodloc1,tr0,8391,218166).
route(prodloc32,prodloc1,tr15,8391,268512).
route(prodloc32,prodloc2,tr0,21835,567710).
route(prodloc32,prodloc2,tr13,21835,131010).
route(prodloc32,prodloc3,tr0,9821,255346).
route(prodloc32,prodloc3,tr13,9821,58926).
route(prodloc32,prodloc4,tr0,23672,615472).
route(prodloc32,prodloc4,tr13,23672,142032).
route(prodloc32,prodloc6,tr0,8919,231894).
route(prodloc32,prodloc6,tr13,8919,53514).
route(prodloc32,prodloc7,tr0,16757,435682).
route(prodloc32,prodloc7,tr13,16757,100542).
route(prodloc32,prodloc8,tr0,9205,239330).
route(prodloc32,prodloc8,tr13,9205,55230).
route(prodloc32,prodloc9,tr0,23578,613028).
route(prodloc32,prodloc9,tr13,23578,141468).
route(prodloc32,prodloc10,tr0,14289,371514).
route(prodloc32,prodloc10,tr13,14289,85734).
route(prodloc32,prodloc11,tr0,8265,214890).
route(prodloc32,prodloc11,tr13,8265,49590).
route(prodloc32,prodloc12,tr0,11188,290888).
route(prodloc32,prodloc12,tr13,11188,67128).
route(prodloc32,prodloc13,tr0,8196,213096).
route(prodloc32,prodloc13,tr13,8196,49176).
route(prodloc32,prodloc14,tr13,23881,143286).
route(prodloc32,prodloc14,tr15,23881,764192).
route(prodloc32,prodloc15,tr0,5218,135668).
route(prodloc32,prodloc15,tr13,5218,31308).
route(prodloc32,prodloc16,tr0,28384,737984).
route(prodloc32,prodloc16,tr13,28384,170304).
route(prodloc32,prodloc17,tr0,23158,602108).
route(prodloc32,prodloc17,tr13,23158,138948).
route(prodloc32,prodloc18,tr0,21667,563342).
route(prodloc32,prodloc18,tr13,21667,130002).
route(prodloc32,prodloc19,tr0,17242,448292).
route(prodloc32,prodloc19,tr13,17242,103452).
route(prodloc32,prodloc20,tr0,1606,41756).
route(prodloc32,prodloc20,tr13,1606,9636).
route(prodloc32,prodloc21,tr0,28149,731874).
route(prodloc32,prodloc21,tr13,28149,168894).
route(prodloc32,prodloc22,tr0,26136,679536).
route(prodloc32,prodloc22,tr13,26136,156816).
route(prodloc32,prodloc23,tr0,15204,395304).
route(prodloc32,prodloc23,tr13,15204,91224).
route(prodloc32,prodloc24,tr0,25170,654420).
route(prodloc32,prodloc24,tr15,25170,805440).
route(prodloc32,prodloc25,tr0,11150,289900).
route(prodloc32,prodloc25,tr13,11150,66900).
route(prodloc32,prodloc26,tr0,25017,650442).
route(prodloc32,prodloc26,tr13,25017,150102).
route(prodloc32,prodloc27,tr0,6167,160342).
route(prodloc32,prodloc27,tr13,6167,37002).
route(prodloc32,prodloc28,tr0,24057,625482).
route(prodloc32,prodloc28,tr13,24057,144342).
route(prodloc32,prodloc29,tr0,9046,235196).
route(prodloc32,prodloc29,tr13,9046,54276).
route(prodloc32,prodloc30,tr0,12991,337766).
route(prodloc32,prodloc30,tr13,12991,77946).
route(prodloc32,prodloc31,tr0,22475,584350).
route(prodloc32,prodloc31,tr13,22475,134850).
route(prodloc32,prodloc33,tr0,18192,472992).
route(prodloc32,prodloc33,tr13,18192,109152).
route(prodloc33,harbor0,tr0,6637,172562).
route(prodloc33,harbor0,tr13,6637,39822).
route(prodloc33,harbor1,tr0,18829,489554).
route(prodloc33,harbor1,tr13,18829,112974).
route(prodloc33,harbor2,tr0,8243,214318).
route(prodloc33,harbor2,tr13,8243,49458).
route(prodloc33,harbor3,tr0,1647,42822).
route(prodloc33,harbor3,tr13,1647,9882).
route(prodloc33,harbor4,tr0,13824,359424).
route(prodloc33,harbor4,tr13,13824,82944).
route(prodloc33,harbor5,tr0,11788,306488).
route(prodloc33,harbor5,tr13,11788,70728).
route(prodloc33,harbor6,tr0,18466,480116).
route(prodloc33,harbor6,tr13,18466,110796).
route(prodloc33,harbor7,tr0,13834,359684).
route(prodloc33,harbor7,tr13,13834,83004).
route(prodloc33,harbor8,tr0,8381,217906).
route(prodloc33,harbor8,tr13,8381,50286).
route(prodloc33,harbor9,tr0,17222,447772).
route(prodloc33,harbor9,tr13,17222,103332).
route(prodloc33,harbor10,tr0,18131,471406).
route(prodloc33,harbor10,tr13,18131,108786).
route(prodloc33,harbor11,tr0,6161,160186).
route(prodloc33,harbor11,tr13,6161,36966).
route(prodloc33,harbor12,tr0,13963,363038).
route(prodloc33,harbor12,tr13,13963,83778).
route(prodloc33,harbor13,tr0,7181,186706).
route(prodloc33,harbor13,tr13,7181,43086).
route(prodloc33,harbor14,tr0,12440,323440).
route(prodloc33,harbor14,tr13,12440,74640).
route(prodloc33,harbor15,tr0,21201,551226).
route(prodloc33,harbor15,tr13,21201,127206).
route(prodloc33,harbor16,tr0,16760,435760).
route(prodloc33,harbor16,tr13,16760,100560).
route(prodloc33,prodloc0,tr0,10460,271960).
route(prodloc33,prodloc0,tr13,10460,62760).
route(prodloc33,prodloc1,tr0,15896,413296).
route(prodloc33,prodloc1,tr13,15896,95376).
route(prodloc33,prodloc2,tr0,1192,30992).
route(prodloc33,prodloc2,tr13,1192,7152).
route(prodloc33,prodloc3,tr0,17764,461864).
route(prodloc33,prodloc3,tr13,17764,106584).
route(prodloc33,prodloc4,tr0,7911,205686).
route(prodloc33,prodloc4,tr13,7911,47466).
route(prodloc33,prodloc5,tr0,23127,601302).
route(prodloc33,prodloc5,tr13,23127,138762).
route(prodloc33,prodloc6,tr0,13803,358878).
route(prodloc33,prodloc6,tr13,13803,82818).
route(prodloc33,prodloc7,tr0,3542,92092).
route(prodloc33,prodloc7,tr13,3542,21252).
route(prodloc33,prodloc8,tr0,20226,525876).
route(prodloc33,prodloc8,tr13,20226,121356).
route(prodloc33,prodloc9,tr0,16720,434720).
route(prodloc33,prodloc9,tr13,16720,100320).
route(prodloc33,prodloc10,tr0,2246,58396).
route(prodloc33,prodloc10,tr13,2246,13476).
route(prodloc33,prodloc11,tr0,21896,569296).
route(prodloc33,prodloc11,tr13,21896,131376).
route(prodloc33,prodloc12,tr0,16211,421486).
route(prodloc33,prodloc12,tr13,16211,97266).
route(prodloc33,prodloc13,tr0,2587,67262).
route(prodloc33,prodloc13,tr13,2587,15522).
route(prodloc33,prodloc14,tr0,5209,135434).
route(prodloc33,prodloc14,tr13,5209,31254).
route(prodloc33,prodloc15,tr0,6760,175760).
route(prodloc33,prodloc15,tr13,6760,40560).
route(prodloc33,prodloc16,tr0,934,24284).
route(prodloc33,prodloc16,tr13,934,5604).
route(prodloc33,prodloc17,tr0,17340,450840).
route(prodloc33,prodloc17,tr13,17340,104040).
route(prodloc33,prodloc18,tr0,10089,262314).
route(prodloc33,prodloc18,tr13,10089,60534).
route(prodloc33,prodloc19,tr0,8676,225576).
route(prodloc33,prodloc19,tr13,8676,52056).
route(prodloc33,prodloc20,tr0,11002,286052).
route(prodloc33,prodloc20,tr13,11002,66012).
route(prodloc33,prodloc21,tr0,18305,475930).
route(prodloc33,prodloc21,tr13,18305,109830).
route(prodloc33,prodloc22,tr0,22085,574210).
route(prodloc33,prodloc22,tr13,22085,132510).
route(prodloc33,prodloc23,tr0,22605,587730).
route(prodloc33,prodloc23,tr13,22605,135630).
route(prodloc33,prodloc24,tr0,2928,76128).
route(prodloc33,prodloc24,tr13,2928,17568).
route(prodloc33,prodloc25,tr0,465,12090).
route(prodloc33,prodloc25,tr13,465,2790).
route(prodloc33,prodloc26,tr0,6798,176748).
route(prodloc33,prodloc26,tr13,6798,40788).
route(prodloc33,prodloc27,tr0,19624,510224).
route(prodloc33,prodloc27,tr13,19624,117744).
route(prodloc33,prodloc28,tr0,26988,701688).
route(prodloc33,prodloc28,tr13,26988,161928).
route(prodloc33,prodloc29,tr0,7819,203294).
route(prodloc33,prodloc29,tr13,7819,46914).
route(prodloc33,prodloc30,tr0,26187,680862).
route(prodloc33,prodloc30,tr13,26187,157122).
route(prodloc33,prodloc31,tr0,1839,47814).
route(prodloc33,prodloc31,tr13,1839,11034).
route(prodloc33,prodloc32,tr0,15945,414570).
route(prodloc33,prodloc32,tr13,15945,95670).
hub(harbor4).
hub(harbor7).
hub(harbor8).
hub(harbor15).
hub(prodloc9).
hub(prodloc24).
hub(prodloc25).
hub(prodloc26).
hub(prodloc29).
hub(prodloc31).
