% Multibatching benchmark instance
% Source: instances.lp
% seed=20  harbors=17  prodlocs=34  hubs=10  disruptions=2

% ---- locations ----
location(harbor0).
location(harbor1).
location(harbor2).
location(harbor3).
location(harbor4).
location(harbor5).
location(harbor6).
location(harbor7).
location(harbor8).
location(harbor9).
location(harbor10).
location(harbor11).
location(harbor12).
location(harbor13).
location(harbor14).
location(harbor15).
location(harbor16).
location(prodloc0).
location(prodloc1).
location(prodloc2).
location(prodloc3).
location(prodloc4).
location(prodloc5).
location(prodloc6).
location(prodloc7).
location(prodloc8).
location(prodloc9).
location(prodloc10).
location(prodloc11).
location(prodloc12).
location(prodloc13).
location(prodloc14).
location(prodloc15).
location(prodloc16).
location(prodloc17).
location(prodloc18).
location(prodloc19).
location(prodloc20).
location(prodloc21).
location(prodloc22).
location(prodloc23).
location(prodloc24).
location(prodloc25).
location(prodloc26).
location(prodloc27).
location(prodloc28).
location(prodloc29).
location(prodloc30).
location(prodloc31).
location(prodloc32).
location(prodloc33).

% ---- transport resources ----
transportCapacity(tr0,1800).
transportCO2(tr0,1680).
transportCost(tr0,26).
transportSpeed(tr0,12).
transportCapacity(tr1,65).
transportCO2(tr1,90).
transportCost(tr1,1).
transportSpeed(tr1,35).
transportCapacity(tr10,1).
transportCO2(tr10,700).
transportCost(tr10,4).
transportSpeed(tr10,40).
transportCapacity(tr11,65).
transportCO2(tr11,62).
transportCost(tr11,1).
transportSpeed(tr11,25).
transportCapacity(tr12,65).
transportCO2(tr12,709).
transportCost(tr12,3).
transportSpeed(tr12,55).
transportCapacity(tr13,68).
transportCO2(tr13,160).
transportCost(tr13,6).
transportSpeed(tr13,25).
transportCapacity(tr14,146).
transportCO2(tr14,780).
transportCost(tr14,4).
transportSpeed(tr14,50).
transportCapacity(tr15,2217).
transportCO2(tr15,49470).
transportCost(tr15,32).
transportSpeed(tr15,625).
transportCapacity(tr2,96).
transportCO2(tr2,709).
transportCost(tr2,3).
transportSpeed(tr2,55).
transportCapacity(tr3,1).
transportCO2(tr3,6250).
transportCost(tr3,108).
transportSpeed(tr3,25).
transportCapacity(tr4,148).
transportCO2(tr4,780).
transportCost(tr4,4).
transportSpeed(tr4,50).
transportCapacity(tr5,65).
transportCO2(tr5,780).
transportCost(tr5,3).
transportSpeed(tr5,50).
transportCapacity(tr6,1).
transportCO2(tr6,100).
transportCost(tr6,40).
transportSpeed(tr6,25).
transportCapacity(tr7,1).
transportCO2(tr7,18000).
transportCost(tr7,278).
transportSpeed(tr7,10).
transportCapacity(tr8,1).
transportCO2(tr8,14400).
transportCost(tr8,107).
transportSpeed(tr8,25).
transportCapacity(tr9,65).
transportCO2(tr9,708).
transportCost(tr9,2).
transportSpeed(tr9,60).

% ---- parts ----
part(part0).
partSize(part0,21).
valid_transport(part0,tr0).
valid_transport(part0,tr15).
valid_transport(part0,tr14).
valid_transport(part0,tr13).
valid_transport(part0,tr4).
part(part1).
partSize(part1,1).
valid_transport(part1,tr0).
valid_transport(part1,tr2).
valid_transport(part1,tr15).
valid_transport(part1,tr9).
valid_transport(part1,tr12).
valid_transport(part1,tr13).
valid_transport(part1,tr11).
part(part10).
partSize(part10,1).
valid_transport(part10,tr0).
valid_transport(part10,tr2).
valid_transport(part10,tr15).
valid_transport(part10,tr9).
valid_transport(part10,tr12).
valid_transport(part10,tr13).
valid_transport(part10,tr11).
part(part11).
partSize(part11,83).
valid_transport(part11,tr0).
valid_transport(part11,tr7).
valid_transport(part11,tr8).
valid_transport(part11,tr15).
valid_transport(part11,tr3).
valid_transport(part11,tr13).
part(part12).
partSize(part12,273).
valid_transport(part12,tr0).
valid_transport(part12,tr7).
valid_transport(part12,tr8).
valid_transport(part12,tr15).
valid_transport(part12,tr3).
valid_transport(part12,tr13).
part(part13).
partSize(part13,1).
valid_transport(part13,tr0).
valid_transport(part13,tr2).
valid_transport(part13,tr15).
valid_transport(part13,tr9).
valid_transport(part13,tr12).
valid_transport(part13,tr13).
valid_transport(part13,tr11).
part(part14).
partSize(part14,68).
valid_transport(part14,tr0).
valid_transport(part14,tr15).
valid_transport(part14,tr13).
part(part15).
partSize(part15,4).
valid_transport(part15,tr0).
valid_transport(part15,tr2).
valid_transport(part15,tr15).
valid_transport(part15,tr9).
valid_transport(part15,tr12).
valid_transport(part15,tr13).
valid_transport(part15,tr11).
part(part16).
partSize(part16,4).
valid_transport(part16,tr0).
valid_transport(part16,tr2).
valid_transport(part16,tr15).
valid_transport(part16,tr9).
valid_transport(part16,tr12).
valid_transport(part16,tr13).
valid_transport(part16,tr11).
part(part17).
partSize(part17,8).
valid_transport(part17,tr0).
valid_transport(part17,tr15).
valid_transport(part17,tr14).
valid_transport(part17,tr13).
valid_transport(part17,tr4).
part(part18).
partSize(part18,24).
valid_transport(part18,tr0).
valid_transport(part18,tr15).
valid_transport(part18,tr14).
valid_transport(part18,tr13).
valid_transport(part18,tr4).
part(part19).
partSize(part19,6).
valid_transport(part19,tr0).
valid_transport(part19,tr2).
valid_transport(part19,tr15).
valid_transport(part19,tr9).
valid_transport(part19,tr12).
valid_transport(part19,tr13).
valid_transport(part19,tr11).
part(part2).
partSize(part2,19).
valid_transport(part2,tr0).
valid_transport(part2,tr15).
valid_transport(part2,tr14).
valid_transport(part2,tr13).
valid_transport(part2,tr4).
part(part20).
partSize(part20,128).
valid_transport(part20,tr0).
valid_transport(part20,tr7).
valid_transport(part20,tr8).
valid_transport(part20,tr15).
valid_transport(part20,tr3).
valid_transport(part20,tr13).
part(part21).
partSize(part21,25).
valid_transport(part21,tr0).
valid_transport(part21,tr15).
valid_transport(part21,tr14).
valid_transport(part21,tr13).
valid_transport(part21,tr4).
part(part22).
partSize(part22,7).
valid_transport(part22,tr0).
valid_transport(part22,tr2).
valid_transport(part22,tr15).
valid_transport(part22,tr9).
valid_transport(part22,tr12).
valid_transport(part22,tr13).
valid_transport(part22,tr11).
part(part23).
partSize(part23,5).
valid_transport(part23,tr0).
valid_transport(part23,tr15).
valid_transport(part23,tr14).
valid_transport(part23,tr13).
valid_transport(part23,tr4).
part(part24).
partSize(part24,55).
valid_transport(part24,tr0).
valid_transport(part24,tr7).
valid_transport(part24,tr8).
valid_transport(part24,tr15).
valid_transport(part24,tr3).
valid_transport(part24,tr13).
part(part25).
partSize(part25,5).
valid_transport(part25,tr0).
valid_transport(part25,tr4).
valid_transport(part25,tr2).
valid_transport(part25,tr15).
valid_transport(part25,tr13).
part(part26).
partSize(part26,32).
valid_transport(part26,tr0).
valid_transport(part26,tr7).
valid_transport(part26,tr8).
valid_transport(part26,tr15).
valid_transport(part26,tr3).
valid_transport(part26,tr13).
part(part27).
partSize(part27,5).
valid_transport(part27,tr0).
valid_transport(part27,tr2).
valid_transport(part27,tr15).
valid_transport(part27,tr9).
valid_transport(part27,tr12).
valid_transport(part27,tr13).
valid_transport(part27,tr11).
part(part28).
partSize(part28,3).
valid_transport(part28,tr0).
valid_transport(part28,tr4).
valid_transport(part28,tr2).
valid_transport(part28,tr15).
valid_transport(part28,tr14).
valid_transport(part28,tr13).
part(part29).
partSize(part29,627).
part(part3).
partSize(part3,48).
valid_transport(part3,tr0).
valid_transport(part3,tr7).
valid_transport(part3,tr8).
valid_transport(part3,tr15).
valid_transport(part3,tr3).
valid_transport(part3,tr13).
part(part30).
partSize(part30,2).
valid_transport(part30,tr0).
valid_transport(part30,tr2).
valid_transport(part30,tr15).
valid_transport(part30,tr9).
valid_transport(part30,tr12).
valid_transport(part30,tr13).
valid_transport(part30,tr11).
part(part31).
partSize(part31,144).
valid_transport(part31,tr0).
valid_transport(part31,tr7).
valid_transport(part31,tr8).
valid_transport(part31,tr15).
valid_transport(part31,tr3).
valid_transport(part31,tr13).
part(part32).
partSize(part32,16).
valid_transport(part32,tr0).
valid_transport(part32,tr4).
valid_transport(part32,tr2).
valid_transport(part32,tr15).
valid_transport(part32,tr14).
valid_transport(part32,tr13).
part(part33).
partSize(part33,7).
valid_transport(part33,tr0).
valid_transport(part33,tr2).
valid_transport(part33,tr15).
valid_transport(part33,tr9).
valid_transport(part33,tr12).
valid_transport(part33,tr13).
valid_transport(part33,tr11).
part(part3345).
partSize(part3345,353).
valid_transport(part3345,tr0).
valid_transport(part3345,tr7).
valid_transport(part3345,tr8).
valid_transport(part3345,tr15).
valid_transport(part3345,tr3).
valid_transport(part3345,tr13).
part(part34).
partSize(part34,2).
valid_transport(part34,tr0).
valid_transport(part34,tr2).
valid_transport(part34,tr15).
valid_transport(part34,tr9).
valid_transport(part34,tr12).
valid_transport(part34,tr13).
valid_transport(part34,tr11).
part(part4).
partSize(part4,2).
valid_transport(part4,tr0).
valid_transport(part4,tr2).
valid_transport(part4,tr15).
valid_transport(part4,tr9).
valid_transport(part4,tr12).
valid_transport(part4,tr13).
valid_transport(part4,tr11).
part(part5).
partSize(part5,2).
valid_transport(part5,tr0).
valid_transport(part5,tr2).
valid_transport(part5,tr15).
valid_transport(part5,tr9).
valid_transport(part5,tr12).
valid_transport(part5,tr14).
valid_transport(part5,tr13).
valid_transport(part5,tr11).
part(part6).
partSize(part6,111).
valid_transport(part6,tr0).
valid_transport(part6,tr7).
valid_transport(part6,tr8).
valid_transport(part6,tr15).
valid_transport(part6,tr3).
valid_transport(part6,tr13).
part(part8).
partSize(part8,163).
valid_transport(part8,tr0).
valid_transport(part8,tr7).
valid_transport(part8,tr8).
valid_transport(part8,tr15).
valid_transport(part8,tr3).
valid_transport(part8,tr13).
part(part9).
partSize(part9,2).
valid_transport(part9,tr0).
valid_transport(part9,tr2).
valid_transport(part9,tr15).
valid_transport(part9,tr9).
valid_transport(part9,tr12).
valid_transport(part9,tr13).
valid_transport(part9,tr11).

% ---- demand ----
demandOffer(part0,prodloc9,40).
demandOffer(part0,prodloc16,40).
demandOffer(part0,prodloc6,-27).
demandOffer(part0,prodloc20,-53).
demandOffer(part1,prodloc10,20).
demandOffer(part1,prodloc1,20).
demandOffer(part1,prodloc26,-20).
demandOffer(part1,prodloc4,-20).
demandOffer(part10,prodloc6,20).
demandOffer(part10,prodloc8,20).
demandOffer(part10,prodloc20,-20).
demandOffer(part10,prodloc30,-20).
demandOffer(part12,prodloc28,10).
demandOffer(part12,prodloc26,20).
demandOffer(part12,prodloc13,-10).
demandOffer(part12,prodloc12,-10).
demandOffer(part12,prodloc20,-10).
demandOffer(part13,prodloc21,20).
demandOffer(part13,prodloc27,20).
demandOffer(part13,prodloc5,-20).
demandOffer(part13,prodloc33,-20).
demandOffer(part14,prodloc31,26).
demandOffer(part14,prodloc25,-26).
demandOffer(part15,prodloc5,53).
demandOffer(part15,prodloc13,27).
demandOffer(part15,prodloc15,-53).
demandOffer(part15,prodloc2,-27).
demandOffer(part16,prodloc12,53).
demandOffer(part16,prodloc6,27).
demandOffer(part16,prodloc5,-53).
demandOffer(part16,prodloc16,-27).
demandOffer(part17,prodloc18,20).
demandOffer(part17,prodloc19,-20).
demandOffer(part18,prodloc16,40).
demandOffer(part18,prodloc10,40).
demandOffer(part18,prodloc7,-27).
demandOffer(part18,prodloc1,-53).
demandOffer(part19,prodloc17,26).
demandOffer(part19,prodloc14,-26).
demandOffer(part2,prodloc14,40).
demandOffer(part2,prodloc15,40).
demandOffer(part2,prodloc3,-27).
demandOffer(part2,prodloc0,-53).
demandOffer(part20,prodloc19,53).
demandOffer(part20,prodloc17,27).
demandOffer(part20,prodloc8,-14).
demandOffer(part20,prodloc21,-46).
demandOffer(part20,prodloc28,-20).
demandOffer(part21,prodloc9,26).
demandOffer(part21,prodloc17,-26).
demandOffer(part22,prodloc27,53).
demandOffer(part22,prodloc10,27).
demandOffer(part22,prodloc25,-53).
demandOffer(part22,prodloc7,-27).
demandOffer(part23,prodloc8,20).
demandOffer(part23,prodloc27,20).
demandOffer(part23,prodloc22,-20).
demandOffer(part23,prodloc14,-20).
demandOffer(part25,prodloc7,20).
demandOffer(part25,prodloc3,-20).
demandOffer(part26,prodloc33,20).
demandOffer(part26,prodloc12,20).
demandOffer(part26,prodloc27,-14).
demandOffer(part26,prodloc11,-26).
demandOffer(part27,prodloc11,53).
demandOffer(part27,prodloc5,27).
demandOffer(part27,prodloc7,-53).
demandOffer(part27,prodloc18,-27).
demandOffer(part28,prodloc0,20).
demandOffer(part28,prodloc20,20).
demandOffer(part28,prodloc25,-20).
demandOffer(part28,prodloc29,-20).
demandOffer(part3,prodloc33,40).
demandOffer(part3,prodloc3,-14).
demandOffer(part3,prodloc10,-26).
demandOffer(part30,prodloc7,40).
demandOffer(part30,prodloc29,40).
demandOffer(part30,prodloc21,-27).
demandOffer(part30,prodloc0,-53).
demandOffer(part31,prodloc4,7).
demandOffer(part31,prodloc6,7).
demandOffer(part31,prodloc5,-14).
demandOffer(part32,prodloc21,53).
demandOffer(part32,prodloc16,27).
demandOffer(part32,prodloc5,-53).
demandOffer(part32,prodloc19,-27).
demandOffer(part33,prodloc2,53).
demandOffer(part33,prodloc1,27).
demandOffer(part33,prodloc12,-53).
demandOffer(part33,prodloc14,-27).
demandOffer(part34,prodloc32,20).
demandOffer(part34,prodloc0,-20).
demandOffer(part4,prodloc10,26).
demandOffer(part4,prodloc1,-26).
demandOffer(part5,prodloc33,20).
demandOffer(part5,prodloc8,-20).
demandOffer(part6,prodloc19,27).
demandOffer(part6,prodloc8,53).
demandOffer(part6,prodloc26,-24).
demandOffer(part6,prodloc32,-36).
demandOffer(part6,prodloc3,-10).
demandOffer(part6,prodloc12,-10).
demandOffer(part8,prodloc6,3).
demandOffer(part8,prodloc13,17).
demandOffer(part8,prodloc15,-10).
demandOffer(part8,prodloc12,-10).
demandOffer(part9,prodloc14,20).
demandOffer(part9,prodloc6,-20).

% ---- network (ASP-generated) ----
route(harbor0,harbor1,tr13,9906,59436).
route(harbor0,harbor1,tr2,9906,29718).
route(harbor0,harbor2,tr13,4138,24828).
route(harbor0,harbor2,tr2,4138,12414).
route(harbor0,harbor3,tr13,18216,109296).
route(harbor0,harbor3,tr2,18216,54648).
route(harbor0,harbor4,tr13,12801,76806).
route(harbor0,harbor4,tr2,12801,38403).
route(harbor0,harbor5,tr13,29068,174408).
route(harbor0,harbor5,tr2,29068,87204).
route(harbor0,harbor6,tr13,4600,27600).
route(harbor0,harbor6,tr2,4600,13800).
route(harbor0,harbor7,tr13,21262,127572).
route(harbor0,harbor7,tr2,21262,63786).
route(harbor0,harbor8,tr13,2741,16446).
route(harbor0,harbor8,tr2,2741,8223).
route(harbor0,harbor9,tr13,14727,88362).
route(harbor0,harbor9,tr2,14727,44181).
route(harbor0,harbor10,tr13,16000,96000).
route(harbor0,harbor10,tr2,16000,48000).
route(harbor0,harbor11,tr13,136,816).
route(harbor0,harbor11,tr2,136,408).
route(harbor0,harbor12,tr13,5887,35322).
route(harbor0,harbor12,tr2,5887,17661).
route(harbor0,harbor13,tr13,6208,37248).
route(harbor0,harbor13,tr2,6208,18624).
route(harbor0,harbor14,tr13,26701,160206).
route(harbor0,harbor14,tr2,26701,80103).
route(harbor0,harbor15,tr13,20811,124866).
route(harbor0,harbor15,tr2,20811,62433).
route(harbor0,harbor16,tr13,10230,61380).
route(harbor0,harbor16,tr2,10230,30690).
route(harbor0,prodloc0,tr0,13275,345150).
route(harbor0,prodloc0,tr13,13275,79650).
route(harbor0,prodloc1,tr0,27759,721734).
route(harbor0,prodloc1,tr13,27759,166554).
route(harbor0,prodloc2,tr0,3114,80964).
route(harbor0,prodloc2,tr13,3114,18684).
route(harbor0,prodloc3,tr0,27153,705978).
route(harbor0,prodloc3,tr13,27153,162918).
route(harbor0,prodloc4,tr0,9717,252642).
route(harbor0,prodloc4,tr13,9717,58302).
route(harbor0,prodloc5,tr0,6785,176410).
route(harbor0,prodloc5,tr13,6785,40710).
route(harbor0,prodloc6,tr0,11945,310570).
route(harbor0,prodloc6,tr13,11945,71670).
route(harbor0,prodloc7,tr0,20413,530738).
route(harbor0,prodloc7,tr13,20413,122478).
route(harbor0,prodloc8,tr0,9774,254124).
route(harbor0,prodloc8,tr13,9774,58644).
route(harbor0,prodloc9,tr0,4715,122590).
route(harbor0,prodloc9,tr13,4715,28290).
route(harbor0,prodloc10,tr0,22168,576368).
route(harbor0,prodloc10,tr13,22168,133008).
route(harbor0,prodloc11,tr0,23777,618202).
route(harbor0,prodloc11,tr13,23777,142662).
route(harbor0,prodloc12,tr0,3235,84110).
route(harbor0,prodloc12,tr13,3235,19410).
route(harbor0,prodloc13,tr0,161,4186).
route(harbor0,prodloc13,tr13,161,966).
route(harbor0,prodloc14,tr0,9053,235378).
route(harbor0,prodloc14,tr13,9053,54318).
route(harbor0,prodloc15,tr0,2026,52676).
route(harbor0,prodloc15,tr13,2026,12156).
route(harbor0,prodloc16,tr0,28789,748514).
route(harbor0,prodloc16,tr13,28789,172734).
route(harbor0,prodloc17,tr0,12698,330148).
route(harbor0,prodloc17,tr13,12698,76188).
route(harbor0,prodloc18,tr0,12232,318032).
route(harbor0,prodloc18,tr13,12232,73392).
route(harbor0,prodloc19,tr0,24102,626652).
route(harbor0,prodloc19,tr13,24102,144612).
route(harbor0,prodloc20,tr0,9259,240734).
route(harbor0,prodloc20,tr13,9259,55554).
route(harbor0,prodloc21,tr0,12974,337324).
route(harbor0,prodloc21,tr13,12974,77844).
route(harbor0,prodloc22,tr0,27426,713076).
route(harbor0,prodloc22,tr13,27426,164556).
route(harbor0,prodloc23,tr0,15157,394082).
route(harbor0,prodloc23,tr13,15157,90942).
route(harbor0,prodloc24,tr0,26550,690300).
route(harbor0,prodloc24,tr13,26550,159300).
route(harbor0,prodloc25,tr0,3258,84708).
route(harbor0,prodloc25,tr13,3258,19548).
route(harbor0,prodloc26,tr0,2184,56784).
route(harbor0,prodloc26,tr13,2184,13104).
route(harbor0,prodloc27,tr0,18930,492180).
route(harbor0,prodloc27,tr13,18930,113580).
route(harbor0,prodloc28,tr0,15379,399854).
route(harbor0,prodloc28,tr13,15379,92274).
route(harbor0,prodloc29,tr0,6926,180076).
route(harbor0,prodloc29,tr13,6926,41556).
route(harbor0,prodloc30,tr0,330,8580).
route(harbor0,prodloc30,tr13,330,1980).
route(harbor0,prodloc31,tr0,22969,597194).
route(harbor0,prodloc31,tr13,22969,137814).
route(harbor0,prodloc32,tr0,23970,623220).
route(harbor0,prodloc32,tr13,23970,143820).
route(harbor0,prodloc33,tr0,17345,450970).
route(harbor0,prodloc33,tr13,17345,104070).
route(harbor1,harbor0,tr13,2323,13938).
route(harbor1,harbor0,tr2,2323,6969).
route(harbor1,harbor2,tr13,24643,147858).
route(harbor1,harbor2,tr2,24643,73929).
route(harbor1,harbor3,tr13,17956,107736).
route(harbor1,harbor3,tr2,17956,53868).
route(harbor1,harbor4,tr13,20427,122562).
route(harbor1,harbor4,tr2,20427,61281).
route(harbor1,harbor5,tr13,11197,67182).
route(harbor1,harbor5,tr2,11197,33591).
route(harbor1,harbor6,tr13,23453,140718).
route(harbor1,harbor6,tr2,23453,70359).
route(harbor1,harbor7,tr13,538,3228).
route(harbor1,harbor7,tr2,538,1614).
route(harbor1,harbor8,tr13,5894,35364).
route(harbor1,harbor8,tr2,5894,17682).
route(harbor1,harbor9,tr13,9126,54756).
route(harbor1,harbor9,tr2,9126,27378).
route(harbor1,harbor10,tr13,9664,57984).
route(harbor1,harbor10,tr2,9664,28992).
route(harbor1,harbor11,tr13,19991,119946).
route(harbor1,harbor11,tr2,19991,59973).
route(harbor1,harbor12,tr13,27751,166506).
route(harbor1,harbor12,tr2,27751,83253).
route(harbor1,harbor13,tr13,3303,19818).
route(harbor1,harbor13,tr2,3303,9909).
route(harbor1,harbor14,tr13,109,654).
route(harbor1,harbor14,tr2,109,327).
route(harbor1,harbor15,tr13,1381,8286).
route(harbor1,harbor15,tr2,1381,4143).
route(harbor1,harbor16,tr13,6954,41724).
route(harbor1,harbor16,tr2,6954,20862).
route(harbor1,prodloc0,tr0,24568,638768).
route(harbor1,prodloc0,tr13,24568,147408).
route(harbor1,prodloc1,tr0,6783,176358).
route(harbor1,prodloc1,tr13,6783,40698).
route(harbor1,prodloc2,tr0,20261,526786).
route(harbor1,prodloc2,tr13,20261,121566).
route(harbor1,prodloc3,tr0,13308,346008).
route(harbor1,prodloc3,tr13,13308,79848).
route(harbor1,prodloc4,tr0,22565,586690).
route(harbor1,prodloc4,tr13,22565,135390).
route(harbor1,prodloc5,tr0,19703,512278).
route(harbor1,prodloc5,tr13,19703,118218).
route(harbor1,prodloc6,tr0,2564,66664).
route(harbor1,prodloc6,tr13,2564,15384).
route(harbor1,prodloc7,tr0,19081,496106).
route(harbor1,prodloc7,tr13,19081,114486).
route(harbor1,prodloc8,tr0,27773,722098).
route(harbor1,prodloc8,tr13,27773,166638).
route(harbor1,prodloc9,tr0,11789,306514).
route(harbor1,prodloc9,tr13,11789,70734).
route(harbor1,prodloc10,tr0,25875,672750).
route(harbor1,prodloc10,tr13,25875,155250).
route(harbor1,prodloc11,tr0,9273,241098).
route(harbor1,prodloc11,tr13,9273,55638).
route(harbor1,prodloc12,tr0,14511,377286).
route(harbor1,prodloc12,tr13,14511,87066).
route(harbor1,prodloc13,tr0,1636,42536).
route(harbor1,prodloc13,tr13,1636,9816).
route(harbor1,prodloc14,tr0,26546,690196).
route(harbor1,prodloc14,tr13,26546,159276).
route(harbor1,prodloc15,tr0,21466,558116).
route(harbor1,prodloc15,tr13,21466,128796).
route(harbor1,prodloc16,tr0,4514,117364).
route(harbor1,prodloc16,tr13,4514,27084).
route(harbor1,prodloc17,tr0,28856,750256).
route(harbor1,prodloc17,tr13,28856,173136).
route(harbor1,prodloc18,tr0,20408,530608).
route(harbor1,prodloc18,tr13,20408,122448).
route(harbor1,prodloc19,tr0,12321,320346).
route(harbor1,prodloc19,tr13,12321,73926).
route(harbor1,prodloc20,tr0,28117,731042).
route(harbor1,prodloc20,tr13,28117,168702).
route(harbor1,prodloc21,tr0,18433,479258).
route(harbor1,prodloc21,tr13,18433,110598).
route(harbor1,prodloc22,tr0,13021,338546).
route(harbor1,prodloc22,tr13,13021,78126).
route(harbor1,prodloc23,tr0,12914,335764).
route(harbor1,prodloc23,tr13,12914,77484).
route(harbor1,prodloc24,tr0,8337,216762).
route(harbor1,prodloc24,tr13,8337,50022).
route(harbor1,prodloc25,tr0,121,3146).
route(harbor1,prodloc25,tr13,121,726).
route(harbor1,prodloc26,tr0,26238,682188).
route(harbor1,prodloc26,tr13,26238,157428).
route(harbor1,prodloc27,tr0,25525,663650).
route(harbor1,prodloc27,tr13,25525,153150).
route(harbor1,prodloc28,tr0,15038,390988).
route(harbor1,prodloc28,tr13,15038,90228).
route(harbor1,prodloc29,tr0,3006,78156).
route(harbor1,prodloc29,tr13,3006,18036).
route(harbor1,prodloc30,tr0,19071,495846).
route(harbor1,prodloc30,tr13,19071,114426).
route(harbor1,prodloc31,tr0,28553,742378).
route(harbor1,prodloc31,tr13,28553,171318).
route(harbor1,prodloc32,tr0,16124,419224).
route(harbor1,prodloc32,tr13,16124,96744).
route(harbor1,prodloc33,tr0,10459,271934).
route(harbor1,prodloc33,tr13,10459,62754).
route(harbor2,harbor0,tr13,7572,45432).
route(harbor2,harbor0,tr2,7572,22716).
route(harbor2,harbor1,tr13,25407,152442).
route(harbor2,harbor1,tr2,25407,76221).
route(harbor2,harbor3,tr13,6617,39702).
route(harbor2,harbor3,tr2,6617,19851).
route(harbor2,harbor4,tr13,9628,57768).
route(harbor2,harbor4,tr2,9628,28884).
route(harbor2,harbor5,tr13,14794,88764).
route(harbor2,harbor5,tr2,14794,44382).
route(harbor2,harbor6,tr13,29115,174690).
route(harbor2,harbor6,tr2,29115,87345).
route(harbor2,harbor7,tr13,11061,66366).
route(harbor2,harbor7,tr2,11061,33183).
route(harbor2,harbor8,tr13,12487,74922).
route(harbor2,harbor8,tr2,12487,37461).
route(harbor2,harbor9,tr13,6798,40788).
route(harbor2,harbor9,tr2,6798,20394).
route(harbor2,harbor10,tr13,20457,122742).
route(harbor2,harbor10,tr2,20457,61371).
route(harbor2,harbor11,tr13,1746,10476).
route(harbor2,harbor11,tr2,1746,5238).
route(harbor2,harbor12,tr13,11439,68634).
route(harbor2,harbor12,tr2,11439,34317).
route(harbor2,harbor13,tr13,4450,26700).
route(harbor2,harbor13,tr2,4450,13350).
route(harbor2,harbor14,tr13,3019,18114).
route(harbor2,harbor14,tr2,3019,9057).
route(harbor2,harbor15,tr13,24560,147360).
route(harbor2,harbor15,tr2,24560,73680).
route(harbor2,harbor16,tr13,26899,161394).
route(harbor2,harbor16,tr2,26899,80697).
route(harbor2,prodloc0,tr0,12039,313014).
route(harbor2,prodloc0,tr13,12039,72234).
route(harbor2,prodloc1,tr0,663,17238).
route(harbor2,prodloc1,tr13,663,3978).
route(harbor2,prodloc2,tr0,24923,647998).
route(harbor2,prodloc2,tr13,24923,149538).
route(harbor2,prodloc3,tr0,3866,100516).
route(harbor2,prodloc3,tr13,3866,23196).
route(harbor2,prodloc4,tr0,15633,406458).
route(harbor2,prodloc4,tr13,15633,93798).
route(harbor2,prodloc5,tr0,7851,204126).
route(harbor2,prodloc5,tr13,7851,47106).
route(harbor2,prodloc6,tr0,17757,461682).
route(harbor2,prodloc6,tr13,17757,106542).
route(harbor2,prodloc7,tr0,4644,120744).
route(harbor2,prodloc7,tr13,4644,27864).
route(harbor2,prodloc8,tr0,9698,252148).
route(harbor2,prodloc8,tr13,9698,58188).
route(harbor2,prodloc9,tr0,25416,660816).
route(harbor2,prodloc9,tr13,25416,152496).
route(harbor2,prodloc10,tr0,23869,620594).
route(harbor2,prodloc10,tr13,23869,143214).
route(harbor2,prodloc11,tr0,220,5720).
route(harbor2,prodloc11,tr13,220,1320).
route(harbor2,prodloc12,tr0,4580,119080).
route(harbor2,prodloc12,tr13,4580,27480).
route(harbor2,prodloc13,tr0,22328,580528).
route(harbor2,prodloc13,tr13,22328,133968).
route(harbor2,prodloc14,tr0,11910,309660).
route(harbor2,prodloc14,tr13,11910,71460).
route(harbor2,prodloc15,tr0,11467,298142).
route(harbor2,prodloc15,tr13,11467,68802).
route(harbor2,prodloc16,tr0,17380,451880).
route(harbor2,prodloc16,tr13,17380,104280).
route(harbor2,prodloc17,tr0,4807,124982).
route(harbor2,prodloc17,tr13,4807,28842).
route(harbor2,prodloc18,tr0,621,16146).
route(harbor2,prodloc18,tr13,621,3726).
route(harbor2,prodloc19,tr0,7529,195754).
route(harbor2,prodloc19,tr13,7529,45174).
route(harbor2,prodloc20,tr0,14178,368628).
route(harbor2,prodloc20,tr13,14178,85068).
route(harbor2,prodloc21,tr0,17251,448526).
route(harbor2,prodloc21,tr13,17251,103506).
route(harbor2,prodloc22,tr0,14713,382538).
route(harbor2,prodloc22,tr13,14713,88278).
route(harbor2,prodloc23,tr0,8102,210652).
route(harbor2,prodloc23,tr13,8102,48612).
route(harbor2,prodloc24,tr0,12819,333294).
route(harbor2,prodloc24,tr13,12819,76914).
route(harbor2,prodloc25,tr0,12720,330720).
route(harbor2,prodloc25,tr13,12720,76320).
route(harbor2,prodloc26,tr0,22631,588406).
route(harbor2,prodloc26,tr13,22631,135786).
route(harbor2,prodloc27,tr0,17567,456742).
route(harbor2,prodloc27,tr13,17567,105402).
route(harbor2,prodloc28,tr0,27556,716456).
route(harbor2,prodloc28,tr13,27556,165336).
route(harbor2,prodloc29,tr0,23011,598286).
route(harbor2,prodloc29,tr13,23011,138066).
route(harbor2,prodloc30,tr0,9524,247624).
route(harbor2,prodloc30,tr13,9524,57144).
route(harbor2,prodloc31,tr0,16579,431054).
route(harbor2,prodloc31,tr13,16579,99474).
route(harbor2,prodloc32,tr0,19960,518960).
route(harbor2,prodloc32,tr13,19960,119760).
route(harbor2,prodloc33,tr0,21268,552968).
route(harbor2,prodloc33,tr13,21268,127608).
route(harbor3,harbor0,tr13,23456,140736).
route(harbor3,harbor0,tr2,23456,70368).
route(harbor3,harbor1,tr13,9745,58470).
route(harbor3,harbor1,tr2,9745,29235).
route(harbor3,harbor2,tr13,20367,122202).
route(harbor3,harbor2,tr2,20367,61101).
route(harbor3,harbor4,tr13,25069,150414).
route(harbor3,harbor4,tr2,25069,75207).
route(harbor3,harbor5,tr13,25308,151848).
route(harbor3,harbor5,tr2,25308,75924).
route(harbor3,harbor6,tr13,2756,16536).
route(harbor3,harbor6,tr2,2756,8268).
route(harbor3,harbor7,tr13,21467,128802).
route(harbor3,harbor7,tr2,21467,64401).
route(harbor3,harbor8,tr13,16196,97176).
route(harbor3,harbor8,tr2,16196,48588).
route(harbor3,harbor9,tr13,8833,52998).
route(harbor3,harbor9,tr2,8833,26499).
route(harbor3,harbor10,tr13,11581,69486).
route(harbor3,harbor10,tr2,11581,34743).
route(harbor3,harbor11,tr13,24242,145452).
route(harbor3,harbor11,tr2,24242,72726).
route(harbor3,harbor12,tr13,4147,24882).
route(harbor3,harbor12,tr2,4147,12441).
route(harbor3,harbor13,tr13,15270,91620).
route(harbor3,harbor13,tr2,15270,45810).
route(harbor3,harbor14,tr13,21630,129780).
route(harbor3,harbor14,tr2,21630,64890).
route(harbor3,harbor15,tr13,24138,144828).
route(harbor3,harbor15,tr2,24138,72414).
route(harbor3,harbor16,tr13,27943,167658).
route(harbor3,harbor16,tr2,27943,83829).
route(harbor3,prodloc0,tr0,7727,200902).
route(harbor3,prodloc0,tr13,7727,46362).
route(harbor3,prodloc1,tr0,15876,412776).
route(harbor3,prodloc1,tr13,15876,95256).
route(harbor3,prodloc2,tr0,4248,110448).
route(harbor3,prodloc2,tr13,4248,25488).
route(harbor3,prodloc3,tr0,11586,301236).
route(harbor3,prodloc3,tr13,11586,69516).
route(harbor3,prodloc4,tr0,27946,726596).
route(harbor3,prodloc4,tr13,27946,167676).
route(harbor3,prodloc5,tr0,10740,279240).
route(harbor3,prodloc5,tr13,10740,64440).
route(harbor3,prodloc6,tr0,20597,535522).
route(harbor3,prodloc6,tr13,20597,123582).
route(harbor3,prodloc7,tr0,18393,478218).
route(harbor3,prodloc7,tr13,18393,110358).
route(harbor3,prodloc8,tr0,4635,120510).
route(harbor3,prodloc8,tr13,4635,27810).
route(harbor3,prodloc9,tr0,20944,544544).
route(harbor3,prodloc9,tr13,20944,125664).
route(harbor3,prodloc10,tr0,24440,635440).
route(harbor3,prodloc10,tr13,24440,146640).
route(harbor3,prodloc11,tr0,23041,599066).
route(harbor3,prodloc11,tr13,23041,138246).
route(harbor3,prodloc12,tr0,23614,613964).
route(harbor3,prodloc12,tr13,23614,141684).
route(harbor3,prodloc13,tr0,22365,581490).
route(harbor3,prodloc13,tr13,22365,134190).
route(harbor3,prodloc14,tr0,22498,584948).
route(harbor3,prodloc14,tr13,22498,134988).
route(harbor3,prodloc15,tr0,17660,459160).
route(harbor3,prodloc15,tr13,17660,105960).
route(harbor3,prodloc16,tr0,24653,640978).
route(harbor3,prodloc16,tr13,24653,147918).
route(harbor3,prodloc17,tr0,4040,105040).
route(harbor3,prodloc17,tr13,4040,24240).
route(harbor3,prodloc18,tr0,24463,636038).
route(harbor3,prodloc18,tr13,24463,146778).
route(harbor3,prodloc19,tr0,8788,228488).
route(harbor3,prodloc19,tr13,8788,52728).
route(harbor3,prodloc20,tr0,21148,549848).
route(harbor3,prodloc20,tr13,21148,126888).
route(harbor3,prodloc21,tr0,1279,33254).
route(harbor3,prodloc21,tr13,1279,7674).
route(harbor3,prodloc22,tr0,17338,450788).
route(harbor3,prodloc22,tr13,17338,104028).
route(harbor3,prodloc23,tr0,6210,161460).
route(harbor3,prodloc23,tr13,6210,37260).
route(harbor3,prodloc24,tr0,12141,315666).
route(harbor3,prodloc24,tr13,12141,72846).
route(harbor3,prodloc25,tr0,12805,332930).
route(harbor3,prodloc25,tr13,12805,76830).
route(harbor3,prodloc26,tr0,7011,182286).
route(harbor3,prodloc26,tr13,7011,42066).
route(harbor3,prodloc27,tr0,17910,465660).
route(harbor3,prodloc27,tr13,17910,107460).
route(harbor3,prodloc28,tr0,16637,432562).
route(harbor3,prodloc28,tr13,16637,99822).
route(harbor3,prodloc29,tr0,23090,600340).
route(harbor3,prodloc29,tr13,23090,138540).
route(harbor3,prodloc30,tr0,10063,261638).
route(harbor3,prodloc30,tr13,10063,60378).
route(harbor3,prodloc31,tr0,26632,692432).
route(harbor3,prodloc31,tr13,26632,159792).
route(harbor3,prodloc32,tr0,15432,401232).
route(harbor3,prodloc32,tr13,15432,92592).
route(harbor3,prodloc33,tr0,20653,536978).
route(harbor3,prodloc33,tr13,20653,123918).
route(harbor4,harbor0,tr13,5906,35436).
route(harbor4,harbor0,tr2,5906,17718).
route(harbor4,harbor1,tr13,4502,27012).
route(harbor4,harbor1,tr2,4502,13506).
route(harbor4,harbor2,tr13,4251,25506).
route(harbor4,harbor2,tr2,4251,12753).
route(harbor4,harbor3,tr13,9030,54180).
route(harbor4,harbor3,tr2,9030,27090).
route(harbor4,harbor5,tr13,28845,173070).
route(harbor4,harbor5,tr2,28845,86535).
route(harbor4,harbor6,tr13,856,5136).
route(harbor4,harbor6,tr2,856,2568).
route(harbor4,harbor7,tr13,18602,111612).
route(harbor4,harbor7,tr2,18602,55806).
route(harbor4,harbor8,tr13,21921,131526).
route(harbor4,harbor8,tr2,21921,65763).
route(harbor4,harbor9,tr13,2546,15276).
route(harbor4,harbor9,tr2,2546,7638).
route(harbor4,harbor10,tr13,28921,173526).
route(harbor4,harbor10,tr2,28921,86763).
route(harbor4,harbor11,tr13,25585,153510).
route(harbor4,harbor11,tr2,25585,76755).
route(harbor4,harbor12,tr13,5627,33762).
route(harbor4,harbor12,tr2,5627,16881).
route(harbor4,harbor13,tr13,11161,66966).
route(harbor4,harbor13,tr2,11161,33483).
route(harbor4,harbor14,tr13,9028,54168).
route(harbor4,harbor14,tr2,9028,27084).
route(harbor4,harbor15,tr13,8070,48420).
route(harbor4,harbor15,tr2,8070,24210).
route(harbor4,harbor16,tr13,25545,153270).
route(harbor4,harbor16,tr2,25545,76635).
route(harbor4,prodloc0,tr0,21679,563654).
route(harbor4,prodloc0,tr13,21679,130074).
route(harbor4,prodloc1,tr0,10417,270842).
route(harbor4,prodloc1,tr13,10417,62502).
route(harbor4,prodloc2,tr0,2788,72488).
route(harbor4,prodloc2,tr13,2788,16728).
route(harbor4,prodloc3,tr0,4786,124436).
route(harbor4,prodloc3,tr13,4786,28716).
route(harbor4,prodloc4,tr0,8650,224900).
route(harbor4,prodloc4,tr13,8650,51900).
route(harbor4,prodloc5,tr0,8493,220818).
route(harbor4,prodloc5,tr13,8493,50958).
route(harbor4,prodloc6,tr0,3144,81744).
route(harbor4,prodloc6,tr13,3144,18864).
route(harbor4,prodloc7,tr0,4339,112814).
route(harbor4,prodloc7,tr13,4339,26034).
route(harbor4,prodloc8,tr0,9970,259220).
route(harbor4,prodloc8,tr13,9970,59820).
route(harbor4,prodloc9,tr0,2484,64584).
route(harbor4,prodloc9,tr13,2484,14904).
route(harbor4,prodloc10,tr0,16231,422006).
route(harbor4,prodloc10,tr13,16231,97386).
route(harbor4,prodloc11,tr0,1294,33644).
route(harbor4,prodloc11,tr13,1294,7764).
route(harbor4,prodloc12,tr0,16517,429442).
route(harbor4,prodloc12,tr13,16517,99102).
route(harbor4,prodloc13,tr0,1454,37804).
route(harbor4,prodloc13,tr13,1454,8724).
route(harbor4,prodloc14,tr0,15586,405236).
route(harbor4,prodloc14,tr13,15586,93516).
route(harbor4,prodloc15,tr0,15486,402636).
route(harbor4,prodloc15,tr13,15486,92916).
route(harbor4,prodloc16,tr0,12827,333502).
route(harbor4,prodloc16,tr13,12827,76962).
route(harbor4,prodloc17,tr0,23358,607308).
route(harbor4,prodloc17,tr13,23358,140148).
route(harbor4,prodloc18,tr0,28521,741546).
route(harbor4,prodloc18,tr13,28521,171126).
route(harbor4,prodloc19,tr0,16662,433212).
route(harbor4,prodloc19,tr13,16662,99972).
route(harbor4,prodloc20,tr0,24240,630240).
route(harbor4,prodloc20,tr13,24240,145440).
route(harbor4,prodloc21,tr0,21976,571376).
route(harbor4,prodloc21,tr13,21976,131856).
route(harbor4,prodloc22,tr0,3123,81198).
route(harbor4,prodloc22,tr13,3123,18738).
route(harbor4,prodloc23,tr0,21428,557128).
route(harbor4,prodloc23,tr13,21428,128568).
route(harbor4,prodloc24,tr0,4415,114790).
route(harbor4,prodloc24,tr13,4415,26490).
route(harbor4,prodloc25,tr0,26907,699582).
route(harbor4,prodloc25,tr13,26907,161442).
route(harbor4,prodloc26,tr0,23099,600574).
route(harbor4,prodloc26,tr13,23099,138594).
route(harbor4,prodloc27,tr0,10179,264654).
route(harbor4,prodloc27,tr13,10179,61074).
route(harbor4,prodloc28,tr0,16462,428012).
route(harbor4,prodloc28,tr13,16462,98772).
route(harbor4,prodloc29,tr0,18021,468546).
route(harbor4,prodloc29,tr13,18021,108126).
route(harbor4,prodloc30,tr0,13727,356902).
route(harbor4,prodloc30,tr13,13727,82362).
route(harbor4,prodloc31,tr0,5607,145782).
route(harbor4,prodloc31,tr13,5607,33642).
route(harbor4,prodloc32,tr0,14930,388180).
route(harbor4,prodloc32,tr13,14930,89580).
route(harbor4,prodloc33,tr0,14519,377494).
route(harbor4,prodloc33,tr13,14519,87114).
route(harbor5,harbor0,tr13,22491,134946).
route(harbor5,harbor0,tr2,22491,67473).
route(harbor5,harbor1,tr13,25504,153024).
route(harbor5,harbor1,tr2,25504,76512).
route(harbor5,harbor2,tr13,17019,102114).
route(harbor5,harbor2,tr2,17019,51057).
route(harbor5,harbor3,tr13,15878,95268).
route(harbor5,harbor3,tr2,15878,47634).
route(harbor5,harbor4,tr13,27347,164082).
route(harbor5,harbor4,tr2,27347,82041).
route(harbor5,harbor6,tr13,5052,30312).
route(harbor5,harbor6,tr2,5052,15156).
route(harbor5,harbor7,tr13,5870,35220).
route(harbor5,harbor7,tr2,5870,17610).
route(harbor5,harbor8,tr13,6253,37518).
route(harbor5,harbor8,tr2,6253,18759).
route(harbor5,harbor9,tr13,6624,39744).
route(harbor5,harbor9,tr2,6624,19872).
route(harbor5,harbor10,tr13,9520,57120).
route(harbor5,harbor10,tr2,9520,28560).
route(harbor5,harbor11,tr13,3886,23316).
route(harbor5,harbor11,tr2,3886,11658).
route(harbor5,harbor12,tr13,6266,37596).
route(harbor5,harbor12,tr2,6266,18798).
route(harbor5,harbor13,tr13,14645,87870).
route(harbor5,harbor13,tr2,14645,43935).
route(harbor5,harbor14,tr13,13169,79014).
route(harbor5,harbor14,tr2,13169,39507).
route(harbor5,harbor15,tr13,15358,92148).
route(harbor5,harbor15,tr2,15358,46074).
route(harbor5,harbor16,tr13,2259,13554).
route(harbor5,harbor16,tr2,2259,6777).
route(harbor5,prodloc0,tr0,27902,725452).
route(harbor5,prodloc0,tr13,27902,167412).
route(harbor5,prodloc1,tr0,25203,655278).
route(harbor5,prodloc1,tr13,25203,151218).
route(harbor5,prodloc2,tr0,27861,724386).
route(harbor5,prodloc2,tr13,27861,167166).
route(harbor5,prodloc3,tr0,25190,654940).
route(harbor5,prodloc3,tr13,25190,151140).
route(harbor5,prodloc4,tr0,10047,261222).
route(harbor5,prodloc4,tr13,10047,60282).
route(harbor5,prodloc5,tr0,20855,542230).
route(harbor5,prodloc5,tr13,20855,125130).
route(harbor5,prodloc6,tr0,17523,455598).
route(harbor5,prodloc6,tr13,17523,105138).
route(harbor5,prodloc7,tr0,3755,97630).
route(harbor5,prodloc7,tr13,3755,22530).
route(harbor5,prodloc8,tr0,26164,680264).
route(harbor5,prodloc8,tr13,26164,156984).
route(harbor5,prodloc9,tr0,7126,185276).
route(harbor5,prodloc9,tr13,7126,42756).
route(harbor5,prodloc10,tr0,23626,614276).
route(harbor5,prodloc10,tr13,23626,141756).
route(harbor5,prodloc11,tr0,27127,705302).
route(harbor5,prodloc11,tr13,27127,162762).
route(harbor5,prodloc12,tr0,28651,744926).
route(harbor5,prodloc12,tr13,28651,171906).
route(harbor5,prodloc13,tr0,6766,175916).
route(harbor5,prodloc13,tr13,6766,40596).
route(harbor5,prodloc14,tr0,23841,619866).
route(harbor5,prodloc14,tr13,23841,143046).
route(harbor5,prodloc15,tr0,10010,260260).
route(harbor5,prodloc15,tr13,10010,60060).
route(harbor5,prodloc16,tr0,28481,740506).
route(harbor5,prodloc16,tr13,28481,170886).
route(harbor5,prodloc17,tr0,6786,176436).
route(harbor5,prodloc17,tr13,6786,40716).
route(harbor5,prodloc18,tr0,16602,431652).
route(harbor5,prodloc18,tr13,16602,99612).
route(harbor5,prodloc19,tr0,9469,246194).
route(harbor5,prodloc19,tr13,9469,56814).
route(harbor5,prodloc20,tr0,14279,371254).
route(harbor5,prodloc20,tr13,14279,85674).
route(harbor5,prodloc21,tr0,27981,727506).
route(harbor5,prodloc21,tr13,27981,167886).
route(harbor5,prodloc22,tr0,15512,403312).
route(harbor5,prodloc22,tr13,15512,93072).
route(harbor5,prodloc23,tr0,3109,80834).
route(harbor5,prodloc23,tr13,3109,18654).
route(harbor5,prodloc24,tr0,11930,310180).
route(harbor5,prodloc24,tr13,11930,71580).
route(harbor5,prodloc25,tr0,16995,441870).
route(harbor5,prodloc25,tr13,16995,101970).
route(harbor5,prodloc26,tr0,8023,208598).
route(harbor5,prodloc26,tr13,8023,48138).
route(harbor5,prodloc27,tr0,24518,637468).
route(harbor5,prodloc27,tr13,24518,147108).
route(harbor5,prodloc28,tr0,26624,692224).
route(harbor5,prodloc28,tr13,26624,159744).
route(harbor5,prodloc29,tr0,6023,156598).
route(harbor5,prodloc29,tr13,6023,36138).
route(harbor5,prodloc30,tr0,18369,477594).
route(harbor5,prodloc30,tr13,18369,110214).
route(harbor5,prodloc31,tr0,18746,487396).
route(harbor5,prodloc31,tr13,18746,112476).
route(harbor5,prodloc32,tr0,12194,317044).
route(harbor5,prodloc32,tr13,12194,73164).
route(harbor5,prodloc33,tr0,26683,693758).
route(harbor5,prodloc33,tr13,26683,160098).
route(harbor6,harbor0,tr13,9608,57648).
route(harbor6,harbor0,tr2,9608,28824).
route(harbor6,harbor1,tr13,4972,29832).
route(harbor6,harbor1,tr2,4972,14916).
route(harbor6,harbor2,tr13,382,2292).
route(harbor6,harbor2,tr2,382,1146).
route(harbor6,harbor3,tr13,11014,66084).
route(harbor6,harbor3,tr2,11014,33042).
route(harbor6,harbor4,tr13,26331,157986).
route(harbor6,harbor4,tr2,26331,78993).
route(harbor6,harbor5,tr13,12406,74436).
route(harbor6,harbor5,tr2,12406,37218).
route(harbor6,harbor7,tr13,4849,29094).
route(harbor6,harbor7,tr2,4849,14547).
route(harbor6,harbor8,tr13,9373,56238).
route(harbor6,harbor8,tr2,9373,28119).
route(harbor6,harbor9,tr13,16802,100812).
route(harbor6,harbor9,tr2,16802,50406).
route(harbor6,harbor10,tr13,28589,171534).
route(harbor6,harbor10,tr2,28589,85767).
route(harbor6,harbor11,tr13,28816,172896).
route(harbor6,harbor11,tr2,28816,86448).
route(harbor6,harbor12,tr13,23984,143904).
route(harbor6,harbor12,tr2,23984,71952).
route(harbor6,harbor13,tr13,4246,25476).
route(harbor6,harbor13,tr2,4246,12738).
route(harbor6,harbor14,tr13,16752,100512).
route(harbor6,harbor14,tr2,16752,50256).
route(harbor6,harbor15,tr13,2204,13224).
route(harbor6,harbor15,tr2,2204,6612).
route(harbor6,harbor16,tr13,5880,35280).
route(harbor6,harbor16,tr2,5880,17640).
route(harbor6,prodloc0,tr0,19496,506896).
route(harbor6,prodloc0,tr13,19496,116976).
route(harbor6,prodloc1,tr0,26977,701402).
route(harbor6,prodloc1,tr13,26977,161862).
route(harbor6,prodloc2,tr0,16523,429598).
route(harbor6,prodloc2,tr13,16523,99138).
route(harbor6,prodloc3,tr0,17100,444600).
route(harbor6,prodloc3,tr13,17100,102600).
route(harbor6,prodloc4,tr0,1206,31356).
route(harbor6,prodloc4,tr13,1206,7236).
route(harbor6,prodloc5,tr0,3815,99190).
route(harbor6,prodloc5,tr13,3815,22890).
route(harbor6,prodloc6,tr0,28336,736736).
route(harbor6,prodloc6,tr13,28336,170016).
route(harbor6,prodloc7,tr0,9177,238602).
route(harbor6,prodloc7,tr13,9177,55062).
route(harbor6,prodloc8,tr0,28711,746486).
route(harbor6,prodloc8,tr13,28711,172266).
route(harbor6,prodloc9,tr0,13687,355862).
route(harbor6,prodloc9,tr13,13687,82122).
route(harbor6,prodloc10,tr0,18436,479336).
route(harbor6,prodloc10,tr13,18436,110616).
route(harbor6,prodloc11,tr0,2939,76414).
route(harbor6,prodloc11,tr13,2939,17634).
route(harbor6,prodloc12,tr0,17474,454324).
route(harbor6,prodloc12,tr13,17474,104844).
route(harbor6,prodloc13,tr0,6294,163644).
route(harbor6,prodloc13,tr13,6294,37764).
route(harbor6,prodloc14,tr0,19759,513734).
route(harbor6,prodloc14,tr13,19759,118554).
route(harbor6,prodloc15,tr0,27429,713154).
route(harbor6,prodloc15,tr13,27429,164574).
route(harbor6,prodloc16,tr0,22446,583596).
route(harbor6,prodloc16,tr13,22446,134676).
route(harbor6,prodloc17,tr0,14483,376558).
route(harbor6,prodloc17,tr13,14483,86898).
route(harbor6,prodloc18,tr0,14565,378690).
route(harbor6,prodloc18,tr13,14565,87390).
route(harbor6,prodloc19,tr0,13352,347152).
route(harbor6,prodloc19,tr13,13352,80112).
route(harbor6,prodloc20,tr0,23473,610298).
route(harbor6,prodloc20,tr13,23473,140838).
route(harbor6,prodloc21,tr0,1425,37050).
route(harbor6,prodloc21,tr13,1425,8550).
route(harbor6,prodloc22,tr0,23495,610870).
route(harbor6,prodloc22,tr13,23495,140970).
route(harbor6,prodloc23,tr0,22409,582634).
route(harbor6,prodloc23,tr13,22409,134454).
route(harbor6,prodloc24,tr0,5749,149474).
route(harbor6,prodloc24,tr13,5749,34494).
route(harbor6,prodloc25,tr0,27249,708474).
route(harbor6,prodloc25,tr13,27249,163494).
route(harbor6,prodloc26,tr0,5687,147862).
route(harbor6,prodloc26,tr13,5687,34122).
route(harbor6,prodloc27,tr0,27056,703456).
route(harbor6,prodloc27,tr13,27056,162336).
route(harbor6,prodloc28,tr0,26440,687440).
route(harbor6,prodloc28,tr13,26440,158640).
route(harbor6,prodloc29,tr0,3134,81484).
route(harbor6,prodloc29,tr13,3134,18804).
route(harbor6,prodloc30,tr0,16268,422968).
route(harbor6,prodloc30,tr13,16268,97608).
route(harbor6,prodloc31,tr0,23077,600002).
route(harbor6,prodloc31,tr13,23077,138462).
route(harbor6,prodloc32,tr0,19610,509860).
route(harbor6,prodloc32,tr13,19610,117660).
route(harbor6,prodloc33,tr0,18478,480428).
route(harbor6,prodloc33,tr13,18478,110868).
route(harbor7,harbor0,tr13,24593,147558).
route(harbor7,harbor0,tr2,24593,73779).
route(harbor7,harbor1,tr13,20615,123690).
route(harbor7,harbor1,tr2,20615,61845).
route(harbor7,harbor2,tr13,9805,58830).
route(harbor7,harbor2,tr2,9805,29415).
route(harbor7,harbor3,tr13,5215,31290).
route(harbor7,harbor3,tr2,5215,15645).
route(harbor7,harbor4,tr13,7994,47964).
route(harbor7,harbor4,tr2,7994,23982).
route(harbor7,harbor5,tr13,9049,54294).
route(harbor7,harbor5,tr2,9049,27147).
route(harbor7,harbor6,tr13,7666,45996).
route(harbor7,harbor6,tr2,7666,22998).
route(harbor7,harbor8,tr13,3873,23238).
route(harbor7,harbor8,tr2,3873,11619).
route(harbor7,harbor9,tr13,3111,18666).
route(harbor7,harbor9,tr2,3111,9333).
route(harbor7,harbor10,tr13,18075,108450).
route(harbor7,harbor10,tr2,18075,54225).
route(harbor7,harbor11,tr13,22706,136236).
route(harbor7,harbor11,tr2,22706,68118).
route(harbor7,harbor12,tr13,17588,105528).
route(harbor7,harbor12,tr2,17588,52764).
route(harbor7,harbor13,tr13,19438,116628).
route(harbor7,harbor13,tr2,19438,58314).
route(harbor7,harbor14,tr13,14632,87792).
route(harbor7,harbor14,tr2,14632,43896).
route(harbor7,harbor15,tr13,14175,85050).
route(harbor7,harbor15,tr2,14175,42525).
route(harbor7,harbor16,tr13,11036,66216).
route(harbor7,harbor16,tr2,11036,33108).
route(harbor7,prodloc0,tr0,25678,667628).
route(harbor7,prodloc0,tr13,25678,154068).
route(harbor7,prodloc1,tr0,7790,202540).
route(harbor7,prodloc1,tr13,7790,46740).
route(harbor7,prodloc2,tr0,17760,461760).
route(harbor7,prodloc2,tr13,17760,106560).
route(harbor7,prodloc3,tr0,23935,622310).
route(harbor7,prodloc3,tr13,23935,143610).
route(harbor7,prodloc4,tr0,5486,142636).
route(harbor7,prodloc4,tr13,5486,32916).
route(harbor7,prodloc5,tr0,16721,434746).
route(harbor7,prodloc5,tr13,16721,100326).
route(harbor7,prodloc6,tr0,1838,47788).
route(harbor7,prodloc6,tr13,1838,11028).
route(harbor7,prodloc7,tr0,14790,384540).
route(harbor7,prodloc7,tr13,14790,88740).
route(harbor7,prodloc8,tr0,2899,75374).
route(harbor7,prodloc8,tr13,2899,17394).
route(harbor7,prodloc9,tr0,16618,432068).
route(harbor7,prodloc9,tr13,16618,99708).
route(harbor7,prodloc10,tr0,811,21086).
route(harbor7,prodloc10,tr13,811,4866).
route(harbor7,prodloc11,tr0,9366,243516).
route(harbor7,prodloc11,tr13,9366,56196).
route(harbor7,prodloc12,tr0,1011,26286).
route(harbor7,prodloc12,tr13,1011,6066).
route(harbor7,prodloc13,tr0,8359,217334).
route(harbor7,prodloc13,tr13,8359,50154).
route(harbor7,prodloc14,tr0,25163,654238).
route(harbor7,prodloc14,tr13,25163,150978).
route(harbor7,prodloc15,tr0,11738,305188).
route(harbor7,prodloc15,tr13,11738,70428).
route(harbor7,prodloc16,tr0,8615,223990).
route(harbor7,prodloc16,tr13,8615,51690).
route(harbor7,prodloc17,tr0,10071,261846).
route(harbor7,prodloc17,tr13,10071,60426).
route(harbor7,prodloc18,tr0,17476,454376).
route(harbor7,prodloc18,tr13,17476,104856).
route(harbor7,prodloc19,tr0,13182,342732).
route(harbor7,prodloc19,tr13,13182,79092).
route(harbor7,prodloc20,tr0,20767,539942).
route(harbor7,prodloc20,tr13,20767,124602).
route(harbor7,prodloc21,tr0,28326,736476).
route(harbor7,prodloc21,tr13,28326,169956).
route(harbor7,prodloc22,tr0,22253,578578).
route(harbor7,prodloc22,tr13,22253,133518).
route(harbor7,prodloc23,tr0,2069,53794).
route(harbor7,prodloc23,tr13,2069,12414).
route(harbor7,prodloc24,tr0,22158,576108).
route(harbor7,prodloc24,tr13,22158,132948).
route(harbor7,prodloc25,tr0,28367,737542).
route(harbor7,prodloc25,tr13,28367,170202).
route(harbor7,prodloc26,tr0,11914,309764).
route(harbor7,prodloc26,tr13,11914,71484).
route(harbor7,prodloc27,tr0,455,11830).
route(harbor7,prodloc27,tr13,455,2730).
route(harbor7,prodloc28,tr0,2022,52572).
route(harbor7,prodloc28,tr13,2022,12132).
route(harbor7,prodloc29,tr0,18937,492362).
route(harbor7,prodloc29,tr13,18937,113622).
route(harbor7,prodloc30,tr0,24265,630890).
route(harbor7,prodloc30,tr13,24265,145590).
route(harbor7,prodloc31,tr0,25286,657436).
route(harbor7,prodloc31,tr13,25286,151716).
route(harbor7,prodloc32,tr0,27821,723346).
route(harbor7,prodloc32,tr13,27821,166926).
route(harbor7,prodloc33,tr0,5840,151840).
route(harbor7,prodloc33,tr13,5840,35040).
route(harbor8,harbor0,tr13,5194,31164).
route(harbor8,harbor0,tr2,5194,15582).
route(harbor8,harbor1,tr13,7525,45150).
route(harbor8,harbor1,tr2,7525,22575).
route(harbor8,harbor2,tr13,20970,125820).
route(harbor8,harbor2,tr2,20970,62910).
route(harbor8,harbor3,tr13,2370,14220).
route(harbor8,harbor3,tr2,2370,7110).
route(harbor8,harbor4,tr13,24069,144414).
route(harbor8,harbor4,tr2,24069,72207).
route(harbor8,harbor5,tr13,14492,86952).
route(harbor8,harbor5,tr2,14492,43476).
route(harbor8,harbor6,tr13,13817,82902).
route(harbor8,harbor6,tr2,13817,41451).
route(harbor8,harbor7,tr13,27359,164154).
route(harbor8,harbor7,tr2,27359,82077).
route(harbor8,harbor9,tr13,1425,8550).
route(harbor8,harbor9,tr2,1425,4275).
route(harbor8,harbor10,tr13,58,348).
route(harbor8,harbor10,tr2,58,174).
route(harbor8,harbor11,tr13,19747,118482).
route(harbor8,harbor11,tr2,19747,59241).
route(harbor8,harbor12,tr13,24787,148722).
route(harbor8,harbor12,tr2,24787,74361).
route(harbor8,harbor13,tr13,7166,42996).
route(harbor8,harbor13,tr2,7166,21498).
route(harbor8,harbor14,tr13,12782,76692).
route(harbor8,harbor14,tr2,12782,38346).
route(harbor8,harbor15,tr13,17733,106398).
route(harbor8,harbor15,tr2,17733,53199).
route(harbor8,harbor16,tr13,18415,110490).
route(harbor8,harbor16,tr2,18415,55245).
route(harbor8,prodloc0,tr0,26350,685100).
route(harbor8,prodloc0,tr13,26350,158100).
route(harbor8,prodloc1,tr0,15147,393822).
route(harbor8,prodloc1,tr13,15147,90882).
route(harbor8,prodloc2,tr0,3060,79560).
route(harbor8,prodloc2,tr13,3060,18360).
route(harbor8,prodloc3,tr0,9390,244140).
route(harbor8,prodloc3,tr13,9390,56340).
route(harbor8,prodloc4,tr0,25006,650156).
route(harbor8,prodloc4,tr13,25006,150036).
route(harbor8,prodloc5,tr0,27796,722696).
route(harbor8,prodloc5,tr13,27796,166776).
route(harbor8,prodloc6,tr0,28137,731562).
route(harbor8,prodloc6,tr13,28137,168822).
route(harbor8,prodloc7,tr0,15217,395642).
route(harbor8,prodloc7,tr13,15217,91302).
route(harbor8,prodloc8,tr0,22854,594204).
route(harbor8,prodloc8,tr13,22854,137124).
route(harbor8,prodloc9,tr0,28123,731198).
route(harbor8,prodloc9,tr13,28123,168738).
route(harbor8,prodloc10,tr0,21660,563160).
route(harbor8,prodloc10,tr13,21660,129960).
route(harbor8,prodloc11,tr0,25479,662454).
route(harbor8,prodloc11,tr13,25479,152874).
route(harbor8,prodloc12,tr0,26834,697684).
route(harbor8,prodloc12,tr13,26834,161004).
route(harbor8,prodloc13,tr0,17253,448578).
route(harbor8,prodloc13,tr13,17253,103518).
route(harbor8,prodloc14,tr0,9701,252226).
route(harbor8,prodloc14,tr13,9701,58206).
route(harbor8,prodloc15,tr0,10766,279916).
route(harbor8,prodloc15,tr13,10766,64596).
route(harbor8,prodloc16,tr0,3434,89284).
route(harbor8,prodloc16,tr13,3434,20604).
route(harbor8,prodloc17,tr0,14594,379444).
route(harbor8,prodloc17,tr13,14594,87564).
route(harbor8,prodloc18,tr0,6193,161018).
route(harbor8,prodloc18,tr13,6193,37158).
route(harbor8,prodloc19,tr0,4879,126854).
route(harbor8,prodloc19,tr13,4879,29274).
route(harbor8,prodloc20,tr0,20378,529828).
route(harbor8,prodloc20,tr13,20378,122268).
route(harbor8,prodloc21,tr0,20815,541190).
route(harbor8,prodloc21,tr13,20815,124890).
route(harbor8,prodloc22,tr0,3904,101504).
route(harbor8,prodloc22,tr13,3904,23424).
route(harbor8,prodloc23,tr0,24364,633464).
route(harbor8,prodloc23,tr13,24364,146184).
route(harbor8,prodloc24,tr0,1130,29380).
route(harbor8,prodloc24,tr13,1130,6780).
route(harbor8,prodloc25,tr0,28132,731432).
route(harbor8,prodloc25,tr13,28132,168792).
route(harbor8,prodloc26,tr0,11536,299936).
route(harbor8,prodloc26,tr13,11536,69216).
route(harbor8,prodloc27,tr0,6131,159406).
route(harbor8,prodloc27,tr13,6131,36786).
route(harbor8,prodloc28,tr0,21728,564928).
route(harbor8,prodloc28,tr13,21728,130368).
route(harbor8,prodloc29,tr0,6650,172900).
route(harbor8,prodloc29,tr13,6650,39900).
route(harbor8,prodloc30,tr0,5915,153790).
route(harbor8,prodloc30,tr13,5915,35490).
route(harbor8,prodloc31,tr0,7393,192218).
route(harbor8,prodloc31,tr13,7393,44358).
route(harbor8,prodloc32,tr0,9595,249470).
route(harbor8,prodloc32,tr13,9595,57570).
route(harbor8,prodloc33,tr0,16,416).
route(harbor8,prodloc33,tr13,16,96).
route(harbor9,harbor0,tr13,4096,24576).
route(harbor9,harbor0,tr2,4096,12288).
route(harbor9,harbor1,tr13,1738,10428).
route(harbor9,harbor1,tr2,1738,5214).
route(harbor9,harbor2,tr13,7379,44274).
route(harbor9,harbor2,tr2,7379,22137).
route(harbor9,harbor3,tr13,13993,83958).
route(harbor9,harbor3,tr2,13993,41979).
route(harbor9,harbor4,tr13,16631,99786).
route(harbor9,harbor4,tr2,16631,49893).
route(harbor9,harbor5,tr13,20857,125142).
route(harbor9,harbor5,tr2,20857,62571).
route(harbor9,harbor6,tr13,19989,119934).
route(harbor9,harbor6,tr2,19989,59967).
route(harbor9,harbor7,tr13,12430,74580).
route(harbor9,harbor7,tr2,12430,37290).
route(harbor9,harbor8,tr13,21970,131820).
route(harbor9,harbor8,tr2,21970,65910).
route(harbor9,harbor10,tr13,9084,54504).
route(harbor9,harbor10,tr2,9084,27252).
route(harbor9,harbor11,tr13,20021,120126).
route(harbor9,harbor11,tr2,20021,60063).
route(harbor9,harbor12,tr13,11202,67212).
route(harbor9,harbor12,tr2,11202,33606).
route(harbor9,harbor13,tr13,21123,126738).
route(harbor9,harbor13,tr2,21123,63369).
route(harbor9,harbor14,tr13,25606,153636).
route(harbor9,harbor14,tr2,25606,76818).
route(harbor9,harbor15,tr13,19677,118062).
route(harbor9,harbor15,tr2,19677,59031).
route(harbor9,harbor16,tr13,17839,107034).
route(harbor9,harbor16,tr2,17839,53517).
route(harbor9,prodloc0,tr0,4306,111956).
route(harbor9,prodloc0,tr13,4306,25836).
route(harbor9,prodloc1,tr0,10439,271414).
route(harbor9,prodloc1,tr13,10439,62634).
route(harbor9,prodloc2,tr0,28076,729976).
route(harbor9,prodloc2,tr13,28076,168456).
route(harbor9,prodloc3,tr0,1755,45630).
route(harbor9,prodloc3,tr13,1755,10530).
route(harbor9,prodloc4,tr0,359,9334).
route(harbor9,prodloc4,tr13,359,2154).
route(harbor9,prodloc5,tr0,28043,729118).
route(harbor9,prodloc5,tr13,28043,168258).
route(harbor9,prodloc6,tr0,3039,79014).
route(harbor9,prodloc6,tr13,3039,18234).
route(harbor9,prodloc7,tr0,16677,433602).
route(harbor9,prodloc7,tr13,16677,100062).
route(harbor9,prodloc8,tr0,16564,430664).
route(harbor9,prodloc8,tr13,16564,99384).
route(harbor9,prodloc9,tr0,17259,448734).
route(harbor9,prodloc9,tr13,17259,103554).
route(harbor9,prodloc10,tr0,15566,404716).
route(harbor9,prodloc10,tr13,15566,93396).
route(harbor9,prodloc11,tr0,5808,151008).
route(harbor9,prodloc11,tr13,5808,34848).
route(harbor9,prodloc12,tr0,27085,704210).
route(harbor9,prodloc12,tr13,27085,162510).
route(harbor9,prodloc13,tr0,4860,126360).
route(harbor9,prodloc13,tr13,4860,29160).
route(harbor9,prodloc14,tr0,6894,179244).
route(harbor9,prodloc14,tr13,6894,41364).
route(harbor9,prodloc15,tr0,17960,466960).
route(harbor9,prodloc15,tr13,17960,107760).
route(harbor9,prodloc16,tr0,26932,700232).
route(harbor9,prodloc16,tr13,26932,161592).
route(harbor9,prodloc17,tr0,11428,297128).
route(harbor9,prodloc17,tr13,11428,68568).
route(harbor9,prodloc18,tr0,4145,107770).
route(harbor9,prodloc18,tr13,4145,24870).
route(harbor9,prodloc19,tr0,4837,125762).
route(harbor9,prodloc19,tr13,4837,29022).
route(harbor9,prodloc20,tr0,24989,649714).
route(harbor9,prodloc20,tr13,24989,149934).
route(harbor9,prodloc21,tr0,9549,248274).
route(harbor9,prodloc21,tr13,9549,57294).
route(harbor9,prodloc22,tr0,25986,675636).
route(harbor9,prodloc22,tr13,25986,155916).
route(harbor9,prodloc23,tr0,3291,85566).
route(harbor9,prodloc23,tr13,3291,19746).
route(harbor9,prodloc24,tr0,5606,145756).
route(harbor9,prodloc24,tr13,5606,33636).
route(harbor9,prodloc25,tr0,18129,471354).
route(harbor9,prodloc25,tr13,18129,108774).
route(harbor9,prodloc26,tr0,9961,258986).
route(harbor9,prodloc26,tr13,9961,59766).
route(harbor9,prodloc27,tr0,26693,694018).
route(harbor9,prodloc27,tr13,26693,160158).
route(harbor9,prodloc28,tr0,15284,397384).
route(harbor9,prodloc28,tr13,15284,91704).
route(harbor9,prodloc29,tr0,6660,173160).
route(harbor9,prodloc29,tr13,6660,39960).
route(harbor9,prodloc30,tr0,28568,742768).
route(harbor9,prodloc30,tr13,28568,171408).
route(harbor9,prodloc31,tr0,2774,72124).
route(harbor9,prodloc31,tr13,2774,16644).
route(harbor9,prodloc32,tr0,3901,101426).
route(harbor9,prodloc32,tr13,3901,23406).
route(harbor9,prodloc33,tr0,5072,131872).
route(harbor9,prodloc33,tr13,5072,30432).
route(harbor10,harbor0,tr13,922,5532).
route(harbor10,harbor0,tr2,922,2766).
route(harbor10,harbor1,tr13,20258,121548).
route(harbor10,harbor1,tr2,20258,60774).
route(harbor10,harbor2,tr13,5140,30840).
route(harbor10,harbor2,tr2,5140,15420).
route(harbor10,harbor3,tr13,16725,100350).
route(harbor10,harbor3,tr2,16725,50175).
route(harbor10,harbor4,tr13,24650,147900).
route(harbor10,harbor4,tr2,24650,73950).
route(harbor10,harbor5,tr13,11606,69636).
route(harbor10,harbor5,tr2,11606,34818).
route(harbor10,harbor6,tr13,10122,60732).
route(harbor10,harbor6,tr2,10122,30366).
route(harbor10,harbor7,tr13,11988,71928).
route(harbor10,harbor7,tr2,11988,35964).
route(harbor10,harbor8,tr13,24572,147432).
route(harbor10,harbor8,tr2,24572,73716).
route(harbor10,harbor9,tr13,27423,164538).
route(harbor10,harbor9,tr2,27423,82269).
route(harbor10,harbor11,tr13,793,4758).
route(harbor10,harbor11,tr2,793,2379).
route(harbor10,harbor12,tr13,8562,51372).
route(harbor10,harbor12,tr2,8562,25686).
route(harbor10,harbor13,tr13,23546,141276).
route(harbor10,harbor13,tr2,23546,70638).
route(harbor10,harbor14,tr13,895,5370).
route(harbor10,harbor14,tr2,895,2685).
route(harbor10,harbor15,tr13,14637,87822).
route(harbor10,harbor15,tr2,14637,43911).
route(harbor10,harbor16,tr13,79,474).
route(harbor10,harbor16,tr2,79,237).
route(harbor10,prodloc0,tr0,10443,271518).
route(harbor10,prodloc0,tr13,10443,62658).
route(harbor10,prodloc1,tr0,25730,668980).
route(harbor10,prodloc1,tr13,25730,154380).
route(harbor10,prodloc2,tr0,9351,243126).
route(harbor10,prodloc2,tr13,9351,56106).
route(harbor10,prodloc3,tr0,23037,598962).
route(harbor10,prodloc3,tr13,23037,138222).
route(harbor10,prodloc4,tr0,15405,400530).
route(harbor10,prodloc4,tr13,15405,92430).
route(harbor10,prodloc5,tr0,26728,694928).
route(harbor10,prodloc5,tr13,26728,160368).
route(harbor10,prodloc6,tr0,14871,386646).
route(harbor10,prodloc6,tr13,14871,89226).
route(harbor10,prodloc7,tr0,25643,666718).
route(harbor10,prodloc7,tr13,25643,153858).
route(harbor10,prodloc8,tr0,10183,264758).
route(harbor10,prodloc8,tr13,10183,61098).
route(harbor10,prodloc9,tr0,1696,44096).
route(harbor10,prodloc9,tr13,1696,10176).
route(harbor10,prodloc10,tr0,827,21502).
route(harbor10,prodloc10,tr13,827,4962).
route(harbor10,prodloc11,tr0,1098,28548).
route(harbor10,prodloc11,tr13,1098,6588).
route(harbor10,prodloc12,tr0,2775,72150).
route(harbor10,prodloc12,tr13,2775,16650).
route(harbor10,prodloc13,tr0,664,17264).
route(harbor10,prodloc13,tr13,664,3984).
route(harbor10,prodloc14,tr0,16694,434044).
route(harbor10,prodloc14,tr13,16694,100164).
route(harbor10,prodloc15,tr0,27807,722982).
route(harbor10,prodloc15,tr13,27807,166842).
route(harbor10,prodloc16,tr0,10102,262652).
route(harbor10,prodloc16,tr13,10102,60612).
route(harbor10,prodloc17,tr0,13801,358826).
route(harbor10,prodloc17,tr13,13801,82806).
route(harbor10,prodloc18,tr0,9183,238758).
route(harbor10,prodloc18,tr13,9183,55098).
route(harbor10,prodloc19,tr0,15065,391690).
route(harbor10,prodloc19,tr13,15065,90390).
route(harbor10,prodloc20,tr0,20454,531804).
route(harbor10,prodloc20,tr13,20454,122724).
route(harbor10,prodloc21,tr0,9203,239278).
route(harbor10,prodloc21,tr13,9203,55218).
route(harbor10,prodloc22,tr0,2783,72358).
route(harbor10,prodloc22,tr13,2783,16698).
route(harbor10,prodloc23,tr0,26648,692848).
route(harbor10,prodloc23,tr13,26648,159888).
route(harbor10,prodloc24,tr0,26785,696410).
route(harbor10,prodloc24,tr13,26785,160710).
route(harbor10,prodloc25,tr0,21067,547742).
route(harbor10,prodloc25,tr13,21067,126402).
route(harbor10,prodloc26,tr0,14079,366054).
route(harbor10,prodloc26,tr13,14079,84474).
route(harbor10,prodloc27,tr0,28359,737334).
route(harbor10,prodloc27,tr13,28359,170154).
route(harbor10,prodloc28,tr0,23136,601536).
route(harbor10,prodloc28,tr13,23136,138816).
route(harbor10,prodloc29,tr0,2320,60320).
route(harbor10,prodloc29,tr13,2320,13920).
route(harbor10,prodloc30,tr0,807,20982).
route(harbor10,prodloc30,tr13,807,4842).
route(harbor10,prodloc31,tr0,12908,335608).
route(harbor10,prodloc31,tr13,12908,77448).
route(harbor10,prodloc32,tr0,24950,648700).
route(harbor10,prodloc32,tr13,24950,149700).
route(harbor10,prodloc33,tr0,524,13624).
route(harbor10,prodloc33,tr13,524,3144).
route(harbor11,harbor0,tr13,8515,51090).
route(harbor11,harbor0,tr2,8515,25545).
route(harbor11,harbor1,tr13,24161,144966).
route(harbor11,harbor1,tr2,24161,72483).
route(harbor11,harbor2,tr13,541,3246).
route(harbor11,harbor2,tr2,541,1623).
route(harbor11,harbor3,tr13,25507,153042).
route(harbor11,harbor3,tr2,25507,76521).
route(harbor11,harbor4,tr13,22414,134484).
route(harbor11,harbor4,tr2,22414,67242).
route(harbor11,harbor5,tr13,17267,103602).
route(harbor11,harbor5,tr2,17267,51801).
route(harbor11,harbor6,tr13,19260,115560).
route(harbor11,harbor6,tr2,19260,57780).
route(harbor11,harbor7,tr13,26780,160680).
route(harbor11,harbor7,tr2,26780,80340).
route(harbor11,harbor8,tr13,2241,13446).
route(harbor11,harbor8,tr2,2241,6723).
route(harbor11,harbor9,tr13,22190,133140).
route(harbor11,harbor9,tr2,22190,66570).
route(harbor11,harbor10,tr13,208,1248).
route(harbor11,harbor10,tr2,208,624).
route(harbor11,harbor12,tr13,26837,161022).
route(harbor11,harbor12,tr2,26837,80511).
route(harbor11,harbor13,tr13,10346,62076).
route(harbor11,harbor13,tr2,10346,31038).
route(harbor11,harbor14,tr13,23594,141564).
route(harbor11,harbor14,tr2,23594,70782).
route(harbor11,harbor15,tr13,3367,20202).
route(harbor11,harbor15,tr2,3367,10101).
route(harbor11,harbor16,tr13,16236,97416).
route(harbor11,harbor16,tr2,16236,48708).
route(harbor11,prodloc0,tr0,14104,366704).
route(harbor11,prodloc0,tr13,14104,84624).
route(harbor11,prodloc1,tr0,3421,88946).
route(harbor11,prodloc1,tr13,3421,20526).
route(harbor11,prodloc2,tr0,10939,284414).
route(harbor11,prodloc2,tr13,10939,65634).
route(harbor11,prodloc3,tr0,16912,439712).
route(harbor11,prodloc3,tr13,16912,101472).
route(harbor11,prodloc4,tr0,857,22282).
route(harbor11,prodloc4,tr13,857,5142).
route(harbor11,prodloc5,tr0,24031,624806).
route(harbor11,prodloc5,tr13,24031,144186).
route(harbor11,prodloc6,tr0,398,10348).
route(harbor11,prodloc6,tr13,398,2388).
route(harbor11,prodloc7,tr0,22469,584194).
route(harbor11,prodloc7,tr13,22469,134814).
route(harbor11,prodloc8,tr0,3842,99892).
route(harbor11,prodloc8,tr13,3842,23052).
route(harbor11,prodloc9,tr0,18475,480350).
route(harbor11,prodloc9,tr13,18475,110850).
route(harbor11,prodloc10,tr0,27458,713908).
route(harbor11,prodloc10,tr13,27458,164748).
route(harbor11,prodloc11,tr0,21578,561028).
route(harbor11,prodloc11,tr13,21578,129468).
route(harbor11,prodloc12,tr0,20933,544258).
route(harbor11,prodloc12,tr13,20933,125598).
route(harbor11,prodloc13,tr0,1136,29536).
route(harbor11,prodloc13,tr13,1136,6816).
route(harbor11,prodloc14,tr0,28766,747916).
route(harbor11,prodloc14,tr13,28766,172596).
route(harbor11,prodloc15,tr0,20434,531284).
route(harbor11,prodloc15,tr13,20434,122604).
route(harbor11,prodloc16,tr0,7526,195676).
route(harbor11,prodloc16,tr13,7526,45156).
route(harbor11,prodloc17,tr0,14806,384956).
route(harbor11,prodloc17,tr13,14806,88836).
route(harbor11,prodloc18,tr0,8162,212212).
route(harbor11,prodloc18,tr13,8162,48972).
route(harbor11,prodloc19,tr0,11408,296608).
route(harbor11,prodloc19,tr13,11408,68448).
route(harbor11,prodloc20,tr0,12185,316810).
route(harbor11,prodloc20,tr13,12185,73110).
route(harbor11,prodloc21,tr0,18370,477620).
route(harbor11,prodloc21,tr13,18370,110220).
route(harbor11,prodloc22,tr0,2292,59592).
route(harbor11,prodloc22,tr13,2292,13752).
route(harbor11,prodloc23,tr0,23274,605124).
route(harbor11,prodloc23,tr13,23274,139644).
route(harbor11,prodloc24,tr0,17127,445302).
route(harbor11,prodloc24,tr13,17127,102762).
route(harbor11,prodloc25,tr0,27069,703794).
route(harbor11,prodloc25,tr13,27069,162414).
route(harbor11,prodloc26,tr0,3844,99944).
route(harbor11,prodloc26,tr13,3844,23064).
route(harbor11,prodloc27,tr0,23453,609778).
route(harbor11,prodloc27,tr13,23453,140718).
route(harbor11,prodloc28,tr0,2135,55510).
route(harbor11,prodloc28,tr13,2135,12810).
route(harbor11,prodloc29,tr0,8035,208910).
route(harbor11,prodloc29,tr13,8035,48210).
route(harbor11,prodloc30,tr0,27527,715702).
route(harbor11,prodloc30,tr13,27527,165162).
route(harbor11,prodloc31,tr0,27025,702650).
route(harbor11,prodloc31,tr13,27025,162150).
route(harbor11,prodloc32,tr0,8225,213850).
route(harbor11,prodloc32,tr13,8225,49350).
route(harbor11,prodloc33,tr0,18970,493220).
route(harbor11,prodloc33,tr13,18970,113820).
route(harbor12,harbor0,tr13,14772,88632).
route(harbor12,harbor0,tr2,14772,44316).
route(harbor12,harbor1,tr13,27491,164946).
route(harbor12,harbor1,tr2,27491,82473).
route(harbor12,harbor2,tr13,15178,91068).
route(harbor12,harbor2,tr2,15178,45534).
route(harbor12,harbor3,tr13,16403,98418).
route(harbor12,harbor3,tr2,16403,49209).
route(harbor12,harbor4,tr13,1473,8838).
route(harbor12,harbor4,tr2,1473,4419).
route(harbor12,harbor5,tr13,1339,8034).
route(harbor12,harbor5,tr2,1339,4017).
route(harbor12,harbor6,tr13,26582,159492).
route(harbor12,harbor6,tr2,26582,79746).
route(harbor12,harbor7,tr13,28387,170322).
route(harbor12,harbor7,tr2,28387,85161).
route(harbor12,harbor8,tr13,26436,158616).
route(harbor12,harbor8,tr2,26436,79308).
route(harbor12,harbor9,tr13,26521,159126).
route(harbor12,harbor9,tr2,26521,79563).
route(harbor12,harbor10,tr13,24821,148926).
route(harbor12,harbor10,tr2,24821,74463).
route(harbor12,harbor11,tr13,21424,128544).
route(harbor12,harbor11,tr2,21424,64272).
route(harbor12,harbor13,tr13,15162,90972).
route(harbor12,harbor13,tr2,15162,45486).
route(harbor12,harbor14,tr13,2736,16416).
route(harbor12,harbor14,tr2,2736,8208).
route(harbor12,harbor15,tr13,5985,35910).
route(harbor12,harbor15,tr2,5985,17955).
route(harbor12,harbor16,tr13,5210,31260).
route(harbor12,harbor16,tr2,5210,15630).
route(harbor12,prodloc0,tr0,19021,494546).
route(harbor12,prodloc0,tr13,19021,114126).
route(harbor12,prodloc1,tr0,17119,445094).
route(harbor12,prodloc1,tr13,17119,102714).
route(harbor12,prodloc2,tr0,20425,531050).
route(harbor12,prodloc2,tr13,20425,122550).
route(harbor12,prodloc3,tr0,7096,184496).
route(harbor12,prodloc3,tr13,7096,42576).
route(harbor12,prodloc4,tr0,18336,476736).
route(harbor12,prodloc4,tr13,18336,110016).
route(harbor12,prodloc5,tr0,20361,529386).
route(harbor12,prodloc5,tr13,20361,122166).
route(harbor12,prodloc6,tr0,26060,677560).
route(harbor12,prodloc6,tr13,26060,156360).
route(harbor12,prodloc7,tr0,19812,515112).
route(harbor12,prodloc7,tr13,19812,118872).
route(harbor12,prodloc8,tr0,18562,482612).
route(harbor12,prodloc8,tr13,18562,111372).
route(harbor12,prodloc9,tr0,8030,208780).
route(harbor12,prodloc9,tr13,8030,48180).
route(harbor12,prodloc10,tr0,6587,171262).
route(harbor12,prodloc10,tr13,6587,39522).
route(harbor12,prodloc11,tr0,7816,203216).
route(harbor12,prodloc11,tr13,7816,46896).
route(harbor12,prodloc12,tr0,9397,244322).
route(harbor12,prodloc12,tr13,9397,56382).
route(harbor12,prodloc13,tr0,1336,34736).
route(harbor12,prodloc13,tr13,1336,8016).
route(harbor12,prodloc14,tr0,4292,111592).
route(harbor12,prodloc14,tr13,4292,25752).
route(harbor12,prodloc15,tr0,11344,294944).
route(harbor12,prodloc15,tr13,11344,68064).
route(harbor12,prodloc16,tr0,19002,494052).
route(harbor12,prodloc16,tr13,19002,114012).
route(harbor12,prodloc17,tr0,27254,708604).
route(harbor12,prodloc17,tr13,27254,163524).
route(harbor12,prodloc18,tr0,24300,631800).
route(harbor12,prodloc18,tr13,24300,145800).
route(harbor12,prodloc19,tr0,23805,618930).
route(harbor12,prodloc19,tr13,23805,142830).
route(harbor12,prodloc20,tr0,19523,507598).
route(harbor12,prodloc20,tr13,19523,117138).
route(harbor12,prodloc21,tr0,14946,388596).
route(harbor12,prodloc21,tr13,14946,89676).
route(harbor12,prodloc22,tr0,24054,625404).
route(harbor12,prodloc22,tr13,24054,144324).
route(harbor12,prodloc23,tr0,10296,267696).
route(harbor12,prodloc23,tr13,10296,61776).
route(harbor12,prodloc24,tr0,14361,373386).
route(harbor12,prodloc24,tr13,14361,86166).
route(harbor12,prodloc25,tr0,16142,419692).
route(harbor12,prodloc25,tr13,16142,96852).
route(harbor12,prodloc26,tr0,57,1482).
route(harbor12,prodloc26,tr13,57,342).
route(harbor12,prodloc27,tr0,9805,254930).
route(harbor12,prodloc27,tr13,9805,58830).
route(harbor12,prodloc28,tr0,19880,516880).
route(harbor12,prodloc28,tr13,19880,119280).
route(harbor12,prodloc29,tr0,3851,100126).
route(harbor12,prodloc29,tr13,3851,23106).
route(harbor12,prodloc30,tr0,11794,306644).
route(harbor12,prodloc30,tr13,11794,70764).
route(harbor12,prodloc31,tr0,24161,628186).
route(harbor12,prodloc31,tr13,24161,144966).
route(harbor12,prodloc32,tr0,6472,168272).
route(harbor12,prodloc32,tr13,6472,38832).
route(harbor12,prodloc33,tr0,27978,727428).
route(harbor12,prodloc33,tr13,27978,167868).
route(harbor13,harbor0,tr13,9317,55902).
route(harbor13,harbor0,tr2,9317,27951).
route(harbor13,harbor1,tr13,25219,151314).
route(harbor13,harbor1,tr2,25219,75657).
route(harbor13,harbor2,tr13,28258,169548).
route(harbor13,harbor2,tr2,28258,84774).
route(harbor13,harbor3,tr13,4857,29142).
route(harbor13,harbor3,tr2,4857,14571).
route(harbor13,harbor4,tr13,19587,117522).
route(harbor13,harbor4,tr2,19587,58761).
route(harbor13,harbor5,tr13,19133,114798).
route(harbor13,harbor5,tr2,19133,57399).
route(harbor13,harbor6,tr13,23381,140286).
route(harbor13,harbor6,tr2,23381,70143).
route(harbor13,harbor7,tr13,27150,162900).
route(harbor13,harbor7,tr2,27150,81450).
route(harbor13,harbor8,tr13,27686,166116).
route(harbor13,harbor8,tr2,27686,83058).
route(harbor13,harbor9,tr13,18796,112776).
route(harbor13,harbor9,tr2,18796,56388).
route(harbor13,harbor10,tr13,24003,144018).
route(harbor13,harbor10,tr2,24003,72009).
route(harbor13,harbor11,tr13,17405,104430).
route(harbor13,harbor11,tr2,17405,52215).
route(harbor13,harbor12,tr13,5864,35184).
route(harbor13,harbor12,tr2,5864,17592).
route(harbor13,harbor14,tr13,1956,11736).
route(harbor13,harbor14,tr2,1956,5868).
route(harbor13,harbor15,tr13,28378,170268).
route(harbor13,harbor15,tr2,28378,85134).
route(harbor13,harbor16,tr13,25778,154668).
route(harbor13,harbor16,tr2,25778,77334).
route(harbor13,prodloc0,tr0,28625,744250).
route(harbor13,prodloc0,tr13,28625,171750).
route(harbor13,prodloc1,tr0,7681,199706).
route(harbor13,prodloc1,tr13,7681,46086).
route(harbor13,prodloc2,tr0,8341,216866).
route(harbor13,prodloc2,tr13,8341,50046).
route(harbor13,prodloc3,tr0,5888,153088).
route(harbor13,prodloc3,tr13,5888,35328).
route(harbor13,prodloc4,tr0,17024,442624).
route(harbor13,prodloc4,tr13,17024,102144).
route(harbor13,prodloc5,tr0,1114,28964).
route(harbor13,prodloc5,tr13,1114,6684).
route(harbor13,prodloc6,tr0,25430,661180).
route(harbor13,prodloc6,tr13,25430,152580).
route(harbor13,prodloc7,tr0,16508,429208).
route(harbor13,prodloc7,tr13,16508,99048).
route(harbor13,prodloc8,tr0,357,9282).
route(harbor13,prodloc8,tr13,357,2142).
route(harbor13,prodloc9,tr0,20642,536692).
route(harbor13,prodloc9,tr13,20642,123852).
route(harbor13,prodloc10,tr0,24756,643656).
route(harbor13,prodloc10,tr13,24756,148536).
route(harbor13,prodloc11,tr0,3513,91338).
route(harbor13,prodloc11,tr13,3513,21078).
route(harbor13,prodloc12,tr0,6155,160030).
route(harbor13,prodloc12,tr13,6155,36930).
route(harbor13,prodloc13,tr0,3487,90662).
route(harbor13,prodloc13,tr13,3487,20922).
route(harbor13,prodloc14,tr0,15598,405548).
route(harbor13,prodloc14,tr13,15598,93588).
route(harbor13,prodloc15,tr0,15013,390338).
route(harbor13,prodloc15,tr13,15013,90078).
route(harbor13,prodloc16,tr0,16922,439972).
route(harbor13,prodloc16,tr13,16922,101532).
route(harbor13,prodloc17,tr0,8947,232622).
route(harbor13,prodloc17,tr13,8947,53682).
route(harbor13,prodloc18,tr0,7439,193414).
route(harbor13,prodloc18,tr13,7439,44634).
route(harbor13,prodloc19,tr0,1924,50024).
route(harbor13,prodloc19,tr13,1924,11544).
route(harbor13,prodloc20,tr0,14268,370968).
route(harbor13,prodloc20,tr13,14268,85608).
route(harbor13,prodloc21,tr0,8177,212602).
route(harbor13,prodloc21,tr13,8177,49062).
route(harbor13,prodloc22,tr0,9320,242320).
route(harbor13,prodloc22,tr13,9320,55920).
route(harbor13,prodloc23,tr0,26234,682084).
route(harbor13,prodloc23,tr13,26234,157404).
route(harbor13,prodloc24,tr0,25552,664352).
route(harbor13,prodloc24,tr13,25552,153312).
route(harbor13,prodloc25,tr0,10871,282646).
route(harbor13,prodloc25,tr13,10871,65226).
route(harbor13,prodloc26,tr0,10169,264394).
route(harbor13,prodloc26,tr13,10169,61014).
route(harbor13,prodloc27,tr0,8046,209196).
route(harbor13,prodloc27,tr13,8046,48276).
route(harbor13,prodloc28,tr0,11425,297050).
route(harbor13,prodloc28,tr13,11425,68550).
route(harbor13,prodloc29,tr0,16104,418704).
route(harbor13,prodloc29,tr13,16104,96624).
route(harbor13,prodloc30,tr0,13996,363896).
route(harbor13,prodloc30,tr13,13996,83976).
route(harbor13,prodloc31,tr0,21988,571688).
route(harbor13,prodloc31,tr13,21988,131928).
route(harbor13,prodloc32,tr0,2131,55406).
route(harbor13,prodloc32,tr13,2131,12786).
route(harbor13,prodloc33,tr0,6708,174408).
route(harbor13,prodloc33,tr13,6708,40248).
route(harbor14,harbor0,tr13,6717,40302).
route(harbor14,harbor0,tr2,6717,20151).
route(harbor14,harbor1,tr13,29075,174450).
route(harbor14,harbor1,tr2,29075,87225).
route(harbor14,harbor2,tr13,7147,42882).
route(harbor14,harbor2,tr2,7147,21441).
route(harbor14,harbor3,tr13,23683,142098).
route(harbor14,harbor3,tr2,23683,71049).
route(harbor14,harbor4,tr13,16347,98082).
route(harbor14,harbor4,tr2,16347,49041).
route(harbor14,harbor5,tr13,15365,92190).
route(harbor14,harbor5,tr2,15365,46095).
route(harbor14,harbor6,tr13,27296,163776).
route(harbor14,harbor6,tr2,27296,81888).
route(harbor14,harbor7,tr13,21419,128514).
route(harbor14,harbor7,tr2,21419,64257).
route(harbor14,harbor8,tr13,10698,64188).
route(harbor14,harbor8,tr2,10698,32094).
route(harbor14,harbor9,tr13,4927,29562).
route(harbor14,harbor9,tr2,4927,14781).
route(harbor14,harbor10,tr13,14980,89880).
route(harbor14,harbor10,tr2,14980,44940).
route(harbor14,harbor11,tr13,21667,130002).
route(harbor14,harbor11,tr2,21667,65001).
route(harbor14,harbor12,tr13,17619,105714).
route(harbor14,harbor12,tr2,17619,52857).
route(harbor14,harbor13,tr13,13146,78876).
route(harbor14,harbor13,tr2,13146,39438).
route(harbor14,harbor15,tr13,2142,12852).
route(harbor14,harbor15,tr2,2142,6426).
route(harbor14,harbor16,tr13,855,5130).
route(harbor14,harbor16,tr2,855,2565).
route(harbor14,prodloc0,tr0,24738,643188).
route(harbor14,prodloc0,tr13,24738,148428).
route(harbor14,prodloc1,tr0,4722,122772).
route(harbor14,prodloc1,tr13,4722,28332).
route(harbor14,prodloc2,tr0,15521,403546).
route(harbor14,prodloc2,tr13,15521,93126).
route(harbor14,prodloc3,tr0,7141,185666).
route(harbor14,prodloc3,tr13,7141,42846).
route(harbor14,prodloc4,tr0,18562,482612).
route(harbor14,prodloc4,tr13,18562,111372).
route(harbor14,prodloc5,tr0,19075,495950).
route(harbor14,prodloc5,tr13,19075,114450).
route(harbor14,prodloc6,tr0,24316,632216).
route(harbor14,prodloc6,tr13,24316,145896).
route(harbor14,prodloc7,tr0,16762,435812).
route(harbor14,prodloc7,tr13,16762,100572).
route(harbor14,prodloc8,tr0,1562,40612).
route(harbor14,prodloc8,tr13,1562,9372).
route(harbor14,prodloc9,tr0,15826,411476).
route(harbor14,prodloc9,tr13,15826,94956).
route(harbor14,prodloc10,tr0,23479,610454).
route(harbor14,prodloc10,tr13,23479,140874).
route(harbor14,prodloc11,tr0,8422,218972).
route(harbor14,prodloc11,tr13,8422,50532).
route(harbor14,prodloc12,tr0,80,2080).
route(harbor14,prodloc12,tr13,80,480).
route(harbor14,prodloc13,tr0,3577,93002).
route(harbor14,prodloc13,tr13,3577,21462).
route(harbor14,prodloc14,tr0,16799,436774).
route(harbor14,prodloc14,tr13,16799,100794).
route(harbor14,prodloc15,tr0,15146,393796).
route(harbor14,prodloc15,tr13,15146,90876).
route(harbor14,prodloc16,tr0,1343,34918).
route(harbor14,prodloc16,tr13,1343,8058).
route(harbor14,prodloc17,tr0,7385,192010).
route(harbor14,prodloc17,tr13,7385,44310).
route(harbor14,prodloc18,tr0,3886,101036).
route(harbor14,prodloc18,tr13,3886,23316).
route(harbor14,prodloc19,tr0,21744,565344).
route(harbor14,prodloc19,tr13,21744,130464).
route(harbor14,prodloc20,tr0,25730,668980).
route(harbor14,prodloc20,tr13,25730,154380).
route(harbor14,prodloc21,tr0,547,14222).
route(harbor14,prodloc21,tr13,547,3282).
route(harbor14,prodloc22,tr0,4410,114660).
route(harbor14,prodloc22,tr13,4410,26460).
route(harbor14,prodloc23,tr0,2380,61880).
route(harbor14,prodloc23,tr13,2380,14280).
route(harbor14,prodloc24,tr0,7342,190892).
route(harbor14,prodloc24,tr13,7342,44052).
route(harbor14,prodloc25,tr0,12716,330616).
route(harbor14,prodloc25,tr13,12716,76296).
route(harbor14,prodloc26,tr0,17161,446186).
route(harbor14,prodloc26,tr13,17161,102966).
route(harbor14,prodloc27,tr0,961,24986).
route(harbor14,prodloc27,tr13,961,5766).
route(harbor14,prodloc28,tr0,17986,467636).
route(harbor14,prodloc28,tr13,17986,107916).
route(harbor14,prodloc29,tr0,11243,292318).
route(harbor14,prodloc29,tr13,11243,67458).
route(harbor14,prodloc30,tr0,6662,173212).
route(harbor14,prodloc30,tr13,6662,39972).
route(harbor14,prodloc31,tr0,8427,219102).
route(harbor14,prodloc31,tr13,8427,50562).
route(harbor14,prodloc32,tr0,21014,546364).
route(harbor14,prodloc32,tr13,21014,126084).
route(harbor14,prodloc33,tr0,23705,616330).
route(harbor14,prodloc33,tr13,23705,142230).
route(harbor15,harbor0,tr13,18330,109980).
route(harbor15,harbor0,tr2,18330,54990).
route(harbor15,harbor1,tr13,9139,54834).
route(harbor15,harbor1,tr2,9139,27417).
route(harbor15,harbor2,tr13,10295,61770).
route(harbor15,harbor2,tr2,10295,30885).
route(harbor15,harbor3,tr13,7159,42954).
route(harbor15,harbor3,tr2,7159,21477).
route(harbor15,harbor4,tr13,23197,139182).
route(harbor15,harbor4,tr2,23197,69591).
route(harbor15,harbor5,tr13,7492,44952).
route(harbor15,harbor5,tr2,7492,22476).
route(harbor15,harbor6,tr13,28757,172542).
route(harbor15,harbor6,tr2,28757,86271).
route(harbor15,harbor7,tr13,13701,82206).
route(harbor15,harbor7,tr2,13701,41103).
route(harbor15,harbor8,tr13,1603,9618).
route(harbor15,harbor8,tr2,1603,4809).
route(harbor15,harbor9,tr13,8326,49956).
route(harbor15,harbor9,tr2,8326,24978).
route(harbor15,harbor10,tr13,21417,128502).
route(harbor15,harbor10,tr2,21417,64251).
route(harbor15,harbor11,tr13,17729,106374).
route(harbor15,harbor11,tr2,17729,53187).
route(harbor15,harbor12,tr13,20230,121380).
route(harbor15,harbor12,tr2,20230,60690).
route(harbor15,harbor13,tr13,24373,146238).
route(harbor15,harbor13,tr2,24373,73119).
route(harbor15,harbor14,tr13,392,2352).
route(harbor15,harbor14,tr2,392,1176).
route(harbor15,harbor16,tr13,17211,103266).
route(harbor15,harbor16,tr2,17211,51633).
route(harbor15,prodloc0,tr0,7764,201864).
route(harbor15,prodloc0,tr13,7764,46584).
route(harbor15,prodloc1,tr0,22671,589446).
route(harbor15,prodloc1,tr13,22671,136026).
route(harbor15,prodloc2,tr0,14449,375674).
route(harbor15,prodloc2,tr13,14449,86694).
route(harbor15,prodloc3,tr0,11116,289016).
route(harbor15,prodloc3,tr13,11116,66696).
route(harbor15,prodloc4,tr0,13799,358774).
route(harbor15,prodloc4,tr13,13799,82794).
route(harbor15,prodloc5,tr0,10728,278928).
route(harbor15,prodloc5,tr13,10728,64368).
route(harbor15,prodloc6,tr0,24328,632528).
route(harbor15,prodloc6,tr13,24328,145968).
route(harbor15,prodloc7,tr0,12141,315666).
route(harbor15,prodloc7,tr13,12141,72846).
route(harbor15,prodloc8,tr0,2642,68692).
route(harbor15,prodloc8,tr13,2642,15852).
route(harbor15,prodloc9,tr0,2884,74984).
route(harbor15,prodloc9,tr13,2884,17304).
route(harbor15,prodloc10,tr0,20430,531180).
route(harbor15,prodloc10,tr13,20430,122580).
route(harbor15,prodloc11,tr0,12976,337376).
route(harbor15,prodloc11,tr13,12976,77856).
route(harbor15,prodloc12,tr0,15550,404300).
route(harbor15,prodloc12,tr13,15550,93300).
route(harbor15,prodloc13,tr0,5876,152776).
route(harbor15,prodloc13,tr13,5876,35256).
route(harbor15,prodloc14,tr0,8811,229086).
route(harbor15,prodloc14,tr13,8811,52866).
route(harbor15,prodloc15,tr0,4102,106652).
route(harbor15,prodloc15,tr13,4102,24612).
route(harbor15,prodloc16,tr0,2435,63310).
route(harbor15,prodloc16,tr13,2435,14610).
route(harbor15,prodloc17,tr0,22532,585832).
route(harbor15,prodloc17,tr13,22532,135192).
route(harbor15,prodloc18,tr0,4964,129064).
route(harbor15,prodloc18,tr13,4964,29784).
route(harbor15,prodloc19,tr0,1458,37908).
route(harbor15,prodloc19,tr13,1458,8748).
route(harbor15,prodloc20,tr0,4480,116480).
route(harbor15,prodloc20,tr13,4480,26880).
route(harbor15,prodloc21,tr0,24518,637468).
route(harbor15,prodloc21,tr13,24518,147108).
route(harbor15,prodloc22,tr0,7441,193466).
route(harbor15,prodloc22,tr13,7441,44646).
route(harbor15,prodloc23,tr0,3886,101036).
route(harbor15,prodloc23,tr13,3886,23316).
route(harbor15,prodloc24,tr0,19438,505388).
route(harbor15,prodloc24,tr13,19438,116628).
route(harbor15,prodloc25,tr0,774,20124).
route(harbor15,prodloc25,tr13,774,4644).
route(harbor15,prodloc26,tr0,6919,179894).
route(harbor15,prodloc26,tr13,6919,41514).
route(harbor15,prodloc27,tr0,2979,77454).
route(harbor15,prodloc27,tr13,2979,17874).
route(harbor15,prodloc28,tr0,10820,281320).
route(harbor15,prodloc28,tr13,10820,64920).
route(harbor15,prodloc29,tr0,7852,204152).
route(harbor15,prodloc29,tr13,7852,47112).
route(harbor15,prodloc30,tr0,1469,38194).
route(harbor15,prodloc30,tr13,1469,8814).
route(harbor15,prodloc31,tr0,15997,415922).
route(harbor15,prodloc31,tr13,15997,95982).
route(harbor15,prodloc32,tr0,7515,195390).
route(harbor15,prodloc32,tr13,7515,45090).
route(harbor15,prodloc33,tr0,4503,117078).
route(harbor15,prodloc33,tr13,4503,27018).
route(harbor16,harbor0,tr13,23562,141372).
route(harbor16,harbor0,tr2,23562,70686).
route(harbor16,harbor1,tr13,27674,166044).
route(harbor16,harbor1,tr2,27674,83022).
route(harbor16,harbor2,tr13,12942,77652).
route(harbor16,harbor2,tr2,12942,38826).
route(harbor16,harbor3,tr13,3608,21648).
route(harbor16,harbor3,tr2,3608,10824).
route(harbor16,harbor4,tr13,15087,90522).
route(harbor16,harbor4,tr2,15087,45261).
route(harbor16,harbor5,tr13,8287,49722).
route(harbor16,harbor5,tr2,8287,24861).
route(harbor16,harbor6,tr13,26417,158502).
route(harbor16,harbor6,tr2,26417,79251).
route(harbor16,harbor7,tr13,27333,163998).
route(harbor16,harbor7,tr2,27333,81999).
route(harbor16,harbor8,tr13,28818,172908).
route(harbor16,harbor8,tr2,28818,86454).
route(harbor16,harbor9,tr13,18452,110712).
route(harbor16,harbor9,tr2,18452,55356).
route(harbor16,harbor10,tr13,6697,40182).
route(harbor16,harbor10,tr2,6697,20091).
route(harbor16,harbor11,tr13,27484,164904).
route(harbor16,harbor11,tr2,27484,82452).
route(harbor16,harbor12,tr13,1683,10098).
route(harbor16,harbor12,tr2,1683,5049).
route(harbor16,harbor13,tr13,10479,62874).
route(harbor16,harbor13,tr2,10479,31437).
route(harbor16,harbor14,tr13,12948,77688).
route(harbor16,harbor14,tr2,12948,38844).
route(harbor16,harbor15,tr13,2347,14082).
route(harbor16,harbor15,tr2,2347,7041).
route(harbor16,prodloc0,tr0,14031,364806).
route(harbor16,prodloc0,tr13,14031,84186).
route(harbor16,prodloc1,tr0,14520,377520).
route(harbor16,prodloc1,tr13,14520,87120).
route(harbor16,prodloc2,tr0,13950,362700).
route(harbor16,prodloc2,tr13,13950,83700).
route(harbor16,prodloc3,tr0,13645,354770).
route(harbor16,prodloc3,tr13,13645,81870).
route(harbor16,prodloc4,tr0,17996,467896).
route(harbor16,prodloc4,tr13,17996,107976).
route(harbor16,prodloc5,tr0,4068,105768).
route(harbor16,prodloc5,tr13,4068,24408).
route(harbor16,prodloc6,tr0,20709,538434).
route(harbor16,prodloc6,tr13,20709,124254).
route(harbor16,prodloc7,tr0,26677,693602).
route(harbor16,prodloc7,tr13,26677,160062).
route(harbor16,prodloc8,tr0,24111,626886).
route(harbor16,prodloc8,tr13,24111,144666).
route(harbor16,prodloc9,tr0,7250,188500).
route(harbor16,prodloc9,tr13,7250,43500).
route(harbor16,prodloc10,tr0,18598,483548).
route(harbor16,prodloc10,tr13,18598,111588).
route(harbor16,prodloc11,tr0,27270,709020).
route(harbor16,prodloc11,tr13,27270,163620).
route(harbor16,prodloc12,tr0,22616,588016).
route(harbor16,prodloc12,tr13,22616,135696).
route(harbor16,prodloc13,tr0,20822,541372).
route(harbor16,prodloc13,tr13,20822,124932).
route(harbor16,prodloc14,tr0,24154,628004).
route(harbor16,prodloc14,tr13,24154,144924).
route(harbor16,prodloc15,tr0,16389,426114).
route(harbor16,prodloc15,tr13,16389,98334).
route(harbor16,prodloc16,tr0,28526,741676).
route(harbor16,prodloc16,tr13,28526,171156).
route(harbor16,prodloc17,tr0,19792,514592).
route(harbor16,prodloc17,tr13,19792,118752).
route(harbor16,prodloc18,tr0,23161,602186).
route(harbor16,prodloc18,tr13,23161,138966).
route(harbor16,prodloc19,tr0,8056,209456).
route(harbor16,prodloc19,tr13,8056,48336).
route(harbor16,prodloc20,tr0,10287,267462).
route(harbor16,prodloc20,tr13,10287,61722).
route(harbor16,prodloc21,tr0,3126,81276).
route(harbor16,prodloc21,tr13,3126,18756).
route(harbor16,prodloc22,tr0,28826,749476).
route(harbor16,prodloc22,tr13,28826,172956).
route(harbor16,prodloc23,tr0,28915,751790).
route(harbor16,prodloc23,tr13,28915,173490).
route(harbor16,prodloc24,tr0,17696,460096).
route(harbor16,prodloc24,tr13,17696,106176).
route(harbor16,prodloc25,tr0,27855,724230).
route(harbor16,prodloc25,tr13,27855,167130).
route(harbor16,prodloc26,tr0,731,19006).
route(harbor16,prodloc26,tr13,731,4386).
route(harbor16,prodloc27,tr0,6204,161304).
route(harbor16,prodloc27,tr13,6204,37224).
route(harbor16,prodloc28,tr0,171,4446).
route(harbor16,prodloc28,tr13,171,1026).
route(harbor16,prodloc29,tr0,28401,738426).
route(harbor16,prodloc29,tr13,28401,170406).
route(harbor16,prodloc30,tr0,16485,428610).
route(harbor16,prodloc30,tr13,16485,98910).
route(harbor16,prodloc31,tr0,27622,718172).
route(harbor16,prodloc31,tr13,27622,165732).
route(harbor16,prodloc32,tr0,1393,36218).
route(harbor16,prodloc32,tr13,1393,8358).
route(harbor16,prodloc33,tr0,11058,287508).
route(harbor16,prodloc33,tr13,11058,66348).
route(prodloc0,harbor0,tr0,5506,143156).
route(prodloc0,harbor0,tr13,5506,33036).
route(prodloc0,harbor1,tr0,28436,739336).
route(prodloc0,harbor1,tr13,28436,170616).
route(prodloc0,harbor2,tr0,25743,669318).
route(prodloc0,harbor2,tr13,25743,154458).
route(prodloc0,harbor3,tr0,27065,703690).
route(prodloc0,harbor3,tr13,27065,162390).
route(prodloc0,harbor4,tr0,28302,735852).
route(prodloc0,harbor4,tr13,28302,169812).
route(prodloc0,harbor5,tr0,21979,571454).
route(prodloc0,harbor5,tr13,21979,131874).
route(prodloc0,harbor6,tr0,13737,357162).
route(prodloc0,harbor6,tr13,13737,82422).
route(prodloc0,harbor7,tr0,11243,292318).
route(prodloc0,harbor7,tr13,11243,67458).
route(prodloc0,harbor8,tr0,1648,42848).
route(prodloc0,harbor8,tr13,1648,9888).
route(prodloc0,harbor9,tr0,7584,197184).
route(prodloc0,harbor9,tr13,7584,45504).
route(prodloc0,harbor10,tr0,4975,129350).
route(prodloc0,harbor10,tr13,4975,29850).
route(prodloc0,harbor11,tr0,8560,222560).
route(prodloc0,harbor11,tr13,8560,51360).
route(prodloc0,harbor12,tr0,9878,256828).
route(prodloc0,harbor12,tr13,9878,59268).
route(prodloc0,harbor13,tr0,15512,403312).
route(prodloc0,harbor13,tr13,15512,93072).
route(prodloc0,harbor14,tr0,21673,563498).
route(prodloc0,harbor14,tr13,21673,130038).
route(prodloc0,harbor15,tr0,20297,527722).
route(prodloc0,harbor15,tr13,20297,121782).
route(prodloc0,harbor16,tr0,25680,667680).
route(prodloc0,harbor16,tr13,25680,154080).
route(prodloc0,prodloc1,tr0,9314,242164).
route(prodloc0,prodloc1,tr13,9314,55884).
route(prodloc0,prodloc2,tr0,3354,87204).
route(prodloc0,prodloc2,tr13,3354,20124).
route(prodloc0,prodloc3,tr0,10743,279318).
route(prodloc0,prodloc3,tr13,10743,64458).
route(prodloc0,prodloc4,tr0,2433,63258).
route(prodloc0,prodloc4,tr13,2433,14598).
route(prodloc0,prodloc5,tr0,7499,194974).
route(prodloc0,prodloc5,tr13,7499,44994).
route(prodloc0,prodloc6,tr0,20698,538148).
route(prodloc0,prodloc6,tr13,20698,124188).
route(prodloc0,prodloc7,tr0,19092,496392).
route(prodloc0,prodloc7,tr13,19092,114552).
route(prodloc0,prodloc8,tr0,14858,386308).
route(prodloc0,prodloc8,tr13,14858,89148).
route(prodloc0,prodloc9,tr0,19831,515606).
route(prodloc0,prodloc9,tr13,19831,118986).
route(prodloc0,prodloc10,tr0,16644,432744).
route(prodloc0,prodloc10,tr13,16644,99864).
route(prodloc0,prodloc11,tr0,7272,189072).
route(prodloc0,prodloc11,tr13,7272,43632).
route(prodloc0,prodloc12,tr0,9404,244504).
route(prodloc0,prodloc12,tr13,9404,56424).
route(prodloc0,prodloc13,tr0,456,11856).
route(prodloc0,prodloc13,tr13,456,2736).
route(prodloc0,prodloc14,tr0,21937,570362).
route(prodloc0,prodloc14,tr13,21937,131622).
route(prodloc0,prodloc15,tr0,21481,558506).
route(prodloc0,prodloc15,tr13,21481,128886).
route(prodloc0,prodloc16,tr0,7088,184288).
route(prodloc0,prodloc16,tr13,7088,42528).
route(prodloc0,prodloc17,tr0,12496,324896).
route(prodloc0,prodloc17,tr13,12496,74976).
route(prodloc0,prodloc18,tr0,27483,714558).
route(prodloc0,prodloc18,tr13,27483,164898).
route(prodloc0,prodloc19,tr0,18202,473252).
route(prodloc0,prodloc19,tr13,18202,109212).
route(prodloc0,prodloc20,tr0,3864,100464).
route(prodloc0,prodloc20,tr13,3864,23184).
route(prodloc0,prodloc21,tr0,6803,176878).
route(prodloc0,prodloc21,tr13,6803,40818).
route(prodloc0,prodloc22,tr0,2964,77064).
route(prodloc0,prodloc22,tr13,2964,17784).
route(prodloc0,prodloc23,tr0,26868,698568).
route(prodloc0,prodloc23,tr13,26868,161208).
route(prodloc0,prodloc24,tr0,14378,373828).
route(prodloc0,prodloc24,tr13,14378,86268).
route(prodloc0,prodloc25,tr0,13198,343148).
route(prodloc0,prodloc25,tr13,13198,79188).
route(prodloc0,prodloc26,tr0,15803,410878).
route(prodloc0,prodloc26,tr13,15803,94818).
route(prodloc0,prodloc27,tr0,26911,699686).
route(prodloc0,prodloc27,tr13,26911,161466).
route(prodloc0,prodloc28,tr0,20387,530062).
route(prodloc0,prodloc28,tr13,20387,122322).
route(prodloc0,prodloc29,tr0,16457,427882).
route(prodloc0,prodloc29,tr13,16457,98742).
route(prodloc0,prodloc30,tr0,13637,354562).
route(prodloc0,prodloc30,tr13,13637,81822).
route(prodloc0,prodloc31,tr0,6862,178412).
route(prodloc0,prodloc31,tr13,6862,41172).
route(prodloc0,prodloc32,tr0,4430,115180).
route(prodloc0,prodloc32,tr13,4430,26580).
route(prodloc0,prodloc33,tr0,2843,73918).
route(prodloc0,prodloc33,tr13,2843,17058).
route(prodloc1,harbor0,tr0,17011,442286).
route(prodloc1,harbor0,tr13,17011,102066).
route(prodloc1,harbor1,tr0,4471,116246).
route(prodloc1,harbor1,tr13,4471,26826).
route(prodloc1,harbor2,tr0,12925,336050).
route(prodloc1,harbor2,tr13,12925,77550).
route(prodloc1,harbor3,tr0,15873,412698).
route(prodloc1,harbor3,tr13,15873,95238).
route(prodloc1,harbor4,tr0,22412,582712).
route(prodloc1,harbor4,tr13,22412,134472).
route(prodloc1,harbor5,tr0,19097,496522).
route(prodloc1,harbor5,tr13,19097,114582).
route(prodloc1,harbor6,tr0,28900,751400).
route(prodloc1,harbor6,tr13,28900,173400).
route(prodloc1,harbor7,tr0,27316,710216).
route(prodloc1,harbor7,tr13,27316,163896).
route(prodloc1,harbor8,tr0,16908,439608).
route(prodloc1,harbor8,tr13,16908,101448).
route(prodloc1,harbor9,tr0,16743,435318).
route(prodloc1,harbor9,tr13,16743,100458).
route(prodloc1,harbor10,tr0,17466,454116).
route(prodloc1,harbor10,tr13,17466,104796).
route(prodloc1,harbor11,tr0,23439,609414).
route(prodloc1,harbor11,tr13,23439,140634).
route(prodloc1,harbor12,tr0,17838,463788).
route(prodloc1,harbor12,tr13,17838,107028).
route(prodloc1,harbor13,tr0,1894,49244).
route(prodloc1,harbor13,tr13,1894,11364).
route(prodloc1,harbor14,tr0,18485,480610).
route(prodloc1,harbor14,tr13,18485,110910).
route(prodloc1,harbor15,tr0,14921,387946).
route(prodloc1,harbor15,tr13,14921,89526).
route(prodloc1,harbor16,tr0,8179,212654).
route(prodloc1,harbor16,tr13,8179,49074).
route(prodloc1,prodloc0,tr0,3041,79066).
route(prodloc1,prodloc0,tr13,3041,18246).
route(prodloc1,prodloc2,tr0,12591,327366).
route(prodloc1,prodloc2,tr13,12591,75546).
route(prodloc1,prodloc3,tr0,10546,274196).
route(prodloc1,prodloc3,tr13,10546,63276).
route(prodloc1,prodloc4,tr0,2253,58578).
route(prodloc1,prodloc4,tr15,2253,72096).
route(prodloc1,prodloc5,tr0,2736,71136).
route(prodloc1,prodloc5,tr13,2736,16416).
route(prodloc1,prodloc6,tr0,20087,522262).
route(prodloc1,prodloc6,tr13,20087,120522).
route(prodloc1,prodloc7,tr0,25723,668798).
route(prodloc1,prodloc7,tr13,25723,154338).
route(prodloc1,prodloc8,tr0,12206,317356).
route(prodloc1,prodloc8,tr13,12206,73236).
route(prodloc1,prodloc9,tr0,4236,110136).
route(prodloc1,prodloc9,tr13,4236,25416).
route(prodloc1,prodloc10,tr0,7144,185744).
route(prodloc1,prodloc10,tr13,7144,42864).
route(prodloc1,prodloc11,tr0,1315,34190).
route(prodloc1,prodloc11,tr13,1315,7890).
route(prodloc1,prodloc12,tr0,1283,33358).
route(prodloc1,prodloc12,tr13,1283,7698).
route(prodloc1,prodloc13,tr0,8071,209846).
route(prodloc1,prodloc13,tr13,8071,48426).
route(prodloc1,prodloc14,tr0,4287,111462).
route(prodloc1,prodloc14,tr13,4287,25722).
route(prodloc1,prodloc15,tr0,1007,26182).
route(prodloc1,prodloc15,tr13,1007,6042).
route(prodloc1,prodloc16,tr0,3550,92300).
route(prodloc1,prodloc16,tr13,3550,21300).
route(prodloc1,prodloc17,tr0,22483,584558).
route(prodloc1,prodloc17,tr13,22483,134898).
route(prodloc1,prodloc18,tr0,4164,108264).
route(prodloc1,prodloc18,tr13,4164,24984).
route(prodloc1,prodloc19,tr0,8481,220506).
route(prodloc1,prodloc19,tr13,8481,50886).
route(prodloc1,prodloc20,tr0,15594,405444).
route(prodloc1,prodloc20,tr13,15594,93564).
route(prodloc1,prodloc21,tr0,14134,367484).
route(prodloc1,prodloc21,tr13,14134,84804).
route(prodloc1,prodloc22,tr0,18219,473694).
route(prodloc1,prodloc22,tr13,18219,109314).
route(prodloc1,prodloc23,tr0,18457,479882).
route(prodloc1,prodloc23,tr13,18457,110742).
route(prodloc1,prodloc24,tr0,8376,217776).
route(prodloc1,prodloc24,tr13,8376,50256).
route(prodloc1,prodloc25,tr0,5518,143468).
route(prodloc1,prodloc25,tr13,5518,33108).
route(prodloc1,prodloc26,tr0,25519,663494).
route(prodloc1,prodloc26,tr15,25519,816608).
route(prodloc1,prodloc27,tr0,28546,742196).
route(prodloc1,prodloc27,tr13,28546,171276).
route(prodloc1,prodloc28,tr0,25443,661518).
route(prodloc1,prodloc28,tr13,25443,152658).
route(prodloc1,prodloc29,tr0,15279,397254).
route(prodloc1,prodloc29,tr13,15279,91674).
route(prodloc1,prodloc30,tr0,25446,661596).
route(prodloc1,prodloc30,tr13,25446,152676).
route(prodloc1,prodloc31,tr0,6088,158288).
route(prodloc1,prodloc31,tr13,6088,36528).
route(prodloc1,prodloc32,tr0,4482,116532).
route(prodloc1,prodloc32,tr13,4482,26892).
route(prodloc1,prodloc33,tr0,28871,750646).
route(prodloc1,prodloc33,tr13,28871,173226).
route(prodloc2,harbor0,tr0,1460,37960).
route(prodloc2,harbor0,tr13,1460,8760).
route(prodloc2,harbor1,tr0,6334,164684).
route(prodloc2,harbor1,tr13,6334,38004).
route(prodloc2,harbor2,tr0,3676,95576).
route(prodloc2,harbor2,tr13,3676,22056).
route(prodloc2,harbor3,tr0,16911,439686).
route(prodloc2,harbor3,tr13,16911,101466).
route(prodloc2,harbor4,tr0,11610,301860).
route(prodloc2,harbor4,tr13,11610,69660).
route(prodloc2,harbor5,tr0,15328,398528).
route(prodloc2,harbor5,tr13,15328,91968).
route(prodloc2,harbor6,tr0,15381,399906).
route(prodloc2,harbor6,tr13,15381,92286).
route(prodloc2,harbor7,tr0,10726,278876).
route(prodloc2,harbor7,tr13,10726,64356).
route(prodloc2,harbor8,tr0,26803,696878).
route(prodloc2,harbor8,tr13,26803,160818).
route(prodloc2,harbor9,tr0,23689,615914).
route(prodloc2,harbor9,tr13,23689,142134).
route(prodloc2,harbor10,tr0,28079,730054).
route(prodloc2,harbor10,tr13,28079,168474).
route(prodloc2,harbor11,tr0,1636,42536).
route(prodloc2,harbor11,tr13,1636,9816).
route(prodloc2,harbor12,tr0,10478,272428).
route(prodloc2,harbor12,tr13,10478,62868).
route(prodloc2,harbor13,tr0,10800,280800).
route(prodloc2,harbor13,tr13,10800,64800).
route(prodloc2,harbor14,tr0,27169,706394).
route(prodloc2,harbor14,tr13,27169,163014).
route(prodloc2,harbor15,tr0,24788,644488).
route(prodloc2,harbor15,tr13,24788,148728).
route(prodloc2,harbor16,tr0,12577,327002).
route(prodloc2,harbor16,tr13,12577,75462).
route(prodloc2,prodloc0,tr0,3432,89232).
route(prodloc2,prodloc0,tr13,3432,20592).
route(prodloc2,prodloc1,tr0,26453,687778).
route(prodloc2,prodloc1,tr13,26453,158718).
route(prodloc2,prodloc3,tr0,626,16276).
route(prodloc2,prodloc3,tr13,626,3756).
route(prodloc2,prodloc4,tr0,22623,588198).
route(prodloc2,prodloc4,tr13,22623,135738).
route(prodloc2,prodloc5,tr0,24670,641420).
route(prodloc2,prodloc5,tr13,24670,148020).
route(prodloc2,prodloc6,tr0,14457,375882).
route(prodloc2,prodloc6,tr13,14457,86742).
route(prodloc2,prodloc7,tr0,5908,153608).
route(prodloc2,prodloc7,tr13,5908,35448).
route(prodloc2,prodloc8,tr0,2245,58370).
route(prodloc2,prodloc8,tr13,2245,13470).
route(prodloc2,prodloc9,tr0,20818,541268).
route(prodloc2,prodloc9,tr13,20818,124908).
route(prodloc2,prodloc10,tr0,17258,448708).
route(prodloc2,prodloc10,tr13,17258,103548).
route(prodloc2,prodloc11,tr0,25405,660530).
route(prodloc2,prodloc11,tr13,25405,152430).
route(prodloc2,prodloc12,tr0,14511,377286).
route(prodloc2,prodloc12,tr13,14511,87066).
route(prodloc2,prodloc13,tr0,18411,478686).
route(prodloc2,prodloc13,tr13,18411,110466).
route(prodloc2,prodloc14,tr0,4158,108108).
route(prodloc2,prodloc14,tr13,4158,24948).
route(prodloc2,prodloc15,tr0,6465,168090).
route(prodloc2,prodloc15,tr13,6465,38790).
route(prodloc2,prodloc16,tr0,10393,270218).
route(prodloc2,prodloc16,tr13,10393,62358).
route(prodloc2,prodloc17,tr0,20124,523224).
route(prodloc2,prodloc17,tr13,20124,120744).
route(prodloc2,prodloc18,tr0,24421,634946).
route(prodloc2,prodloc18,tr13,24421,146526).
route(prodloc2,prodloc19,tr0,20764,539864).
route(prodloc2,prodloc19,tr13,20764,124584).
route(prodloc2,prodloc20,tr0,21591,561366).
route(prodloc2,prodloc20,tr13,21591,129546).
route(prodloc2,prodloc21,tr0,14091,366366).
route(prodloc2,prodloc21,tr13,14091,84546).
route(prodloc2,prodloc22,tr0,20359,529334).
route(prodloc2,prodloc22,tr13,20359,122154).
route(prodloc2,prodloc23,tr0,6167,160342).
route(prodloc2,prodloc23,tr13,6167,37002).
route(prodloc2,prodloc24,tr0,24453,635778).
route(prodloc2,prodloc24,tr13,24453,146718).
route(prodloc2,prodloc25,tr0,24416,634816).
route(prodloc2,prodloc25,tr13,24416,146496).
route(prodloc2,prodloc26,tr0,22181,576706).
route(prodloc2,prodloc26,tr13,22181,133086).
route(prodloc2,prodloc27,tr0,5351,139126).
route(prodloc2,prodloc27,tr13,5351,32106).
route(prodloc2,prodloc28,tr0,11502,299052).
route(prodloc2,prodloc28,tr13,11502,69012).
route(prodloc2,prodloc29,tr0,1468,38168).
route(prodloc2,prodloc29,tr13,1468,8808).
route(prodloc2,prodloc30,tr0,22362,581412).
route(prodloc2,prodloc30,tr13,22362,134172).
route(prodloc2,prodloc31,tr0,18388,478088).
route(prodloc2,prodloc31,tr13,18388,110328).
route(prodloc2,prodloc32,tr0,18886,491036).
route(prodloc2,prodloc32,tr13,18886,113316).
route(prodloc2,prodloc33,tr0,4818,125268).
route(prodloc2,prodloc33,tr13,4818,28908).
route(prodloc3,harbor0,tr0,21272,553072).
route(prodloc3,harbor0,tr13,21272,127632).
route(prodloc3,harbor1,tr0,9912,257712).
route(prodloc3,harbor1,tr13,9912,59472).
route(prodloc3,harbor2,tr0,23397,608322).
route(prodloc3,harbor2,tr13,23397,140382).
route(prodloc3,harbor3,tr0,11449,297674).
route(prodloc3,harbor3,tr13,11449,68694).
route(prodloc3,harbor4,tr0,27708,720408).
route(prodloc3,harbor4,tr13,27708,166248).
route(prodloc3,harbor5,tr0,23535,611910).
route(prodloc3,harbor5,tr13,23535,141210).
route(prodloc3,harbor6,tr0,19784,514384).
route(prodloc3,harbor6,tr13,19784,118704).
route(prodloc3,harbor7,tr0,8606,223756).
route(prodloc3,harbor7,tr13,8606,51636).
route(prodloc3,harbor8,tr0,28561,742586).
route(prodloc3,harbor8,tr13,28561,171366).
route(prodloc3,harbor9,tr0,2219,57694).
route(prodloc3,harbor9,tr13,2219,13314).
route(prodloc3,harbor10,tr0,26682,693732).
route(prodloc3,harbor10,tr13,26682,160092).
route(prodloc3,harbor11,tr0,21037,546962).
route(prodloc3,harbor11,tr13,21037,126222).
route(prodloc3,harbor12,tr0,18255,474630).
route(prodloc3,harbor12,tr13,18255,109530).
route(prodloc3,harbor13,tr0,7899,205374).
route(prodloc3,harbor13,tr13,7899,47394).
route(prodloc3,harbor14,tr0,12799,332774).
route(prodloc3,harbor14,tr13,12799,76794).
route(prodloc3,harbor15,tr0,16346,424996).
route(prodloc3,harbor15,tr13,16346,98076).
route(prodloc3,harbor16,tr0,1732,45032).
route(prodloc3,harbor16,tr13,1732,10392).
route(prodloc3,prodloc0,tr0,19685,511810).
route(prodloc3,prodloc0,tr13,19685,118110).
route(prodloc3,prodloc1,tr0,345,8970).
route(prodloc3,prodloc1,tr13,345,2070).
route(prodloc3,prodloc2,tr0,745,19370).
route(prodloc3,prodloc2,tr13,745,4470).
route(prodloc3,prodloc4,tr0,21644,562744).
route(prodloc3,prodloc4,tr13,21644,129864).
route(prodloc3,prodloc5,tr0,26793,696618).
route(prodloc3,prodloc5,tr13,26793,160758).
route(prodloc3,prodloc6,tr0,23285,605410).
route(prodloc3,prodloc6,tr13,23285,139710).
route(prodloc3,prodloc7,tr0,22595,587470).
route(prodloc3,prodloc7,tr13,22595,135570).
route(prodloc3,prodloc8,tr0,15632,406432).
route(prodloc3,prodloc8,tr13,15632,93792).
route(prodloc3,prodloc9,tr0,19541,508066).
route(prodloc3,prodloc9,tr13,19541,117246).
route(prodloc3,prodloc10,tr0,20960,544960).
route(prodloc3,prodloc10,tr13,20960,125760).
route(prodloc3,prodloc11,tr0,25773,670098).
route(prodloc3,prodloc11,tr13,25773,154638).
route(prodloc3,prodloc12,tr0,16472,428272).
route(prodloc3,prodloc12,tr13,16472,98832).
route(prodloc3,prodloc13,tr0,17701,460226).
route(prodloc3,prodloc13,tr13,17701,106206).
route(prodloc3,prodloc14,tr0,11849,308074).
route(prodloc3,prodloc14,tr13,11849,71094).
route(prodloc3,prodloc15,tr0,17707,460382).
route(prodloc3,prodloc15,tr13,17707,106242).
route(prodloc3,prodloc16,tr0,21982,571532).
route(prodloc3,prodloc16,tr13,21982,131892).
route(prodloc3,prodloc17,tr0,7605,197730).
route(prodloc3,prodloc17,tr13,7605,45630).
route(prodloc3,prodloc18,tr0,12883,334958).
route(prodloc3,prodloc18,tr13,12883,77298).
route(prodloc3,prodloc19,tr0,2593,67418).
route(prodloc3,prodloc19,tr13,2593,15558).
route(prodloc3,prodloc20,tr0,23408,608608).
route(prodloc3,prodloc20,tr13,23408,140448).
route(prodloc3,prodloc21,tr0,25972,675272).
route(prodloc3,prodloc21,tr13,25972,155832).
route(prodloc3,prodloc22,tr0,16397,426322).
route(prodloc3,prodloc22,tr13,16397,98382).
route(prodloc3,prodloc23,tr0,15403,400478).
route(prodloc3,prodloc23,tr13,15403,92418).
route(prodloc3,prodloc24,tr0,10343,268918).
route(prodloc3,prodloc24,tr13,10343,62058).
route(prodloc3,prodloc25,tr0,18672,485472).
route(prodloc3,prodloc25,tr13,18672,112032).
route(prodloc3,prodloc26,tr0,6730,174980).
route(prodloc3,prodloc26,tr13,6730,40380).
route(prodloc3,prodloc27,tr0,22081,574106).
route(prodloc3,prodloc27,tr13,22081,132486).
route(prodloc3,prodloc28,tr0,16527,429702).
route(prodloc3,prodloc28,tr13,16527,99162).
route(prodloc3,prodloc29,tr0,14380,373880).
route(prodloc3,prodloc29,tr13,14380,86280).
route(prodloc3,prodloc30,tr0,21696,564096).
route(prodloc3,prodloc30,tr13,21696,130176).
route(prodloc3,prodloc31,tr0,3204,83304).
route(prodloc3,prodloc31,tr13,3204,19224).
route(prodloc3,prodloc32,tr0,13146,341796).
route(prodloc3,prodloc32,tr13,13146,78876).
route(prodloc3,prodloc33,tr0,2884,74984).
route(prodloc3,prodloc33,tr13,2884,17304).
route(prodloc4,harbor0,tr0,19778,514228).
route(prodloc4,harbor0,tr13,19778,118668).
route(prodloc4,harbor1,tr0,22731,591006).
route(prodloc4,harbor1,tr13,22731,136386).
route(prodloc4,harbor2,tr0,3513,91338).
route(prodloc4,harbor2,tr13,3513,21078).
route(prodloc4,harbor3,tr0,25846,671996).
route(prodloc4,harbor3,tr13,25846,155076).
route(prodloc4,harbor4,tr0,28099,730574).
route(prodloc4,harbor4,tr13,28099,168594).
route(prodloc4,harbor5,tr0,19071,495846).
route(prodloc4,harbor5,tr13,19071,114426).
route(prodloc4,harbor6,tr0,18165,472290).
route(prodloc4,harbor6,tr13,18165,108990).
route(prodloc4,harbor7,tr0,28422,738972).
route(prodloc4,harbor7,tr13,28422,170532).
route(prodloc4,harbor8,tr0,24665,641290).
route(prodloc4,harbor8,tr13,24665,147990).
route(prodloc4,harbor9,tr0,6077,158002).
route(prodloc4,harbor9,tr13,6077,36462).
route(prodloc4,harbor10,tr0,14017,364442).
route(prodloc4,harbor10,tr13,14017,84102).
route(prodloc4,harbor11,tr0,12989,337714).
route(prodloc4,harbor11,tr13,12989,77934).
route(prodloc4,harbor12,tr0,4744,123344).
route(prodloc4,harbor12,tr13,4744,28464).
route(prodloc4,harbor13,tr0,24114,626964).
route(prodloc4,harbor13,tr13,24114,144684).
route(prodloc4,harbor14,tr0,9834,255684).
route(prodloc4,harbor14,tr13,9834,59004).
route(prodloc4,harbor15,tr0,4603,119678).
route(prodloc4,harbor15,tr13,4603,27618).
route(prodloc4,harbor16,tr0,18710,486460).
route(prodloc4,harbor16,tr13,18710,112260).
route(prodloc4,prodloc0,tr0,19074,495924).
route(prodloc4,prodloc0,tr13,19074,114444).
route(prodloc4,prodloc1,tr0,22918,595868).
route(prodloc4,prodloc1,tr13,22918,137508).
route(prodloc4,prodloc2,tr0,23801,618826).
route(prodloc4,prodloc2,tr13,23801,142806).
route(prodloc4,prodloc3,tr0,9405,244530).
route(prodloc4,prodloc3,tr13,9405,56430).
route(prodloc4,prodloc5,tr0,26188,680888).
route(prodloc4,prodloc5,tr15,26188,838016).
route(prodloc4,prodloc6,tr0,21784,566384).
route(prodloc4,prodloc6,tr13,21784,130704).
route(prodloc4,prodloc7,tr0,25671,667446).
route(prodloc4,prodloc7,tr13,25671,154026).
route(prodloc4,prodloc8,tr0,9511,247286).
route(prodloc4,prodloc8,tr13,9511,57066).
route(prodloc4,prodloc9,tr0,28073,729898).
route(prodloc4,prodloc9,tr13,28073,168438).
route(prodloc4,prodloc10,tr0,28515,741390).
route(prodloc4,prodloc10,tr13,28515,171090).
route(prodloc4,prodloc11,tr0,12009,312234).
route(prodloc4,prodloc11,tr13,12009,72054).
route(prodloc4,prodloc12,tr0,18849,490074).
route(prodloc4,prodloc12,tr13,18849,113094).
route(prodloc4,prodloc13,tr0,21024,546624).
route(prodloc4,prodloc13,tr13,21024,126144).
route(prodloc4,prodloc14,tr0,5769,149994).
route(prodloc4,prodloc14,tr13,5769,34614).
route(prodloc4,prodloc15,tr0,14153,367978).
route(prodloc4,prodloc15,tr13,14153,84918).
route(prodloc4,prodloc16,tr0,12125,315250).
route(prodloc4,prodloc16,tr13,12125,72750).
route(prodloc4,prodloc17,tr0,11153,289978).
route(prodloc4,prodloc17,tr13,11153,66918).
route(prodloc4,prodloc18,tr0,26874,698724).
route(prodloc4,prodloc18,tr13,26874,161244).
route(prodloc4,prodloc19,tr0,22505,585130).
route(prodloc4,prodloc19,tr13,22505,135030).
route(prodloc4,prodloc20,tr0,9001,234026).
route(prodloc4,prodloc20,tr13,9001,54006).
route(prodloc4,prodloc21,tr0,27735,721110).
route(prodloc4,prodloc21,tr13,27735,166410).
route(prodloc4,prodloc22,tr0,6995,181870).
route(prodloc4,prodloc22,tr13,6995,41970).
route(prodloc4,prodloc23,tr0,7931,206206).
route(prodloc4,prodloc23,tr13,7931,47586).
route(prodloc4,prodloc24,tr0,10894,283244).
route(prodloc4,prodloc24,tr13,10894,65364).
route(prodloc4,prodloc25,tr0,3813,99138).
route(prodloc4,prodloc25,tr13,3813,22878).
route(prodloc4,prodloc26,tr0,151,3926).
route(prodloc4,prodloc26,tr13,151,906).
route(prodloc4,prodloc27,tr0,28064,729664).
route(prodloc4,prodloc27,tr13,28064,168384).
route(prodloc4,prodloc28,tr0,9274,241124).
route(prodloc4,prodloc28,tr13,9274,55644).
route(prodloc4,prodloc29,tr0,15954,414804).
route(prodloc4,prodloc29,tr13,15954,95724).
route(prodloc4,prodloc30,tr0,4399,114374).
route(prodloc4,prodloc30,tr13,4399,26394).
route(prodloc4,prodloc31,tr0,11119,289094).
route(prodloc4,prodloc31,tr13,11119,66714).
route(prodloc4,prodloc32,tr0,15452,401752).
route(prodloc4,prodloc32,tr13,15452,92712).
route(prodloc4,prodloc33,tr0,7161,186186).
route(prodloc4,prodloc33,tr13,7161,42966).
route(prodloc5,harbor0,tr0,18834,489684).
route(prodloc5,harbor0,tr13,18834,113004).
route(prodloc5,harbor1,tr0,27227,707902).
route(prodloc5,harbor1,tr13,27227,163362).
route(prodloc5,harbor2,tr0,23801,618826).
route(prodloc5,harbor2,tr13,23801,142806).
route(prodloc5,harbor3,tr0,18087,470262).
route(prodloc5,harbor3,tr13,18087,108522).
route(prodloc5,harbor4,tr0,12045,313170).
route(prodloc5,harbor4,tr13,12045,72270).
route(prodloc5,harbor5,tr0,24558,638508).
route(prodloc5,harbor5,tr13,24558,147348).
route(prodloc5,harbor6,tr0,18897,491322).
route(prodloc5,harbor6,tr13,18897,113382).
route(prodloc5,harbor7,tr0,9784,254384).
route(prodloc5,harbor7,tr13,9784,58704).
route(prodloc5,harbor8,tr0,7206,187356).
route(prodloc5,harbor8,tr13,7206,43236).
route(prodloc5,harbor9,tr0,18699,486174).
route(prodloc5,harbor9,tr13,18699,112194).
route(prodloc5,harbor10,tr0,10977,285402).
route(prodloc5,harbor10,tr13,10977,65862).
route(prodloc5,harbor11,tr0,9670,251420).
route(prodloc5,harbor11,tr13,9670,58020).
route(prodloc5,harbor12,tr0,26185,680810).
route(prodloc5,harbor12,tr13,26185,157110).
route(prodloc5,harbor13,tr0,14588,379288).
route(prodloc5,harbor13,tr13,14588,87528).
route(prodloc5,harbor14,tr0,21014,546364).
route(prodloc5,harbor14,tr13,21014,126084).
route(prodloc5,harbor15,tr0,19276,501176).
route(prodloc5,harbor15,tr13,19276,115656).
route(prodloc5,harbor16,tr0,20495,532870).
route(prodloc5,harbor16,tr13,20495,122970).
route(prodloc5,prodloc0,tr0,2571,66846).
route(prodloc5,prodloc0,tr13,2571,15426).
route(prodloc5,prodloc1,tr0,5107,132782).
route(prodloc5,prodloc1,tr13,5107,30642).
route(prodloc5,prodloc2,tr0,8533,221858).
route(prodloc5,prodloc2,tr13,8533,51198).
route(prodloc5,prodloc3,tr0,28612,743912).
route(prodloc5,prodloc3,tr13,28612,171672).
route(prodloc5,prodloc4,tr0,3279,85254).
route(prodloc5,prodloc4,tr13,3279,19674).
route(prodloc5,prodloc6,tr0,9454,245804).
route(prodloc5,prodloc6,tr13,9454,56724).
route(prodloc5,prodloc7,tr13,6896,41376).
route(prodloc5,prodloc7,tr15,6896,220672).
route(prodloc5,prodloc8,tr0,16012,416312).
route(prodloc5,prodloc8,tr13,16012,96072).
route(prodloc5,prodloc9,tr0,27171,706446).
route(prodloc5,prodloc9,tr13,27171,163026).
route(prodloc5,prodloc10,tr0,2663,69238).
route(prodloc5,prodloc10,tr13,2663,15978).
route(prodloc5,prodloc11,tr0,22555,586430).
route(prodloc5,prodloc11,tr13,22555,135330).
route(prodloc5,prodloc12,tr0,23569,612794).
route(prodloc5,prodloc12,tr13,23569,141414).
route(prodloc5,prodloc13,tr0,26975,701350).
route(prodloc5,prodloc13,tr13,26975,161850).
route(prodloc5,prodloc14,tr0,22194,577044).
route(prodloc5,prodloc14,tr13,22194,133164).
route(prodloc5,prodloc15,tr0,8980,233480).
route(prodloc5,prodloc15,tr13,8980,53880).
route(prodloc5,prodloc16,tr0,15808,411008).
route(prodloc5,prodloc16,tr13,15808,94848).
route(prodloc5,prodloc17,tr0,4496,116896).
route(prodloc5,prodloc17,tr13,4496,26976).
route(prodloc5,prodloc18,tr13,12445,74670).
route(prodloc5,prodloc18,tr15,12445,398240).
route(prodloc5,prodloc19,tr0,2774,72124).
route(prodloc5,prodloc19,tr13,2774,16644).
route(prodloc5,prodloc20,tr0,1411,36686).
route(prodloc5,prodloc20,tr13,1411,8466).
route(prodloc5,prodloc21,tr0,1148,29848).
route(prodloc5,prodloc21,tr13,1148,6888).
route(prodloc5,prodloc22,tr0,26465,688090).
route(prodloc5,prodloc22,tr13,26465,158790).
route(prodloc5,prodloc23,tr0,20404,530504).
route(prodloc5,prodloc23,tr13,20404,122424).
route(prodloc5,prodloc24,tr0,9801,254826).
route(prodloc5,prodloc24,tr13,9801,58806).
route(prodloc5,prodloc25,tr0,8989,233714).
route(prodloc5,prodloc25,tr13,8989,53934).
route(prodloc5,prodloc26,tr0,5077,132002).
route(prodloc5,prodloc26,tr13,5077,30462).
route(prodloc5,prodloc27,tr0,1054,27404).
route(prodloc5,prodloc27,tr13,1054,6324).
route(prodloc5,prodloc28,tr0,16940,440440).
route(prodloc5,prodloc28,tr13,16940,101640).
route(prodloc5,prodloc29,tr0,5456,141856).
route(prodloc5,prodloc29,tr13,5456,32736).
route(prodloc5,prodloc30,tr0,10886,283036).
route(prodloc5,prodloc30,tr13,10886,65316).
route(prodloc5,prodloc31,tr0,20729,538954).
route(prodloc5,prodloc31,tr13,20729,124374).
route(prodloc5,prodloc32,tr0,22305,579930).
route(prodloc5,prodloc32,tr13,22305,133830).
route(prodloc5,prodloc33,tr0,1128,29328).
route(prodloc5,prodloc33,tr13,1128,6768).
route(prodloc6,harbor0,tr0,20704,538304).
route(prodloc6,harbor0,tr13,20704,124224).
route(prodloc6,harbor1,tr0,27229,707954).
route(prodloc6,harbor1,tr13,27229,163374).
route(prodloc6,harbor2,tr0,8224,213824).
route(prodloc6,harbor2,tr13,8224,49344).
route(prodloc6,harbor3,tr0,22402,582452).
route(prodloc6,harbor3,tr13,22402,134412).
route(prodloc6,harbor4,tr0,796,20696).
route(prodloc6,harbor4,tr13,796,4776).
route(prodloc6,harbor5,tr0,8281,215306).
route(prodloc6,harbor5,tr13,8281,49686).
route(prodloc6,harbor6,tr0,14059,365534).
route(prodloc6,harbor6,tr13,14059,84354).
route(prodloc6,harbor7,tr0,22165,576290).
route(prodloc6,harbor7,tr13,22165,132990).
route(prodloc6,harbor8,tr0,16170,420420).
route(prodloc6,harbor8,tr13,16170,97020).
route(prodloc6,harbor9,tr0,1444,37544).
route(prodloc6,harbor9,tr13,1444,8664).
route(prodloc6,harbor10,tr0,20548,534248).
route(prodloc6,harbor10,tr13,20548,123288).
route(prodloc6,harbor11,tr0,23956,622856).
route(prodloc6,harbor11,tr13,23956,143736).
route(prodloc6,harbor12,tr0,2027,52702).
route(prodloc6,harbor12,tr13,2027,12162).
route(prodloc6,harbor13,tr0,4407,114582).
route(prodloc6,harbor13,tr13,4407,26442).
route(prodloc6,harbor14,tr0,21156,550056).
route(prodloc6,harbor14,tr13,21156,126936).
route(prodloc6,harbor15,tr0,1273,33098).
route(prodloc6,harbor15,tr13,1273,7638).
route(prodloc6,harbor16,tr0,18073,469898).
route(prodloc6,harbor16,tr13,18073,108438).
route(prodloc6,prodloc0,tr0,4582,119132).
route(prodloc6,prodloc0,tr13,4582,27492).
route(prodloc6,prodloc1,tr0,23580,613080).
route(prodloc6,prodloc1,tr13,23580,141480).
route(prodloc6,prodloc2,tr0,22289,579514).
route(prodloc6,prodloc2,tr13,22289,133734).
route(prodloc6,prodloc3,tr0,25851,672126).
route(prodloc6,prodloc3,tr13,25851,155106).
route(prodloc6,prodloc4,tr0,5441,141466).
route(prodloc6,prodloc4,tr13,5441,32646).
route(prodloc6,prodloc5,tr0,23189,602914).
route(prodloc6,prodloc5,tr15,23189,742048).
route(prodloc6,prodloc7,tr0,22412,582712).
route(prodloc6,prodloc7,tr13,22412,134472).
route(prodloc6,prodloc8,tr0,27147,705822).
route(prodloc6,prodloc8,tr13,27147,162882).
route(prodloc6,prodloc9,tr0,584,15184).
route(prodloc6,prodloc9,tr13,584,3504).
route(prodloc6,prodloc10,tr0,12670,329420).
route(prodloc6,prodloc10,tr13,12670,76020).
route(prodloc6,prodloc11,tr0,9039,235014).
route(prodloc6,prodloc11,tr13,9039,54234).
route(prodloc6,prodloc12,tr0,20560,534560).
route(prodloc6,prodloc12,tr13,20560,123360).
route(prodloc6,prodloc13,tr0,3624,94224).
route(prodloc6,prodloc13,tr13,3624,21744).
route(prodloc6,prodloc14,tr0,7638,198588).
route(prodloc6,prodloc14,tr13,7638,45828).
route(prodloc6,prodloc15,tr0,1860,48360).
route(prodloc6,prodloc15,tr15,1860,59520).
route(prodloc6,prodloc16,tr0,5535,143910).
route(prodloc6,prodloc16,tr13,5535,33210).
route(prodloc6,prodloc17,tr0,1863,48438).
route(prodloc6,prodloc17,tr13,1863,11178).
route(prodloc6,prodloc18,tr0,3328,86528).
route(prodloc6,prodloc18,tr13,3328,19968).
route(prodloc6,prodloc19,tr0,9116,237016).
route(prodloc6,prodloc19,tr13,9116,54696).
route(prodloc6,prodloc20,tr0,9341,242866).
route(prodloc6,prodloc20,tr13,9341,56046).
route(prodloc6,prodloc21,tr0,4832,125632).
route(prodloc6,prodloc21,tr13,4832,28992).
route(prodloc6,prodloc22,tr0,16882,438932).
route(prodloc6,prodloc22,tr13,16882,101292).
route(prodloc6,prodloc23,tr0,3842,99892).
route(prodloc6,prodloc23,tr13,3842,23052).
route(prodloc6,prodloc24,tr0,10175,264550).
route(prodloc6,prodloc24,tr13,10175,61050).
route(prodloc6,prodloc25,tr0,19480,506480).
route(prodloc6,prodloc25,tr13,19480,116880).
route(prodloc6,prodloc26,tr0,20007,520182).
route(prodloc6,prodloc26,tr13,20007,120042).
route(prodloc6,prodloc27,tr0,17749,461474).
route(prodloc6,prodloc27,tr13,17749,106494).
route(prodloc6,prodloc28,tr0,13399,348374).
route(prodloc6,prodloc28,tr13,13399,80394).
route(prodloc6,prodloc29,tr0,3900,101400).
route(prodloc6,prodloc29,tr13,3900,23400).
route(prodloc6,prodloc30,tr13,7326,43956).
route(prodloc6,prodloc30,tr15,7326,234432).
route(prodloc6,prodloc31,tr0,3354,87204).
route(prodloc6,prodloc31,tr13,3354,20124).
route(prodloc6,prodloc32,tr0,2119,55094).
route(prodloc6,prodloc32,tr13,2119,12714).
route(prodloc6,prodloc33,tr0,5184,134784).
route(prodloc6,prodloc33,tr13,5184,31104).
route(prodloc7,harbor0,tr0,28372,737672).
route(prodloc7,harbor0,tr13,28372,170232).
route(prodloc7,harbor1,tr0,24541,638066).
route(prodloc7,harbor1,tr13,24541,147246).
route(prodloc7,harbor2,tr0,1148,29848).
route(prodloc7,harbor2,tr13,1148,6888).
route(prodloc7,harbor3,tr0,13384,347984).
route(prodloc7,harbor3,tr13,13384,80304).
route(prodloc7,harbor4,tr0,23212,603512).
route(prodloc7,harbor4,tr13,23212,139272).
route(prodloc7,harbor5,tr0,22860,594360).
route(prodloc7,harbor5,tr13,22860,137160).
route(prodloc7,harbor6,tr0,27322,710372).
route(prodloc7,harbor6,tr13,27322,163932).
route(prodloc7,harbor7,tr0,12763,331838).
route(prodloc7,harbor7,tr13,12763,76578).
route(prodloc7,harbor8,tr0,902,23452).
route(prodloc7,harbor8,tr13,902,5412).
route(prodloc7,harbor9,tr0,22940,596440).
route(prodloc7,harbor9,tr13,22940,137640).
route(prodloc7,harbor10,tr0,1695,44070).
route(prodloc7,harbor10,tr13,1695,10170).
route(prodloc7,harbor11,tr0,12984,337584).
route(prodloc7,harbor11,tr13,12984,77904).
route(prodloc7,harbor12,tr0,11573,300898).
route(prodloc7,harbor12,tr13,11573,69438).
route(prodloc7,harbor13,tr0,13078,340028).
route(prodloc7,harbor13,tr13,13078,78468).
route(prodloc7,harbor14,tr0,24155,628030).
route(prodloc7,harbor14,tr13,24155,144930).
route(prodloc7,harbor15,tr0,5720,148720).
route(prodloc7,harbor15,tr13,5720,34320).
route(prodloc7,harbor16,tr0,19343,502918).
route(prodloc7,harbor16,tr13,19343,116058).
route(prodloc7,prodloc0,tr0,4282,111332).
route(prodloc7,prodloc0,tr15,4282,137024).
route(prodloc7,prodloc1,tr0,25016,650416).
route(prodloc7,prodloc1,tr13,25016,150096).
route(prodloc7,prodloc2,tr0,22476,584376).
route(prodloc7,prodloc2,tr13,22476,134856).
route(prodloc7,prodloc3,tr0,1022,26572).
route(prodloc7,prodloc3,tr13,1022,6132).
route(prodloc7,prodloc4,tr0,28163,732238).
route(prodloc7,prodloc4,tr13,28163,168978).
route(prodloc7,prodloc5,tr0,26331,684606).
route(prodloc7,prodloc5,tr13,26331,157986).
route(prodloc7,prodloc6,tr0,8314,216164).
route(prodloc7,prodloc6,tr13,8314,49884).
route(prodloc7,prodloc8,tr0,10638,276588).
route(prodloc7,prodloc8,tr13,10638,63828).
route(prodloc7,prodloc9,tr0,203,5278).
route(prodloc7,prodloc9,tr13,203,1218).
route(prodloc7,prodloc10,tr0,10008,260208).
route(prodloc7,prodloc10,tr13,10008,60048).
route(prodloc7,prodloc11,tr0,15929,414154).
route(prodloc7,prodloc11,tr13,15929,95574).
route(prodloc7,prodloc12,tr0,22269,578994).
route(prodloc7,prodloc12,tr13,22269,133614).
route(prodloc7,prodloc13,tr0,14680,381680).
route(prodloc7,prodloc13,tr13,14680,88080).
route(prodloc7,prodloc14,tr0,25427,661102).
route(prodloc7,prodloc14,tr13,25427,152562).
route(prodloc7,prodloc15,tr0,27391,712166).
route(prodloc7,prodloc15,tr13,27391,164346).
route(prodloc7,prodloc16,tr0,27208,707408).
route(prodloc7,prodloc16,tr13,27208,163248).
route(prodloc7,prodloc17,tr0,8223,213798).
route(prodloc7,prodloc17,tr13,8223,49338).
route(prodloc7,prodloc18,tr0,18207,473382).
route(prodloc7,prodloc18,tr13,18207,109242).
route(prodloc7,prodloc19,tr0,20344,528944).
route(prodloc7,prodloc19,tr13,20344,122064).
route(prodloc7,prodloc20,tr0,24655,641030).
route(prodloc7,prodloc20,tr13,24655,147930).
route(prodloc7,prodloc21,tr0,10241,266266).
route(prodloc7,prodloc21,tr13,10241,61446).
route(prodloc7,prodloc22,tr0,20385,530010).
route(prodloc7,prodloc22,tr13,20385,122310).
route(prodloc7,prodloc23,tr0,8102,210652).
route(prodloc7,prodloc23,tr13,8102,48612).
route(prodloc7,prodloc24,tr0,3882,100932).
route(prodloc7,prodloc24,tr13,3882,23292).
route(prodloc7,prodloc25,tr0,23661,615186).
route(prodloc7,prodloc25,tr13,23661,141966).
route(prodloc7,prodloc26,tr0,27460,713960).
route(prodloc7,prodloc26,tr13,27460,164760).
route(prodloc7,prodloc27,tr0,3840,99840).
route(prodloc7,prodloc27,tr13,3840,23040).
route(prodloc7,prodloc28,tr0,5250,136500).
route(prodloc7,prodloc28,tr13,5250,31500).
route(prodloc7,prodloc29,tr0,8919,231894).
route(prodloc7,prodloc29,tr13,8919,53514).
route(prodloc7,prodloc30,tr0,3022,78572).
route(prodloc7,prodloc30,tr13,3022,18132).
route(prodloc7,prodloc31,tr0,7672,199472).
route(prodloc7,prodloc31,tr13,7672,46032).
route(prodloc7,prodloc32,tr0,9067,235742).
route(prodloc7,prodloc32,tr13,9067,54402).
route(prodloc7,prodloc33,tr0,23154,602004).
route(prodloc7,prodloc33,tr13,23154,138924).
route(prodloc8,harbor0,tr0,15027,390702).
route(prodloc8,harbor0,tr13,15027,90162).
route(prodloc8,harbor1,tr0,21500,559000).
route(prodloc8,harbor1,tr13,21500,129000).
route(prodloc8,harbor2,tr0,9759,253734).
route(prodloc8,harbor2,tr13,9759,58554).
route(prodloc8,harbor3,tr0,22396,582296).
route(prodloc8,harbor3,tr13,22396,134376).
route(prodloc8,harbor4,tr0,10119,263094).
route(prodloc8,harbor4,tr13,10119,60714).
route(prodloc8,harbor5,tr0,7989,207714).
route(prodloc8,harbor5,tr13,7989,47934).
route(prodloc8,harbor6,tr0,2600,67600).
route(prodloc8,harbor6,tr13,2600,15600).
route(prodloc8,harbor7,tr0,8956,232856).
route(prodloc8,harbor7,tr13,8956,53736).
route(prodloc8,harbor8,tr0,1225,31850).
route(prodloc8,harbor8,tr13,1225,7350).
route(prodloc8,harbor9,tr0,9453,245778).
route(prodloc8,harbor9,tr13,9453,56718).
route(prodloc8,harbor10,tr0,2715,70590).
route(prodloc8,harbor10,tr13,2715,16290).
route(prodloc8,harbor11,tr0,9944,258544).
route(prodloc8,harbor11,tr13,9944,59664).
route(prodloc8,harbor12,tr0,18443,479518).
route(prodloc8,harbor12,tr13,18443,110658).
route(prodloc8,harbor13,tr0,5156,134056).
route(prodloc8,harbor13,tr13,5156,30936).
route(prodloc8,harbor14,tr0,19128,497328).
route(prodloc8,harbor14,tr13,19128,114768).
route(prodloc8,harbor15,tr0,15360,399360).
route(prodloc8,harbor15,tr13,15360,92160).
route(prodloc8,harbor16,tr0,9126,237276).
route(prodloc8,harbor16,tr13,9126,54756).
route(prodloc8,prodloc0,tr0,28185,732810).
route(prodloc8,prodloc0,tr13,28185,169110).
route(prodloc8,prodloc1,tr0,27028,702728).
route(prodloc8,prodloc1,tr13,27028,162168).
route(prodloc8,prodloc2,tr0,13917,361842).
route(prodloc8,prodloc2,tr13,13917,83502).
route(prodloc8,prodloc3,tr0,2078,54028).
route(prodloc8,prodloc3,tr13,2078,12468).
route(prodloc8,prodloc4,tr0,2632,68432).
route(prodloc8,prodloc4,tr13,2632,15792).
route(prodloc8,prodloc5,tr0,28113,730938).
route(prodloc8,prodloc5,tr13,28113,168678).
route(prodloc8,prodloc6,tr0,21608,561808).
route(prodloc8,prodloc6,tr13,21608,129648).
route(prodloc8,prodloc7,tr0,12264,318864).
route(prodloc8,prodloc7,tr13,12264,73584).
route(prodloc8,prodloc9,tr0,25676,667576).
route(prodloc8,prodloc9,tr13,25676,154056).
route(prodloc8,prodloc10,tr0,15431,401206).
route(prodloc8,prodloc10,tr13,15431,92586).
route(prodloc8,prodloc11,tr0,7568,196768).
route(prodloc8,prodloc11,tr13,7568,45408).
route(prodloc8,prodloc12,tr0,2439,63414).
route(prodloc8,prodloc12,tr15,2439,78048).
route(prodloc8,prodloc13,tr0,4344,112944).
route(prodloc8,prodloc13,tr13,4344,26064).
route(prodloc8,prodloc14,tr13,15641,93846).
route(prodloc8,prodloc14,tr15,15641,500512).
route(prodloc8,prodloc15,tr0,22057,573482).
route(prodloc8,prodloc15,tr13,22057,132342).
route(prodloc8,prodloc16,tr0,9237,240162).
route(prodloc8,prodloc16,tr13,9237,55422).
route(prodloc8,prodloc17,tr0,11614,301964).
route(prodloc8,prodloc17,tr13,11614,69684).
route(prodloc8,prodloc18,tr0,24538,637988).
route(prodloc8,prodloc18,tr13,24538,147228).
route(prodloc8,prodloc19,tr0,24278,631228).
route(prodloc8,prodloc19,tr13,24278,145668).
route(prodloc8,prodloc20,tr0,2248,58448).
route(prodloc8,prodloc20,tr13,2248,13488).
route(prodloc8,prodloc21,tr0,22677,589602).
route(prodloc8,prodloc21,tr13,22677,136062).
route(prodloc8,prodloc22,tr0,8517,221442).
route(prodloc8,prodloc22,tr13,8517,51102).
route(prodloc8,prodloc23,tr0,13093,340418).
route(prodloc8,prodloc23,tr13,13093,78558).
route(prodloc8,prodloc24,tr0,7099,184574).
route(prodloc8,prodloc24,tr13,7099,42594).
route(prodloc8,prodloc25,tr0,14763,383838).
route(prodloc8,prodloc25,tr13,14763,88578).
route(prodloc8,prodloc26,tr0,13875,360750).
route(prodloc8,prodloc26,tr13,13875,83250).
route(prodloc8,prodloc27,tr0,23288,605488).
route(prodloc8,prodloc27,tr13,23288,139728).
route(prodloc8,prodloc28,tr0,24473,636298).
route(prodloc8,prodloc28,tr13,24473,146838).
route(prodloc8,prodloc29,tr0,24753,643578).
route(prodloc8,prodloc29,tr13,24753,148518).
route(prodloc8,prodloc30,tr0,10373,269698).
route(prodloc8,prodloc30,tr13,10373,62238).
route(prodloc8,prodloc31,tr0,21928,570128).
route(prodloc8,prodloc31,tr13,21928,131568).
route(prodloc8,prodloc32,tr0,9760,253760).
route(prodloc8,prodloc32,tr13,9760,58560).
route(prodloc8,prodloc33,tr0,12296,319696).
route(prodloc8,prodloc33,tr13,12296,73776).
route(prodloc9,harbor0,tr0,258,6708).
route(prodloc9,harbor0,tr13,258,1548).
route(prodloc9,harbor1,tr0,11742,305292).
route(prodloc9,harbor1,tr13,11742,70452).
route(prodloc9,harbor2,tr0,19334,502684).
route(prodloc9,harbor2,tr13,19334,116004).
route(prodloc9,harbor3,tr0,15497,402922).
route(prodloc9,harbor3,tr13,15497,92982).
route(prodloc9,harbor4,tr0,5234,136084).
route(prodloc9,harbor4,tr13,5234,31404).
route(prodloc9,harbor5,tr0,24083,626158).
route(prodloc9,harbor5,tr13,24083,144498).
route(prodloc9,harbor6,tr0,11873,308698).
route(prodloc9,harbor6,tr13,11873,71238).
route(prodloc9,harbor7,tr0,16493,428818).
route(prodloc9,harbor7,tr13,16493,98958).
route(prodloc9,harbor8,tr0,827,21502).
route(prodloc9,harbor8,tr13,827,4962).
route(prodloc9,harbor9,tr0,14872,386672).
route(prodloc9,harbor9,tr13,14872,89232).
route(prodloc9,harbor10,tr0,14557,378482).
route(prodloc9,harbor10,tr13,14557,87342).
route(prodloc9,harbor11,tr0,17632,458432).
route(prodloc9,harbor11,tr13,17632,105792).
route(prodloc9,harbor12,tr0,15859,412334).
route(prodloc9,harbor12,tr13,15859,95154).
route(prodloc9,harbor13,tr0,20170,524420).
route(prodloc9,harbor13,tr13,20170,121020).
route(prodloc9,harbor14,tr0,19129,497354).
route(prodloc9,harbor14,tr13,19129,114774).
route(prodloc9,harbor15,tr0,14495,376870).
route(prodloc9,harbor15,tr13,14495,86970).
route(prodloc9,harbor16,tr0,14562,378612).
route(prodloc9,harbor16,tr13,14562,87372).
route(prodloc9,prodloc0,tr0,16328,424528).
route(prodloc9,prodloc0,tr13,16328,97968).
route(prodloc9,prodloc1,tr0,10386,270036).
route(prodloc9,prodloc1,tr13,10386,62316).
route(prodloc9,prodloc2,tr0,26498,688948).
route(prodloc9,prodloc2,tr13,26498,158988).
route(prodloc9,prodloc3,tr0,11549,300274).
route(prodloc9,prodloc3,tr13,11549,69294).
route(prodloc9,prodloc4,tr0,24570,638820).
route(prodloc9,prodloc4,tr13,24570,147420).
route(prodloc9,prodloc5,tr0,26211,681486).
route(prodloc9,prodloc5,tr13,26211,157266).
route(prodloc9,prodloc6,tr13,10017,60102).
route(prodloc9,prodloc6,tr15,10017,320544).
route(prodloc9,prodloc7,tr0,18867,490542).
route(prodloc9,prodloc7,tr13,18867,113202).
route(prodloc9,prodloc8,tr0,1958,50908).
route(prodloc9,prodloc8,tr13,1958,11748).
route(prodloc9,prodloc10,tr0,3348,87048).
route(prodloc9,prodloc10,tr13,3348,20088).
route(prodloc9,prodloc11,tr0,26422,686972).
route(prodloc9,prodloc11,tr13,26422,158532).
route(prodloc9,prodloc12,tr0,21401,556426).
route(prodloc9,prodloc12,tr13,21401,128406).
route(prodloc9,prodloc13,tr0,19184,498784).
route(prodloc9,prodloc13,tr13,19184,115104).
route(prodloc9,prodloc14,tr0,10855,282230).
route(prodloc9,prodloc14,tr13,10855,65130).
route(prodloc9,prodloc15,tr0,412,10712).
route(prodloc9,prodloc15,tr13,412,2472).
route(prodloc9,prodloc16,tr0,2996,77896).
route(prodloc9,prodloc16,tr13,2996,17976).
route(prodloc9,prodloc17,tr0,15650,406900).
route(prodloc9,prodloc17,tr13,15650,93900).
route(prodloc9,prodloc18,tr0,16557,430482).
route(prodloc9,prodloc18,tr13,16557,99342).
route(prodloc9,prodloc19,tr0,20653,536978).
route(prodloc9,prodloc19,tr13,20653,123918).
route(prodloc9,prodloc20,tr0,22576,586976).
route(prodloc9,prodloc20,tr13,22576,135456).
route(prodloc9,prodloc21,tr0,11483,298558).
route(prodloc9,prodloc21,tr13,11483,68898).
route(prodloc9,prodloc22,tr0,4347,113022).
route(prodloc9,prodloc22,tr13,4347,26082).
route(prodloc9,prodloc23,tr0,17854,464204).
route(prodloc9,prodloc23,tr13,17854,107124).
route(prodloc9,prodloc24,tr0,14485,376610).
route(prodloc9,prodloc24,tr13,14485,86910).
route(prodloc9,prodloc25,tr0,5865,152490).
route(prodloc9,prodloc25,tr13,5865,35190).
route(prodloc9,prodloc26,tr0,4644,120744).
route(prodloc9,prodloc26,tr13,4644,27864).
route(prodloc9,prodloc27,tr0,27247,708422).
route(prodloc9,prodloc27,tr13,27247,163482).
route(prodloc9,prodloc28,tr0,4285,111410).
route(prodloc9,prodloc28,tr13,4285,25710).
route(prodloc9,prodloc29,tr0,19091,496366).
route(prodloc9,prodloc29,tr13,19091,114546).
route(prodloc9,prodloc30,tr0,3811,99086).
route(prodloc9,prodloc30,tr13,3811,22866).
route(prodloc9,prodloc31,tr0,714,18564).
route(prodloc9,prodloc31,tr13,714,4284).
route(prodloc9,prodloc32,tr0,16040,417040).
route(prodloc9,prodloc32,tr13,16040,96240).
route(prodloc9,prodloc33,tr0,20674,537524).
route(prodloc9,prodloc33,tr13,20674,124044).
route(prodloc10,harbor0,tr0,8221,213746).
route(prodloc10,harbor0,tr13,8221,49326).
route(prodloc10,harbor1,tr0,9717,252642).
route(prodloc10,harbor1,tr13,9717,58302).
route(prodloc10,harbor2,tr0,8315,216190).
route(prodloc10,harbor2,tr13,8315,49890).
route(prodloc10,harbor3,tr0,20511,533286).
route(prodloc10,harbor3,tr13,20511,123066).
route(prodloc10,harbor4,tr0,9678,251628).
route(prodloc10,harbor4,tr13,9678,58068).
route(prodloc10,harbor5,tr0,5051,131326).
route(prodloc10,harbor5,tr13,5051,30306).
route(prodloc10,harbor6,tr0,4354,113204).
route(prodloc10,harbor6,tr13,4354,26124).
route(prodloc10,harbor7,tr0,7069,183794).
route(prodloc10,harbor7,tr13,7069,42414).
route(prodloc10,harbor8,tr0,19849,516074).
route(prodloc10,harbor8,tr13,19849,119094).
route(prodloc10,harbor9,tr0,16258,422708).
route(prodloc10,harbor9,tr13,16258,97548).
route(prodloc10,harbor10,tr0,20549,534274).
route(prodloc10,harbor10,tr13,20549,123294).
route(prodloc10,harbor11,tr0,21512,559312).
route(prodloc10,harbor11,tr13,21512,129072).
route(prodloc10,harbor12,tr0,10490,272740).
route(prodloc10,harbor12,tr13,10490,62940).
route(prodloc10,harbor13,tr0,21699,564174).
route(prodloc10,harbor13,tr13,21699,130194).
route(prodloc10,harbor14,tr0,21127,549302).
route(prodloc10,harbor14,tr13,21127,126762).
route(prodloc10,harbor15,tr0,18167,472342).
route(prodloc10,harbor15,tr13,18167,109002).
route(prodloc10,harbor16,tr0,5195,135070).
route(prodloc10,harbor16,tr13,5195,31170).
route(prodloc10,prodloc0,tr0,20374,529724).
route(prodloc10,prodloc0,tr13,20374,122244).
route(prodloc10,prodloc1,tr0,2753,71578).
route(prodloc10,prodloc1,tr15,2753,88096).
route(prodloc10,prodloc2,tr0,27649,718874).
route(prodloc10,prodloc2,tr13,27649,165894).
route(prodloc10,prodloc3,tr0,16151,419926).
route(prodloc10,prodloc3,tr13,16151,96906).
route(prodloc10,prodloc4,tr13,13844,83064).
route(prodloc10,prodloc4,tr15,13844,443008).
route(prodloc10,prodloc5,tr0,13372,347672).
route(prodloc10,prodloc5,tr13,13372,80232).
route(prodloc10,prodloc6,tr0,22036,572936).
route(prodloc10,prodloc6,tr13,22036,132216).
route(prodloc10,prodloc7,tr0,26339,684814).
route(prodloc10,prodloc7,tr13,26339,158034).
route(prodloc10,prodloc8,tr0,26270,683020).
route(prodloc10,prodloc8,tr13,26270,157620).
route(prodloc10,prodloc9,tr0,7914,205764).
route(prodloc10,prodloc9,tr13,7914,47484).
route(prodloc10,prodloc11,tr0,14060,365560).
route(prodloc10,prodloc11,tr13,14060,84360).
route(prodloc10,prodloc12,tr0,398,10348).
route(prodloc10,prodloc12,tr13,398,2388).
route(prodloc10,prodloc13,tr0,18064,469664).
route(prodloc10,prodloc13,tr13,18064,108384).
route(prodloc10,prodloc14,tr0,23074,599924).
route(prodloc10,prodloc14,tr13,23074,138444).
route(prodloc10,prodloc15,tr0,1450,37700).
route(prodloc10,prodloc15,tr13,1450,8700).
route(prodloc10,prodloc16,tr0,8961,232986).
route(prodloc10,prodloc16,tr13,8961,53766).
route(prodloc10,prodloc17,tr0,27689,719914).
route(prodloc10,prodloc17,tr13,27689,166134).
route(prodloc10,prodloc18,tr0,12313,320138).
route(prodloc10,prodloc18,tr13,12313,73878).
route(prodloc10,prodloc19,tr0,18753,487578).
route(prodloc10,prodloc19,tr13,18753,112518).
route(prodloc10,prodloc20,tr0,23799,618774).
route(prodloc10,prodloc20,tr13,23799,142794).
route(prodloc10,prodloc21,tr0,22492,584792).
route(prodloc10,prodloc21,tr13,22492,134952).
route(prodloc10,prodloc22,tr0,18423,478998).
route(prodloc10,prodloc22,tr13,18423,110538).
route(prodloc10,prodloc23,tr0,11771,306046).
route(prodloc10,prodloc23,tr13,11771,70626).
route(prodloc10,prodloc24,tr0,1780,46280).
route(prodloc10,prodloc24,tr13,1780,10680).
route(prodloc10,prodloc25,tr0,26498,688948).
route(prodloc10,prodloc25,tr13,26498,158988).
route(prodloc10,prodloc26,tr0,25120,653120).
route(prodloc10,prodloc26,tr13,25120,150720).
route(prodloc10,prodloc27,tr0,2567,66742).
route(prodloc10,prodloc27,tr13,2567,15402).
route(prodloc10,prodloc28,tr0,14691,381966).
route(prodloc10,prodloc28,tr13,14691,88146).
route(prodloc10,prodloc29,tr0,5841,151866).
route(prodloc10,prodloc29,tr13,5841,35046).
route(prodloc10,prodloc30,tr0,3233,84058).
route(prodloc10,prodloc30,tr13,3233,19398).
route(prodloc10,prodloc31,tr0,14579,379054).
route(prodloc10,prodloc31,tr13,14579,87474).
route(prodloc10,prodloc32,tr0,8263,214838).
route(prodloc10,prodloc32,tr13,8263,49578).
route(prodloc10,prodloc33,tr0,10023,260598).
route(prodloc10,prodloc33,tr13,10023,60138).
route(prodloc11,harbor0,tr0,10671,277446).
route(prodloc11,harbor0,tr13,10671,64026).
route(prodloc11,harbor1,tr0,6632,172432).
route(prodloc11,harbor1,tr13,6632,39792).
route(prodloc11,harbor2,tr0,21298,553748).
route(prodloc11,harbor2,tr13,21298,127788).
route(prodloc11,harbor3,tr0,26034,676884).
route(prodloc11,harbor3,tr13,26034,156204).
route(prodloc11,harbor4,tr0,25121,653146).
route(prodloc11,harbor4,tr13,25121,150726).
route(prodloc11,harbor5,tr0,1356,35256).
route(prodloc11,harbor5,tr13,1356,8136).
route(prodloc11,harbor6,tr0,19765,513890).
route(prodloc11,harbor6,tr13,19765,118590).
route(prodloc11,harbor7,tr0,28787,748462).
route(prodloc11,harbor7,tr13,28787,172722).
route(prodloc11,harbor8,tr0,19078,496028).
route(prodloc11,harbor8,tr13,19078,114468).
route(prodloc11,harbor9,tr0,23006,598156).
route(prodloc11,harbor9,tr13,23006,138036).
route(prodloc11,harbor10,tr0,239,6214).
route(prodloc11,harbor10,tr13,239,1434).
route(prodloc11,harbor11,tr0,7155,186030).
route(prodloc11,harbor11,tr13,7155,42930).
route(prodloc11,harbor12,tr0,27881,724906).
route(prodloc11,harbor12,tr13,27881,167286).
route(prodloc11,harbor13,tr0,26998,701948).
route(prodloc11,harbor13,tr13,26998,161988).
route(prodloc11,harbor14,tr0,23930,622180).
route(prodloc11,harbor14,tr13,23930,143580).
route(prodloc11,harbor15,tr0,11108,288808).
route(prodloc11,harbor15,tr13,11108,66648).
route(prodloc11,harbor16,tr0,3041,79066).
route(prodloc11,harbor16,tr13,3041,18246).
route(prodloc11,prodloc0,tr0,1312,34112).
route(prodloc11,prodloc0,tr13,1312,7872).
route(prodloc11,prodloc1,tr0,16045,417170).
route(prodloc11,prodloc1,tr13,16045,96270).
route(prodloc11,prodloc2,tr0,10782,280332).
route(prodloc11,prodloc2,tr13,10782,64692).
route(prodloc11,prodloc3,tr0,4878,126828).
route(prodloc11,prodloc3,tr13,4878,29268).
route(prodloc11,prodloc4,tr0,27959,726934).
route(prodloc11,prodloc4,tr13,27959,167754).
route(prodloc11,prodloc5,tr0,876,22776).
route(prodloc11,prodloc5,tr13,876,5256).
route(prodloc11,prodloc6,tr0,18394,478244).
route(prodloc11,prodloc6,tr13,18394,110364).
route(prodloc11,prodloc7,tr0,7971,207246).
route(prodloc11,prodloc7,tr13,7971,47826).
route(prodloc11,prodloc8,tr0,20598,535548).
route(prodloc11,prodloc8,tr13,20598,123588).
route(prodloc11,prodloc9,tr0,14979,389454).
route(prodloc11,prodloc9,tr13,14979,89874).
route(prodloc11,prodloc10,tr0,28096,730496).
route(prodloc11,prodloc10,tr13,28096,168576).
route(prodloc11,prodloc12,tr0,15383,399958).
route(prodloc11,prodloc12,tr13,15383,92298).
route(prodloc11,prodloc13,tr0,13696,356096).
route(prodloc11,prodloc13,tr13,13696,82176).
route(prodloc11,prodloc14,tr0,1003,26078).
route(prodloc11,prodloc14,tr13,1003,6018).
route(prodloc11,prodloc15,tr0,2743,71318).
route(prodloc11,prodloc15,tr13,2743,16458).
route(prodloc11,prodloc16,tr0,9832,255632).
route(prodloc11,prodloc16,tr13,9832,58992).
route(prodloc11,prodloc17,tr0,15072,391872).
route(prodloc11,prodloc17,tr13,15072,90432).
route(prodloc11,prodloc18,tr0,12903,335478).
route(prodloc11,prodloc18,tr13,12903,77418).
route(prodloc11,prodloc19,tr0,17165,446290).
route(prodloc11,prodloc19,tr13,17165,102990).
route(prodloc11,prodloc20,tr0,2588,67288).
route(prodloc11,prodloc20,tr13,2588,15528).
route(prodloc11,prodloc21,tr0,23982,623532).
route(prodloc11,prodloc21,tr13,23982,143892).
route(prodloc11,prodloc22,tr0,16985,441610).
route(prodloc11,prodloc22,tr13,16985,101910).
route(prodloc11,prodloc23,tr0,10090,262340).
route(prodloc11,prodloc23,tr13,10090,60540).
route(prodloc11,prodloc24,tr0,7112,184912).
route(prodloc11,prodloc24,tr13,7112,42672).
route(prodloc11,prodloc25,tr0,27931,726206).
route(prodloc11,prodloc25,tr13,27931,167586).
route(prodloc11,prodloc26,tr0,23145,601770).
route(prodloc11,prodloc26,tr13,23145,138870).
route(prodloc11,prodloc27,tr0,11013,286338).
route(prodloc11,prodloc27,tr13,11013,66078).
route(prodloc11,prodloc28,tr0,7660,199160).
route(prodloc11,prodloc28,tr13,7660,45960).
route(prodloc11,prodloc29,tr0,25604,665704).
route(prodloc11,prodloc29,tr13,25604,153624).
route(prodloc11,prodloc30,tr0,28037,728962).
route(prodloc11,prodloc30,tr13,28037,168222).
route(prodloc11,prodloc31,tr0,14967,389142).
route(prodloc11,prodloc31,tr13,14967,89802).
route(prodloc11,prodloc32,tr0,3313,86138).
route(prodloc11,prodloc32,tr13,3313,19878).
route(prodloc11,prodloc33,tr0,10008,260208).
route(prodloc11,prodloc33,tr13,10008,60048).
route(prodloc12,harbor0,tr0,22370,581620).
route(prodloc12,harbor0,tr13,22370,134220).
route(prodloc12,harbor1,tr0,22559,586534).
route(prodloc12,harbor1,tr13,22559,135354).
route(prodloc12,harbor2,tr0,11315,294190).
route(prodloc12,harbor2,tr13,11315,67890).
route(prodloc12,harbor3,tr0,9250,240500).
route(prodloc12,harbor3,tr13,9250,55500).
route(prodloc12,harbor4,tr0,12758,331708).
route(prodloc12,harbor4,tr13,12758,76548).
route(prodloc12,harbor5,tr0,8666,225316).
route(prodloc12,harbor5,tr13,8666,51996).
route(prodloc12,harbor6,tr0,13680,355680).
route(prodloc12,harbor6,tr13,13680,82080).
route(prodloc12,harbor7,tr0,17426,453076).
route(prodloc12,harbor7,tr13,17426,104556).
route(prodloc12,harbor8,tr0,14938,388388).
route(prodloc12,harbor8,tr13,14938,89628).
route(prodloc12,harbor9,tr0,27579,717054).
route(prodloc12,harbor9,tr13,27579,165474).
route(prodloc12,harbor10,tr0,17755,461630).
route(prodloc12,harbor10,tr13,17755,106530).
route(prodloc12,harbor11,tr0,26591,691366).
route(prodloc12,harbor11,tr13,26591,159546).
route(prodloc12,harbor12,tr0,11945,310570).
route(prodloc12,harbor12,tr13,11945,71670).
route(prodloc12,harbor13,tr0,25708,668408).
route(prodloc12,harbor13,tr13,25708,154248).
route(prodloc12,harbor14,tr0,1922,49972).
route(prodloc12,harbor14,tr13,1922,11532).
route(prodloc12,harbor15,tr0,28913,751738).
route(prodloc12,harbor15,tr13,28913,173478).
route(prodloc12,harbor16,tr0,10932,284232).
route(prodloc12,harbor16,tr13,10932,65592).
route(prodloc12,prodloc0,tr0,2185,56810).
route(prodloc12,prodloc0,tr13,2185,13110).
route(prodloc12,prodloc1,tr0,2837,73762).
route(prodloc12,prodloc1,tr13,2837,17022).
route(prodloc12,prodloc2,tr0,16355,425230).
route(prodloc12,prodloc2,tr13,16355,98130).
route(prodloc12,prodloc3,tr0,12875,334750).
route(prodloc12,prodloc3,tr13,12875,77250).
route(prodloc12,prodloc4,tr0,20096,522496).
route(prodloc12,prodloc4,tr13,20096,120576).
route(prodloc12,prodloc5,tr0,19518,507468).
route(prodloc12,prodloc5,tr15,19518,624576).
route(prodloc12,prodloc6,tr0,10388,270088).
route(prodloc12,prodloc6,tr13,10388,62328).
route(prodloc12,prodloc7,tr0,5887,153062).
route(prodloc12,prodloc7,tr13,5887,35322).
route(prodloc12,prodloc8,tr0,20653,536978).
route(prodloc12,prodloc8,tr13,20653,123918).
route(prodloc12,prodloc9,tr0,16803,436878).
route(prodloc12,prodloc9,tr13,16803,100818).
route(prodloc12,prodloc10,tr0,24723,642798).
route(prodloc12,prodloc10,tr13,24723,148338).
route(prodloc12,prodloc11,tr0,12145,315770).
route(prodloc12,prodloc11,tr15,12145,388640).
route(prodloc12,prodloc13,tr0,13923,361998).
route(prodloc12,prodloc13,tr13,13923,83538).
route(prodloc12,prodloc14,tr0,9781,254306).
route(prodloc12,prodloc14,tr13,9781,58686).
route(prodloc12,prodloc15,tr0,8950,232700).
route(prodloc12,prodloc15,tr13,8950,53700).
route(prodloc12,prodloc16,tr0,14296,371696).
route(prodloc12,prodloc16,tr13,14296,85776).
route(prodloc12,prodloc17,tr0,22085,574210).
route(prodloc12,prodloc17,tr13,22085,132510).
route(prodloc12,prodloc18,tr0,15191,394966).
route(prodloc12,prodloc18,tr13,15191,91146).
route(prodloc12,prodloc19,tr0,24967,649142).
route(prodloc12,prodloc19,tr13,24967,149802).
route(prodloc12,prodloc20,tr0,12810,333060).
route(prodloc12,prodloc20,tr13,12810,76860).
route(prodloc12,prodloc21,tr0,20165,524290).
route(prodloc12,prodloc21,tr13,20165,120990).
route(prodloc12,prodloc22,tr0,6426,167076).
route(prodloc12,prodloc22,tr13,6426,38556).
route(prodloc12,prodloc23,tr0,28541,742066).
route(prodloc12,prodloc23,tr13,28541,171246).
route(prodloc12,prodloc24,tr0,1838,47788).
route(prodloc12,prodloc24,tr13,1838,11028).
route(prodloc12,prodloc25,tr0,1032,26832).
route(prodloc12,prodloc25,tr13,1032,6192).
route(prodloc12,prodloc26,tr0,13346,346996).
route(prodloc12,prodloc26,tr13,13346,80076).
route(prodloc12,prodloc27,tr0,25817,671242).
route(prodloc12,prodloc27,tr13,25817,154902).
route(prodloc12,prodloc28,tr0,1799,46774).
route(prodloc12,prodloc28,tr13,1799,10794).
route(prodloc12,prodloc29,tr0,18968,493168).
route(prodloc12,prodloc29,tr13,18968,113808).
route(prodloc12,prodloc30,tr0,9203,239278).
route(prodloc12,prodloc30,tr13,9203,55218).
route(prodloc12,prodloc31,tr0,17168,446368).
route(prodloc12,prodloc31,tr13,17168,103008).
route(prodloc12,prodloc32,tr0,2011,52286).
route(prodloc12,prodloc32,tr13,2011,12066).
route(prodloc12,prodloc33,tr0,19105,496730).
route(prodloc12,prodloc33,tr13,19105,114630).
route(prodloc13,harbor0,tr0,25320,658320).
route(prodloc13,harbor0,tr13,25320,151920).
route(prodloc13,harbor1,tr0,17135,445510).
route(prodloc13,harbor1,tr13,17135,102810).
route(prodloc13,harbor2,tr0,26570,690820).
route(prodloc13,harbor2,tr13,26570,159420).
route(prodloc13,harbor3,tr0,28229,733954).
route(prodloc13,harbor3,tr13,28229,169374).
route(prodloc13,harbor4,tr0,5585,145210).
route(prodloc13,harbor4,tr13,5585,33510).
route(prodloc13,harbor5,tr0,28664,745264).
route(prodloc13,harbor5,tr13,28664,171984).
route(prodloc13,harbor6,tr0,23685,615810).
route(prodloc13,harbor6,tr13,23685,142110).
route(prodloc13,harbor7,tr0,3589,93314).
route(prodloc13,harbor7,tr13,3589,21534).
route(prodloc13,harbor8,tr0,16882,438932).
route(prodloc13,harbor8,tr13,16882,101292).
route(prodloc13,harbor9,tr0,27393,712218).
route(prodloc13,harbor9,tr13,27393,164358).
route(prodloc13,harbor10,tr0,7574,196924).
route(prodloc13,harbor10,tr13,7574,45444).
route(prodloc13,harbor11,tr0,4788,124488).
route(prodloc13,harbor11,tr13,4788,28728).
route(prodloc13,harbor12,tr0,517,13442).
route(prodloc13,harbor12,tr13,517,3102).
route(prodloc13,harbor13,tr0,14343,372918).
route(prodloc13,harbor13,tr13,14343,86058).
route(prodloc13,harbor14,tr0,3784,98384).
route(prodloc13,harbor14,tr13,3784,22704).
route(prodloc13,harbor15,tr0,993,25818).
route(prodloc13,harbor15,tr13,993,5958).
route(prodloc13,harbor16,tr0,26987,701662).
route(prodloc13,harbor16,tr13,26987,161922).
route(prodloc13,prodloc0,tr0,26436,687336).
route(prodloc13,prodloc0,tr13,26436,158616).
route(prodloc13,prodloc1,tr0,4216,109616).
route(prodloc13,prodloc1,tr13,4216,25296).
route(prodloc13,prodloc2,tr0,11377,295802).
route(prodloc13,prodloc2,tr13,11377,68262).
route(prodloc13,prodloc3,tr0,27484,714584).
route(prodloc13,prodloc3,tr13,27484,164904).
route(prodloc13,prodloc4,tr0,17243,448318).
route(prodloc13,prodloc4,tr13,17243,103458).
route(prodloc13,prodloc5,tr0,5174,134524).
route(prodloc13,prodloc5,tr13,5174,31044).
route(prodloc13,prodloc6,tr0,18835,489710).
route(prodloc13,prodloc6,tr13,18835,113010).
route(prodloc13,prodloc7,tr0,6900,179400).
route(prodloc13,prodloc7,tr13,6900,41400).
route(prodloc13,prodloc8,tr0,1637,42562).
route(prodloc13,prodloc8,tr13,1637,9822).
route(prodloc13,prodloc9,tr0,27302,709852).
route(prodloc13,prodloc9,tr13,27302,163812).
route(prodloc13,prodloc10,tr0,17129,445354).
route(prodloc13,prodloc10,tr13,17129,102774).
route(prodloc13,prodloc11,tr0,8536,221936).
route(prodloc13,prodloc11,tr13,8536,51216).
route(prodloc13,prodloc12,tr13,14398,86388).
route(prodloc13,prodloc12,tr15,14398,460736).
route(prodloc13,prodloc14,tr0,8597,223522).
route(prodloc13,prodloc14,tr13,8597,51582).
route(prodloc13,prodloc16,tr0,430,11180).
route(prodloc13,prodloc16,tr13,430,2580).
route(prodloc13,prodloc17,tr0,13276,345176).
route(prodloc13,prodloc17,tr13,13276,79656).
route(prodloc13,prodloc18,tr0,3558,92508).
route(prodloc13,prodloc18,tr13,3558,21348).
route(prodloc13,prodloc19,tr0,15244,396344).
route(prodloc13,prodloc19,tr13,15244,91464).
route(prodloc13,prodloc20,tr0,16887,439062).
route(prodloc13,prodloc20,tr13,16887,101322).
route(prodloc13,prodloc21,tr0,4324,112424).
route(prodloc13,prodloc21,tr13,4324,25944).
route(prodloc13,prodloc22,tr0,14159,368134).
route(prodloc13,prodloc22,tr13,14159,84954).
route(prodloc13,prodloc23,tr0,28310,736060).
route(prodloc13,prodloc23,tr13,28310,169860).
route(prodloc13,prodloc24,tr0,12260,318760).
route(prodloc13,prodloc24,tr13,12260,73560).
route(prodloc13,prodloc25,tr0,16564,430664).
route(prodloc13,prodloc25,tr13,16564,99384).
route(prodloc13,prodloc26,tr0,28239,734214).
route(prodloc13,prodloc26,tr13,28239,169434).
route(prodloc13,prodloc27,tr0,6019,156494).
route(prodloc13,prodloc27,tr13,6019,36114).
route(prodloc13,prodloc28,tr0,3524,91624).
route(prodloc13,prodloc28,tr13,3524,21144).
route(prodloc13,prodloc29,tr0,25347,659022).
route(prodloc13,prodloc29,tr13,25347,152082).
route(prodloc13,prodloc30,tr0,11807,306982).
route(prodloc13,prodloc30,tr13,11807,70842).
route(prodloc13,prodloc31,tr0,12194,317044).
route(prodloc13,prodloc31,tr13,12194,73164).
route(prodloc13,prodloc32,tr0,17016,442416).
route(prodloc13,prodloc32,tr13,17016,102096).
route(prodloc13,prodloc33,tr0,22965,597090).
route(prodloc13,prodloc33,tr13,22965,137790).
route(prodloc14,harbor0,tr0,9892,257192).
route(prodloc14,harbor0,tr13,9892,59352).
route(prodloc14,harbor1,tr0,24606,639756).
route(prodloc14,harbor1,tr13,24606,147636).
route(prodloc14,harbor2,tr0,12006,312156).
route(prodloc14,harbor2,tr13,12006,72036).
route(prodloc14,harbor3,tr0,15259,396734).
route(prodloc14,harbor3,tr13,15259,91554).
route(prodloc14,harbor4,tr0,18711,486486).
route(prodloc14,harbor4,tr13,18711,112266).
route(prodloc14,harbor5,tr0,9477,246402).
route(prodloc14,harbor5,tr13,9477,56862).
route(prodloc14,harbor6,tr0,28256,734656).
route(prodloc14,harbor6,tr13,28256,169536).
route(prodloc14,harbor7,tr0,26493,688818).
route(prodloc14,harbor7,tr13,26493,158958).
route(prodloc14,harbor8,tr0,15980,415480).
route(prodloc14,harbor8,tr13,15980,95880).
route(prodloc14,harbor9,tr0,27373,711698).
route(prodloc14,harbor9,tr13,27373,164238).
route(prodloc14,harbor10,tr0,23061,599586).
route(prodloc14,harbor10,tr13,23061,138366).
route(prodloc14,harbor11,tr0,27326,710476).
route(prodloc14,harbor11,tr13,27326,163956).
route(prodloc14,harbor12,tr0,26058,677508).
route(prodloc14,harbor12,tr13,26058,156348).
route(prodloc14,harbor13,tr0,7429,193154).
route(prodloc14,harbor13,tr13,7429,44574).
route(prodloc14,harbor14,tr0,13852,360152).
route(prodloc14,harbor14,tr13,13852,83112).
route(prodloc14,harbor15,tr0,16341,424866).
route(prodloc14,harbor15,tr13,16341,98046).
route(prodloc14,harbor16,tr0,25859,672334).
route(prodloc14,harbor16,tr13,25859,155154).
route(prodloc14,prodloc0,tr0,13716,356616).
route(prodloc14,prodloc0,tr13,13716,82296).
route(prodloc14,prodloc1,tr0,9472,246272).
route(prodloc14,prodloc1,tr13,9472,56832).
route(prodloc14,prodloc2,tr0,3017,78442).
route(prodloc14,prodloc2,tr13,3017,18102).
route(prodloc14,prodloc3,tr0,2599,67574).
route(prodloc14,prodloc3,tr15,2599,83168).
route(prodloc14,prodloc4,tr0,774,20124).
route(prodloc14,prodloc4,tr13,774,4644).
route(prodloc14,prodloc5,tr0,5509,143234).
route(prodloc14,prodloc5,tr13,5509,33054).
route(prodloc14,prodloc6,tr0,17412,452712).
route(prodloc14,prodloc6,tr13,17412,104472).
route(prodloc14,prodloc7,tr0,2766,71916).
route(prodloc14,prodloc7,tr13,2766,16596).
route(prodloc14,prodloc8,tr0,11745,305370).
route(prodloc14,prodloc8,tr13,11745,70470).
route(prodloc14,prodloc9,tr0,27968,727168).
route(prodloc14,prodloc9,tr13,27968,167808).
route(prodloc14,prodloc10,tr0,13992,363792).
route(prodloc14,prodloc10,tr13,13992,83952).
route(prodloc14,prodloc11,tr0,27053,703378).
route(prodloc14,prodloc11,tr13,27053,162318).
route(prodloc14,prodloc12,tr0,21180,550680).
route(prodloc14,prodloc12,tr13,21180,127080).
route(prodloc14,prodloc13,tr0,21050,547300).
route(prodloc14,prodloc13,tr13,21050,126300).
route(prodloc14,prodloc15,tr0,20142,523692).
route(prodloc14,prodloc15,tr13,20142,120852).
route(prodloc14,prodloc16,tr0,20823,541398).
route(prodloc14,prodloc16,tr13,20823,124938).
route(prodloc14,prodloc17,tr0,12087,314262).
route(prodloc14,prodloc17,tr13,12087,72522).
route(prodloc14,prodloc18,tr0,1732,45032).
route(prodloc14,prodloc18,tr13,1732,10392).
route(prodloc14,prodloc19,tr0,3932,102232).
route(prodloc14,prodloc19,tr13,3932,23592).
route(prodloc14,prodloc20,tr0,6861,178386).
route(prodloc14,prodloc20,tr13,6861,41166).
route(prodloc14,prodloc21,tr0,20611,535886).
route(prodloc14,prodloc21,tr13,20611,123666).
route(prodloc14,prodloc22,tr0,25604,665704).
route(prodloc14,prodloc22,tr13,25604,153624).
route(prodloc14,prodloc23,tr0,13211,343486).
route(prodloc14,prodloc23,tr13,13211,79266).
route(prodloc14,prodloc24,tr0,5390,140140).
route(prodloc14,prodloc24,tr13,5390,32340).
route(prodloc14,prodloc25,tr0,13835,359710).
route(prodloc14,prodloc25,tr13,13835,83010).
route(prodloc14,prodloc26,tr0,20776,540176).
route(prodloc14,prodloc26,tr13,20776,124656).
route(prodloc14,prodloc27,tr0,3663,95238).
route(prodloc14,prodloc27,tr13,3663,21978).
route(prodloc14,prodloc28,tr0,8457,219882).
route(prodloc14,prodloc28,tr13,8457,50742).
route(prodloc14,prodloc29,tr0,24973,649298).
route(prodloc14,prodloc29,tr13,24973,149838).
route(prodloc14,prodloc30,tr0,4672,121472).
route(prodloc14,prodloc30,tr13,4672,28032).
route(prodloc14,prodloc31,tr0,8703,226278).
route(prodloc14,prodloc31,tr13,8703,52218).
route(prodloc14,prodloc32,tr0,11310,294060).
route(prodloc14,prodloc32,tr13,11310,67860).
route(prodloc14,prodloc33,tr0,3785,98410).
route(prodloc14,prodloc33,tr13,3785,22710).
route(prodloc15,harbor0,tr0,22339,580814).
route(prodloc15,harbor0,tr13,22339,134034).
route(prodloc15,harbor1,tr0,7894,205244).
route(prodloc15,harbor1,tr13,7894,47364).
route(prodloc15,harbor2,tr0,21512,559312).
route(prodloc15,harbor2,tr13,21512,129072).
route(prodloc15,harbor3,tr0,9948,258648).
route(prodloc15,harbor3,tr13,9948,59688).
route(prodloc15,harbor4,tr0,21857,568282).
route(prodloc15,harbor4,tr13,21857,131142).
route(prodloc15,harbor5,tr0,19984,519584).
route(prodloc15,harbor5,tr13,19984,119904).
route(prodloc15,harbor6,tr0,27917,725842).
route(prodloc15,harbor6,tr13,27917,167502).
route(prodloc15,harbor7,tr0,26351,685126).
route(prodloc15,harbor7,tr13,26351,158106).
route(prodloc15,harbor8,tr0,6960,180960).
route(prodloc15,harbor8,tr13,6960,41760).
route(prodloc15,harbor9,tr0,18407,478582).
route(prodloc15,harbor9,tr13,18407,110442).
route(prodloc15,harbor10,tr0,20602,535652).
route(prodloc15,harbor10,tr13,20602,123612).
route(prodloc15,harbor11,tr0,23543,612118).
route(prodloc15,harbor11,tr13,23543,141258).
route(prodloc15,harbor12,tr0,6861,178386).
route(prodloc15,harbor12,tr13,6861,41166).
route(prodloc15,harbor13,tr0,16858,438308).
route(prodloc15,harbor13,tr13,16858,101148).
route(prodloc15,harbor14,tr0,28821,749346).
route(prodloc15,harbor14,tr13,28821,172926).
route(prodloc15,harbor15,tr0,13038,338988).
route(prodloc15,harbor15,tr13,13038,78228).
route(prodloc15,harbor16,tr0,20821,541346).
route(prodloc15,harbor16,tr13,20821,124926).
route(prodloc15,prodloc0,tr0,16366,425516).
route(prodloc15,prodloc0,tr13,16366,98196).
route(prodloc15,prodloc1,tr0,22850,594100).
route(prodloc15,prodloc1,tr13,22850,137100).
route(prodloc15,prodloc2,tr0,20194,525044).
route(prodloc15,prodloc2,tr13,20194,121164).
route(prodloc15,prodloc3,tr0,16864,438464).
route(prodloc15,prodloc3,tr13,16864,101184).
route(prodloc15,prodloc4,tr0,15843,411918).
route(prodloc15,prodloc4,tr13,15843,95058).
route(prodloc15,prodloc5,tr0,27398,712348).
route(prodloc15,prodloc5,tr13,27398,164388).
route(prodloc15,prodloc6,tr0,13712,356512).
route(prodloc15,prodloc6,tr13,13712,82272).
route(prodloc15,prodloc7,tr0,13936,362336).
route(prodloc15,prodloc7,tr13,13936,83616).
route(prodloc15,prodloc8,tr0,1691,43966).
route(prodloc15,prodloc8,tr13,1691,10146).
route(prodloc15,prodloc9,tr0,5807,150982).
route(prodloc15,prodloc9,tr13,5807,34842).
route(prodloc15,prodloc10,tr0,15213,395538).
route(prodloc15,prodloc10,tr13,15213,91278).
route(prodloc15,prodloc11,tr0,3924,102024).
route(prodloc15,prodloc11,tr13,3924,23544).
route(prodloc15,prodloc12,tr0,1700,44200).
route(prodloc15,prodloc12,tr13,1700,10200).
route(prodloc15,prodloc13,tr0,28021,728546).
route(prodloc15,prodloc13,tr13,28021,168126).
route(prodloc15,prodloc14,tr0,6348,165048).
route(prodloc15,prodloc14,tr13,6348,38088).
route(prodloc15,prodloc16,tr0,7683,199758).
route(prodloc15,prodloc16,tr13,7683,46098).
route(prodloc15,prodloc17,tr0,6721,174746).
route(prodloc15,prodloc17,tr13,6721,40326).
route(prodloc15,prodloc18,tr0,22784,592384).
route(prodloc15,prodloc18,tr13,22784,136704).
route(prodloc15,prodloc19,tr0,19085,496210).
route(prodloc15,prodloc19,tr13,19085,114510).
route(prodloc15,prodloc20,tr0,12804,332904).
route(prodloc15,prodloc20,tr13,12804,76824).
route(prodloc15,prodloc21,tr0,21426,557076).
route(prodloc15,prodloc21,tr13,21426,128556).
route(prodloc15,prodloc22,tr0,20579,535054).
route(prodloc15,prodloc22,tr13,20579,123474).
route(prodloc15,prodloc23,tr0,7922,205972).
route(prodloc15,prodloc23,tr13,7922,47532).
route(prodloc15,prodloc24,tr0,22610,587860).
route(prodloc15,prodloc24,tr13,22610,135660).
route(prodloc15,prodloc25,tr0,5468,142168).
route(prodloc15,prodloc25,tr13,5468,32808).
route(prodloc15,prodloc26,tr0,19160,498160).
route(prodloc15,prodloc26,tr13,19160,114960).
route(prodloc15,prodloc27,tr0,22068,573768).
route(prodloc15,prodloc27,tr13,22068,132408).
route(prodloc15,prodloc28,tr0,23976,623376).
route(prodloc15,prodloc28,tr13,23976,143856).
route(prodloc15,prodloc29,tr0,21068,547768).
route(prodloc15,prodloc29,tr13,21068,126408).
route(prodloc15,prodloc30,tr0,16629,432354).
route(prodloc15,prodloc30,tr13,16629,99774).
route(prodloc15,prodloc31,tr0,5145,133770).
route(prodloc15,prodloc31,tr13,5145,30870).
route(prodloc15,prodloc32,tr0,8061,209586).
route(prodloc15,prodloc32,tr13,8061,48366).
route(prodloc15,prodloc33,tr0,13081,340106).
route(prodloc15,prodloc33,tr13,13081,78486).
route(prodloc16,harbor0,tr0,27673,719498).
route(prodloc16,harbor0,tr13,27673,166038).
route(prodloc16,harbor1,tr0,26241,682266).
route(prodloc16,harbor1,tr13,26241,157446).
route(prodloc16,harbor2,tr0,2689,69914).
route(prodloc16,harbor2,tr13,2689,16134).
route(prodloc16,harbor3,tr0,18915,491790).
route(prodloc16,harbor3,tr13,18915,113490).
route(prodloc16,harbor4,tr0,20649,536874).
route(prodloc16,harbor4,tr13,20649,123894).
route(prodloc16,harbor5,tr0,25524,663624).
route(prodloc16,harbor5,tr13,25524,153144).
route(prodloc16,harbor6,tr0,7045,183170).
route(prodloc16,harbor6,tr13,7045,42270).
route(prodloc16,harbor7,tr0,9245,240370).
route(prodloc16,harbor7,tr13,9245,55470).
route(prodloc16,harbor8,tr0,85,2210).
route(prodloc16,harbor8,tr13,85,510).
route(prodloc16,harbor9,tr0,22316,580216).
route(prodloc16,harbor9,tr13,22316,133896).
route(prodloc16,harbor10,tr0,7374,191724).
route(prodloc16,harbor10,tr13,7374,44244).
route(prodloc16,harbor11,tr0,3657,95082).
route(prodloc16,harbor11,tr13,3657,21942).
route(prodloc16,harbor12,tr0,10028,260728).
route(prodloc16,harbor12,tr13,10028,60168).
route(prodloc16,harbor13,tr0,21294,553644).
route(prodloc16,harbor13,tr13,21294,127764).
route(prodloc16,harbor14,tr0,16374,425724).
route(prodloc16,harbor14,tr13,16374,98244).
route(prodloc16,harbor15,tr0,4923,127998).
route(prodloc16,harbor15,tr13,4923,29538).
route(prodloc16,harbor16,tr0,11118,289068).
route(prodloc16,harbor16,tr13,11118,66708).
route(prodloc16,prodloc0,tr0,24110,626860).
route(prodloc16,prodloc0,tr13,24110,144660).
route(prodloc16,prodloc1,tr0,6070,157820).
route(prodloc16,prodloc1,tr15,6070,194240).
route(prodloc16,prodloc2,tr0,26946,700596).
route(prodloc16,prodloc2,tr13,26946,161676).
route(prodloc16,prodloc3,tr0,14267,370942).
route(prodloc16,prodloc3,tr13,14267,85602).
route(prodloc16,prodloc4,tr0,4547,118222).
route(prodloc16,prodloc4,tr13,4547,27282).
route(prodloc16,prodloc5,tr0,1360,35360).
route(prodloc16,prodloc5,tr13,1360,8160).
route(prodloc16,prodloc6,tr0,19371,503646).
route(prodloc16,prodloc6,tr13,19371,116226).
route(prodloc16,prodloc7,tr0,24299,631774).
route(prodloc16,prodloc7,tr13,24299,145794).
route(prodloc16,prodloc8,tr0,985,25610).
route(prodloc16,prodloc8,tr13,985,5910).
route(prodloc16,prodloc9,tr0,11169,290394).
route(prodloc16,prodloc9,tr13,11169,67014).
route(prodloc16,prodloc10,tr0,26578,691028).
route(prodloc16,prodloc10,tr13,26578,159468).
route(prodloc16,prodloc11,tr0,23549,612274).
route(prodloc16,prodloc11,tr13,23549,141294).
route(prodloc16,prodloc12,tr0,25847,672022).
route(prodloc16,prodloc12,tr13,25847,155082).
route(prodloc16,prodloc13,tr0,24352,633152).
route(prodloc16,prodloc13,tr13,24352,146112).
route(prodloc16,prodloc14,tr0,24228,629928).
route(prodloc16,prodloc14,tr13,24228,145368).
route(prodloc16,prodloc15,tr0,19468,506168).
route(prodloc16,prodloc15,tr13,19468,116808).
route(prodloc16,prodloc17,tr0,20608,535808).
route(prodloc16,prodloc17,tr13,20608,123648).
route(prodloc16,prodloc18,tr0,16042,417092).
route(prodloc16,prodloc18,tr13,16042,96252).
route(prodloc16,prodloc19,tr0,11849,308074).
route(prodloc16,prodloc19,tr13,11849,71094).
route(prodloc16,prodloc20,tr0,5844,151944).
route(prodloc16,prodloc20,tr13,5844,35064).
route(prodloc16,prodloc21,tr0,15877,412802).
route(prodloc16,prodloc21,tr13,15877,95262).
route(prodloc16,prodloc22,tr0,21643,562718).
route(prodloc16,prodloc22,tr13,21643,129858).
route(prodloc16,prodloc23,tr0,2543,66118).
route(prodloc16,prodloc23,tr13,2543,15258).
route(prodloc16,prodloc24,tr0,13932,362232).
route(prodloc16,prodloc24,tr13,13932,83592).
route(prodloc16,prodloc25,tr0,23189,602914).
route(prodloc16,prodloc25,tr13,23189,139134).
route(prodloc16,prodloc26,tr0,21667,563342).
route(prodloc16,prodloc26,tr13,21667,130002).
route(prodloc16,prodloc27,tr0,12049,313274).
route(prodloc16,prodloc27,tr13,12049,72294).
route(prodloc16,prodloc28,tr0,60,1560).
route(prodloc16,prodloc28,tr13,60,360).
route(prodloc16,prodloc29,tr0,26519,689494).
route(prodloc16,prodloc29,tr13,26519,159114).
route(prodloc16,prodloc30,tr0,3824,99424).
route(prodloc16,prodloc30,tr13,3824,22944).
route(prodloc16,prodloc31,tr0,25359,659334).
route(prodloc16,prodloc31,tr13,25359,152154).
route(prodloc16,prodloc32,tr0,26906,699556).
route(prodloc16,prodloc32,tr13,26906,161436).
route(prodloc16,prodloc33,tr0,21748,565448).
route(prodloc16,prodloc33,tr13,21748,130488).
route(prodloc17,harbor0,tr0,23857,620282).
route(prodloc17,harbor0,tr13,23857,143142).
route(prodloc17,harbor1,tr0,19359,503334).
route(prodloc17,harbor1,tr13,19359,116154).
route(prodloc17,harbor2,tr0,2187,56862).
route(prodloc17,harbor2,tr13,2187,13122).
route(prodloc17,harbor3,tr0,8453,219778).
route(prodloc17,harbor3,tr13,8453,50718).
route(prodloc17,harbor4,tr0,16780,436280).
route(prodloc17,harbor4,tr13,16780,100680).
route(prodloc17,harbor5,tr0,20282,527332).
route(prodloc17,harbor5,tr13,20282,121692).
route(prodloc17,harbor6,tr0,18257,474682).
route(prodloc17,harbor6,tr13,18257,109542).
route(prodloc17,harbor7,tr0,3539,92014).
route(prodloc17,harbor7,tr13,3539,21234).
route(prodloc17,harbor8,tr0,9416,244816).
route(prodloc17,harbor8,tr13,9416,56496).
route(prodloc17,harbor9,tr0,6152,159952).
route(prodloc17,harbor9,tr13,6152,36912).
route(prodloc17,harbor10,tr0,6973,181298).
route(prodloc17,harbor10,tr13,6973,41838).
route(prodloc17,harbor11,tr0,9525,247650).
route(prodloc17,harbor11,tr13,9525,57150).
route(prodloc17,harbor12,tr0,1725,44850).
route(prodloc17,harbor12,tr13,1725,10350).
route(prodloc17,harbor13,tr0,929,24154).
route(prodloc17,harbor13,tr13,929,5574).
route(prodloc17,harbor14,tr0,7348,191048).
route(prodloc17,harbor14,tr13,7348,44088).
route(prodloc17,harbor15,tr0,5149,133874).
route(prodloc17,harbor15,tr13,5149,30894).
route(prodloc17,harbor16,tr0,7194,187044).
route(prodloc17,harbor16,tr13,7194,43164).
route(prodloc17,prodloc0,tr0,23556,612456).
route(prodloc17,prodloc0,tr13,23556,141336).
route(prodloc17,prodloc1,tr0,18108,470808).
route(prodloc17,prodloc1,tr13,18108,108648).
route(prodloc17,prodloc2,tr0,9392,244192).
route(prodloc17,prodloc2,tr13,9392,56352).
route(prodloc17,prodloc3,tr0,24091,626366).
route(prodloc17,prodloc3,tr13,24091,144546).
route(prodloc17,prodloc4,tr0,28124,731224).
route(prodloc17,prodloc4,tr13,28124,168744).
route(prodloc17,prodloc5,tr0,13438,349388).
route(prodloc17,prodloc5,tr13,13438,80628).
route(prodloc17,prodloc6,tr0,26910,699660).
route(prodloc17,prodloc6,tr13,26910,161460).
route(prodloc17,prodloc7,tr0,8145,211770).
route(prodloc17,prodloc7,tr13,8145,48870).
route(prodloc17,prodloc8,tr13,16450,98700).
route(prodloc17,prodloc8,tr15,16450,526400).
route(prodloc17,prodloc9,tr0,13963,363038).
route(prodloc17,prodloc9,tr13,13963,83778).
route(prodloc17,prodloc10,tr0,10778,280228).
route(prodloc17,prodloc10,tr13,10778,64668).
route(prodloc17,prodloc11,tr0,13348,347048).
route(prodloc17,prodloc11,tr13,13348,80088).
route(prodloc17,prodloc12,tr0,4588,119288).
route(prodloc17,prodloc12,tr13,4588,27528).
route(prodloc17,prodloc13,tr0,5923,153998).
route(prodloc17,prodloc13,tr13,5923,35538).
route(prodloc17,prodloc14,tr13,10122,60732).
route(prodloc17,prodloc14,tr15,10122,323904).
route(prodloc17,prodloc15,tr0,3635,94510).
route(prodloc17,prodloc15,tr13,3635,21810).
route(prodloc17,prodloc16,tr0,22030,572780).
route(prodloc17,prodloc16,tr13,22030,132180).
route(prodloc17,prodloc18,tr0,26539,690014).
route(prodloc17,prodloc18,tr13,26539,159234).
route(prodloc17,prodloc19,tr0,2769,71994).
route(prodloc17,prodloc19,tr13,2769,16614).
route(prodloc17,prodloc20,tr0,26849,698074).
route(prodloc17,prodloc20,tr13,26849,161094).
route(prodloc17,prodloc21,tr0,25449,661674).
route(prodloc17,prodloc21,tr13,25449,152694).
route(prodloc17,prodloc22,tr0,18038,468988).
route(prodloc17,prodloc22,tr13,18038,108228).
route(prodloc17,prodloc23,tr0,19559,508534).
route(prodloc17,prodloc23,tr13,19559,117354).
route(prodloc17,prodloc24,tr0,25532,663832).
route(prodloc17,prodloc24,tr13,25532,153192).
route(prodloc17,prodloc25,tr0,23738,617188).
route(prodloc17,prodloc25,tr13,23738,142428).
route(prodloc17,prodloc26,tr0,11652,302952).
route(prodloc17,prodloc26,tr13,11652,69912).
route(prodloc17,prodloc27,tr0,1167,30342).
route(prodloc17,prodloc27,tr13,1167,7002).
route(prodloc17,prodloc28,tr0,3026,78676).
route(prodloc17,prodloc28,tr13,3026,18156).
route(prodloc17,prodloc29,tr0,28223,733798).
route(prodloc17,prodloc29,tr13,28223,169338).
route(prodloc17,prodloc30,tr0,22627,588302).
route(prodloc17,prodloc30,tr13,22627,135762).
route(prodloc17,prodloc31,tr0,3770,98020).
route(prodloc17,prodloc31,tr13,3770,22620).
route(prodloc17,prodloc32,tr0,12407,322582).
route(prodloc17,prodloc32,tr13,12407,74442).
route(prodloc17,prodloc33,tr0,12324,320424).
route(prodloc17,prodloc33,tr13,12324,73944).
route(prodloc18,harbor0,tr0,10232,266032).
route(prodloc18,harbor0,tr13,10232,61392).
route(prodloc18,harbor1,tr0,2469,64194).
route(prodloc18,harbor1,tr13,2469,14814).
route(prodloc18,harbor2,tr0,895,23270).
route(prodloc18,harbor2,tr13,895,5370).
route(prodloc18,harbor3,tr0,17376,451776).
route(prodloc18,harbor3,tr13,17376,104256).
route(prodloc18,harbor4,tr0,17466,454116).
route(prodloc18,harbor4,tr13,17466,104796).
route(prodloc18,harbor5,tr0,15503,403078).
route(prodloc18,harbor5,tr13,15503,93018).
route(prodloc18,harbor6,tr0,20262,526812).
route(prodloc18,harbor6,tr13,20262,121572).
route(prodloc18,harbor7,tr0,8315,216190).
route(prodloc18,harbor7,tr13,8315,49890).
route(prodloc18,harbor8,tr0,12338,320788).
route(prodloc18,harbor8,tr13,12338,74028).
route(prodloc18,harbor9,tr0,17128,445328).
route(prodloc18,harbor9,tr13,17128,102768).
route(prodloc18,harbor10,tr0,5097,132522).
route(prodloc18,harbor10,tr13,5097,30582).
route(prodloc18,harbor11,tr0,5182,134732).
route(prodloc18,harbor11,tr13,5182,31092).
route(prodloc18,harbor12,tr0,21229,551954).
route(prodloc18,harbor12,tr13,21229,127374).
route(prodloc18,harbor13,tr0,5558,144508).
route(prodloc18,harbor13,tr13,5558,33348).
route(prodloc18,harbor14,tr0,4833,125658).
route(prodloc18,harbor14,tr13,4833,28998).
route(prodloc18,harbor15,tr0,26121,679146).
route(prodloc18,harbor15,tr13,26121,156726).
route(prodloc18,harbor16,tr0,22560,586560).
route(prodloc18,harbor16,tr13,22560,135360).
route(prodloc18,prodloc0,tr0,24453,635778).
route(prodloc18,prodloc0,tr13,24453,146718).
route(prodloc18,prodloc1,tr0,7238,188188).
route(prodloc18,prodloc1,tr13,7238,43428).
route(prodloc18,prodloc2,tr0,26734,695084).
route(prodloc18,prodloc2,tr13,26734,160404).
route(prodloc18,prodloc3,tr0,15251,396526).
route(prodloc18,prodloc3,tr13,15251,91506).
route(prodloc18,prodloc4,tr0,15291,397566).
route(prodloc18,prodloc4,tr13,15291,91746).
route(prodloc18,prodloc5,tr0,22049,573274).
route(prodloc18,prodloc5,tr13,22049,132294).
route(prodloc18,prodloc6,tr0,21085,548210).
route(prodloc18,prodloc6,tr13,21085,126510).
route(prodloc18,prodloc7,tr0,9398,244348).
route(prodloc18,prodloc7,tr13,9398,56388).
route(prodloc18,prodloc8,tr0,24393,634218).
route(prodloc18,prodloc8,tr13,24393,146358).
route(prodloc18,prodloc9,tr0,22576,586976).
route(prodloc18,prodloc9,tr13,22576,135456).
route(prodloc18,prodloc10,tr0,12559,326534).
route(prodloc18,prodloc10,tr13,12559,75354).
route(prodloc18,prodloc11,tr0,28298,735748).
route(prodloc18,prodloc11,tr13,28298,169788).
route(prodloc18,prodloc12,tr0,24109,626834).
route(prodloc18,prodloc12,tr13,24109,144654).
route(prodloc18,prodloc13,tr0,12449,323674).
route(prodloc18,prodloc13,tr13,12449,74694).
route(prodloc18,prodloc14,tr0,1123,29198).
route(prodloc18,prodloc14,tr13,1123,6738).
route(prodloc18,prodloc15,tr0,15409,400634).
route(prodloc18,prodloc15,tr13,15409,92454).
route(prodloc18,prodloc16,tr0,3207,83382).
route(prodloc18,prodloc16,tr13,3207,19242).
route(prodloc18,prodloc17,tr0,21302,553852).
route(prodloc18,prodloc17,tr13,21302,127812).
route(prodloc18,prodloc19,tr0,23009,598234).
route(prodloc18,prodloc19,tr13,23009,138054).
route(prodloc18,prodloc20,tr0,23329,606554).
route(prodloc18,prodloc20,tr13,23329,139974).
route(prodloc18,prodloc21,tr0,12891,335166).
route(prodloc18,prodloc21,tr13,12891,77346).
route(prodloc18,prodloc22,tr0,2812,73112).
route(prodloc18,prodloc22,tr13,2812,16872).
route(prodloc18,prodloc23,tr0,4028,104728).
route(prodloc18,prodloc23,tr13,4028,24168).
route(prodloc18,prodloc24,tr0,18087,470262).
route(prodloc18,prodloc24,tr13,18087,108522).
route(prodloc18,prodloc25,tr0,17205,447330).
route(prodloc18,prodloc25,tr13,17205,103230).
route(prodloc18,prodloc26,tr0,23176,602576).
route(prodloc18,prodloc26,tr13,23176,139056).
route(prodloc18,prodloc27,tr0,23132,601432).
route(prodloc18,prodloc27,tr13,23132,138792).
route(prodloc18,prodloc28,tr0,1498,38948).
route(prodloc18,prodloc28,tr13,1498,8988).
route(prodloc18,prodloc29,tr0,23108,600808).
route(prodloc18,prodloc29,tr13,23108,138648).
route(prodloc18,prodloc30,tr0,7517,195442).
route(prodloc18,prodloc30,tr13,7517,45102).
route(prodloc18,prodloc31,tr0,26980,701480).
route(prodloc18,prodloc31,tr13,26980,161880).
route(prodloc18,prodloc32,tr0,7895,205270).
route(prodloc18,prodloc32,tr13,7895,47370).
route(prodloc18,prodloc33,tr0,7610,197860).
route(prodloc18,prodloc33,tr13,7610,45660).
route(prodloc19,harbor0,tr0,12746,331396).
route(prodloc19,harbor0,tr13,12746,76476).
route(prodloc19,harbor1,tr0,10627,276302).
route(prodloc19,harbor1,tr13,10627,63762).
route(prodloc19,harbor2,tr0,1549,40274).
route(prodloc19,harbor2,tr13,1549,9294).
route(prodloc19,harbor3,tr0,12994,337844).
route(prodloc19,harbor3,tr13,12994,77964).
route(prodloc19,harbor4,tr0,225,5850).
route(prodloc19,harbor4,tr13,225,1350).
route(prodloc19,harbor5,tr0,7651,198926).
route(prodloc19,harbor5,tr13,7651,45906).
route(prodloc19,harbor6,tr0,19813,515138).
route(prodloc19,harbor6,tr13,19813,118878).
route(prodloc19,harbor7,tr0,15555,404430).
route(prodloc19,harbor7,tr13,15555,93330).
route(prodloc19,harbor8,tr0,10908,283608).
route(prodloc19,harbor8,tr13,10908,65448).
route(prodloc19,harbor9,tr0,6873,178698).
route(prodloc19,harbor9,tr13,6873,41238).
route(prodloc19,harbor10,tr0,28744,747344).
route(prodloc19,harbor10,tr13,28744,172464).
route(prodloc19,harbor11,tr0,28753,747578).
route(prodloc19,harbor11,tr13,28753,172518).
route(prodloc19,harbor12,tr0,28043,729118).
route(prodloc19,harbor12,tr13,28043,168258).
route(prodloc19,harbor13,tr0,9976,259376).
route(prodloc19,harbor13,tr13,9976,59856).
route(prodloc19,harbor14,tr0,23313,606138).
route(prodloc19,harbor14,tr13,23313,139878).
route(prodloc19,harbor15,tr0,307,7982).
route(prodloc19,harbor15,tr13,307,1842).
route(prodloc19,harbor16,tr0,11349,295074).
route(prodloc19,harbor16,tr13,11349,68094).
route(prodloc19,prodloc0,tr0,8108,210808).
route(prodloc19,prodloc0,tr13,8108,48648).
route(prodloc19,prodloc1,tr0,5760,149760).
route(prodloc19,prodloc1,tr13,5760,34560).
route(prodloc19,prodloc2,tr0,9385,244010).
route(prodloc19,prodloc2,tr13,9385,56310).
route(prodloc19,prodloc3,tr0,7499,194974).
route(prodloc19,prodloc3,tr13,7499,44994).
route(prodloc19,prodloc4,tr0,21524,559624).
route(prodloc19,prodloc4,tr13,21524,129144).
route(prodloc19,prodloc5,tr0,1487,38662).
route(prodloc19,prodloc5,tr13,1487,8922).
route(prodloc19,prodloc6,tr0,14440,375440).
route(prodloc19,prodloc6,tr13,14440,86640).
route(prodloc19,prodloc7,tr0,11277,293202).
route(prodloc19,prodloc7,tr13,11277,67662).
route(prodloc19,prodloc8,tr0,23072,599872).
route(prodloc19,prodloc8,tr13,23072,138432).
route(prodloc19,prodloc9,tr0,15961,414986).
route(prodloc19,prodloc9,tr13,15961,95766).
route(prodloc19,prodloc10,tr0,27305,709930).
route(prodloc19,prodloc10,tr13,27305,163830).
route(prodloc19,prodloc11,tr0,14309,372034).
route(prodloc19,prodloc11,tr13,14309,85854).
route(prodloc19,prodloc12,tr0,17001,442026).
route(prodloc19,prodloc12,tr15,17001,544032).
route(prodloc19,prodloc13,tr0,28617,744042).
route(prodloc19,prodloc13,tr13,28617,171702).
route(prodloc19,prodloc14,tr0,11657,303082).
route(prodloc19,prodloc14,tr13,11657,69942).
route(prodloc19,prodloc15,tr0,6314,164164).
route(prodloc19,prodloc15,tr13,6314,37884).
route(prodloc19,prodloc16,tr0,18720,486720).
route(prodloc19,prodloc16,tr13,18720,112320).
route(prodloc19,prodloc17,tr0,12813,333138).
route(prodloc19,prodloc17,tr13,12813,76878).
route(prodloc19,prodloc18,tr0,8958,232908).
route(prodloc19,prodloc18,tr13,8958,53748).
route(prodloc19,prodloc20,tr0,20818,541268).
route(prodloc19,prodloc20,tr13,20818,124908).
route(prodloc19,prodloc21,tr0,19618,510068).
route(prodloc19,prodloc21,tr13,19618,117708).
route(prodloc19,prodloc22,tr0,12656,329056).
route(prodloc19,prodloc22,tr13,12656,75936).
route(prodloc19,prodloc23,tr0,12117,315042).
route(prodloc19,prodloc23,tr13,12117,72702).
route(prodloc19,prodloc24,tr0,3092,80392).
route(prodloc19,prodloc24,tr13,3092,18552).
route(prodloc19,prodloc25,tr0,25975,675350).
route(prodloc19,prodloc25,tr13,25975,155850).
route(prodloc19,prodloc26,tr13,9267,55602).
route(prodloc19,prodloc26,tr15,9267,296544).
route(prodloc19,prodloc27,tr0,26880,698880).
route(prodloc19,prodloc27,tr13,26880,161280).
route(prodloc19,prodloc28,tr13,24179,145074).
route(prodloc19,prodloc28,tr15,24179,773728).
route(prodloc19,prodloc29,tr0,16515,429390).
route(prodloc19,prodloc29,tr13,16515,99090).
route(prodloc19,prodloc30,tr0,5521,143546).
route(prodloc19,prodloc30,tr13,5521,33126).
route(prodloc19,prodloc31,tr0,22665,589290).
route(prodloc19,prodloc31,tr13,22665,135990).
route(prodloc19,prodloc32,tr0,8782,228332).
route(prodloc19,prodloc32,tr13,8782,52692).
route(prodloc19,prodloc33,tr0,6074,157924).
route(prodloc19,prodloc33,tr13,6074,36444).
route(prodloc20,harbor0,tr0,13899,361374).
route(prodloc20,harbor0,tr13,13899,83394).
route(prodloc20,harbor1,tr0,4800,124800).
route(prodloc20,harbor1,tr13,4800,28800).
route(prodloc20,harbor2,tr0,2296,59696).
route(prodloc20,harbor2,tr13,2296,13776).
route(prodloc20,harbor3,tr0,28892,751192).
route(prodloc20,harbor3,tr13,28892,173352).
route(prodloc20,harbor4,tr0,17857,464282).
route(prodloc20,harbor4,tr13,17857,107142).
route(prodloc20,harbor5,tr0,18729,486954).
route(prodloc20,harbor5,tr13,18729,112374).
route(prodloc20,harbor6,tr0,20180,524680).
route(prodloc20,harbor6,tr13,20180,121080).
route(prodloc20,harbor7,tr0,19770,514020).
route(prodloc20,harbor7,tr13,19770,118620).
route(prodloc20,harbor8,tr0,22127,575302).
route(prodloc20,harbor8,tr13,22127,132762).
route(prodloc20,harbor9,tr0,19225,499850).
route(prodloc20,harbor9,tr13,19225,115350).
route(prodloc20,harbor10,tr0,8125,211250).
route(prodloc20,harbor10,tr13,8125,48750).
route(prodloc20,harbor11,tr0,22664,589264).
route(prodloc20,harbor11,tr13,22664,135984).
route(prodloc20,harbor12,tr0,25141,653666).
route(prodloc20,harbor12,tr13,25141,150846).
route(prodloc20,harbor13,tr0,4323,112398).
route(prodloc20,harbor13,tr13,4323,25938).
route(prodloc20,harbor14,tr0,18371,477646).
route(prodloc20,harbor14,tr13,18371,110226).
route(prodloc20,harbor15,tr0,8834,229684).
route(prodloc20,harbor15,tr13,8834,53004).
route(prodloc20,harbor16,tr0,11332,294632).
route(prodloc20,harbor16,tr13,11332,67992).
route(prodloc20,prodloc0,tr0,20544,534144).
route(prodloc20,prodloc0,tr13,20544,123264).
route(prodloc20,prodloc1,tr0,27889,725114).
route(prodloc20,prodloc1,tr13,27889,167334).
route(prodloc20,prodloc2,tr0,20540,534040).
route(prodloc20,prodloc2,tr13,20540,123240).
route(prodloc20,prodloc3,tr0,11803,306878).
route(prodloc20,prodloc3,tr13,11803,70818).
route(prodloc20,prodloc4,tr0,11845,307970).
route(prodloc20,prodloc4,tr13,11845,71070).
route(prodloc20,prodloc5,tr0,1020,26520).
route(prodloc20,prodloc5,tr13,1020,6120).
route(prodloc20,prodloc6,tr0,19823,515398).
route(prodloc20,prodloc6,tr13,19823,118938).
route(prodloc20,prodloc7,tr0,18508,481208).
route(prodloc20,prodloc7,tr13,18508,111048).
route(prodloc20,prodloc8,tr0,22927,596102).
route(prodloc20,prodloc8,tr13,22927,137562).
route(prodloc20,prodloc9,tr0,5565,144690).
route(prodloc20,prodloc9,tr13,5565,33390).
route(prodloc20,prodloc10,tr0,23012,598312).
route(prodloc20,prodloc10,tr13,23012,138072).
route(prodloc20,prodloc11,tr0,12924,336024).
route(prodloc20,prodloc11,tr13,12924,77544).
route(prodloc20,prodloc12,tr0,14686,381836).
route(prodloc20,prodloc12,tr13,14686,88116).
route(prodloc20,prodloc13,tr0,24454,635804).
route(prodloc20,prodloc13,tr13,24454,146724).
route(prodloc20,prodloc14,tr0,4432,115232).
route(prodloc20,prodloc14,tr13,4432,26592).
route(prodloc20,prodloc15,tr0,2624,68224).
route(prodloc20,prodloc15,tr13,2624,15744).
route(prodloc20,prodloc16,tr0,18682,485732).
route(prodloc20,prodloc16,tr13,18682,112092).
route(prodloc20,prodloc17,tr0,27873,724698).
route(prodloc20,prodloc17,tr13,27873,167238).
route(prodloc20,prodloc18,tr0,4764,123864).
route(prodloc20,prodloc18,tr13,4764,28584).
route(prodloc20,prodloc19,tr0,21500,559000).
route(prodloc20,prodloc19,tr13,21500,129000).
route(prodloc20,prodloc21,tr0,25784,670384).
route(prodloc20,prodloc21,tr13,25784,154704).
route(prodloc20,prodloc22,tr0,9517,247442).
route(prodloc20,prodloc22,tr13,9517,57102).
route(prodloc20,prodloc23,tr0,14084,366184).
route(prodloc20,prodloc23,tr13,14084,84504).
route(prodloc20,prodloc24,tr0,24815,645190).
route(prodloc20,prodloc24,tr13,24815,148890).
route(prodloc20,prodloc25,tr0,23969,623194).
route(prodloc20,prodloc25,tr13,23969,143814).
route(prodloc20,prodloc26,tr0,18054,469404).
route(prodloc20,prodloc26,tr13,18054,108324).
route(prodloc20,prodloc27,tr0,12946,336596).
route(prodloc20,prodloc27,tr13,12946,77676).
route(prodloc20,prodloc28,tr0,10735,279110).
route(prodloc20,prodloc28,tr13,10735,64410).
route(prodloc20,prodloc29,tr0,18899,491374).
route(prodloc20,prodloc29,tr13,18899,113394).
route(prodloc20,prodloc30,tr0,17051,443326).
route(prodloc20,prodloc30,tr13,17051,102306).
route(prodloc20,prodloc31,tr0,10540,274040).
route(prodloc20,prodloc31,tr13,10540,63240).
route(prodloc20,prodloc32,tr0,22207,577382).
route(prodloc20,prodloc32,tr13,22207,133242).
route(prodloc20,prodloc33,tr0,3428,89128).
route(prodloc20,prodloc33,tr13,3428,20568).
route(prodloc21,harbor0,tr0,20350,529100).
route(prodloc21,harbor0,tr13,20350,122100).
route(prodloc21,harbor1,tr0,1595,41470).
route(prodloc21,harbor1,tr13,1595,9570).
route(prodloc21,harbor2,tr0,5167,134342).
route(prodloc21,harbor2,tr13,5167,31002).
route(prodloc21,harbor3,tr0,11643,302718).
route(prodloc21,harbor3,tr13,11643,69858).
route(prodloc21,harbor4,tr0,11936,310336).
route(prodloc21,harbor4,tr13,11936,71616).
route(prodloc21,harbor5,tr0,20124,523224).
route(prodloc21,harbor5,tr13,20124,120744).
route(prodloc21,harbor6,tr0,22856,594256).
route(prodloc21,harbor6,tr13,22856,137136).
route(prodloc21,harbor7,tr0,25018,650468).
route(prodloc21,harbor7,tr13,25018,150108).
route(prodloc21,harbor8,tr0,10425,271050).
route(prodloc21,harbor8,tr13,10425,62550).
route(prodloc21,harbor9,tr0,7435,193310).
route(prodloc21,harbor9,tr13,7435,44610).
route(prodloc21,harbor10,tr0,7097,184522).
route(prodloc21,harbor10,tr13,7097,42582).
route(prodloc21,harbor11,tr0,27783,722358).
route(prodloc21,harbor11,tr13,27783,166698).
route(prodloc21,harbor12,tr0,20661,537186).
route(prodloc21,harbor12,tr13,20661,123966).
route(prodloc21,harbor13,tr0,13774,358124).
route(prodloc21,harbor13,tr13,13774,82644).
route(prodloc21,harbor14,tr0,20517,533442).
route(prodloc21,harbor14,tr13,20517,123102).
route(prodloc21,harbor15,tr0,24621,640146).
route(prodloc21,harbor15,tr13,24621,147726).
route(prodloc21,harbor16,tr0,6263,162838).
route(prodloc21,harbor16,tr13,6263,37578).
route(prodloc21,prodloc0,tr0,20059,521534).
route(prodloc21,prodloc0,tr13,20059,120354).
route(prodloc21,prodloc1,tr0,18034,468884).
route(prodloc21,prodloc1,tr13,18034,108204).
route(prodloc21,prodloc2,tr0,6209,161434).
route(prodloc21,prodloc2,tr13,6209,37254).
route(prodloc21,prodloc3,tr0,9893,257218).
route(prodloc21,prodloc3,tr13,9893,59358).
route(prodloc21,prodloc4,tr0,895,23270).
route(prodloc21,prodloc4,tr13,895,5370).
route(prodloc21,prodloc6,tr0,7944,206544).
route(prodloc21,prodloc6,tr13,7944,47664).
route(prodloc21,prodloc7,tr0,27087,704262).
route(prodloc21,prodloc7,tr13,27087,162522).
route(prodloc21,prodloc8,tr0,12744,331344).
route(prodloc21,prodloc8,tr13,12744,76464).
route(prodloc21,prodloc9,tr0,3251,84526).
route(prodloc21,prodloc9,tr13,3251,19506).
route(prodloc21,prodloc10,tr0,2933,76258).
route(prodloc21,prodloc10,tr13,2933,17598).
route(prodloc21,prodloc11,tr0,1423,36998).
route(prodloc21,prodloc11,tr13,1423,8538).
route(prodloc21,prodloc12,tr0,13031,338806).
route(prodloc21,prodloc12,tr13,13031,78186).
route(prodloc21,prodloc13,tr0,12467,324142).
route(prodloc21,prodloc13,tr13,12467,74802).
route(prodloc21,prodloc14,tr0,21856,568256).
route(prodloc21,prodloc14,tr13,21856,131136).
route(prodloc21,prodloc15,tr0,8477,220402).
route(prodloc21,prodloc15,tr13,8477,50862).
route(prodloc21,prodloc16,tr0,18160,472160).
route(prodloc21,prodloc16,tr13,18160,108960).
route(prodloc21,prodloc17,tr0,4184,108784).
route(prodloc21,prodloc17,tr13,4184,25104).
route(prodloc21,prodloc18,tr0,10020,260520).
route(prodloc21,prodloc18,tr13,10020,60120).
route(prodloc21,prodloc19,tr0,14047,365222).
route(prodloc21,prodloc19,tr13,14047,84282).
route(prodloc21,prodloc20,tr0,26850,698100).
route(prodloc21,prodloc20,tr13,26850,161100).
route(prodloc21,prodloc22,tr0,3742,97292).
route(prodloc21,prodloc22,tr13,3742,22452).
route(prodloc21,prodloc23,tr0,14713,382538).
route(prodloc21,prodloc23,tr13,14713,88278).
route(prodloc21,prodloc24,tr0,27933,726258).
route(prodloc21,prodloc24,tr13,27933,167598).
route(prodloc21,prodloc25,tr0,26205,681330).
route(prodloc21,prodloc25,tr13,26205,157230).
route(prodloc21,prodloc26,tr0,23826,619476).
route(prodloc21,prodloc26,tr13,23826,142956).
route(prodloc21,prodloc27,tr0,23209,603434).
route(prodloc21,prodloc27,tr13,23209,139254).
route(prodloc21,prodloc28,tr0,5325,138450).
route(prodloc21,prodloc28,tr13,5325,31950).
route(prodloc21,prodloc29,tr0,12612,327912).
route(prodloc21,prodloc29,tr13,12612,75672).
route(prodloc21,prodloc30,tr0,16021,416546).
route(prodloc21,prodloc30,tr13,16021,96126).
route(prodloc21,prodloc31,tr0,24780,644280).
route(prodloc21,prodloc31,tr13,24780,148680).
route(prodloc21,prodloc32,tr0,14981,389506).
route(prodloc21,prodloc32,tr13,14981,89886).
route(prodloc21,prodloc33,tr0,7508,195208).
route(prodloc21,prodloc33,tr15,7508,240256).
route(prodloc22,harbor0,tr0,8560,222560).
route(prodloc22,harbor0,tr13,8560,51360).
route(prodloc22,harbor1,tr0,24527,637702).
route(prodloc22,harbor1,tr13,24527,147162).
route(prodloc22,harbor2,tr0,3966,103116).
route(prodloc22,harbor2,tr13,3966,23796).
route(prodloc22,harbor3,tr0,8532,221832).
route(prodloc22,harbor3,tr13,8532,51192).
route(prodloc22,harbor4,tr0,24925,648050).
route(prodloc22,harbor4,tr13,24925,149550).
route(prodloc22,harbor5,tr0,25580,665080).
route(prodloc22,harbor5,tr13,25580,153480).
route(prodloc22,harbor6,tr0,23197,603122).
route(prodloc22,harbor6,tr13,23197,139182).
route(prodloc22,harbor7,tr0,21058,547508).
route(prodloc22,harbor7,tr13,21058,126348).
route(prodloc22,harbor8,tr0,24950,648700).
route(prodloc22,harbor8,tr13,24950,149700).
route(prodloc22,harbor9,tr0,5856,152256).
route(prodloc22,harbor9,tr13,5856,35136).
route(prodloc22,harbor10,tr0,9017,234442).
route(prodloc22,harbor10,tr13,9017,54102).
route(prodloc22,harbor11,tr0,15089,392314).
route(prodloc22,harbor11,tr13,15089,90534).
route(prodloc22,harbor12,tr0,4,104).
route(prodloc22,harbor12,tr13,4,24).
route(prodloc22,harbor13,tr0,28208,733408).
route(prodloc22,harbor13,tr13,28208,169248).
route(prodloc22,harbor14,tr0,17942,466492).
route(prodloc22,harbor14,tr13,17942,107652).
route(prodloc22,harbor15,tr0,25952,674752).
route(prodloc22,harbor15,tr13,25952,155712).
route(prodloc22,harbor16,tr0,28261,734786).
route(prodloc22,harbor16,tr13,28261,169566).
route(prodloc22,prodloc0,tr0,17658,459108).
route(prodloc22,prodloc0,tr13,17658,105948).
route(prodloc22,prodloc1,tr0,6652,172952).
route(prodloc22,prodloc1,tr13,6652,39912).
route(prodloc22,prodloc2,tr0,26738,695188).
route(prodloc22,prodloc2,tr13,26738,160428).
route(prodloc22,prodloc3,tr0,24681,641706).
route(prodloc22,prodloc3,tr13,24681,148086).
route(prodloc22,prodloc4,tr0,9258,240708).
route(prodloc22,prodloc4,tr13,9258,55548).
route(prodloc22,prodloc5,tr0,24944,648544).
route(prodloc22,prodloc5,tr13,24944,149664).
route(prodloc22,prodloc6,tr0,4840,125840).
route(prodloc22,prodloc6,tr13,4840,29040).
route(prodloc22,prodloc7,tr0,3475,90350).
route(prodloc22,prodloc7,tr13,3475,20850).
route(prodloc22,prodloc8,tr0,1266,32916).
route(prodloc22,prodloc8,tr13,1266,7596).
route(prodloc22,prodloc9,tr0,4497,116922).
route(prodloc22,prodloc9,tr13,4497,26982).
route(prodloc22,prodloc10,tr0,24458,635908).
route(prodloc22,prodloc10,tr13,24458,146748).
route(prodloc22,prodloc11,tr0,457,11882).
route(prodloc22,prodloc11,tr13,457,2742).
route(prodloc22,prodloc12,tr0,11987,311662).
route(prodloc22,prodloc12,tr13,11987,71922).
route(prodloc22,prodloc13,tr0,9618,250068).
route(prodloc22,prodloc13,tr13,9618,57708).
route(prodloc22,prodloc14,tr0,945,24570).
route(prodloc22,prodloc14,tr13,945,5670).
route(prodloc22,prodloc15,tr0,19828,515528).
route(prodloc22,prodloc15,tr13,19828,118968).
route(prodloc22,prodloc16,tr0,24780,644280).
route(prodloc22,prodloc16,tr13,24780,148680).
route(prodloc22,prodloc17,tr0,15450,401700).
route(prodloc22,prodloc17,tr13,15450,92700).
route(prodloc22,prodloc18,tr0,26055,677430).
route(prodloc22,prodloc18,tr13,26055,156330).
route(prodloc22,prodloc19,tr0,7140,185640).
route(prodloc22,prodloc19,tr13,7140,42840).
route(prodloc22,prodloc20,tr0,8366,217516).
route(prodloc22,prodloc20,tr13,8366,50196).
route(prodloc22,prodloc21,tr0,21921,569946).
route(prodloc22,prodloc21,tr13,21921,131526).
route(prodloc22,prodloc23,tr0,5484,142584).
route(prodloc22,prodloc23,tr13,5484,32904).
route(prodloc22,prodloc24,tr0,22392,582192).
route(prodloc22,prodloc24,tr13,22392,134352).
route(prodloc22,prodloc25,tr0,15799,410774).
route(prodloc22,prodloc25,tr13,15799,94794).
route(prodloc22,prodloc26,tr0,14722,382772).
route(prodloc22,prodloc26,tr13,14722,88332).
route(prodloc22,prodloc27,tr0,6046,157196).
route(prodloc22,prodloc27,tr13,6046,36276).
route(prodloc22,prodloc28,tr0,11790,306540).
route(prodloc22,prodloc28,tr13,11790,70740).
route(prodloc22,prodloc29,tr0,907,23582).
route(prodloc22,prodloc29,tr13,907,5442).
route(prodloc22,prodloc30,tr0,7403,192478).
route(prodloc22,prodloc30,tr13,7403,44418).
route(prodloc22,prodloc31,tr0,856,22256).
route(prodloc22,prodloc31,tr13,856,5136).
route(prodloc22,prodloc32,tr0,16736,435136).
route(prodloc22,prodloc32,tr13,16736,100416).
route(prodloc22,prodloc33,tr0,19927,518102).
route(prodloc22,prodloc33,tr13,19927,119562).
route(prodloc23,harbor0,tr0,24060,625560).
route(prodloc23,harbor0,tr13,24060,144360).
route(prodloc23,harbor1,tr0,930,24180).
route(prodloc23,harbor1,tr13,930,5580).
route(prodloc23,harbor2,tr0,8681,225706).
route(prodloc23,harbor2,tr13,8681,52086).
route(prodloc23,harbor3,tr0,1880,48880).
route(prodloc23,harbor3,tr13,1880,11280).
route(prodloc23,harbor4,tr0,7686,199836).
route(prodloc23,harbor4,tr13,7686,46116).
route(prodloc23,harbor5,tr0,855,22230).
route(prodloc23,harbor5,tr13,855,5130).
route(prodloc23,harbor6,tr0,9166,238316).
route(prodloc23,harbor6,tr13,9166,54996).
route(prodloc23,harbor7,tr0,1090,28340).
route(prodloc23,harbor7,tr13,1090,6540).
route(prodloc23,harbor8,tr0,10026,260676).
route(prodloc23,harbor8,tr13,10026,60156).
route(prodloc23,harbor9,tr0,3642,94692).
route(prodloc23,harbor9,tr13,3642,21852).
route(prodloc23,harbor10,tr0,4139,107614).
route(prodloc23,harbor10,tr13,4139,24834).
route(prodloc23,harbor11,tr0,2725,70850).
route(prodloc23,harbor11,tr13,2725,16350).
route(prodloc23,harbor12,tr0,25240,656240).
route(prodloc23,harbor12,tr13,25240,151440).
route(prodloc23,harbor13,tr0,19067,495742).
route(prodloc23,harbor13,tr13,19067,114402).
route(prodloc23,harbor14,tr0,5048,131248).
route(prodloc23,harbor14,tr13,5048,30288).
route(prodloc23,harbor15,tr0,15626,406276).
route(prodloc23,harbor15,tr13,15626,93756).
route(prodloc23,harbor16,tr0,16604,431704).
route(prodloc23,harbor16,tr13,16604,99624).
route(prodloc23,prodloc0,tr0,7292,189592).
route(prodloc23,prodloc0,tr13,7292,43752).
route(prodloc23,prodloc1,tr0,17706,460356).
route(prodloc23,prodloc1,tr13,17706,106236).
route(prodloc23,prodloc2,tr0,13988,363688).
route(prodloc23,prodloc2,tr13,13988,83928).
route(prodloc23,prodloc3,tr0,15675,407550).
route(prodloc23,prodloc3,tr13,15675,94050).
route(prodloc23,prodloc4,tr0,28312,736112).
route(prodloc23,prodloc4,tr13,28312,169872).
route(prodloc23,prodloc5,tr0,3773,98098).
route(prodloc23,prodloc5,tr13,3773,22638).
route(prodloc23,prodloc6,tr0,15449,401674).
route(prodloc23,prodloc6,tr13,15449,92694).
route(prodloc23,prodloc7,tr0,17483,454558).
route(prodloc23,prodloc7,tr13,17483,104898).
route(prodloc23,prodloc8,tr0,20720,538720).
route(prodloc23,prodloc8,tr13,20720,124320).
route(prodloc23,prodloc9,tr0,2320,60320).
route(prodloc23,prodloc9,tr13,2320,13920).
route(prodloc23,prodloc10,tr0,18573,482898).
route(prodloc23,prodloc10,tr13,18573,111438).
route(prodloc23,prodloc11,tr0,2003,52078).
route(prodloc23,prodloc11,tr13,2003,12018).
route(prodloc23,prodloc12,tr0,7182,186732).
route(prodloc23,prodloc12,tr13,7182,43092).
route(prodloc23,prodloc13,tr0,6941,180466).
route(prodloc23,prodloc13,tr13,6941,41646).
route(prodloc23,prodloc14,tr0,7136,185536).
route(prodloc23,prodloc14,tr13,7136,42816).
route(prodloc23,prodloc15,tr0,28516,741416).
route(prodloc23,prodloc15,tr13,28516,171096).
route(prodloc23,prodloc16,tr0,23220,603720).
route(prodloc23,prodloc16,tr13,23220,139320).
route(prodloc23,prodloc17,tr0,6862,178412).
route(prodloc23,prodloc17,tr13,6862,41172).
route(prodloc23,prodloc18,tr0,28831,749606).
route(prodloc23,prodloc18,tr13,28831,172986).
route(prodloc23,prodloc19,tr0,27092,704392).
route(prodloc23,prodloc19,tr13,27092,162552).
route(prodloc23,prodloc20,tr0,27277,709202).
route(prodloc23,prodloc20,tr13,27277,163662).
route(prodloc23,prodloc21,tr0,25422,660972).
route(prodloc23,prodloc21,tr13,25422,152532).
route(prodloc23,prodloc22,tr0,1207,31382).
route(prodloc23,prodloc22,tr13,1207,7242).
route(prodloc23,prodloc24,tr0,19903,517478).
route(prodloc23,prodloc24,tr13,19903,119418).
route(prodloc23,prodloc25,tr0,18003,468078).
route(prodloc23,prodloc25,tr13,18003,108018).
route(prodloc23,prodloc26,tr0,12396,322296).
route(prodloc23,prodloc26,tr13,12396,74376).
route(prodloc23,prodloc27,tr0,3419,88894).
route(prodloc23,prodloc27,tr13,3419,20514).
route(prodloc23,prodloc28,tr0,15876,412776).
route(prodloc23,prodloc28,tr13,15876,95256).
route(prodloc23,prodloc29,tr0,8571,222846).
route(prodloc23,prodloc29,tr13,8571,51426).
route(prodloc23,prodloc30,tr0,18073,469898).
route(prodloc23,prodloc30,tr13,18073,108438).
route(prodloc23,prodloc31,tr0,6272,163072).
route(prodloc23,prodloc31,tr13,6272,37632).
route(prodloc23,prodloc32,tr0,12426,323076).
route(prodloc23,prodloc32,tr13,12426,74556).
route(prodloc23,prodloc33,tr0,15698,408148).
route(prodloc23,prodloc33,tr13,15698,94188).
route(prodloc24,harbor0,tr0,14212,369512).
route(prodloc24,harbor0,tr13,14212,85272).
route(prodloc24,harbor1,tr0,3400,88400).
route(prodloc24,harbor1,tr13,3400,20400).
route(prodloc24,harbor2,tr0,11715,304590).
route(prodloc24,harbor2,tr13,11715,70290).
route(prodloc24,harbor3,tr0,12777,332202).
route(prodloc24,harbor3,tr13,12777,76662).
route(prodloc24,harbor4,tr0,6145,159770).
route(prodloc24,harbor4,tr13,6145,36870).
route(prodloc24,harbor5,tr0,20900,543400).
route(prodloc24,harbor5,tr13,20900,125400).
route(prodloc24,harbor6,tr0,23860,620360).
route(prodloc24,harbor6,tr13,23860,143160).
route(prodloc24,harbor7,tr0,21893,569218).
route(prodloc24,harbor7,tr13,21893,131358).
route(prodloc24,harbor8,tr0,159,4134).
route(prodloc24,harbor8,tr13,159,954).
route(prodloc24,harbor9,tr0,17143,445718).
route(prodloc24,harbor9,tr13,17143,102858).
route(prodloc24,harbor10,tr0,22071,573846).
route(prodloc24,harbor10,tr13,22071,132426).
route(prodloc24,harbor11,tr0,25534,663884).
route(prodloc24,harbor11,tr13,25534,153204).
route(prodloc24,harbor12,tr0,20431,531206).
route(prodloc24,harbor12,tr13,20431,122586).
route(prodloc24,harbor13,tr0,13740,357240).
route(prodloc24,harbor13,tr13,13740,82440).
route(prodloc24,harbor14,tr0,27708,720408).
route(prodloc24,harbor14,tr13,27708,166248).
route(prodloc24,harbor15,tr0,10457,271882).
route(prodloc24,harbor15,tr13,10457,62742).
route(prodloc24,harbor16,tr0,11451,297726).
route(prodloc24,harbor16,tr13,11451,68706).
route(prodloc24,prodloc0,tr0,21716,564616).
route(prodloc24,prodloc0,tr13,21716,130296).
route(prodloc24,prodloc1,tr0,27291,709566).
route(prodloc24,prodloc1,tr13,27291,163746).
route(prodloc24,prodloc2,tr0,9208,239408).
route(prodloc24,prodloc2,tr13,9208,55248).
route(prodloc24,prodloc3,tr0,20195,525070).
route(prodloc24,prodloc3,tr13,20195,121170).
route(prodloc24,prodloc4,tr0,8174,212524).
route(prodloc24,prodloc4,tr13,8174,49044).
route(prodloc24,prodloc5,tr0,12293,319618).
route(prodloc24,prodloc5,tr13,12293,73758).
route(prodloc24,prodloc6,tr0,25615,665990).
route(prodloc24,prodloc6,tr13,25615,153690).
route(prodloc24,prodloc7,tr0,10735,279110).
route(prodloc24,prodloc7,tr13,10735,64410).
route(prodloc24,prodloc8,tr0,13735,357110).
route(prodloc24,prodloc8,tr13,13735,82410).
route(prodloc24,prodloc9,tr0,7474,194324).
route(prodloc24,prodloc9,tr13,7474,44844).
route(prodloc24,prodloc10,tr0,22987,597662).
route(prodloc24,prodloc10,tr13,22987,137922).
route(prodloc24,prodloc11,tr0,22703,590278).
route(prodloc24,prodloc11,tr13,22703,136218).
route(prodloc24,prodloc12,tr0,1615,41990).
route(prodloc24,prodloc12,tr13,1615,9690).
route(prodloc24,prodloc13,tr0,24040,625040).
route(prodloc24,prodloc13,tr13,24040,144240).
route(prodloc24,prodloc14,tr0,21793,566618).
route(prodloc24,prodloc14,tr13,21793,130758).
route(prodloc24,prodloc15,tr0,20040,521040).
route(prodloc24,prodloc15,tr13,20040,120240).
route(prodloc24,prodloc16,tr0,18415,478790).
route(prodloc24,prodloc16,tr13,18415,110490).
route(prodloc24,prodloc17,tr0,11479,298454).
route(prodloc24,prodloc17,tr13,11479,68874).
route(prodloc24,prodloc18,tr0,5570,144820).
route(prodloc24,prodloc18,tr13,5570,33420).
route(prodloc24,prodloc19,tr0,1888,49088).
route(prodloc24,prodloc19,tr13,1888,11328).
route(prodloc24,prodloc20,tr0,10435,271310).
route(prodloc24,prodloc20,tr13,10435,62610).
route(prodloc24,prodloc21,tr0,3139,81614).
route(prodloc24,prodloc21,tr13,3139,18834).
route(prodloc24,prodloc22,tr0,16553,430378).
route(prodloc24,prodloc22,tr13,16553,99318).
route(prodloc24,prodloc23,tr0,23653,614978).
route(prodloc24,prodloc23,tr13,23653,141918).
route(prodloc24,prodloc25,tr0,26453,687778).
route(prodloc24,prodloc25,tr13,26453,158718).
route(prodloc24,prodloc26,tr0,20045,521170).
route(prodloc24,prodloc26,tr13,20045,120270).
route(prodloc24,prodloc27,tr0,752,19552).
route(prodloc24,prodloc27,tr13,752,4512).
route(prodloc24,prodloc28,tr0,27857,724282).
route(prodloc24,prodloc28,tr13,27857,167142).
route(prodloc24,prodloc29,tr0,10830,281580).
route(prodloc24,prodloc29,tr13,10830,64980).
route(prodloc24,prodloc30,tr0,19371,503646).
route(prodloc24,prodloc30,tr13,19371,116226).
route(prodloc24,prodloc31,tr0,27405,712530).
route(prodloc24,prodloc31,tr13,27405,164430).
route(prodloc24,prodloc32,tr0,4045,105170).
route(prodloc24,prodloc32,tr13,4045,24270).
route(prodloc24,prodloc33,tr0,19856,516256).
route(prodloc24,prodloc33,tr13,19856,119136).
route(prodloc25,harbor0,tr0,14920,387920).
route(prodloc25,harbor0,tr13,14920,89520).
route(prodloc25,harbor1,tr0,664,17264).
route(prodloc25,harbor1,tr13,664,3984).
route(prodloc25,harbor2,tr0,25949,674674).
route(prodloc25,harbor2,tr13,25949,155694).
route(prodloc25,harbor3,tr0,24225,629850).
route(prodloc25,harbor3,tr13,24225,145350).
route(prodloc25,harbor4,tr0,10362,269412).
route(prodloc25,harbor4,tr13,10362,62172).
route(prodloc25,harbor5,tr0,16268,422968).
route(prodloc25,harbor5,tr13,16268,97608).
route(prodloc25,harbor6,tr0,28401,738426).
route(prodloc25,harbor6,tr13,28401,170406).
route(prodloc25,harbor7,tr0,8741,227266).
route(prodloc25,harbor7,tr13,8741,52446).
route(prodloc25,harbor8,tr0,15014,390364).
route(prodloc25,harbor8,tr13,15014,90084).
route(prodloc25,harbor9,tr0,11893,309218).
route(prodloc25,harbor9,tr13,11893,71358).
route(prodloc25,harbor10,tr0,18721,486746).
route(prodloc25,harbor10,tr13,18721,112326).
route(prodloc25,harbor11,tr0,26800,696800).
route(prodloc25,harbor11,tr13,26800,160800).
route(prodloc25,harbor12,tr0,18091,470366).
route(prodloc25,harbor12,tr13,18091,108546).
route(prodloc25,harbor13,tr0,23505,611130).
route(prodloc25,harbor13,tr13,23505,141030).
route(prodloc25,harbor14,tr0,26948,700648).
route(prodloc25,harbor14,tr13,26948,161688).
route(prodloc25,harbor15,tr0,10429,271154).
route(prodloc25,harbor15,tr13,10429,62574).
route(prodloc25,harbor16,tr0,14164,368264).
route(prodloc25,harbor16,tr13,14164,84984).
route(prodloc25,prodloc0,tr0,9406,244556).
route(prodloc25,prodloc0,tr13,9406,56436).
route(prodloc25,prodloc1,tr0,16557,430482).
route(prodloc25,prodloc1,tr13,16557,99342).
route(prodloc25,prodloc2,tr0,8781,228306).
route(prodloc25,prodloc2,tr13,8781,52686).
route(prodloc25,prodloc3,tr0,26804,696904).
route(prodloc25,prodloc3,tr13,26804,160824).
route(prodloc25,prodloc4,tr0,15048,391248).
route(prodloc25,prodloc4,tr13,15048,90288).
route(prodloc25,prodloc5,tr0,19487,506662).
route(prodloc25,prodloc5,tr13,19487,116922).
route(prodloc25,prodloc6,tr0,7128,185328).
route(prodloc25,prodloc6,tr13,7128,42768).
route(prodloc25,prodloc7,tr0,20075,521950).
route(prodloc25,prodloc7,tr13,20075,120450).
route(prodloc25,prodloc8,tr0,28892,751192).
route(prodloc25,prodloc8,tr13,28892,173352).
route(prodloc25,prodloc9,tr0,23672,615472).
route(prodloc25,prodloc9,tr13,23672,142032).
route(prodloc25,prodloc10,tr0,9344,242944).
route(prodloc25,prodloc10,tr13,9344,56064).
route(prodloc25,prodloc11,tr0,3911,101686).
route(prodloc25,prodloc11,tr13,3911,23466).
route(prodloc25,prodloc12,tr0,3784,98384).
route(prodloc25,prodloc12,tr13,3784,22704).
route(prodloc25,prodloc13,tr0,26426,687076).
route(prodloc25,prodloc13,tr13,26426,158556).
route(prodloc25,prodloc14,tr0,27230,707980).
route(prodloc25,prodloc14,tr13,27230,163380).
route(prodloc25,prodloc15,tr0,24388,634088).
route(prodloc25,prodloc15,tr13,24388,146328).
route(prodloc25,prodloc16,tr0,5901,153426).
route(prodloc25,prodloc16,tr13,5901,35406).
route(prodloc25,prodloc17,tr0,22357,581282).
route(prodloc25,prodloc17,tr13,22357,134142).
route(prodloc25,prodloc18,tr0,26686,693836).
route(prodloc25,prodloc18,tr13,26686,160116).
route(prodloc25,prodloc19,tr0,15760,409760).
route(prodloc25,prodloc19,tr13,15760,94560).
route(prodloc25,prodloc20,tr0,14393,374218).
route(prodloc25,prodloc20,tr13,14393,86358).
route(prodloc25,prodloc21,tr0,16570,430820).
route(prodloc25,prodloc21,tr13,16570,99420).
route(prodloc25,prodloc22,tr0,15314,398164).
route(prodloc25,prodloc22,tr13,15314,91884).
route(prodloc25,prodloc23,tr0,8278,215228).
route(prodloc25,prodloc23,tr13,8278,49668).
route(prodloc25,prodloc24,tr0,4529,117754).
route(prodloc25,prodloc24,tr13,4529,27174).
route(prodloc25,prodloc26,tr0,19600,509600).
route(prodloc25,prodloc26,tr13,19600,117600).
route(prodloc25,prodloc27,tr0,751,19526).
route(prodloc25,prodloc27,tr13,751,4506).
route(prodloc25,prodloc28,tr0,17158,446108).
route(prodloc25,prodloc28,tr13,17158,102948).
route(prodloc25,prodloc29,tr0,10435,271310).
route(prodloc25,prodloc29,tr13,10435,62610).
route(prodloc25,prodloc30,tr0,21274,553124).
route(prodloc25,prodloc30,tr13,21274,127644).
route(prodloc25,prodloc31,tr0,95,2470).
route(prodloc25,prodloc31,tr13,95,570).
route(prodloc25,prodloc32,tr0,21152,549952).
route(prodloc25,prodloc32,tr13,21152,126912).
route(prodloc25,prodloc33,tr0,25191,654966).
route(prodloc25,prodloc33,tr13,25191,151146).
route(prodloc26,harbor0,tr0,3840,99840).
route(prodloc26,harbor0,tr13,3840,23040).
route(prodloc26,harbor1,tr0,2188,56888).
route(prodloc26,harbor1,tr13,2188,13128).
route(prodloc26,harbor2,tr0,20405,530530).
route(prodloc26,harbor2,tr13,20405,122430).
route(prodloc26,harbor3,tr0,9734,253084).
route(prodloc26,harbor3,tr13,9734,58404).
route(prodloc26,harbor4,tr0,12268,318968).
route(prodloc26,harbor4,tr13,12268,73608).
route(prodloc26,harbor5,tr0,13798,358748).
route(prodloc26,harbor5,tr13,13798,82788).
route(prodloc26,harbor6,tr0,11145,289770).
route(prodloc26,harbor6,tr13,11145,66870).
route(prodloc26,harbor7,tr0,10088,262288).
route(prodloc26,harbor7,tr13,10088,60528).
route(prodloc26,harbor8,tr0,25656,667056).
route(prodloc26,harbor8,tr13,25656,153936).
route(prodloc26,harbor9,tr0,6568,170768).
route(prodloc26,harbor9,tr13,6568,39408).
route(prodloc26,harbor10,tr0,3637,94562).
route(prodloc26,harbor10,tr13,3637,21822).
route(prodloc26,harbor11,tr0,25724,668824).
route(prodloc26,harbor11,tr13,25724,154344).
route(prodloc26,harbor12,tr0,15892,413192).
route(prodloc26,harbor12,tr13,15892,95352).
route(prodloc26,harbor13,tr0,18910,491660).
route(prodloc26,harbor13,tr13,18910,113460).
route(prodloc26,harbor14,tr0,5001,130026).
route(prodloc26,harbor14,tr13,5001,30006).
route(prodloc26,harbor15,tr0,7774,202124).
route(prodloc26,harbor15,tr13,7774,46644).
route(prodloc26,harbor16,tr0,21097,548522).
route(prodloc26,harbor16,tr13,21097,126582).
route(prodloc26,prodloc0,tr0,5925,154050).
route(prodloc26,prodloc0,tr13,5925,35550).
route(prodloc26,prodloc1,tr0,25609,665834).
route(prodloc26,prodloc1,tr13,25609,153654).
route(prodloc26,prodloc2,tr0,24196,629096).
route(prodloc26,prodloc2,tr13,24196,145176).
route(prodloc26,prodloc3,tr0,23540,612040).
route(prodloc26,prodloc3,tr13,23540,141240).
route(prodloc26,prodloc4,tr0,13585,353210).
route(prodloc26,prodloc4,tr13,13585,81510).
route(prodloc26,prodloc5,tr0,15010,390260).
route(prodloc26,prodloc5,tr13,15010,90060).
route(prodloc26,prodloc6,tr0,13552,352352).
route(prodloc26,prodloc6,tr13,13552,81312).
route(prodloc26,prodloc7,tr0,9690,251940).
route(prodloc26,prodloc7,tr13,9690,58140).
route(prodloc26,prodloc8,tr0,2535,65910).
route(prodloc26,prodloc8,tr13,2535,15210).
route(prodloc26,prodloc9,tr0,9781,254306).
route(prodloc26,prodloc9,tr13,9781,58686).
route(prodloc26,prodloc10,tr0,21091,548366).
route(prodloc26,prodloc10,tr13,21091,126546).
route(prodloc26,prodloc11,tr0,6183,160758).
route(prodloc26,prodloc11,tr13,6183,37098).
route(prodloc26,prodloc12,tr0,22880,594880).
route(prodloc26,prodloc12,tr13,22880,137280).
route(prodloc26,prodloc13,tr13,27082,162492).
route(prodloc26,prodloc13,tr15,27082,866624).
route(prodloc26,prodloc14,tr0,18756,487656).
route(prodloc26,prodloc14,tr13,18756,112536).
route(prodloc26,prodloc15,tr0,658,17108).
route(prodloc26,prodloc15,tr13,658,3948).
route(prodloc26,prodloc16,tr0,7647,198822).
route(prodloc26,prodloc16,tr13,7647,45882).
route(prodloc26,prodloc17,tr0,25940,674440).
route(prodloc26,prodloc17,tr13,25940,155640).
route(prodloc26,prodloc18,tr0,5366,139516).
route(prodloc26,prodloc18,tr13,5366,32196).
route(prodloc26,prodloc19,tr0,25077,652002).
route(prodloc26,prodloc19,tr13,25077,150462).
route(prodloc26,prodloc20,tr0,27740,721240).
route(prodloc26,prodloc20,tr15,27740,887680).
route(prodloc26,prodloc21,tr0,5600,145600).
route(prodloc26,prodloc21,tr13,5600,33600).
route(prodloc26,prodloc22,tr0,16138,419588).
route(prodloc26,prodloc22,tr13,16138,96828).
route(prodloc26,prodloc23,tr0,2629,68354).
route(prodloc26,prodloc23,tr13,2629,15774).
route(prodloc26,prodloc24,tr0,17206,447356).
route(prodloc26,prodloc24,tr13,17206,103236).
route(prodloc26,prodloc25,tr0,9750,253500).
route(prodloc26,prodloc25,tr13,9750,58500).
route(prodloc26,prodloc27,tr0,16265,422890).
route(prodloc26,prodloc27,tr13,16265,97590).
route(prodloc26,prodloc28,tr0,2738,71188).
route(prodloc26,prodloc28,tr13,2738,16428).
route(prodloc26,prodloc29,tr0,2743,71318).
route(prodloc26,prodloc29,tr13,2743,16458).
route(prodloc26,prodloc30,tr0,10312,268112).
route(prodloc26,prodloc30,tr13,10312,61872).
route(prodloc26,prodloc31,tr0,26314,684164).
route(prodloc26,prodloc31,tr13,26314,157884).
route(prodloc26,prodloc32,tr0,9,234).
route(prodloc26,prodloc32,tr13,9,54).
route(prodloc26,prodloc33,tr0,26217,681642).
route(prodloc26,prodloc33,tr13,26217,157302).
route(prodloc27,harbor0,tr0,20224,525824).
route(prodloc27,harbor0,tr13,20224,121344).
route(prodloc27,harbor1,tr0,3001,78026).
route(prodloc27,harbor1,tr13,3001,18006).
route(prodloc27,harbor2,tr0,4920,127920).
route(prodloc27,harbor2,tr13,4920,29520).
route(prodloc27,harbor3,tr0,4641,120666).
route(prodloc27,harbor3,tr13,4641,27846).
route(prodloc27,harbor4,tr0,19508,507208).
route(prodloc27,harbor4,tr13,19508,117048).
route(prodloc27,harbor5,tr0,6993,181818).
route(prodloc27,harbor5,tr13,6993,41958).
route(prodloc27,harbor6,tr0,18790,488540).
route(prodloc27,harbor6,tr13,18790,112740).
route(prodloc27,harbor7,tr0,14547,378222).
route(prodloc27,harbor7,tr13,14547,87282).
route(prodloc27,harbor8,tr0,23083,600158).
route(prodloc27,harbor8,tr13,23083,138498).
route(prodloc27,harbor9,tr0,12672,329472).
route(prodloc27,harbor9,tr13,12672,76032).
route(prodloc27,harbor10,tr0,15648,406848).
route(prodloc27,harbor10,tr13,15648,93888).
route(prodloc27,harbor11,tr0,7913,205738).
route(prodloc27,harbor11,tr13,7913,47478).
route(prodloc27,harbor12,tr0,16358,425308).
route(prodloc27,harbor12,tr13,16358,98148).
route(prodloc27,harbor13,tr0,16058,417508).
route(prodloc27,harbor13,tr13,16058,96348).
route(prodloc27,harbor14,tr0,14716,382616).
route(prodloc27,harbor14,tr13,14716,88296).
route(prodloc27,harbor15,tr0,22382,581932).
route(prodloc27,harbor15,tr13,22382,134292).
route(prodloc27,harbor16,tr0,6134,159484).
route(prodloc27,harbor16,tr13,6134,36804).
route(prodloc27,prodloc0,tr0,28434,739284).
route(prodloc27,prodloc0,tr13,28434,170604).
route(prodloc27,prodloc1,tr0,3871,100646).
route(prodloc27,prodloc1,tr13,3871,23226).
route(prodloc27,prodloc2,tr0,22011,572286).
route(prodloc27,prodloc2,tr13,22011,132066).
route(prodloc27,prodloc3,tr0,27498,714948).
route(prodloc27,prodloc3,tr13,27498,164988).
route(prodloc27,prodloc4,tr0,24164,628264).
route(prodloc27,prodloc4,tr13,24164,144984).
route(prodloc27,prodloc5,tr0,176,4576).
route(prodloc27,prodloc5,tr13,176,1056).
route(prodloc27,prodloc6,tr0,15068,391768).
route(prodloc27,prodloc6,tr13,15068,90408).
route(prodloc27,prodloc7,tr0,26051,677326).
route(prodloc27,prodloc7,tr13,26051,156306).
route(prodloc27,prodloc8,tr0,13757,357682).
route(prodloc27,prodloc8,tr13,13757,82542).
route(prodloc27,prodloc9,tr0,17168,446368).
route(prodloc27,prodloc9,tr13,17168,103008).
route(prodloc27,prodloc10,tr0,22144,575744).
route(prodloc27,prodloc10,tr13,22144,132864).
route(prodloc27,prodloc11,tr0,8073,209898).
route(prodloc27,prodloc11,tr13,8073,48438).
route(prodloc27,prodloc12,tr0,15311,398086).
route(prodloc27,prodloc12,tr13,15311,91866).
route(prodloc27,prodloc13,tr0,16780,436280).
route(prodloc27,prodloc13,tr13,16780,100680).
route(prodloc27,prodloc14,tr0,15902,413452).
route(prodloc27,prodloc14,tr13,15902,95412).
route(prodloc27,prodloc15,tr0,15975,415350).
route(prodloc27,prodloc15,tr13,15975,95850).
route(prodloc27,prodloc16,tr0,3779,98254).
route(prodloc27,prodloc16,tr13,3779,22674).
route(prodloc27,prodloc17,tr0,20508,533208).
route(prodloc27,prodloc17,tr13,20508,123048).
route(prodloc27,prodloc18,tr0,27729,720954).
route(prodloc27,prodloc18,tr13,27729,166374).
route(prodloc27,prodloc19,tr0,18247,474422).
route(prodloc27,prodloc19,tr13,18247,109482).
route(prodloc27,prodloc20,tr0,5910,153660).
route(prodloc27,prodloc20,tr13,5910,35460).
route(prodloc27,prodloc21,tr0,28491,740766).
route(prodloc27,prodloc21,tr13,28491,170946).
route(prodloc27,prodloc22,tr13,24731,148386).
route(prodloc27,prodloc22,tr15,24731,791392).
route(prodloc27,prodloc23,tr0,5005,130130).
route(prodloc27,prodloc23,tr13,5005,30030).
route(prodloc27,prodloc24,tr0,4737,123162).
route(prodloc27,prodloc24,tr13,4737,28422).
route(prodloc27,prodloc25,tr13,16097,96582).
route(prodloc27,prodloc25,tr15,16097,515104).
route(prodloc27,prodloc26,tr0,6891,179166).
route(prodloc27,prodloc26,tr13,6891,41346).
route(prodloc27,prodloc28,tr0,23446,609596).
route(prodloc27,prodloc28,tr13,23446,140676).
route(prodloc27,prodloc29,tr0,19714,512564).
route(prodloc27,prodloc29,tr13,19714,118284).
route(prodloc27,prodloc30,tr0,14455,375830).
route(prodloc27,prodloc30,tr13,14455,86730).
route(prodloc27,prodloc31,tr0,24187,628862).
route(prodloc27,prodloc31,tr13,24187,145122).
route(prodloc27,prodloc32,tr0,1587,41262).
route(prodloc27,prodloc32,tr13,1587,9522).
route(prodloc27,prodloc33,tr0,8793,228618).
route(prodloc27,prodloc33,tr13,8793,52758).
route(prodloc28,harbor0,tr0,16138,419588).
route(prodloc28,harbor0,tr13,16138,96828).
route(prodloc28,harbor1,tr0,7436,193336).
route(prodloc28,harbor1,tr13,7436,44616).
route(prodloc28,harbor2,tr0,7437,193362).
route(prodloc28,harbor2,tr13,7437,44622).
route(prodloc28,harbor3,tr0,21649,562874).
route(prodloc28,harbor3,tr13,21649,129894).
route(prodloc28,harbor4,tr0,3576,92976).
route(prodloc28,harbor4,tr13,3576,21456).
route(prodloc28,harbor5,tr0,11644,302744).
route(prodloc28,harbor5,tr13,11644,69864).
route(prodloc28,harbor6,tr0,22141,575666).
route(prodloc28,harbor6,tr13,22141,132846).
route(prodloc28,harbor7,tr0,3723,96798).
route(prodloc28,harbor7,tr13,3723,22338).
route(prodloc28,harbor8,tr0,27213,707538).
route(prodloc28,harbor8,tr13,27213,163278).
route(prodloc28,harbor9,tr0,18776,488176).
route(prodloc28,harbor9,tr13,18776,112656).
route(prodloc28,harbor10,tr0,19181,498706).
route(prodloc28,harbor10,tr13,19181,115086).
route(prodloc28,harbor11,tr0,16121,419146).
route(prodloc28,harbor11,tr13,16121,96726).
route(prodloc28,harbor12,tr0,10582,275132).
route(prodloc28,harbor12,tr13,10582,63492).
route(prodloc28,harbor13,tr0,3244,84344).
route(prodloc28,harbor13,tr13,3244,19464).
route(prodloc28,harbor14,tr0,859,22334).
route(prodloc28,harbor14,tr13,859,5154).
route(prodloc28,harbor15,tr0,21185,550810).
route(prodloc28,harbor15,tr13,21185,127110).
route(prodloc28,harbor16,tr0,5262,136812).
route(prodloc28,harbor16,tr13,5262,31572).
route(prodloc28,prodloc0,tr0,27211,707486).
route(prodloc28,prodloc0,tr13,27211,163266).
route(prodloc28,prodloc1,tr0,4140,107640).
route(prodloc28,prodloc1,tr13,4140,24840).
route(prodloc28,prodloc2,tr0,24665,641290).
route(prodloc28,prodloc2,tr13,24665,147990).
route(prodloc28,prodloc3,tr0,343,8918).
route(prodloc28,prodloc3,tr13,343,2058).
route(prodloc28,prodloc4,tr0,14279,371254).
route(prodloc28,prodloc4,tr13,14279,85674).
route(prodloc28,prodloc5,tr0,22928,596128).
route(prodloc28,prodloc5,tr13,22928,137568).
route(prodloc28,prodloc6,tr0,4705,122330).
route(prodloc28,prodloc6,tr13,4705,28230).
route(prodloc28,prodloc7,tr0,27044,703144).
route(prodloc28,prodloc7,tr13,27044,162264).
route(prodloc28,prodloc8,tr0,18290,475540).
route(prodloc28,prodloc8,tr13,18290,109740).
route(prodloc28,prodloc9,tr0,4900,127400).
route(prodloc28,prodloc9,tr13,4900,29400).
route(prodloc28,prodloc10,tr0,18987,493662).
route(prodloc28,prodloc10,tr13,18987,113922).
route(prodloc28,prodloc11,tr0,10229,265954).
route(prodloc28,prodloc11,tr13,10229,61374).
route(prodloc28,prodloc12,tr0,897,23322).
route(prodloc28,prodloc12,tr13,897,5382).
route(prodloc28,prodloc13,tr0,564,14664).
route(prodloc28,prodloc13,tr15,564,18048).
route(prodloc28,prodloc14,tr0,19468,506168).
route(prodloc28,prodloc14,tr13,19468,116808).
route(prodloc28,prodloc15,tr0,6113,158938).
route(prodloc28,prodloc15,tr13,6113,36678).
route(prodloc28,prodloc16,tr0,2096,54496).
route(prodloc28,prodloc16,tr13,2096,12576).
route(prodloc28,prodloc17,tr0,9889,257114).
route(prodloc28,prodloc17,tr13,9889,59334).
route(prodloc28,prodloc18,tr0,4962,129012).
route(prodloc28,prodloc18,tr13,4962,29772).
route(prodloc28,prodloc19,tr0,9092,236392).
route(prodloc28,prodloc19,tr13,9092,54552).
route(prodloc28,prodloc20,tr13,549,3294).
route(prodloc28,prodloc20,tr15,549,17568).
route(prodloc28,prodloc21,tr0,3577,93002).
route(prodloc28,prodloc21,tr13,3577,21462).
route(prodloc28,prodloc22,tr0,21554,560404).
route(prodloc28,prodloc22,tr13,21554,129324).
route(prodloc28,prodloc23,tr0,22078,574028).
route(prodloc28,prodloc23,tr13,22078,132468).
route(prodloc28,prodloc24,tr0,18906,491556).
route(prodloc28,prodloc24,tr13,18906,113436).
route(prodloc28,prodloc25,tr0,2453,63778).
route(prodloc28,prodloc25,tr13,2453,14718).
route(prodloc28,prodloc26,tr0,9029,234754).
route(prodloc28,prodloc26,tr13,9029,54174).
route(prodloc28,prodloc27,tr0,28884,750984).
route(prodloc28,prodloc27,tr13,28884,173304).
route(prodloc28,prodloc29,tr0,25401,660426).
route(prodloc28,prodloc29,tr13,25401,152406).
route(prodloc28,prodloc30,tr0,7817,203242).
route(prodloc28,prodloc30,tr13,7817,46902).
route(prodloc28,prodloc31,tr0,5418,140868).
route(prodloc28,prodloc31,tr13,5418,32508).
route(prodloc28,prodloc32,tr0,25596,665496).
route(prodloc28,prodloc32,tr13,25596,153576).
route(prodloc28,prodloc33,tr0,14141,367666).
route(prodloc28,prodloc33,tr13,14141,84846).
route(prodloc29,harbor0,tr0,23158,602108).
route(prodloc29,harbor0,tr13,23158,138948).
route(prodloc29,harbor1,tr0,549,14274).
route(prodloc29,harbor1,tr13,549,3294).
route(prodloc29,harbor2,tr0,28037,728962).
route(prodloc29,harbor2,tr13,28037,168222).
route(prodloc29,harbor3,tr0,21638,562588).
route(prodloc29,harbor3,tr13,21638,129828).
route(prodloc29,harbor4,tr0,12701,330226).
route(prodloc29,harbor4,tr13,12701,76206).
route(prodloc29,harbor5,tr0,14523,377598).
route(prodloc29,harbor5,tr13,14523,87138).
route(prodloc29,harbor6,tr0,7552,196352).
route(prodloc29,harbor6,tr13,7552,45312).
route(prodloc29,harbor7,tr0,4830,125580).
route(prodloc29,harbor7,tr13,4830,28980).
route(prodloc29,harbor8,tr0,2544,66144).
route(prodloc29,harbor8,tr13,2544,15264).
route(prodloc29,harbor9,tr0,222,5772).
route(prodloc29,harbor9,tr13,222,1332).
route(prodloc29,harbor10,tr0,17496,454896).
route(prodloc29,harbor10,tr13,17496,104976).
route(prodloc29,harbor11,tr0,5890,153140).
route(prodloc29,harbor11,tr13,5890,35340).
route(prodloc29,harbor12,tr0,24395,634270).
route(prodloc29,harbor12,tr13,24395,146370).
route(prodloc29,harbor13,tr0,28172,732472).
route(prodloc29,harbor13,tr13,28172,169032).
route(prodloc29,harbor14,tr0,18062,469612).
route(prodloc29,harbor14,tr13,18062,108372).
route(prodloc29,harbor15,tr0,14275,371150).
route(prodloc29,harbor15,tr13,14275,85650).
route(prodloc29,harbor16,tr0,4596,119496).
route(prodloc29,harbor16,tr13,4596,27576).
route(prodloc29,prodloc0,tr0,6950,180700).
route(prodloc29,prodloc0,tr15,6950,222400).
route(prodloc29,prodloc1,tr0,24869,646594).
route(prodloc29,prodloc1,tr13,24869,149214).
route(prodloc29,prodloc2,tr0,17632,458432).
route(prodloc29,prodloc2,tr13,17632,105792).
route(prodloc29,prodloc3,tr0,9145,237770).
route(prodloc29,prodloc3,tr13,9145,54870).
route(prodloc29,prodloc4,tr0,11457,297882).
route(prodloc29,prodloc4,tr13,11457,68742).
route(prodloc29,prodloc5,tr0,23069,599794).
route(prodloc29,prodloc5,tr13,23069,138414).
route(prodloc29,prodloc6,tr0,20302,527852).
route(prodloc29,prodloc6,tr13,20302,121812).
route(prodloc29,prodloc7,tr0,17161,446186).
route(prodloc29,prodloc7,tr13,17161,102966).
route(prodloc29,prodloc8,tr0,3739,97214).
route(prodloc29,prodloc8,tr13,3739,22434).
route(prodloc29,prodloc9,tr0,1672,43472).
route(prodloc29,prodloc9,tr13,1672,10032).
route(prodloc29,prodloc10,tr0,23486,610636).
route(prodloc29,prodloc10,tr13,23486,140916).
route(prodloc29,prodloc11,tr0,2634,68484).
route(prodloc29,prodloc11,tr13,2634,15804).
route(prodloc29,prodloc12,tr0,11804,306904).
route(prodloc29,prodloc12,tr13,11804,70824).
route(prodloc29,prodloc13,tr0,27921,725946).
route(prodloc29,prodloc13,tr13,27921,167526).
route(prodloc29,prodloc14,tr0,16797,436722).
route(prodloc29,prodloc14,tr13,16797,100782).
route(prodloc29,prodloc15,tr0,4591,119366).
route(prodloc29,prodloc15,tr13,4591,27546).
route(prodloc29,prodloc16,tr0,11777,306202).
route(prodloc29,prodloc16,tr13,11777,70662).
route(prodloc29,prodloc17,tr0,19057,495482).
route(prodloc29,prodloc17,tr13,19057,114342).
route(prodloc29,prodloc18,tr0,9837,255762).
route(prodloc29,prodloc18,tr13,9837,59022).
route(prodloc29,prodloc19,tr0,9367,243542).
route(prodloc29,prodloc19,tr13,9367,56202).
route(prodloc29,prodloc20,tr0,5418,140868).
route(prodloc29,prodloc20,tr13,5418,32508).
route(prodloc29,prodloc21,tr0,8585,223210).
route(prodloc29,prodloc21,tr13,8585,51510).
route(prodloc29,prodloc22,tr0,20998,545948).
route(prodloc29,prodloc22,tr13,20998,125988).
route(prodloc29,prodloc23,tr0,7482,194532).
route(prodloc29,prodloc23,tr13,7482,44892).
route(prodloc29,prodloc24,tr0,6903,179478).
route(prodloc29,prodloc24,tr13,6903,41418).
route(prodloc29,prodloc25,tr0,23386,608036).
route(prodloc29,prodloc25,tr13,23386,140316).
route(prodloc29,prodloc26,tr0,4886,127036).
route(prodloc29,prodloc26,tr13,4886,29316).
route(prodloc29,prodloc27,tr0,20637,536562).
route(prodloc29,prodloc27,tr13,20637,123822).
route(prodloc29,prodloc28,tr0,27459,713934).
route(prodloc29,prodloc28,tr13,27459,164754).
route(prodloc29,prodloc30,tr0,20387,530062).
route(prodloc29,prodloc30,tr13,20387,122322).
route(prodloc29,prodloc31,tr0,15909,413634).
route(prodloc29,prodloc31,tr13,15909,95454).
route(prodloc29,prodloc32,tr0,27380,711880).
route(prodloc29,prodloc32,tr13,27380,164280).
route(prodloc29,prodloc33,tr0,4948,128648).
route(prodloc29,prodloc33,tr13,4948,29688).
route(prodloc30,harbor0,tr0,13894,361244).
route(prodloc30,harbor0,tr13,13894,83364).
route(prodloc30,harbor1,tr0,22532,585832).
route(prodloc30,harbor1,tr13,22532,135192).
route(prodloc30,harbor2,tr0,22764,591864).
route(prodloc30,harbor2,tr13,22764,136584).
route(prodloc30,harbor3,tr0,17350,451100).
route(prodloc30,harbor3,tr13,17350,104100).
route(prodloc30,harbor4,tr0,10612,275912).
route(prodloc30,harbor4,tr13,10612,63672).
route(prodloc30,harbor5,tr0,1325,34450).
route(prodloc30,harbor5,tr13,1325,7950).
route(prodloc30,harbor6,tr0,23463,610038).
route(prodloc30,harbor6,tr13,23463,140778).
route(prodloc30,harbor7,tr0,2402,62452).
route(prodloc30,harbor7,tr13,2402,14412).
route(prodloc30,harbor8,tr0,17844,463944).
route(prodloc30,harbor8,tr13,17844,107064).
route(prodloc30,harbor9,tr0,19632,510432).
route(prodloc30,harbor9,tr13,19632,117792).
route(prodloc30,harbor10,tr0,12941,336466).
route(prodloc30,harbor10,tr13,12941,77646).
route(prodloc30,harbor11,tr0,27886,725036).
route(prodloc30,harbor11,tr13,27886,167316).
route(prodloc30,harbor12,tr0,11627,302302).
route(prodloc30,harbor12,tr13,11627,69762).
route(prodloc30,harbor13,tr0,25700,668200).
route(prodloc30,harbor13,tr13,25700,154200).
route(prodloc30,harbor14,tr0,9114,236964).
route(prodloc30,harbor14,tr13,9114,54684).
route(prodloc30,harbor15,tr0,20722,538772).
route(prodloc30,harbor15,tr13,20722,124332).
route(prodloc30,harbor16,tr0,28546,742196).
route(prodloc30,harbor16,tr13,28546,171276).
route(prodloc30,prodloc0,tr0,25941,674466).
route(prodloc30,prodloc0,tr13,25941,155646).
route(prodloc30,prodloc1,tr0,10866,282516).
route(prodloc30,prodloc1,tr13,10866,65196).
route(prodloc30,prodloc2,tr0,26319,684294).
route(prodloc30,prodloc2,tr13,26319,157914).
route(prodloc30,prodloc3,tr0,21395,556270).
route(prodloc30,prodloc3,tr13,21395,128370).
route(prodloc30,prodloc4,tr0,28273,735098).
route(prodloc30,prodloc4,tr13,28273,169638).
route(prodloc30,prodloc5,tr0,5485,142610).
route(prodloc30,prodloc5,tr13,5485,32910).
route(prodloc30,prodloc6,tr0,6396,166296).
route(prodloc30,prodloc6,tr13,6396,38376).
route(prodloc30,prodloc7,tr0,4592,119392).
route(prodloc30,prodloc7,tr13,4592,27552).
route(prodloc30,prodloc8,tr0,16508,429208).
route(prodloc30,prodloc8,tr13,16508,99048).
route(prodloc30,prodloc9,tr0,1848,48048).
route(prodloc30,prodloc9,tr13,1848,11088).
route(prodloc30,prodloc10,tr0,4570,118820).
route(prodloc30,prodloc10,tr13,4570,27420).
route(prodloc30,prodloc11,tr0,8892,231192).
route(prodloc30,prodloc11,tr13,8892,53352).
route(prodloc30,prodloc12,tr0,9420,244920).
route(prodloc30,prodloc12,tr13,9420,56520).
route(prodloc30,prodloc13,tr0,28680,745680).
route(prodloc30,prodloc13,tr13,28680,172080).
route(prodloc30,prodloc14,tr0,25514,663364).
route(prodloc30,prodloc14,tr13,25514,153084).
route(prodloc30,prodloc15,tr0,8060,209560).
route(prodloc30,prodloc15,tr13,8060,48360).
route(prodloc30,prodloc16,tr0,5929,154154).
route(prodloc30,prodloc16,tr13,5929,35574).
route(prodloc30,prodloc17,tr0,15403,400478).
route(prodloc30,prodloc17,tr13,15403,92418).
route(prodloc30,prodloc18,tr0,23877,620802).
route(prodloc30,prodloc18,tr13,23877,143262).
route(prodloc30,prodloc19,tr0,19327,502502).
route(prodloc30,prodloc19,tr13,19327,115962).
route(prodloc30,prodloc20,tr0,9393,244218).
route(prodloc30,prodloc20,tr13,9393,56358).
route(prodloc30,prodloc21,tr0,9686,251836).
route(prodloc30,prodloc21,tr13,9686,58116).
route(prodloc30,prodloc22,tr0,13386,348036).
route(prodloc30,prodloc22,tr13,13386,80316).
route(prodloc30,prodloc23,tr0,20674,537524).
route(prodloc30,prodloc23,tr13,20674,124044).
route(prodloc30,prodloc24,tr0,6296,163696).
route(prodloc30,prodloc24,tr13,6296,37776).
route(prodloc30,prodloc25,tr0,2603,67678).
route(prodloc30,prodloc25,tr13,2603,15618).
route(prodloc30,prodloc26,tr0,11604,301704).
route(prodloc30,prodloc26,tr13,11604,69624).
route(prodloc30,prodloc27,tr0,12993,337818).
route(prodloc30,prodloc27,tr13,12993,77958).
route(prodloc30,prodloc28,tr0,42,1092).
route(prodloc30,prodloc28,tr13,42,252).
route(prodloc30,prodloc29,tr0,22655,589030).
route(prodloc30,prodloc29,tr13,22655,135930).
route(prodloc30,prodloc31,tr0,1729,44954).
route(prodloc30,prodloc31,tr13,1729,10374).
route(prodloc30,prodloc32,tr0,4295,111670).
route(prodloc30,prodloc32,tr13,4295,25770).
route(prodloc30,prodloc33,tr0,4721,122746).
route(prodloc30,prodloc33,tr13,4721,28326).
route(prodloc31,harbor0,tr0,9270,241020).
route(prodloc31,harbor0,tr13,9270,55620).
route(prodloc31,harbor1,tr0,26856,698256).
route(prodloc31,harbor1,tr13,26856,161136).
route(prodloc31,harbor2,tr0,25843,671918).
route(prodloc31,harbor2,tr13,25843,155058).
route(prodloc31,harbor3,tr0,19319,502294).
route(prodloc31,harbor3,tr13,19319,115914).
route(prodloc31,harbor4,tr0,21439,557414).
route(prodloc31,harbor4,tr13,21439,128634).
route(prodloc31,harbor5,tr0,5761,149786).
route(prodloc31,harbor5,tr13,5761,34566).
route(prodloc31,harbor6,tr0,16578,431028).
route(prodloc31,harbor6,tr13,16578,99468).
route(prodloc31,harbor7,tr0,24332,632632).
route(prodloc31,harbor7,tr13,24332,145992).
route(prodloc31,harbor8,tr0,28216,733616).
route(prodloc31,harbor8,tr13,28216,169296).
route(prodloc31,harbor9,tr0,15283,397358).
route(prodloc31,harbor9,tr13,15283,91698).
route(prodloc31,harbor10,tr0,6636,172536).
route(prodloc31,harbor10,tr13,6636,39816).
route(prodloc31,harbor11,tr0,10702,278252).
route(prodloc31,harbor11,tr13,10702,64212).
route(prodloc31,harbor12,tr0,3447,89622).
route(prodloc31,harbor12,tr13,3447,20682).
route(prodloc31,harbor13,tr0,23858,620308).
route(prodloc31,harbor13,tr13,23858,143148).
route(prodloc31,harbor14,tr0,3445,89570).
route(prodloc31,harbor14,tr13,3445,20670).
route(prodloc31,harbor15,tr0,13737,357162).
route(prodloc31,harbor15,tr13,13737,82422).
route(prodloc31,harbor16,tr0,3700,96200).
route(prodloc31,harbor16,tr13,3700,22200).
route(prodloc31,prodloc0,tr0,12332,320632).
route(prodloc31,prodloc0,tr13,12332,73992).
route(prodloc31,prodloc1,tr0,14478,376428).
route(prodloc31,prodloc1,tr13,14478,86868).
route(prodloc31,prodloc2,tr0,15082,392132).
route(prodloc31,prodloc2,tr13,15082,90492).
route(prodloc31,prodloc3,tr0,25485,662610).
route(prodloc31,prodloc3,tr13,25485,152910).
route(prodloc31,prodloc4,tr0,2339,60814).
route(prodloc31,prodloc4,tr13,2339,14034).
route(prodloc31,prodloc5,tr0,23049,599274).
route(prodloc31,prodloc5,tr13,23049,138294).
route(prodloc31,prodloc6,tr0,13925,362050).
route(prodloc31,prodloc6,tr13,13925,83550).
route(prodloc31,prodloc7,tr0,6655,173030).
route(prodloc31,prodloc7,tr13,6655,39930).
route(prodloc31,prodloc8,tr0,15215,395590).
route(prodloc31,prodloc8,tr13,15215,91290).
route(prodloc31,prodloc9,tr0,19550,508300).
route(prodloc31,prodloc9,tr13,19550,117300).
route(prodloc31,prodloc10,tr0,10728,278928).
route(prodloc31,prodloc10,tr13,10728,64368).
route(prodloc31,prodloc11,tr0,21317,554242).
route(prodloc31,prodloc11,tr13,21317,127902).
route(prodloc31,prodloc12,tr0,4044,105144).
route(prodloc31,prodloc12,tr13,4044,24264).
route(prodloc31,prodloc13,tr0,17830,463580).
route(prodloc31,prodloc13,tr13,17830,106980).
route(prodloc31,prodloc14,tr0,13729,356954).
route(prodloc31,prodloc14,tr13,13729,82374).
route(prodloc31,prodloc15,tr0,1818,47268).
route(prodloc31,prodloc15,tr13,1818,10908).
route(prodloc31,prodloc16,tr0,6466,168116).
route(prodloc31,prodloc16,tr13,6466,38796).
route(prodloc31,prodloc17,tr0,23850,620100).
route(prodloc31,prodloc17,tr13,23850,143100).
route(prodloc31,prodloc18,tr0,14276,371176).
route(prodloc31,prodloc18,tr13,14276,85656).
route(prodloc31,prodloc19,tr0,4129,107354).
route(prodloc31,prodloc19,tr13,4129,24774).
route(prodloc31,prodloc20,tr0,13016,338416).
route(prodloc31,prodloc20,tr13,13016,78096).
route(prodloc31,prodloc21,tr0,19132,497432).
route(prodloc31,prodloc21,tr13,19132,114792).
route(prodloc31,prodloc22,tr0,19952,518752).
route(prodloc31,prodloc22,tr13,19952,119712).
route(prodloc31,prodloc23,tr0,9007,234182).
route(prodloc31,prodloc23,tr13,9007,54042).
route(prodloc31,prodloc24,tr0,16935,440310).
route(prodloc31,prodloc24,tr13,16935,101610).
route(prodloc31,prodloc25,tr13,13008,78048).
route(prodloc31,prodloc25,tr15,13008,416256).
route(prodloc31,prodloc26,tr0,1517,39442).
route(prodloc31,prodloc26,tr13,1517,9102).
route(prodloc31,prodloc27,tr0,9561,248586).
route(prodloc31,prodloc27,tr13,9561,57366).
route(prodloc31,prodloc28,tr0,8650,224900).
route(prodloc31,prodloc28,tr13,8650,51900).
route(prodloc31,prodloc29,tr0,21906,569556).
route(prodloc31,prodloc29,tr13,21906,131436).
route(prodloc31,prodloc30,tr0,2415,62790).
route(prodloc31,prodloc30,tr13,2415,14490).
route(prodloc31,prodloc32,tr0,11701,304226).
route(prodloc31,prodloc32,tr13,11701,70206).
route(prodloc31,prodloc33,tr0,25865,672490).
route(prodloc31,prodloc33,tr13,25865,155190).
route(prodloc32,harbor0,tr0,27887,725062).
route(prodloc32,harbor0,tr13,27887,167322).
route(prodloc32,harbor1,tr0,23491,610766).
route(prodloc32,harbor1,tr13,23491,140946).
route(prodloc32,harbor2,tr0,24620,640120).
route(prodloc32,harbor2,tr13,24620,147720).
route(prodloc32,harbor3,tr0,16152,419952).
route(prodloc32,harbor3,tr13,16152,96912).
route(prodloc32,harbor4,tr0,26510,689260).
route(prodloc32,harbor4,tr13,26510,159060).
route(prodloc32,harbor5,tr0,20646,536796).
route(prodloc32,harbor5,tr13,20646,123876).
route(prodloc32,harbor6,tr0,25634,666484).
route(prodloc32,harbor6,tr13,25634,153804).
route(prodloc32,harbor7,tr0,25432,661232).
route(prodloc32,harbor7,tr13,25432,152592).
route(prodloc32,harbor8,tr0,8399,218374).
route(prodloc32,harbor8,tr13,8399,50394).
route(prodloc32,harbor9,tr0,3963,103038).
route(prodloc32,harbor9,tr13,3963,23778).
route(prodloc32,harbor10,tr0,26786,696436).
route(prodloc32,harbor10,tr13,26786,160716).
route(prodloc32,harbor11,tr0,25650,666900).
route(prodloc32,harbor11,tr13,25650,153900).
route(prodloc32,harbor12,tr0,17848,464048).
route(prodloc32,harbor12,tr13,17848,107088).
route(prodloc32,harbor13,tr0,13329,346554).
route(prodloc32,harbor13,tr13,13329,79974).
route(prodloc32,harbor14,tr0,9395,244270).
route(prodloc32,harbor14,tr13,9395,56370).
route(prodloc32,harbor15,tr0,5425,141050).
route(prodloc32,harbor15,tr13,5425,32550).
route(prodloc32,harbor16,tr0,27845,723970).
route(prodloc32,harbor16,tr13,27845,167070).
route(prodloc32,prodloc0,tr0,27411,712686).
route(prodloc32,prodloc0,tr13,27411,164466).
route(prodloc32,prodloc1,tr0,13707,356382).
route(prodloc32,prodloc1,tr13,13707,82242).
route(prodloc32,prodloc2,tr0,15441,401466).
route(prodloc32,prodloc2,tr13,15441,92646).
route(prodloc32,prodloc3,tr0,1371,35646).
route(prodloc32,prodloc3,tr13,1371,8226).
route(prodloc32,prodloc4,tr0,5662,147212).
route(prodloc32,prodloc4,tr13,5662,33972).
route(prodloc32,prodloc5,tr0,22940,596440).
route(prodloc32,prodloc5,tr13,22940,137640).
route(prodloc32,prodloc6,tr0,22530,585780).
route(prodloc32,prodloc6,tr13,22530,135180).
route(prodloc32,prodloc7,tr0,12628,328328).
route(prodloc32,prodloc7,tr13,12628,75768).
route(prodloc32,prodloc8,tr0,15909,413634).
route(prodloc32,prodloc8,tr13,15909,95454).
route(prodloc32,prodloc9,tr0,404,10504).
route(prodloc32,prodloc9,tr13,404,2424).
route(prodloc32,prodloc10,tr0,17131,445406).
route(prodloc32,prodloc10,tr13,17131,102786).
route(prodloc32,prodloc11,tr0,2424,63024).
route(prodloc32,prodloc11,tr13,2424,14544).
route(prodloc32,prodloc12,tr0,534,13884).
route(prodloc32,prodloc12,tr13,534,3204).
route(prodloc32,prodloc13,tr0,544,14144).
route(prodloc32,prodloc13,tr13,544,3264).
route(prodloc32,prodloc14,tr0,18029,468754).
route(prodloc32,prodloc14,tr13,18029,108174).
route(prodloc32,prodloc15,tr0,26971,701246).
route(prodloc32,prodloc15,tr13,26971,161826).
route(prodloc32,prodloc16,tr0,27901,725426).
route(prodloc32,prodloc16,tr13,27901,167406).
route(prodloc32,prodloc17,tr0,26786,696436).
route(prodloc32,prodloc17,tr13,26786,160716).
route(prodloc32,prodloc18,tr0,13825,359450).
route(prodloc32,prodloc18,tr13,13825,82950).
route(prodloc32,prodloc19,tr0,3057,79482).
route(prodloc32,prodloc19,tr13,3057,18342).
route(prodloc32,prodloc20,tr0,26610,691860).
route(prodloc32,prodloc20,tr13,26610,159660).
route(prodloc32,prodloc21,tr0,10289,267514).
route(prodloc32,prodloc21,tr13,10289,61734).
route(prodloc32,prodloc22,tr0,24956,648856).
route(prodloc32,prodloc22,tr13,24956,149736).
route(prodloc32,prodloc23,tr0,4655,121030).
route(prodloc32,prodloc23,tr13,4655,27930).
route(prodloc32,prodloc24,tr0,7239,188214).
route(prodloc32,prodloc24,tr13,7239,43434).
route(prodloc32,prodloc25,tr0,12688,329888).
route(prodloc32,prodloc25,tr13,12688,76128).
route(prodloc32,prodloc26,tr0,322,8372).
route(prodloc32,prodloc26,tr13,322,1932).
route(prodloc32,prodloc27,tr0,28083,730158).
route(prodloc32,prodloc27,tr13,28083,168498).
route(prodloc32,prodloc28,tr0,12140,315640).
route(prodloc32,prodloc28,tr13,12140,72840).
route(prodloc32,prodloc29,tr0,3549,92274).
route(prodloc32,prodloc29,tr13,3549,21294).
route(prodloc32,prodloc30,tr0,20073,521898).
route(prodloc32,prodloc30,tr13,20073,120438).
route(prodloc32,prodloc31,tr0,18774,488124).
route(prodloc32,prodloc31,tr13,18774,112644).
route(prodloc32,prodloc33,tr0,15310,398060).
route(prodloc32,prodloc33,tr13,15310,91860).
route(prodloc33,harbor0,tr0,14755,383630).
route(prodloc33,harbor0,tr13,14755,88530).
route(prodloc33,harbor1,tr0,14055,365430).
route(prodloc33,harbor1,tr13,14055,84330).
route(prodloc33,harbor2,tr0,16071,417846).
route(prodloc33,harbor2,tr13,16071,96426).
route(prodloc33,harbor3,tr0,8770,228020).
route(prodloc33,harbor3,tr13,8770,52620).
route(prodloc33,harbor4,tr0,25873,672698).
route(prodloc33,harbor4,tr13,25873,155238).
route(prodloc33,harbor5,tr0,7463,194038).
route(prodloc33,harbor5,tr13,7463,44778).
route(prodloc33,harbor6,tr0,20926,544076).
route(prodloc33,harbor6,tr13,20926,125556).
route(prodloc33,harbor7,tr0,9395,244270).
route(prodloc33,harbor7,tr13,9395,56370).
route(prodloc33,harbor8,tr0,14027,364702).
route(prodloc33,harbor8,tr13,14027,84162).
route(prodloc33,harbor9,tr0,8095,210470).
route(prodloc33,harbor9,tr13,8095,48570).
route(prodloc33,harbor10,tr0,8958,232908).
route(prodloc33,harbor10,tr13,8958,53748).
route(prodloc33,harbor11,tr0,296,7696).
route(prodloc33,harbor11,tr13,296,1776).
route(prodloc33,harbor12,tr0,17368,451568).
route(prodloc33,harbor12,tr13,17368,104208).
route(prodloc33,harbor13,tr0,12286,319436).
route(prodloc33,harbor13,tr13,12286,73716).
route(prodloc33,harbor14,tr0,24684,641784).
route(prodloc33,harbor14,tr13,24684,148104).
route(prodloc33,harbor15,tr0,10743,279318).
route(prodloc33,harbor15,tr13,10743,64458).
route(prodloc33,harbor16,tr0,13998,363948).
route(prodloc33,harbor16,tr13,13998,83988).
route(prodloc33,prodloc0,tr0,20901,543426).
route(prodloc33,prodloc0,tr13,20901,125406).
route(prodloc33,prodloc1,tr0,22647,588822).
route(prodloc33,prodloc1,tr13,22647,135882).
route(prodloc33,prodloc2,tr0,19937,518362).
route(prodloc33,prodloc2,tr13,19937,119622).
route(prodloc33,prodloc3,tr0,5719,148694).
route(prodloc33,prodloc3,tr13,5719,34314).
route(prodloc33,prodloc4,tr0,23410,608660).
route(prodloc33,prodloc4,tr13,23410,140460).
route(prodloc33,prodloc5,tr0,20270,527020).
route(prodloc33,prodloc5,tr13,20270,121620).
route(prodloc33,prodloc6,tr0,27633,718458).
route(prodloc33,prodloc6,tr13,27633,165798).
route(prodloc33,prodloc7,tr0,15188,394888).
route(prodloc33,prodloc7,tr13,15188,91128).
route(prodloc33,prodloc8,tr13,2132,12792).
route(prodloc33,prodloc8,tr15,2132,68224).
route(prodloc33,prodloc9,tr0,23894,621244).
route(prodloc33,prodloc9,tr13,23894,143364).
route(prodloc33,prodloc10,tr0,28058,729508).
route(prodloc33,prodloc10,tr13,28058,168348).
route(prodloc33,prodloc11,tr0,25844,671944).
route(prodloc33,prodloc11,tr13,25844,155064).
route(prodloc33,prodloc12,tr0,15947,414622).
route(prodloc33,prodloc12,tr13,15947,95682).
route(prodloc33,prodloc13,tr0,482,12532).
route(prodloc33,prodloc13,tr13,482,2892).
route(prodloc33,prodloc14,tr0,7832,203632).
route(prodloc33,prodloc14,tr13,7832,46992).
route(prodloc33,prodloc15,tr0,3797,98722).
route(prodloc33,prodloc15,tr13,3797,22782).
route(prodloc33,prodloc16,tr0,10825,281450).
route(prodloc33,prodloc16,tr13,10825,64950).
route(prodloc33,prodloc17,tr0,84,2184).
route(prodloc33,prodloc17,tr13,84,504).
route(prodloc33,prodloc18,tr0,18590,483340).
route(prodloc33,prodloc18,tr13,18590,111540).
route(prodloc33,prodloc19,tr0,9987,259662).
route(prodloc33,prodloc19,tr13,9987,59922).
route(prodloc33,prodloc20,tr0,20420,530920).
route(prodloc33,prodloc20,tr13,20420,122520).
route(prodloc33,prodloc21,tr0,17602,457652).
route(prodloc33,prodloc21,tr13,17602,105612).
route(prodloc33,prodloc22,tr0,151,3926).
route(prodloc33,prodloc22,tr13,151,906).
route(prodloc33,prodloc23,tr0,22950,596700).
route(prodloc33,prodloc23,tr13,22950,137700).
route(prodloc33,prodloc24,tr0,2683,69758).
route(prodloc33,prodloc24,tr13,2683,16098).
route(prodloc33,prodloc25,tr0,20143,523718).
route(prodloc33,prodloc25,tr13,20143,120858).
route(prodloc33,prodloc26,tr0,16744,435344).
route(prodloc33,prodloc26,tr13,16744,100464).
route(prodloc33,prodloc27,tr0,5221,135746).
route(prodloc33,prodloc27,tr13,5221,31326).
route(prodloc33,prodloc28,tr0,10335,268710).
route(prodloc33,prodloc28,tr13,10335,62010).
route(prodloc33,prodloc29,tr0,28266,734916).
route(prodloc33,prodloc29,tr13,28266,169596).
route(prodloc33,prodloc30,tr0,5547,144222).
route(prodloc33,prodloc30,tr13,5547,33282).
route(prodloc33,prodloc31,tr0,26315,684190).
route(prodloc33,prodloc31,tr13,26315,157890).
route(prodloc33,prodloc32,tr0,12544,326144).
route(prodloc33,prodloc32,tr13,12544,75264).
hub(harbor0).
hub(harbor2).
hub(harbor5).
hub(harbor6).
hub(harbor16).
hub(prodloc3).
hub(prodloc6).
hub(prodloc10).
hub(prodloc24).
hub(prodloc31).
