% Multibatching benchmark instance
% Source: instances.lp
% seed=19  harbors=17  prodlocs=34  hubs=10  disruptions=2

% ---- locations ----
location(harbor0).
location(harbor1).
location(harbor2).
location(harbor3).
location(harbor4).
location(harbor5).
location(harbor6).
location(harbor7).
location(harbor8).
location(harbor9).
location(harbor10).
location(harbor11).
location(harbor12).
location(harbor13).
location(harbor14).
location(harbor15).
location(harbor16).
location(prodloc0).
location(prodloc1).
location(prodloc2).
location(prodloc3).
location(prodloc4).
location(prodloc5).
location(prodloc6).
location(prodloc7).
location(prodloc8).
location(prodloc9).
location(prodloc10).
location(prodloc11).
location(prodloc12).
location(prodloc13).
location(prodloc14).
location(prodloc15).
location(prodloc16).
location(prodloc17).
location(prodloc18).
location(prodloc19).
location(prodloc20).
location(prodloc21).
location(prodloc22).
location(prodloc23).
location(prodloc24).
location(prodloc25).
location(prodloc26).
location(prodloc27).
location(prodloc28).
location(prodloc29).
location(prodloc30).
location(prodloc31).
location(prodloc32).
location(prodloc33).

% ---- transport resources ----
transportCapacity(tr0,1800).
transportCO2(tr0,1680).
transportCost(tr0,26).
transportSpeed(tr0,12).
transportCapacity(tr1,65).
transportCO2(tr1,90).
transportCost(tr1,1).
transportSpeed(tr1,35).
transportCapacity(tr10,1).
transportCO2(tr10,700).
transportCost(tr10,4).
transportSpeed(tr10,40).
transportCapacity(tr11,65).
transportCO2(tr11,62).
transportCost(tr11,1).
transportSpeed(tr11,25).
transportCapacity(tr12,65).
transportCO2(tr12,709).
transportCost(tr12,3).
transportSpeed(tr12,55).
transportCapacity(tr13,68).
transportCO2(tr13,160).
transportCost(tr13,6).
transportSpeed(tr13,25).
transportCapacity(tr14,146).
transportCO2(tr14,780).
transportCost(tr14,4).
transportSpeed(tr14,50).
transportCapacity(tr15,2217).
transportCO2(tr15,49470).
transportCost(tr15,32).
transportSpeed(tr15,625).
transportCapacity(tr2,96).
transportCO2(tr2,709).
transportCost(tr2,3).
transportSpeed(tr2,55).
transportCapacity(tr3,1).
transportCO2(tr3,6250).
transportCost(tr3,108).
transportSpeed(tr3,25).
transportCapacity(tr4,148).
transportCO2(tr4,780).
transportCost(tr4,4).
transportSpeed(tr4,50).
transportCapacity(tr5,65).
transportCO2(tr5,780).
transportCost(tr5,3).
transportSpeed(tr5,50).
transportCapacity(tr6,1).
transportCO2(tr6,100).
transportCost(tr6,40).
transportSpeed(tr6,25).
transportCapacity(tr7,1).
transportCO2(tr7,18000).
transportCost(tr7,278).
transportSpeed(tr7,10).
transportCapacity(tr8,1).
transportCO2(tr8,14400).
transportCost(tr8,107).
transportSpeed(tr8,25).
transportCapacity(tr9,65).
transportCO2(tr9,708).
transportCost(tr9,2).
transportSpeed(tr9,60).

% ---- parts ----
part(part0).
partSize(part0,21).
valid_transport(part0,tr0).
valid_transport(part0,tr15).
valid_transport(part0,tr14).
valid_transport(part0,tr13).
valid_transport(part0,tr4).
part(part1).
partSize(part1,1).
valid_transport(part1,tr0).
valid_transport(part1,tr2).
valid_transport(part1,tr15).
valid_transport(part1,tr9).
valid_transport(part1,tr12).
valid_transport(part1,tr13).
valid_transport(part1,tr11).
part(part10).
partSize(part10,1).
valid_transport(part10,tr0).
valid_transport(part10,tr2).
valid_transport(part10,tr15).
valid_transport(part10,tr9).
valid_transport(part10,tr12).
valid_transport(part10,tr13).
valid_transport(part10,tr11).
part(part11).
partSize(part11,83).
valid_transport(part11,tr0).
valid_transport(part11,tr7).
valid_transport(part11,tr8).
valid_transport(part11,tr15).
valid_transport(part11,tr3).
valid_transport(part11,tr13).
part(part12).
partSize(part12,273).
valid_transport(part12,tr0).
valid_transport(part12,tr7).
valid_transport(part12,tr8).
valid_transport(part12,tr15).
valid_transport(part12,tr3).
valid_transport(part12,tr13).
part(part13).
partSize(part13,1).
valid_transport(part13,tr0).
valid_transport(part13,tr2).
valid_transport(part13,tr15).
valid_transport(part13,tr9).
valid_transport(part13,tr12).
valid_transport(part13,tr13).
valid_transport(part13,tr11).
part(part14).
partSize(part14,68).
valid_transport(part14,tr0).
valid_transport(part14,tr15).
valid_transport(part14,tr13).
part(part15).
partSize(part15,4).
valid_transport(part15,tr0).
valid_transport(part15,tr2).
valid_transport(part15,tr15).
valid_transport(part15,tr9).
valid_transport(part15,tr12).
valid_transport(part15,tr13).
valid_transport(part15,tr11).
part(part16).
partSize(part16,4).
valid_transport(part16,tr0).
valid_transport(part16,tr2).
valid_transport(part16,tr15).
valid_transport(part16,tr9).
valid_transport(part16,tr12).
valid_transport(part16,tr13).
valid_transport(part16,tr11).
part(part17).
partSize(part17,8).
valid_transport(part17,tr0).
valid_transport(part17,tr15).
valid_transport(part17,tr14).
valid_transport(part17,tr13).
valid_transport(part17,tr4).
part(part18).
partSize(part18,24).
valid_transport(part18,tr0).
valid_transport(part18,tr15).
valid_transport(part18,tr14).
valid_transport(part18,tr13).
valid_transport(part18,tr4).
part(part19).
partSize(part19,6).
valid_transport(part19,tr0).
valid_transport(part19,tr2).
valid_transport(part19,tr15).
valid_transport(part19,tr9).
valid_transport(part19,tr12).
valid_transport(part19,tr13).
valid_transport(part19,tr11).
part(part2).
partSize(part2,19).
valid_transport(part2,tr0).
valid_transport(part2,tr15).
valid_transport(part2,tr14).
valid_transport(part2,tr13).
valid_transport(part2,tr4).
part(part20).
partSize(part20,128).
valid_transport(part20,tr0).
valid_transport(part20,tr7).
valid_transport(part20,tr8).
valid_transport(part20,tr15).
valid_transport(part20,tr3).
valid_transport(part20,tr13).
part(part21).
partSize(part21,25).
valid_transport(part21,tr0).
valid_transport(part21,tr15).
valid_transport(part21,tr14).
valid_transport(part21,tr13).
valid_transport(part21,tr4).
part(part22).
partSize(part22,7).
valid_transport(part22,tr0).
valid_transport(part22,tr2).
valid_transport(part22,tr15).
valid_transport(part22,tr9).
valid_transport(part22,tr12).
valid_transport(part22,tr13).
valid_transport(part22,tr11).
part(part23).
partSize(part23,5).
valid_transport(part23,tr0).
valid_transport(part23,tr15).
valid_transport(part23,tr14).
valid_transport(part23,tr13).
valid_transport(part23,tr4).
part(part24).
partSize(part24,55).
valid_transport(part24,tr0).
valid_transport(part24,tr7).
valid_transport(part24,tr8).
valid_transport(part24,tr15).
valid_transport(part24,tr3).
valid_transport(part24,tr13).
part(part25).
partSize(part25,5).
valid_transport(part25,tr0).
valid_transport(part25,tr4).
valid_transport(part25,tr2).
valid_transport(part25,tr15).
valid_transport(part25,tr13).
part(part26).
partSize(part26,32).
valid_transport(part26,tr0).
valid_transport(part26,tr7).
valid_transport(part26,tr8).
valid_transport(part26,tr15).
valid_transport(part26,tr3).
valid_transport(part26,tr13).
part(part27).
partSize(part27,5).
valid_transport(part27,tr0).
valid_transport(part27,tr2).
valid_transport(part27,tr15).
valid_transport(part27,tr9).
valid_transport(part27,tr12).
valid_transport(part27,tr13).
valid_transport(part27,tr11).
part(part28).
partSize(part28,3).
valid_transport(part28,tr0).
valid_transport(part28,tr4).
valid_transport(part28,tr2).
valid_transport(part28,tr15).
valid_transport(part28,tr14).
valid_transport(part28,tr13).
part(part29).
partSize(part29,627).
part(part3).
partSize(part3,48).
valid_transport(part3,tr0).
valid_transport(part3,tr7).
valid_transport(part3,tr8).
valid_transport(part3,tr15).
valid_transport(part3,tr3).
valid_transport(part3,tr13).
part(part30).
partSize(part30,2).
valid_transport(part30,tr0).
valid_transport(part30,tr2).
valid_transport(part30,tr15).
valid_transport(part30,tr9).
valid_transport(part30,tr12).
valid_transport(part30,tr13).
valid_transport(part30,tr11).
part(part31).
partSize(part31,144).
valid_transport(part31,tr0).
valid_transport(part31,tr7).
valid_transport(part31,tr8).
valid_transport(part31,tr15).
valid_transport(part31,tr3).
valid_transport(part31,tr13).
part(part32).
partSize(part32,16).
valid_transport(part32,tr0).
valid_transport(part32,tr4).
valid_transport(part32,tr2).
valid_transport(part32,tr15).
valid_transport(part32,tr14).
valid_transport(part32,tr13).
part(part33).
partSize(part33,7).
valid_transport(part33,tr0).
valid_transport(part33,tr2).
valid_transport(part33,tr15).
valid_transport(part33,tr9).
valid_transport(part33,tr12).
valid_transport(part33,tr13).
valid_transport(part33,tr11).
part(part3345).
partSize(part3345,353).
valid_transport(part3345,tr0).
valid_transport(part3345,tr7).
valid_transport(part3345,tr8).
valid_transport(part3345,tr15).
valid_transport(part3345,tr3).
valid_transport(part3345,tr13).
part(part34).
partSize(part34,2).
valid_transport(part34,tr0).
valid_transport(part34,tr2).
valid_transport(part34,tr15).
valid_transport(part34,tr9).
valid_transport(part34,tr12).
valid_transport(part34,tr13).
valid_transport(part34,tr11).
part(part4).
partSize(part4,2).
valid_transport(part4,tr0).
valid_transport(part4,tr2).
valid_transport(part4,tr15).
valid_transport(part4,tr9).
valid_transport(part4,tr12).
valid_transport(part4,tr13).
valid_transport(part4,tr11).
part(part5).
partSize(part5,2).
valid_transport(part5,tr0).
valid_transport(part5,tr2).
valid_transport(part5,tr15).
valid_transport(part5,tr9).
valid_transport(part5,tr12).
valid_transport(part5,tr14).
valid_transport(part5,tr13).
valid_transport(part5,tr11).
part(part6).
partSize(part6,111).
valid_transport(part6,tr0).
valid_transport(part6,tr7).
valid_transport(part6,tr8).
valid_transport(part6,tr15).
valid_transport(part6,tr3).
valid_transport(part6,tr13).
part(part8).
partSize(part8,163).
valid_transport(part8,tr0).
valid_transport(part8,tr7).
valid_transport(part8,tr8).
valid_transport(part8,tr15).
valid_transport(part8,tr3).
valid_transport(part8,tr13).
part(part9).
partSize(part9,2).
valid_transport(part9,tr0).
valid_transport(part9,tr2).
valid_transport(part9,tr15).
valid_transport(part9,tr9).
valid_transport(part9,tr12).
valid_transport(part9,tr13).
valid_transport(part9,tr11).

% ---- demand ----
demandOffer(part0,prodloc2,40).
demandOffer(part0,prodloc33,40).
demandOffer(part0,prodloc7,-27).
demandOffer(part0,prodloc32,-53).
demandOffer(part1,prodloc12,20).
demandOffer(part1,prodloc25,20).
demandOffer(part1,prodloc22,-20).
demandOffer(part1,prodloc33,-20).
demandOffer(part10,prodloc18,20).
demandOffer(part10,prodloc9,20).
demandOffer(part10,prodloc16,-20).
demandOffer(part10,prodloc6,-20).
demandOffer(part12,prodloc16,10).
demandOffer(part12,prodloc26,20).
demandOffer(part12,prodloc20,-10).
demandOffer(part12,prodloc17,-10).
demandOffer(part12,prodloc6,-10).
demandOffer(part13,prodloc20,20).
demandOffer(part13,prodloc19,20).
demandOffer(part13,prodloc1,-20).
demandOffer(part13,prodloc12,-20).
demandOffer(part14,prodloc4,26).
demandOffer(part14,prodloc12,-26).
demandOffer(part15,prodloc7,53).
demandOffer(part15,prodloc29,27).
demandOffer(part15,prodloc24,-53).
demandOffer(part15,prodloc4,-27).
demandOffer(part16,prodloc6,53).
demandOffer(part16,prodloc26,27).
demandOffer(part16,prodloc1,-53).
demandOffer(part16,prodloc27,-27).
demandOffer(part17,prodloc25,20).
demandOffer(part17,prodloc28,-20).
demandOffer(part18,prodloc19,40).
demandOffer(part18,prodloc32,40).
demandOffer(part18,prodloc10,-27).
demandOffer(part18,prodloc26,-53).
demandOffer(part19,prodloc14,26).
demandOffer(part19,prodloc6,-26).
demandOffer(part2,prodloc13,40).
demandOffer(part2,prodloc24,40).
demandOffer(part2,prodloc12,-27).
demandOffer(part2,prodloc8,-53).
demandOffer(part20,prodloc8,53).
demandOffer(part20,prodloc31,27).
demandOffer(part20,prodloc6,-14).
demandOffer(part20,prodloc29,-46).
demandOffer(part20,prodloc0,-20).
demandOffer(part21,prodloc29,26).
demandOffer(part21,prodloc30,-26).
demandOffer(part22,prodloc7,53).
demandOffer(part22,prodloc33,27).
demandOffer(part22,prodloc30,-53).
demandOffer(part22,prodloc32,-27).
demandOffer(part23,prodloc31,20).
demandOffer(part23,prodloc23,20).
demandOffer(part23,prodloc27,-20).
demandOffer(part23,prodloc11,-20).
demandOffer(part25,prodloc0,20).
demandOffer(part25,prodloc15,-20).
demandOffer(part26,prodloc5,20).
demandOffer(part26,prodloc1,20).
demandOffer(part26,prodloc29,-14).
demandOffer(part26,prodloc24,-26).
demandOffer(part27,prodloc28,53).
demandOffer(part27,prodloc7,27).
demandOffer(part27,prodloc16,-53).
demandOffer(part27,prodloc8,-27).
demandOffer(part28,prodloc30,20).
demandOffer(part28,prodloc18,20).
demandOffer(part28,prodloc28,-20).
demandOffer(part28,prodloc25,-20).
demandOffer(part3,prodloc18,40).
demandOffer(part3,prodloc10,-14).
demandOffer(part3,prodloc29,-26).
demandOffer(part30,prodloc28,40).
demandOffer(part30,prodloc19,40).
demandOffer(part30,prodloc2,-27).
demandOffer(part30,prodloc4,-53).
demandOffer(part31,prodloc13,7).
demandOffer(part31,prodloc19,7).
demandOffer(part31,prodloc26,-14).
demandOffer(part32,prodloc6,53).
demandOffer(part32,prodloc29,27).
demandOffer(part32,prodloc4,-53).
demandOffer(part32,prodloc32,-27).
demandOffer(part33,prodloc28,53).
demandOffer(part33,prodloc1,27).
demandOffer(part33,prodloc11,-53).
demandOffer(part33,prodloc27,-27).
demandOffer(part34,prodloc17,20).
demandOffer(part34,prodloc4,-20).
demandOffer(part4,prodloc5,26).
demandOffer(part4,prodloc8,-26).
demandOffer(part5,prodloc10,20).
demandOffer(part5,prodloc27,-20).
demandOffer(part6,prodloc18,27).
demandOffer(part6,prodloc29,53).
demandOffer(part6,prodloc7,-24).
demandOffer(part6,prodloc6,-36).
demandOffer(part6,prodloc19,-10).
demandOffer(part6,prodloc15,-10).
demandOffer(part8,prodloc4,3).
demandOffer(part8,prodloc27,17).
demandOffer(part8,prodloc9,-10).
demandOffer(part8,prodloc0,-10).
demandOffer(part9,prodloc24,20).
demandOffer(part9,prodloc18,-20).

% ---- network (ASP-generated) ----
route(harbor0,harbor1,tr13,20903,125418).
route(harbor0,harbor1,tr2,20903,62709).
route(harbor0,harbor2,tr13,1318,7908).
route(harbor0,harbor2,tr2,1318,3954).
route(harbor0,harbor3,tr13,18692,112152).
route(harbor0,harbor3,tr2,18692,56076).
route(harbor0,harbor4,tr13,17910,107460).
route(harbor0,harbor4,tr2,17910,53730).
route(harbor0,harbor5,tr13,19325,115950).
route(harbor0,harbor5,tr2,19325,57975).
route(harbor0,harbor6,tr13,11714,70284).
route(harbor0,harbor6,tr2,11714,35142).
route(harbor0,harbor7,tr13,8320,49920).
route(harbor0,harbor7,tr2,8320,24960).
route(harbor0,harbor8,tr13,6931,41586).
route(harbor0,harbor8,tr2,6931,20793).
route(harbor0,harbor9,tr13,8689,52134).
route(harbor0,harbor9,tr2,8689,26067).
route(harbor0,harbor10,tr13,16713,100278).
route(harbor0,harbor10,tr2,16713,50139).
route(harbor0,harbor11,tr13,10431,62586).
route(harbor0,harbor11,tr2,10431,31293).
route(harbor0,harbor12,tr13,2046,12276).
route(harbor0,harbor12,tr2,2046,6138).
route(harbor0,harbor13,tr13,834,5004).
route(harbor0,harbor13,tr2,834,2502).
route(harbor0,harbor14,tr13,25411,152466).
route(harbor0,harbor14,tr2,25411,76233).
route(harbor0,harbor15,tr13,9234,55404).
route(harbor0,harbor15,tr2,9234,27702).
route(harbor0,harbor16,tr13,21448,128688).
route(harbor0,harbor16,tr2,21448,64344).
route(harbor0,prodloc0,tr0,28034,728884).
route(harbor0,prodloc0,tr13,28034,168204).
route(harbor0,prodloc1,tr0,6902,179452).
route(harbor0,prodloc1,tr13,6902,41412).
route(harbor0,prodloc2,tr0,2104,54704).
route(harbor0,prodloc2,tr13,2104,12624).
route(harbor0,prodloc3,tr0,6460,167960).
route(harbor0,prodloc3,tr13,6460,38760).
route(harbor0,prodloc4,tr0,9631,250406).
route(harbor0,prodloc4,tr13,9631,57786).
route(harbor0,prodloc5,tr0,17163,446238).
route(harbor0,prodloc5,tr13,17163,102978).
route(harbor0,prodloc6,tr0,15271,397046).
route(harbor0,prodloc6,tr13,15271,91626).
route(harbor0,prodloc7,tr0,24633,640458).
route(harbor0,prodloc7,tr13,24633,147798).
route(harbor0,prodloc8,tr0,16481,428506).
route(harbor0,prodloc8,tr13,16481,98886).
route(harbor0,prodloc9,tr0,4454,115804).
route(harbor0,prodloc9,tr13,4454,26724).
route(harbor0,prodloc10,tr0,10599,275574).
route(harbor0,prodloc10,tr13,10599,63594).
route(harbor0,prodloc11,tr0,26352,685152).
route(harbor0,prodloc11,tr13,26352,158112).
route(harbor0,prodloc12,tr0,16804,436904).
route(harbor0,prodloc12,tr13,16804,100824).
route(harbor0,prodloc13,tr0,26330,684580).
route(harbor0,prodloc13,tr13,26330,157980).
route(harbor0,prodloc14,tr0,8560,222560).
route(harbor0,prodloc14,tr13,8560,51360).
route(harbor0,prodloc15,tr0,18421,478946).
route(harbor0,prodloc15,tr13,18421,110526).
route(harbor0,prodloc16,tr0,23485,610610).
route(harbor0,prodloc16,tr13,23485,140910).
route(harbor0,prodloc17,tr0,23759,617734).
route(harbor0,prodloc17,tr13,23759,142554).
route(harbor0,prodloc18,tr0,24181,628706).
route(harbor0,prodloc18,tr13,24181,145086).
route(harbor0,prodloc19,tr0,10030,260780).
route(harbor0,prodloc19,tr13,10030,60180).
route(harbor0,prodloc20,tr0,21005,546130).
route(harbor0,prodloc20,tr13,21005,126030).
route(harbor0,prodloc21,tr0,24449,635674).
route(harbor0,prodloc21,tr13,24449,146694).
route(harbor0,prodloc22,tr0,22326,580476).
route(harbor0,prodloc22,tr13,22326,133956).
route(harbor0,prodloc23,tr0,17328,450528).
route(harbor0,prodloc23,tr13,17328,103968).
route(harbor0,prodloc24,tr0,9356,243256).
route(harbor0,prodloc24,tr13,9356,56136).
route(harbor0,prodloc25,tr0,21169,550394).
route(harbor0,prodloc25,tr13,21169,127014).
route(harbor0,prodloc26,tr0,16540,430040).
route(harbor0,prodloc26,tr13,16540,99240).
route(harbor0,prodloc27,tr0,18653,484978).
route(harbor0,prodloc27,tr13,18653,111918).
route(harbor0,prodloc28,tr0,14067,365742).
route(harbor0,prodloc28,tr13,14067,84402).
route(harbor0,prodloc29,tr0,27068,703768).
route(harbor0,prodloc29,tr13,27068,162408).
route(harbor0,prodloc30,tr0,15680,407680).
route(harbor0,prodloc30,tr13,15680,94080).
route(harbor0,prodloc31,tr0,2049,53274).
route(harbor0,prodloc31,tr13,2049,12294).
route(harbor0,prodloc32,tr0,28565,742690).
route(harbor0,prodloc32,tr13,28565,171390).
route(harbor0,prodloc33,tr0,27844,723944).
route(harbor0,prodloc33,tr13,27844,167064).
route(harbor1,harbor0,tr13,7358,44148).
route(harbor1,harbor0,tr2,7358,22074).
route(harbor1,harbor2,tr13,5090,30540).
route(harbor1,harbor2,tr2,5090,15270).
route(harbor1,harbor3,tr13,1315,7890).
route(harbor1,harbor3,tr2,1315,3945).
route(harbor1,harbor4,tr13,15048,90288).
route(harbor1,harbor4,tr2,15048,45144).
route(harbor1,harbor5,tr13,27985,167910).
route(harbor1,harbor5,tr2,27985,83955).
route(harbor1,harbor6,tr13,3823,22938).
route(harbor1,harbor6,tr2,3823,11469).
route(harbor1,harbor7,tr13,16838,101028).
route(harbor1,harbor7,tr2,16838,50514).
route(harbor1,harbor8,tr13,19394,116364).
route(harbor1,harbor8,tr2,19394,58182).
route(harbor1,harbor9,tr13,28489,170934).
route(harbor1,harbor9,tr2,28489,85467).
route(harbor1,harbor10,tr13,3339,20034).
route(harbor1,harbor10,tr2,3339,10017).
route(harbor1,harbor11,tr13,8566,51396).
route(harbor1,harbor11,tr2,8566,25698).
route(harbor1,harbor12,tr13,23538,141228).
route(harbor1,harbor12,tr2,23538,70614).
route(harbor1,harbor13,tr13,15327,91962).
route(harbor1,harbor13,tr2,15327,45981).
route(harbor1,harbor14,tr13,22833,136998).
route(harbor1,harbor14,tr2,22833,68499).
route(harbor1,harbor15,tr13,12457,74742).
route(harbor1,harbor15,tr2,12457,37371).
route(harbor1,harbor16,tr13,22514,135084).
route(harbor1,harbor16,tr2,22514,67542).
route(harbor1,prodloc0,tr0,10628,276328).
route(harbor1,prodloc0,tr13,10628,63768).
route(harbor1,prodloc1,tr0,10802,280852).
route(harbor1,prodloc1,tr13,10802,64812).
route(harbor1,prodloc2,tr0,12106,314756).
route(harbor1,prodloc2,tr13,12106,72636).
route(harbor1,prodloc3,tr0,6132,159432).
route(harbor1,prodloc3,tr13,6132,36792).
route(harbor1,prodloc4,tr0,14591,379366).
route(harbor1,prodloc4,tr13,14591,87546).
route(harbor1,prodloc5,tr0,28182,732732).
route(harbor1,prodloc5,tr13,28182,169092).
route(harbor1,prodloc6,tr0,27584,717184).
route(harbor1,prodloc6,tr13,27584,165504).
route(harbor1,prodloc7,tr0,10870,282620).
route(harbor1,prodloc7,tr13,10870,65220).
route(harbor1,prodloc8,tr0,23601,613626).
route(harbor1,prodloc8,tr13,23601,141606).
route(harbor1,prodloc9,tr0,3102,80652).
route(harbor1,prodloc9,tr13,3102,18612).
route(harbor1,prodloc10,tr0,20840,541840).
route(harbor1,prodloc10,tr13,20840,125040).
route(harbor1,prodloc11,tr0,21880,568880).
route(harbor1,prodloc11,tr13,21880,131280).
route(harbor1,prodloc12,tr0,21604,561704).
route(harbor1,prodloc12,tr13,21604,129624).
route(harbor1,prodloc13,tr0,17331,450606).
route(harbor1,prodloc13,tr13,17331,103986).
route(harbor1,prodloc14,tr0,14739,383214).
route(harbor1,prodloc14,tr13,14739,88434).
route(harbor1,prodloc15,tr0,13540,352040).
route(harbor1,prodloc15,tr13,13540,81240).
route(harbor1,prodloc16,tr0,20233,526058).
route(harbor1,prodloc16,tr13,20233,121398).
route(harbor1,prodloc17,tr0,1337,34762).
route(harbor1,prodloc17,tr13,1337,8022).
route(harbor1,prodloc18,tr0,28567,742742).
route(harbor1,prodloc18,tr13,28567,171402).
route(harbor1,prodloc19,tr0,11858,308308).
route(harbor1,prodloc19,tr13,11858,71148).
route(harbor1,prodloc20,tr0,3071,79846).
route(harbor1,prodloc20,tr13,3071,18426).
route(harbor1,prodloc21,tr0,10389,270114).
route(harbor1,prodloc21,tr13,10389,62334).
route(harbor1,prodloc22,tr0,14318,372268).
route(harbor1,prodloc22,tr13,14318,85908).
route(harbor1,prodloc23,tr0,12030,312780).
route(harbor1,prodloc23,tr13,12030,72180).
route(harbor1,prodloc24,tr0,15006,390156).
route(harbor1,prodloc24,tr13,15006,90036).
route(harbor1,prodloc25,tr0,19448,505648).
route(harbor1,prodloc25,tr13,19448,116688).
route(harbor1,prodloc26,tr0,23955,622830).
route(harbor1,prodloc26,tr13,23955,143730).
route(harbor1,prodloc27,tr0,12031,312806).
route(harbor1,prodloc27,tr13,12031,72186).
route(harbor1,prodloc28,tr0,1474,38324).
route(harbor1,prodloc28,tr13,1474,8844).
route(harbor1,prodloc29,tr0,9693,252018).
route(harbor1,prodloc29,tr13,9693,58158).
route(harbor1,prodloc30,tr0,8587,223262).
route(harbor1,prodloc30,tr13,8587,51522).
route(harbor1,prodloc31,tr0,8989,233714).
route(harbor1,prodloc31,tr13,8989,53934).
route(harbor1,prodloc32,tr0,2896,75296).
route(harbor1,prodloc32,tr13,2896,17376).
route(harbor1,prodloc33,tr0,7422,192972).
route(harbor1,prodloc33,tr13,7422,44532).
route(harbor2,harbor0,tr13,12870,77220).
route(harbor2,harbor0,tr2,12870,38610).
route(harbor2,harbor1,tr13,1070,6420).
route(harbor2,harbor1,tr2,1070,3210).
route(harbor2,harbor3,tr13,5613,33678).
route(harbor2,harbor3,tr2,5613,16839).
route(harbor2,harbor4,tr13,5456,32736).
route(harbor2,harbor4,tr2,5456,16368).
route(harbor2,harbor5,tr13,15427,92562).
route(harbor2,harbor5,tr2,15427,46281).
route(harbor2,harbor6,tr13,21784,130704).
route(harbor2,harbor6,tr2,21784,65352).
route(harbor2,harbor7,tr13,23458,140748).
route(harbor2,harbor7,tr2,23458,70374).
route(harbor2,harbor8,tr13,18198,109188).
route(harbor2,harbor8,tr2,18198,54594).
route(harbor2,harbor9,tr13,3532,21192).
route(harbor2,harbor9,tr2,3532,10596).
route(harbor2,harbor10,tr13,23291,139746).
route(harbor2,harbor10,tr2,23291,69873).
route(harbor2,harbor11,tr13,19575,117450).
route(harbor2,harbor11,tr2,19575,58725).
route(harbor2,harbor12,tr13,16886,101316).
route(harbor2,harbor12,tr2,16886,50658).
route(harbor2,harbor13,tr13,3012,18072).
route(harbor2,harbor13,tr2,3012,9036).
route(harbor2,harbor14,tr13,28664,171984).
route(harbor2,harbor14,tr2,28664,85992).
route(harbor2,harbor15,tr13,1224,7344).
route(harbor2,harbor15,tr2,1224,3672).
route(harbor2,harbor16,tr13,19283,115698).
route(harbor2,harbor16,tr2,19283,57849).
route(harbor2,prodloc0,tr0,14287,371462).
route(harbor2,prodloc0,tr13,14287,85722).
route(harbor2,prodloc1,tr0,1530,39780).
route(harbor2,prodloc1,tr13,1530,9180).
route(harbor2,prodloc2,tr0,23459,609934).
route(harbor2,prodloc2,tr13,23459,140754).
route(harbor2,prodloc3,tr0,22369,581594).
route(harbor2,prodloc3,tr13,22369,134214).
route(harbor2,prodloc4,tr0,4591,119366).
route(harbor2,prodloc4,tr13,4591,27546).
route(harbor2,prodloc5,tr0,20094,522444).
route(harbor2,prodloc5,tr13,20094,120564).
route(harbor2,prodloc6,tr0,10632,276432).
route(harbor2,prodloc6,tr13,10632,63792).
route(harbor2,prodloc7,tr0,8040,209040).
route(harbor2,prodloc7,tr13,8040,48240).
route(harbor2,prodloc8,tr0,17756,461656).
route(harbor2,prodloc8,tr13,17756,106536).
route(harbor2,prodloc9,tr0,23943,622518).
route(harbor2,prodloc9,tr13,23943,143658).
route(harbor2,prodloc10,tr0,17876,464776).
route(harbor2,prodloc10,tr13,17876,107256).
route(harbor2,prodloc11,tr0,27387,712062).
route(harbor2,prodloc11,tr13,27387,164322).
route(harbor2,prodloc12,tr0,1092,28392).
route(harbor2,prodloc12,tr13,1092,6552).
route(harbor2,prodloc13,tr0,9083,236158).
route(harbor2,prodloc13,tr13,9083,54498).
route(harbor2,prodloc14,tr0,6266,162916).
route(harbor2,prodloc14,tr13,6266,37596).
route(harbor2,prodloc15,tr0,4865,126490).
route(harbor2,prodloc15,tr13,4865,29190).
route(harbor2,prodloc16,tr0,8187,212862).
route(harbor2,prodloc16,tr13,8187,49122).
route(harbor2,prodloc17,tr0,9476,246376).
route(harbor2,prodloc17,tr13,9476,56856).
route(harbor2,prodloc18,tr0,3985,103610).
route(harbor2,prodloc18,tr13,3985,23910).
route(harbor2,prodloc19,tr0,19318,502268).
route(harbor2,prodloc19,tr13,19318,115908).
route(harbor2,prodloc20,tr0,27653,718978).
route(harbor2,prodloc20,tr13,27653,165918).
route(harbor2,prodloc21,tr0,14555,378430).
route(harbor2,prodloc21,tr13,14555,87330).
route(harbor2,prodloc22,tr0,4206,109356).
route(harbor2,prodloc22,tr13,4206,25236).
route(harbor2,prodloc23,tr0,2367,61542).
route(harbor2,prodloc23,tr13,2367,14202).
route(harbor2,prodloc24,tr0,22769,591994).
route(harbor2,prodloc24,tr13,22769,136614).
route(harbor2,prodloc25,tr0,14736,383136).
route(harbor2,prodloc25,tr13,14736,88416).
route(harbor2,prodloc26,tr0,10180,264680).
route(harbor2,prodloc26,tr13,10180,61080).
route(harbor2,prodloc27,tr0,17933,466258).
route(harbor2,prodloc27,tr13,17933,107598).
route(harbor2,prodloc28,tr0,13293,345618).
route(harbor2,prodloc28,tr13,13293,79758).
route(harbor2,prodloc29,tr0,18965,493090).
route(harbor2,prodloc29,tr13,18965,113790).
route(harbor2,prodloc30,tr0,7369,191594).
route(harbor2,prodloc30,tr13,7369,44214).
route(harbor2,prodloc31,tr0,11596,301496).
route(harbor2,prodloc31,tr13,11596,69576).
route(harbor2,prodloc32,tr0,24213,629538).
route(harbor2,prodloc32,tr13,24213,145278).
route(harbor2,prodloc33,tr0,25734,669084).
route(harbor2,prodloc33,tr13,25734,154404).
route(harbor3,harbor0,tr13,3415,20490).
route(harbor3,harbor0,tr2,3415,10245).
route(harbor3,harbor1,tr13,22208,133248).
route(harbor3,harbor1,tr2,22208,66624).
route(harbor3,harbor2,tr13,7926,47556).
route(harbor3,harbor2,tr2,7926,23778).
route(harbor3,harbor4,tr13,8497,50982).
route(harbor3,harbor4,tr2,8497,25491).
route(harbor3,harbor5,tr13,4537,27222).
route(harbor3,harbor5,tr2,4537,13611).
route(harbor3,harbor6,tr13,11381,68286).
route(harbor3,harbor6,tr2,11381,34143).
route(harbor3,harbor7,tr13,15112,90672).
route(harbor3,harbor7,tr2,15112,45336).
route(harbor3,harbor8,tr13,18347,110082).
route(harbor3,harbor8,tr2,18347,55041).
route(harbor3,harbor9,tr13,7273,43638).
route(harbor3,harbor9,tr2,7273,21819).
route(harbor3,harbor10,tr13,18221,109326).
route(harbor3,harbor10,tr2,18221,54663).
route(harbor3,harbor11,tr13,14692,88152).
route(harbor3,harbor11,tr2,14692,44076).
route(harbor3,harbor12,tr13,29207,175242).
route(harbor3,harbor12,tr2,29207,87621).
route(harbor3,harbor13,tr13,9992,59952).
route(harbor3,harbor13,tr2,9992,29976).
route(harbor3,harbor14,tr13,1985,11910).
route(harbor3,harbor14,tr2,1985,5955).
route(harbor3,harbor15,tr13,19142,114852).
route(harbor3,harbor15,tr2,19142,57426).
route(harbor3,harbor16,tr13,27860,167160).
route(harbor3,harbor16,tr2,27860,83580).
route(harbor3,prodloc0,tr0,26057,677482).
route(harbor3,prodloc0,tr13,26057,156342).
route(harbor3,prodloc1,tr0,14360,373360).
route(harbor3,prodloc1,tr13,14360,86160).
route(harbor3,prodloc2,tr0,4047,105222).
route(harbor3,prodloc2,tr13,4047,24282).
route(harbor3,prodloc3,tr0,6238,162188).
route(harbor3,prodloc3,tr13,6238,37428).
route(harbor3,prodloc4,tr0,20145,523770).
route(harbor3,prodloc4,tr13,20145,120870).
route(harbor3,prodloc5,tr0,2091,54366).
route(harbor3,prodloc5,tr13,2091,12546).
route(harbor3,prodloc6,tr0,16165,420290).
route(harbor3,prodloc6,tr13,16165,96990).
route(harbor3,prodloc7,tr0,4128,107328).
route(harbor3,prodloc7,tr13,4128,24768).
route(harbor3,prodloc8,tr0,12669,329394).
route(harbor3,prodloc8,tr13,12669,76014).
route(harbor3,prodloc9,tr0,17064,443664).
route(harbor3,prodloc9,tr13,17064,102384).
route(harbor3,prodloc10,tr0,9207,239382).
route(harbor3,prodloc10,tr13,9207,55242).
route(harbor3,prodloc11,tr0,16021,416546).
route(harbor3,prodloc11,tr13,16021,96126).
route(harbor3,prodloc12,tr0,11480,298480).
route(harbor3,prodloc12,tr13,11480,68880).
route(harbor3,prodloc13,tr0,14848,386048).
route(harbor3,prodloc13,tr13,14848,89088).
route(harbor3,prodloc14,tr0,1630,42380).
route(harbor3,prodloc14,tr13,1630,9780).
route(harbor3,prodloc15,tr0,17219,447694).
route(harbor3,prodloc15,tr13,17219,103314).
route(harbor3,prodloc16,tr0,13949,362674).
route(harbor3,prodloc16,tr13,13949,83694).
route(harbor3,prodloc17,tr0,868,22568).
route(harbor3,prodloc17,tr13,868,5208).
route(harbor3,prodloc18,tr0,18884,490984).
route(harbor3,prodloc18,tr13,18884,113304).
route(harbor3,prodloc19,tr0,7387,192062).
route(harbor3,prodloc19,tr13,7387,44322).
route(harbor3,prodloc20,tr0,21671,563446).
route(harbor3,prodloc20,tr13,21671,130026).
route(harbor3,prodloc21,tr0,10140,263640).
route(harbor3,prodloc21,tr13,10140,60840).
route(harbor3,prodloc22,tr0,18246,474396).
route(harbor3,prodloc22,tr13,18246,109476).
route(harbor3,prodloc23,tr0,7988,207688).
route(harbor3,prodloc23,tr13,7988,47928).
route(harbor3,prodloc24,tr0,3375,87750).
route(harbor3,prodloc24,tr13,3375,20250).
route(harbor3,prodloc25,tr0,25825,671450).
route(harbor3,prodloc25,tr13,25825,154950).
route(harbor3,prodloc26,tr0,13099,340574).
route(harbor3,prodloc26,tr13,13099,78594).
route(harbor3,prodloc27,tr0,13666,355316).
route(harbor3,prodloc27,tr13,13666,81996).
route(harbor3,prodloc28,tr0,20775,540150).
route(harbor3,prodloc28,tr13,20775,124650).
route(harbor3,prodloc29,tr0,4468,116168).
route(harbor3,prodloc29,tr13,4468,26808).
route(harbor3,prodloc30,tr0,22554,586404).
route(harbor3,prodloc30,tr13,22554,135324).
route(harbor3,prodloc31,tr0,17504,455104).
route(harbor3,prodloc31,tr13,17504,105024).
route(harbor3,prodloc32,tr0,7540,196040).
route(harbor3,prodloc32,tr13,7540,45240).
route(harbor3,prodloc33,tr0,5119,133094).
route(harbor3,prodloc33,tr13,5119,30714).
route(harbor4,harbor0,tr13,15023,90138).
route(harbor4,harbor0,tr2,15023,45069).
route(harbor4,harbor1,tr13,6127,36762).
route(harbor4,harbor1,tr2,6127,18381).
route(harbor4,harbor2,tr13,23468,140808).
route(harbor4,harbor2,tr2,23468,70404).
route(harbor4,harbor3,tr13,19954,119724).
route(harbor4,harbor3,tr2,19954,59862).
route(harbor4,harbor5,tr13,15675,94050).
route(harbor4,harbor5,tr2,15675,47025).
route(harbor4,harbor6,tr13,2847,17082).
route(harbor4,harbor6,tr2,2847,8541).
route(harbor4,harbor7,tr13,9177,55062).
route(harbor4,harbor7,tr2,9177,27531).
route(harbor4,harbor8,tr13,24824,148944).
route(harbor4,harbor8,tr2,24824,74472).
route(harbor4,harbor9,tr13,13193,79158).
route(harbor4,harbor9,tr2,13193,39579).
route(harbor4,harbor10,tr13,14408,86448).
route(harbor4,harbor10,tr2,14408,43224).
route(harbor4,harbor11,tr13,19396,116376).
route(harbor4,harbor11,tr2,19396,58188).
route(harbor4,harbor12,tr13,2139,12834).
route(harbor4,harbor12,tr2,2139,6417).
route(harbor4,harbor13,tr13,18958,113748).
route(harbor4,harbor13,tr2,18958,56874).
route(harbor4,harbor14,tr13,22117,132702).
route(harbor4,harbor14,tr2,22117,66351).
route(harbor4,harbor15,tr13,95,570).
route(harbor4,harbor15,tr2,95,285).
route(harbor4,harbor16,tr13,24229,145374).
route(harbor4,harbor16,tr2,24229,72687).
route(harbor4,prodloc0,tr0,7932,206232).
route(harbor4,prodloc0,tr13,7932,47592).
route(harbor4,prodloc1,tr0,27572,716872).
route(harbor4,prodloc1,tr13,27572,165432).
route(harbor4,prodloc2,tr0,27665,719290).
route(harbor4,prodloc2,tr13,27665,165990).
route(harbor4,prodloc3,tr0,2752,71552).
route(harbor4,prodloc3,tr13,2752,16512).
route(harbor4,prodloc4,tr0,8897,231322).
route(harbor4,prodloc4,tr13,8897,53382).
route(harbor4,prodloc5,tr0,8140,211640).
route(harbor4,prodloc5,tr13,8140,48840).
route(harbor4,prodloc6,tr0,15936,414336).
route(harbor4,prodloc6,tr13,15936,95616).
route(harbor4,prodloc7,tr0,5368,139568).
route(harbor4,prodloc7,tr13,5368,32208).
route(harbor4,prodloc8,tr0,24290,631540).
route(harbor4,prodloc8,tr13,24290,145740).
route(harbor4,prodloc9,tr0,17058,443508).
route(harbor4,prodloc9,tr13,17058,102348).
route(harbor4,prodloc10,tr0,13007,338182).
route(harbor4,prodloc10,tr13,13007,78042).
route(harbor4,prodloc11,tr0,8613,223938).
route(harbor4,prodloc11,tr13,8613,51678).
route(harbor4,prodloc12,tr0,15232,396032).
route(harbor4,prodloc12,tr13,15232,91392).
route(harbor4,prodloc13,tr0,13871,360646).
route(harbor4,prodloc13,tr13,13871,83226).
route(harbor4,prodloc14,tr0,26361,685386).
route(harbor4,prodloc14,tr13,26361,158166).
route(harbor4,prodloc15,tr0,714,18564).
route(harbor4,prodloc15,tr13,714,4284).
route(harbor4,prodloc16,tr0,4574,118924).
route(harbor4,prodloc16,tr13,4574,27444).
route(harbor4,prodloc17,tr0,3118,81068).
route(harbor4,prodloc17,tr13,3118,18708).
route(harbor4,prodloc18,tr0,5665,147290).
route(harbor4,prodloc18,tr13,5665,33990).
route(harbor4,prodloc19,tr0,13995,363870).
route(harbor4,prodloc19,tr13,13995,83970).
route(harbor4,prodloc20,tr0,26481,688506).
route(harbor4,prodloc20,tr13,26481,158886).
route(harbor4,prodloc21,tr0,621,16146).
route(harbor4,prodloc21,tr13,621,3726).
route(harbor4,prodloc22,tr0,8812,229112).
route(harbor4,prodloc22,tr13,8812,52872).
route(harbor4,prodloc23,tr0,19985,519610).
route(harbor4,prodloc23,tr13,19985,119910).
route(harbor4,prodloc24,tr0,25704,668304).
route(harbor4,prodloc24,tr13,25704,154224).
route(harbor4,prodloc25,tr0,16050,417300).
route(harbor4,prodloc25,tr13,16050,96300).
route(harbor4,prodloc26,tr0,19604,509704).
route(harbor4,prodloc26,tr13,19604,117624).
route(harbor4,prodloc27,tr0,10904,283504).
route(harbor4,prodloc27,tr13,10904,65424).
route(harbor4,prodloc28,tr0,8162,212212).
route(harbor4,prodloc28,tr13,8162,48972).
route(harbor4,prodloc29,tr0,10115,262990).
route(harbor4,prodloc29,tr13,10115,60690).
route(harbor4,prodloc30,tr0,5909,153634).
route(harbor4,prodloc30,tr13,5909,35454).
route(harbor4,prodloc31,tr0,25365,659490).
route(harbor4,prodloc31,tr13,25365,152190).
route(harbor4,prodloc32,tr0,2314,60164).
route(harbor4,prodloc32,tr13,2314,13884).
route(harbor4,prodloc33,tr0,17840,463840).
route(harbor4,prodloc33,tr13,17840,107040).
route(harbor5,harbor0,tr13,10004,60024).
route(harbor5,harbor0,tr2,10004,30012).
route(harbor5,harbor1,tr13,882,5292).
route(harbor5,harbor1,tr2,882,2646).
route(harbor5,harbor2,tr13,4011,24066).
route(harbor5,harbor2,tr2,4011,12033).
route(harbor5,harbor3,tr13,2404,14424).
route(harbor5,harbor3,tr2,2404,7212).
route(harbor5,harbor4,tr13,1626,9756).
route(harbor5,harbor4,tr2,1626,4878).
route(harbor5,harbor6,tr13,21894,131364).
route(harbor5,harbor6,tr2,21894,65682).
route(harbor5,harbor7,tr13,25424,152544).
route(harbor5,harbor7,tr2,25424,76272).
route(harbor5,harbor8,tr13,2915,17490).
route(harbor5,harbor8,tr2,2915,8745).
route(harbor5,harbor9,tr13,17532,105192).
route(harbor5,harbor9,tr2,17532,52596).
route(harbor5,harbor10,tr13,15047,90282).
route(harbor5,harbor10,tr2,15047,45141).
route(harbor5,harbor11,tr13,2096,12576).
route(harbor5,harbor11,tr2,2096,6288).
route(harbor5,harbor12,tr13,1184,7104).
route(harbor5,harbor12,tr2,1184,3552).
route(harbor5,harbor13,tr13,3099,18594).
route(harbor5,harbor13,tr2,3099,9297).
route(harbor5,harbor14,tr13,26883,161298).
route(harbor5,harbor14,tr2,26883,80649).
route(harbor5,harbor15,tr13,12514,75084).
route(harbor5,harbor15,tr2,12514,37542).
route(harbor5,harbor16,tr13,22586,135516).
route(harbor5,harbor16,tr2,22586,67758).
route(harbor5,prodloc0,tr0,16116,419016).
route(harbor5,prodloc0,tr13,16116,96696).
route(harbor5,prodloc1,tr0,10172,264472).
route(harbor5,prodloc1,tr13,10172,61032).
route(harbor5,prodloc2,tr0,12207,317382).
route(harbor5,prodloc2,tr13,12207,73242).
route(harbor5,prodloc3,tr0,11033,286858).
route(harbor5,prodloc3,tr13,11033,66198).
route(harbor5,prodloc4,tr0,9217,239642).
route(harbor5,prodloc4,tr13,9217,55302).
route(harbor5,prodloc5,tr0,4866,126516).
route(harbor5,prodloc5,tr13,4866,29196).
route(harbor5,prodloc6,tr0,3920,101920).
route(harbor5,prodloc6,tr13,3920,23520).
route(harbor5,prodloc7,tr0,19957,518882).
route(harbor5,prodloc7,tr13,19957,119742).
route(harbor5,prodloc8,tr0,1825,47450).
route(harbor5,prodloc8,tr13,1825,10950).
route(harbor5,prodloc9,tr0,1430,37180).
route(harbor5,prodloc9,tr13,1430,8580).
route(harbor5,prodloc10,tr0,11891,309166).
route(harbor5,prodloc10,tr13,11891,71346).
route(harbor5,prodloc11,tr0,5896,153296).
route(harbor5,prodloc11,tr13,5896,35376).
route(harbor5,prodloc12,tr0,3812,99112).
route(harbor5,prodloc12,tr13,3812,22872).
route(harbor5,prodloc13,tr0,20966,545116).
route(harbor5,prodloc13,tr13,20966,125796).
route(harbor5,prodloc14,tr0,11011,286286).
route(harbor5,prodloc14,tr13,11011,66066).
route(harbor5,prodloc15,tr0,16019,416494).
route(harbor5,prodloc15,tr13,16019,96114).
route(harbor5,prodloc16,tr0,11536,299936).
route(harbor5,prodloc16,tr13,11536,69216).
route(harbor5,prodloc17,tr0,8261,214786).
route(harbor5,prodloc17,tr13,8261,49566).
route(harbor5,prodloc18,tr0,23484,610584).
route(harbor5,prodloc18,tr13,23484,140904).
route(harbor5,prodloc19,tr0,20572,534872).
route(harbor5,prodloc19,tr13,20572,123432).
route(harbor5,prodloc20,tr0,15297,397722).
route(harbor5,prodloc20,tr13,15297,91782).
route(harbor5,prodloc21,tr0,3503,91078).
route(harbor5,prodloc21,tr13,3503,21018).
route(harbor5,prodloc22,tr0,17687,459862).
route(harbor5,prodloc22,tr13,17687,106122).
route(harbor5,prodloc23,tr0,20916,543816).
route(harbor5,prodloc23,tr13,20916,125496).
route(harbor5,prodloc24,tr0,25674,667524).
route(harbor5,prodloc24,tr13,25674,154044).
route(harbor5,prodloc25,tr0,18861,490386).
route(harbor5,prodloc25,tr13,18861,113166).
route(harbor5,prodloc26,tr0,6842,177892).
route(harbor5,prodloc26,tr13,6842,41052).
route(harbor5,prodloc27,tr0,1126,29276).
route(harbor5,prodloc27,tr13,1126,6756).
route(harbor5,prodloc28,tr0,19530,507780).
route(harbor5,prodloc28,tr13,19530,117180).
route(harbor5,prodloc29,tr0,5611,145886).
route(harbor5,prodloc29,tr13,5611,33666).
route(harbor5,prodloc30,tr0,8899,231374).
route(harbor5,prodloc30,tr13,8899,53394).
route(harbor5,prodloc31,tr0,24736,643136).
route(harbor5,prodloc31,tr13,24736,148416).
route(harbor5,prodloc32,tr0,18837,489762).
route(harbor5,prodloc32,tr13,18837,113022).
route(harbor5,prodloc33,tr0,12660,329160).
route(harbor5,prodloc33,tr13,12660,75960).
route(harbor6,harbor0,tr13,10359,62154).
route(harbor6,harbor0,tr2,10359,31077).
route(harbor6,harbor1,tr13,618,3708).
route(harbor6,harbor1,tr2,618,1854).
route(harbor6,harbor2,tr13,6918,41508).
route(harbor6,harbor2,tr2,6918,20754).
route(harbor6,harbor3,tr13,17659,105954).
route(harbor6,harbor3,tr2,17659,52977).
route(harbor6,harbor4,tr13,16110,96660).
route(harbor6,harbor4,tr2,16110,48330).
route(harbor6,harbor5,tr13,26626,159756).
route(harbor6,harbor5,tr2,26626,79878).
route(harbor6,harbor7,tr13,2376,14256).
route(harbor6,harbor7,tr2,2376,7128).
route(harbor6,harbor8,tr13,852,5112).
route(harbor6,harbor8,tr2,852,2556).
route(harbor6,harbor9,tr13,23611,141666).
route(harbor6,harbor9,tr2,23611,70833).
route(harbor6,harbor10,tr13,25845,155070).
route(harbor6,harbor10,tr2,25845,77535).
route(harbor6,harbor11,tr13,15935,95610).
route(harbor6,harbor11,tr2,15935,47805).
route(harbor6,harbor12,tr13,7482,44892).
route(harbor6,harbor12,tr2,7482,22446).
route(harbor6,harbor13,tr13,21942,131652).
route(harbor6,harbor13,tr2,21942,65826).
route(harbor6,harbor14,tr13,19650,117900).
route(harbor6,harbor14,tr2,19650,58950).
route(harbor6,harbor15,tr13,5824,34944).
route(harbor6,harbor15,tr2,5824,17472).
route(harbor6,harbor16,tr13,6100,36600).
route(harbor6,harbor16,tr2,6100,18300).
route(harbor6,prodloc0,tr0,5468,142168).
route(harbor6,prodloc0,tr13,5468,32808).
route(harbor6,prodloc1,tr0,20822,541372).
route(harbor6,prodloc1,tr13,20822,124932).
route(harbor6,prodloc2,tr0,12560,326560).
route(harbor6,prodloc2,tr13,12560,75360).
route(harbor6,prodloc3,tr0,5573,144898).
route(harbor6,prodloc3,tr13,5573,33438).
route(harbor6,prodloc4,tr0,23464,610064).
route(harbor6,prodloc4,tr13,23464,140784).
route(harbor6,prodloc5,tr0,17521,455546).
route(harbor6,prodloc5,tr13,17521,105126).
route(harbor6,prodloc6,tr0,2267,58942).
route(harbor6,prodloc6,tr13,2267,13602).
route(harbor6,prodloc7,tr0,25861,672386).
route(harbor6,prodloc7,tr13,25861,155166).
route(harbor6,prodloc8,tr0,6146,159796).
route(harbor6,prodloc8,tr13,6146,36876).
route(harbor6,prodloc9,tr0,8235,214110).
route(harbor6,prodloc9,tr13,8235,49410).
route(harbor6,prodloc10,tr0,3361,87386).
route(harbor6,prodloc10,tr13,3361,20166).
route(harbor6,prodloc11,tr0,5383,139958).
route(harbor6,prodloc11,tr13,5383,32298).
route(harbor6,prodloc12,tr0,21197,551122).
route(harbor6,prodloc12,tr13,21197,127182).
route(harbor6,prodloc13,tr0,15980,415480).
route(harbor6,prodloc13,tr13,15980,95880).
route(harbor6,prodloc14,tr0,17361,451386).
route(harbor6,prodloc14,tr13,17361,104166).
route(harbor6,prodloc15,tr0,16568,430768).
route(harbor6,prodloc15,tr13,16568,99408).
route(harbor6,prodloc16,tr0,13621,354146).
route(harbor6,prodloc16,tr13,13621,81726).
route(harbor6,prodloc17,tr0,6787,176462).
route(harbor6,prodloc17,tr13,6787,40722).
route(harbor6,prodloc18,tr0,17592,457392).
route(harbor6,prodloc18,tr13,17592,105552).
route(harbor6,prodloc19,tr0,2376,61776).
route(harbor6,prodloc19,tr13,2376,14256).
route(harbor6,prodloc20,tr0,19559,508534).
route(harbor6,prodloc20,tr13,19559,117354).
route(harbor6,prodloc21,tr0,17278,449228).
route(harbor6,prodloc21,tr13,17278,103668).
route(harbor6,prodloc22,tr0,14329,372554).
route(harbor6,prodloc22,tr13,14329,85974).
route(harbor6,prodloc23,tr0,11374,295724).
route(harbor6,prodloc23,tr13,11374,68244).
route(harbor6,prodloc24,tr0,19962,519012).
route(harbor6,prodloc24,tr13,19962,119772).
route(harbor6,prodloc25,tr0,6203,161278).
route(harbor6,prodloc25,tr13,6203,37218).
route(harbor6,prodloc26,tr0,10403,270478).
route(harbor6,prodloc26,tr13,10403,62418).
route(harbor6,prodloc27,tr0,17091,444366).
route(harbor6,prodloc27,tr13,17091,102546).
route(harbor6,prodloc28,tr0,4981,129506).
route(harbor6,prodloc28,tr13,4981,29886).
route(harbor6,prodloc29,tr0,20681,537706).
route(harbor6,prodloc29,tr13,20681,124086).
route(harbor6,prodloc30,tr0,21539,560014).
route(harbor6,prodloc30,tr13,21539,129234).
route(harbor6,prodloc31,tr0,19406,504556).
route(harbor6,prodloc31,tr13,19406,116436).
route(harbor6,prodloc32,tr0,6345,164970).
route(harbor6,prodloc32,tr13,6345,38070).
route(harbor6,prodloc33,tr0,406,10556).
route(harbor6,prodloc33,tr13,406,2436).
route(harbor7,harbor0,tr13,27256,163536).
route(harbor7,harbor0,tr2,27256,81768).
route(harbor7,harbor1,tr13,1391,8346).
route(harbor7,harbor1,tr2,1391,4173).
route(harbor7,harbor2,tr13,22604,135624).
route(harbor7,harbor2,tr2,22604,67812).
route(harbor7,harbor3,tr13,8644,51864).
route(harbor7,harbor3,tr2,8644,25932).
route(harbor7,harbor4,tr13,27711,166266).
route(harbor7,harbor4,tr2,27711,83133).
route(harbor7,harbor5,tr13,10104,60624).
route(harbor7,harbor5,tr2,10104,30312).
route(harbor7,harbor6,tr13,27608,165648).
route(harbor7,harbor6,tr2,27608,82824).
route(harbor7,harbor8,tr13,22935,137610).
route(harbor7,harbor8,tr2,22935,68805).
route(harbor7,harbor9,tr13,13977,83862).
route(harbor7,harbor9,tr2,13977,41931).
route(harbor7,harbor10,tr13,15373,92238).
route(harbor7,harbor10,tr2,15373,46119).
route(harbor7,harbor11,tr13,6147,36882).
route(harbor7,harbor11,tr2,6147,18441).
route(harbor7,harbor12,tr13,22579,135474).
route(harbor7,harbor12,tr2,22579,67737).
route(harbor7,harbor13,tr13,22846,137076).
route(harbor7,harbor13,tr2,22846,68538).
route(harbor7,harbor14,tr13,17605,105630).
route(harbor7,harbor14,tr2,17605,52815).
route(harbor7,harbor15,tr13,2188,13128).
route(harbor7,harbor15,tr2,2188,6564).
route(harbor7,harbor16,tr13,22749,136494).
route(harbor7,harbor16,tr2,22749,68247).
route(harbor7,prodloc0,tr0,20641,536666).
route(harbor7,prodloc0,tr13,20641,123846).
route(harbor7,prodloc1,tr0,13276,345176).
route(harbor7,prodloc1,tr13,13276,79656).
route(harbor7,prodloc2,tr0,16398,426348).
route(harbor7,prodloc2,tr13,16398,98388).
route(harbor7,prodloc3,tr0,796,20696).
route(harbor7,prodloc3,tr13,796,4776).
route(harbor7,prodloc4,tr0,28242,734292).
route(harbor7,prodloc4,tr13,28242,169452).
route(harbor7,prodloc5,tr0,18638,484588).
route(harbor7,prodloc5,tr13,18638,111828).
route(harbor7,prodloc6,tr0,20320,528320).
route(harbor7,prodloc6,tr13,20320,121920).
route(harbor7,prodloc7,tr0,21316,554216).
route(harbor7,prodloc7,tr13,21316,127896).
route(harbor7,prodloc8,tr0,22095,574470).
route(harbor7,prodloc8,tr13,22095,132570).
route(harbor7,prodloc9,tr0,14634,380484).
route(harbor7,prodloc9,tr13,14634,87804).
route(harbor7,prodloc10,tr0,19033,494858).
route(harbor7,prodloc10,tr13,19033,114198).
route(harbor7,prodloc11,tr0,8363,217438).
route(harbor7,prodloc11,tr13,8363,50178).
route(harbor7,prodloc12,tr0,17054,443404).
route(harbor7,prodloc12,tr13,17054,102324).
route(harbor7,prodloc13,tr0,22007,572182).
route(harbor7,prodloc13,tr13,22007,132042).
route(harbor7,prodloc14,tr0,18438,479388).
route(harbor7,prodloc14,tr13,18438,110628).
route(harbor7,prodloc15,tr0,9132,237432).
route(harbor7,prodloc15,tr13,9132,54792).
route(harbor7,prodloc16,tr0,25498,662948).
route(harbor7,prodloc16,tr13,25498,152988).
route(harbor7,prodloc17,tr0,14759,383734).
route(harbor7,prodloc17,tr13,14759,88554).
route(harbor7,prodloc18,tr0,26721,694746).
route(harbor7,prodloc18,tr13,26721,160326).
route(harbor7,prodloc19,tr0,12718,330668).
route(harbor7,prodloc19,tr13,12718,76308).
route(harbor7,prodloc20,tr0,24718,642668).
route(harbor7,prodloc20,tr13,24718,148308).
route(harbor7,prodloc21,tr0,18793,488618).
route(harbor7,prodloc21,tr13,18793,112758).
route(harbor7,prodloc22,tr0,10336,268736).
route(harbor7,prodloc22,tr13,10336,62016).
route(harbor7,prodloc23,tr0,3085,80210).
route(harbor7,prodloc23,tr13,3085,18510).
route(harbor7,prodloc24,tr0,15822,411372).
route(harbor7,prodloc24,tr13,15822,94932).
route(harbor7,prodloc25,tr0,4342,112892).
route(harbor7,prodloc25,tr13,4342,26052).
route(harbor7,prodloc26,tr0,27668,719368).
route(harbor7,prodloc26,tr13,27668,166008).
route(harbor7,prodloc27,tr0,27863,724438).
route(harbor7,prodloc27,tr13,27863,167178).
route(harbor7,prodloc28,tr0,17906,465556).
route(harbor7,prodloc28,tr13,17906,107436).
route(harbor7,prodloc29,tr0,17577,457002).
route(harbor7,prodloc29,tr13,17577,105462).
route(harbor7,prodloc30,tr0,12986,337636).
route(harbor7,prodloc30,tr13,12986,77916).
route(harbor7,prodloc31,tr0,4880,126880).
route(harbor7,prodloc31,tr13,4880,29280).
route(harbor7,prodloc32,tr0,1561,40586).
route(harbor7,prodloc32,tr13,1561,9366).
route(harbor7,prodloc33,tr0,23001,598026).
route(harbor7,prodloc33,tr13,23001,138006).
route(harbor8,harbor0,tr13,24792,148752).
route(harbor8,harbor0,tr2,24792,74376).
route(harbor8,harbor1,tr13,12888,77328).
route(harbor8,harbor1,tr2,12888,38664).
route(harbor8,harbor2,tr13,19532,117192).
route(harbor8,harbor2,tr2,19532,58596).
route(harbor8,harbor3,tr13,7077,42462).
route(harbor8,harbor3,tr2,7077,21231).
route(harbor8,harbor4,tr13,7797,46782).
route(harbor8,harbor4,tr2,7797,23391).
route(harbor8,harbor5,tr13,29312,175872).
route(harbor8,harbor5,tr2,29312,87936).
route(harbor8,harbor6,tr13,25652,153912).
route(harbor8,harbor6,tr2,25652,76956).
route(harbor8,harbor7,tr13,3159,18954).
route(harbor8,harbor7,tr2,3159,9477).
route(harbor8,harbor9,tr13,24425,146550).
route(harbor8,harbor9,tr2,24425,73275).
route(harbor8,harbor10,tr13,2691,16146).
route(harbor8,harbor10,tr2,2691,8073).
route(harbor8,harbor11,tr13,27682,166092).
route(harbor8,harbor11,tr2,27682,83046).
route(harbor8,harbor12,tr13,11480,68880).
route(harbor8,harbor12,tr2,11480,34440).
route(harbor8,harbor13,tr13,21946,131676).
route(harbor8,harbor13,tr2,21946,65838).
route(harbor8,harbor14,tr13,4817,28902).
route(harbor8,harbor14,tr2,4817,14451).
route(harbor8,harbor15,tr13,15730,94380).
route(harbor8,harbor15,tr2,15730,47190).
route(harbor8,harbor16,tr13,13031,78186).
route(harbor8,harbor16,tr2,13031,39093).
route(harbor8,prodloc0,tr0,12104,314704).
route(harbor8,prodloc0,tr13,12104,72624).
route(harbor8,prodloc1,tr0,20683,537758).
route(harbor8,prodloc1,tr13,20683,124098).
route(harbor8,prodloc2,tr0,3560,92560).
route(harbor8,prodloc2,tr13,3560,21360).
route(harbor8,prodloc3,tr0,16890,439140).
route(harbor8,prodloc3,tr13,16890,101340).
route(harbor8,prodloc4,tr0,19441,505466).
route(harbor8,prodloc4,tr13,19441,116646).
route(harbor8,prodloc5,tr0,15823,411398).
route(harbor8,prodloc5,tr13,15823,94938).
route(harbor8,prodloc6,tr0,1378,35828).
route(harbor8,prodloc6,tr13,1378,8268).
route(harbor8,prodloc7,tr0,4746,123396).
route(harbor8,prodloc7,tr13,4746,28476).
route(harbor8,prodloc8,tr0,17980,467480).
route(harbor8,prodloc8,tr13,17980,107880).
route(harbor8,prodloc9,tr0,28081,730106).
route(harbor8,prodloc9,tr13,28081,168486).
route(harbor8,prodloc10,tr0,764,19864).
route(harbor8,prodloc10,tr13,764,4584).
route(harbor8,prodloc11,tr0,21618,562068).
route(harbor8,prodloc11,tr13,21618,129708).
route(harbor8,prodloc12,tr0,15810,411060).
route(harbor8,prodloc12,tr13,15810,94860).
route(harbor8,prodloc13,tr0,5209,135434).
route(harbor8,prodloc13,tr13,5209,31254).
route(harbor8,prodloc14,tr0,10934,284284).
route(harbor8,prodloc14,tr13,10934,65604).
route(harbor8,prodloc15,tr0,15968,415168).
route(harbor8,prodloc15,tr13,15968,95808).
route(harbor8,prodloc16,tr0,14362,373412).
route(harbor8,prodloc16,tr13,14362,86172).
route(harbor8,prodloc17,tr0,4945,128570).
route(harbor8,prodloc17,tr13,4945,29670).
route(harbor8,prodloc18,tr0,8994,233844).
route(harbor8,prodloc18,tr13,8994,53964).
route(harbor8,prodloc19,tr0,4185,108810).
route(harbor8,prodloc19,tr13,4185,25110).
route(harbor8,prodloc20,tr0,26101,678626).
route(harbor8,prodloc20,tr13,26101,156606).
route(harbor8,prodloc21,tr0,9255,240630).
route(harbor8,prodloc21,tr13,9255,55530).
route(harbor8,prodloc22,tr0,27231,708006).
route(harbor8,prodloc22,tr13,27231,163386).
route(harbor8,prodloc23,tr0,10770,280020).
route(harbor8,prodloc23,tr13,10770,64620).
route(harbor8,prodloc24,tr0,10023,260598).
route(harbor8,prodloc24,tr13,10023,60138).
route(harbor8,prodloc25,tr0,17034,442884).
route(harbor8,prodloc25,tr13,17034,102204).
route(harbor8,prodloc26,tr0,15982,415532).
route(harbor8,prodloc26,tr13,15982,95892).
route(harbor8,prodloc27,tr0,12663,329238).
route(harbor8,prodloc27,tr13,12663,75978).
route(harbor8,prodloc28,tr0,9539,248014).
route(harbor8,prodloc28,tr13,9539,57234).
route(harbor8,prodloc29,tr0,20169,524394).
route(harbor8,prodloc29,tr13,20169,121014).
route(harbor8,prodloc30,tr0,13137,341562).
route(harbor8,prodloc30,tr13,13137,78822).
route(harbor8,prodloc31,tr0,12676,329576).
route(harbor8,prodloc31,tr13,12676,76056).
route(harbor8,prodloc32,tr0,21942,570492).
route(harbor8,prodloc32,tr13,21942,131652).
route(harbor8,prodloc33,tr0,645,16770).
route(harbor8,prodloc33,tr13,645,3870).
route(harbor9,harbor0,tr13,26107,156642).
route(harbor9,harbor0,tr2,26107,78321).
route(harbor9,harbor1,tr13,7476,44856).
route(harbor9,harbor1,tr2,7476,22428).
route(harbor9,harbor2,tr13,18079,108474).
route(harbor9,harbor2,tr2,18079,54237).
route(harbor9,harbor3,tr13,24529,147174).
route(harbor9,harbor3,tr2,24529,73587).
route(harbor9,harbor4,tr13,6647,39882).
route(harbor9,harbor4,tr2,6647,19941).
route(harbor9,harbor5,tr13,11952,71712).
route(harbor9,harbor5,tr2,11952,35856).
route(harbor9,harbor6,tr13,5483,32898).
route(harbor9,harbor6,tr2,5483,16449).
route(harbor9,harbor7,tr13,6239,37434).
route(harbor9,harbor7,tr2,6239,18717).
route(harbor9,harbor8,tr13,459,2754).
route(harbor9,harbor8,tr2,459,1377).
route(harbor9,harbor10,tr13,25172,151032).
route(harbor9,harbor10,tr2,25172,75516).
route(harbor9,harbor11,tr13,4361,26166).
route(harbor9,harbor11,tr2,4361,13083).
route(harbor9,harbor12,tr13,21965,131790).
route(harbor9,harbor12,tr2,21965,65895).
route(harbor9,harbor13,tr13,20036,120216).
route(harbor9,harbor13,tr2,20036,60108).
route(harbor9,harbor14,tr13,1153,6918).
route(harbor9,harbor14,tr2,1153,3459).
route(harbor9,harbor15,tr13,24406,146436).
route(harbor9,harbor15,tr2,24406,73218).
route(harbor9,harbor16,tr13,9599,57594).
route(harbor9,harbor16,tr2,9599,28797).
route(harbor9,prodloc0,tr0,2435,63310).
route(harbor9,prodloc0,tr13,2435,14610).
route(harbor9,prodloc1,tr0,11509,299234).
route(harbor9,prodloc1,tr13,11509,69054).
route(harbor9,prodloc2,tr0,17187,446862).
route(harbor9,prodloc2,tr13,17187,103122).
route(harbor9,prodloc3,tr0,23765,617890).
route(harbor9,prodloc3,tr13,23765,142590).
route(harbor9,prodloc4,tr0,11193,291018).
route(harbor9,prodloc4,tr13,11193,67158).
route(harbor9,prodloc5,tr0,15814,411164).
route(harbor9,prodloc5,tr13,15814,94884).
route(harbor9,prodloc6,tr0,20950,544700).
route(harbor9,prodloc6,tr13,20950,125700).
route(harbor9,prodloc7,tr0,12123,315198).
route(harbor9,prodloc7,tr13,12123,72738).
route(harbor9,prodloc8,tr0,17435,453310).
route(harbor9,prodloc8,tr13,17435,104610).
route(harbor9,prodloc9,tr0,13224,343824).
route(harbor9,prodloc9,tr13,13224,79344).
route(harbor9,prodloc10,tr0,13317,346242).
route(harbor9,prodloc10,tr13,13317,79902).
route(harbor9,prodloc11,tr0,14875,386750).
route(harbor9,prodloc11,tr13,14875,89250).
route(harbor9,prodloc12,tr0,15779,410254).
route(harbor9,prodloc12,tr13,15779,94674).
route(harbor9,prodloc13,tr0,25782,670332).
route(harbor9,prodloc13,tr13,25782,154692).
route(harbor9,prodloc14,tr0,24756,643656).
route(harbor9,prodloc14,tr13,24756,148536).
route(harbor9,prodloc15,tr0,2252,58552).
route(harbor9,prodloc15,tr13,2252,13512).
route(harbor9,prodloc16,tr0,2189,56914).
route(harbor9,prodloc16,tr13,2189,13134).
route(harbor9,prodloc17,tr0,24834,645684).
route(harbor9,prodloc17,tr13,24834,149004).
route(harbor9,prodloc18,tr0,19177,498602).
route(harbor9,prodloc18,tr13,19177,115062).
route(harbor9,prodloc19,tr0,11577,301002).
route(harbor9,prodloc19,tr13,11577,69462).
route(harbor9,prodloc20,tr0,25942,674492).
route(harbor9,prodloc20,tr13,25942,155652).
route(harbor9,prodloc21,tr0,11916,309816).
route(harbor9,prodloc21,tr13,11916,71496).
route(harbor9,prodloc22,tr0,5119,133094).
route(harbor9,prodloc22,tr13,5119,30714).
route(harbor9,prodloc23,tr0,6429,167154).
route(harbor9,prodloc23,tr13,6429,38574).
route(harbor9,prodloc24,tr0,9446,245596).
route(harbor9,prodloc24,tr13,9446,56676).
route(harbor9,prodloc25,tr0,4960,128960).
route(harbor9,prodloc25,tr13,4960,29760).
route(harbor9,prodloc26,tr0,11781,306306).
route(harbor9,prodloc26,tr13,11781,70686).
route(harbor9,prodloc27,tr0,8954,232804).
route(harbor9,prodloc27,tr13,8954,53724).
route(harbor9,prodloc28,tr0,16923,439998).
route(harbor9,prodloc28,tr13,16923,101538).
route(harbor9,prodloc29,tr0,12331,320606).
route(harbor9,prodloc29,tr13,12331,73986).
route(harbor9,prodloc30,tr0,16182,420732).
route(harbor9,prodloc30,tr13,16182,97092).
route(harbor9,prodloc31,tr0,11038,286988).
route(harbor9,prodloc31,tr13,11038,66228).
route(harbor9,prodloc32,tr0,5951,154726).
route(harbor9,prodloc32,tr13,5951,35706).
route(harbor9,prodloc33,tr0,10751,279526).
route(harbor9,prodloc33,tr13,10751,64506).
route(harbor10,harbor0,tr13,11602,69612).
route(harbor10,harbor0,tr2,11602,34806).
route(harbor10,harbor1,tr13,19023,114138).
route(harbor10,harbor1,tr2,19023,57069).
route(harbor10,harbor2,tr13,16471,98826).
route(harbor10,harbor2,tr2,16471,49413).
route(harbor10,harbor3,tr13,1130,6780).
route(harbor10,harbor3,tr2,1130,3390).
route(harbor10,harbor4,tr13,13969,83814).
route(harbor10,harbor4,tr2,13969,41907).
route(harbor10,harbor5,tr13,15169,91014).
route(harbor10,harbor5,tr2,15169,45507).
route(harbor10,harbor6,tr13,9090,54540).
route(harbor10,harbor6,tr2,9090,27270).
route(harbor10,harbor7,tr13,20839,125034).
route(harbor10,harbor7,tr2,20839,62517).
route(harbor10,harbor8,tr13,16818,100908).
route(harbor10,harbor8,tr2,16818,50454).
route(harbor10,harbor9,tr13,25631,153786).
route(harbor10,harbor9,tr2,25631,76893).
route(harbor10,harbor11,tr13,21316,127896).
route(harbor10,harbor11,tr2,21316,63948).
route(harbor10,harbor12,tr13,2765,16590).
route(harbor10,harbor12,tr2,2765,8295).
route(harbor10,harbor13,tr13,14519,87114).
route(harbor10,harbor13,tr2,14519,43557).
route(harbor10,harbor14,tr13,2608,15648).
route(harbor10,harbor14,tr2,2608,7824).
route(harbor10,harbor15,tr13,10581,63486).
route(harbor10,harbor15,tr2,10581,31743).
route(harbor10,harbor16,tr13,16309,97854).
route(harbor10,harbor16,tr2,16309,48927).
route(harbor10,prodloc0,tr0,1127,29302).
route(harbor10,prodloc0,tr13,1127,6762).
route(harbor10,prodloc1,tr0,17094,444444).
route(harbor10,prodloc1,tr13,17094,102564).
route(harbor10,prodloc2,tr0,4368,113568).
route(harbor10,prodloc2,tr13,4368,26208).
route(harbor10,prodloc3,tr0,20238,526188).
route(harbor10,prodloc3,tr13,20238,121428).
route(harbor10,prodloc4,tr0,19029,494754).
route(harbor10,prodloc4,tr13,19029,114174).
route(harbor10,prodloc5,tr0,27759,721734).
route(harbor10,prodloc5,tr13,27759,166554).
route(harbor10,prodloc6,tr0,6972,181272).
route(harbor10,prodloc6,tr13,6972,41832).
route(harbor10,prodloc7,tr0,11986,311636).
route(harbor10,prodloc7,tr13,11986,71916).
route(harbor10,prodloc8,tr0,4371,113646).
route(harbor10,prodloc8,tr13,4371,26226).
route(harbor10,prodloc9,tr0,18010,468260).
route(harbor10,prodloc9,tr13,18010,108060).
route(harbor10,prodloc10,tr0,20299,527774).
route(harbor10,prodloc10,tr13,20299,121794).
route(harbor10,prodloc11,tr0,27013,702338).
route(harbor10,prodloc11,tr13,27013,162078).
route(harbor10,prodloc12,tr0,13254,344604).
route(harbor10,prodloc12,tr13,13254,79524).
route(harbor10,prodloc13,tr0,14412,374712).
route(harbor10,prodloc13,tr13,14412,86472).
route(harbor10,prodloc14,tr0,26998,701948).
route(harbor10,prodloc14,tr13,26998,161988).
route(harbor10,prodloc15,tr0,26754,695604).
route(harbor10,prodloc15,tr13,26754,160524).
route(harbor10,prodloc16,tr0,8636,224536).
route(harbor10,prodloc16,tr13,8636,51816).
route(harbor10,prodloc17,tr0,27001,702026).
route(harbor10,prodloc17,tr13,27001,162006).
route(harbor10,prodloc18,tr0,26939,700414).
route(harbor10,prodloc18,tr13,26939,161634).
route(harbor10,prodloc19,tr0,22071,573846).
route(harbor10,prodloc19,tr13,22071,132426).
route(harbor10,prodloc20,tr0,10329,268554).
route(harbor10,prodloc20,tr13,10329,61974).
route(harbor10,prodloc21,tr0,5789,150514).
route(harbor10,prodloc21,tr13,5789,34734).
route(harbor10,prodloc22,tr0,18132,471432).
route(harbor10,prodloc22,tr13,18132,108792).
route(harbor10,prodloc23,tr0,28311,736086).
route(harbor10,prodloc23,tr13,28311,169866).
route(harbor10,prodloc24,tr0,26006,676156).
route(harbor10,prodloc24,tr13,26006,156036).
route(harbor10,prodloc25,tr0,22858,594308).
route(harbor10,prodloc25,tr13,22858,137148).
route(harbor10,prodloc26,tr0,26466,688116).
route(harbor10,prodloc26,tr13,26466,158796).
route(harbor10,prodloc27,tr0,17554,456404).
route(harbor10,prodloc27,tr13,17554,105324).
route(harbor10,prodloc28,tr0,7999,207974).
route(harbor10,prodloc28,tr13,7999,47994).
route(harbor10,prodloc29,tr0,26790,696540).
route(harbor10,prodloc29,tr13,26790,160740).
route(harbor10,prodloc30,tr0,16007,416182).
route(harbor10,prodloc30,tr13,16007,96042).
route(harbor10,prodloc31,tr0,26667,693342).
route(harbor10,prodloc31,tr13,26667,160002).
route(harbor10,prodloc32,tr0,21746,565396).
route(harbor10,prodloc32,tr13,21746,130476).
route(harbor10,prodloc33,tr0,907,23582).
route(harbor10,prodloc33,tr13,907,5442).
route(harbor11,harbor0,tr13,5651,33906).
route(harbor11,harbor0,tr2,5651,16953).
route(harbor11,harbor1,tr13,25058,150348).
route(harbor11,harbor1,tr2,25058,75174).
route(harbor11,harbor2,tr13,24573,147438).
route(harbor11,harbor2,tr2,24573,73719).
route(harbor11,harbor3,tr13,25911,155466).
route(harbor11,harbor3,tr2,25911,77733).
route(harbor11,harbor4,tr13,15204,91224).
route(harbor11,harbor4,tr2,15204,45612).
route(harbor11,harbor5,tr13,19102,114612).
route(harbor11,harbor5,tr2,19102,57306).
route(harbor11,harbor6,tr13,6924,41544).
route(harbor11,harbor6,tr2,6924,20772).
route(harbor11,harbor7,tr13,29176,175056).
route(harbor11,harbor7,tr2,29176,87528).
route(harbor11,harbor8,tr13,10395,62370).
route(harbor11,harbor8,tr2,10395,31185).
route(harbor11,harbor9,tr13,29064,174384).
route(harbor11,harbor9,tr2,29064,87192).
route(harbor11,harbor10,tr13,9177,55062).
route(harbor11,harbor10,tr2,9177,27531).
route(harbor11,harbor12,tr13,24914,149484).
route(harbor11,harbor12,tr2,24914,74742).
route(harbor11,harbor13,tr13,24707,148242).
route(harbor11,harbor13,tr2,24707,74121).
route(harbor11,harbor14,tr13,20203,121218).
route(harbor11,harbor14,tr2,20203,60609).
route(harbor11,harbor15,tr13,10203,61218).
route(harbor11,harbor15,tr2,10203,30609).
route(harbor11,harbor16,tr13,241,1446).
route(harbor11,harbor16,tr2,241,723).
route(harbor11,prodloc0,tr0,12159,316134).
route(harbor11,prodloc0,tr13,12159,72954).
route(harbor11,prodloc1,tr0,14201,369226).
route(harbor11,prodloc1,tr13,14201,85206).
route(harbor11,prodloc2,tr0,4219,109694).
route(harbor11,prodloc2,tr13,4219,25314).
route(harbor11,prodloc3,tr0,10395,270270).
route(harbor11,prodloc3,tr13,10395,62370).
route(harbor11,prodloc4,tr0,27123,705198).
route(harbor11,prodloc4,tr13,27123,162738).
route(harbor11,prodloc5,tr0,17049,443274).
route(harbor11,prodloc5,tr13,17049,102294).
route(harbor11,prodloc6,tr0,4479,116454).
route(harbor11,prodloc6,tr13,4479,26874).
route(harbor11,prodloc7,tr0,22219,577694).
route(harbor11,prodloc7,tr13,22219,133314).
route(harbor11,prodloc8,tr0,5771,150046).
route(harbor11,prodloc8,tr13,5771,34626).
route(harbor11,prodloc9,tr0,28032,728832).
route(harbor11,prodloc9,tr13,28032,168192).
route(harbor11,prodloc10,tr0,18402,478452).
route(harbor11,prodloc10,tr13,18402,110412).
route(harbor11,prodloc11,tr0,3769,97994).
route(harbor11,prodloc11,tr13,3769,22614).
route(harbor11,prodloc12,tr0,14488,376688).
route(harbor11,prodloc12,tr13,14488,86928).
route(harbor11,prodloc13,tr0,24144,627744).
route(harbor11,prodloc13,tr13,24144,144864).
route(harbor11,prodloc14,tr0,1093,28418).
route(harbor11,prodloc14,tr13,1093,6558).
route(harbor11,prodloc15,tr0,9022,234572).
route(harbor11,prodloc15,tr13,9022,54132).
route(harbor11,prodloc16,tr0,11611,301886).
route(harbor11,prodloc16,tr13,11611,69666).
route(harbor11,prodloc17,tr0,8329,216554).
route(harbor11,prodloc17,tr13,8329,49974).
route(harbor11,prodloc18,tr0,19091,496366).
route(harbor11,prodloc18,tr13,19091,114546).
route(harbor11,prodloc19,tr0,9780,254280).
route(harbor11,prodloc19,tr13,9780,58680).
route(harbor11,prodloc20,tr0,23223,603798).
route(harbor11,prodloc20,tr13,23223,139338).
route(harbor11,prodloc21,tr0,28861,750386).
route(harbor11,prodloc21,tr13,28861,173166).
route(harbor11,prodloc22,tr0,8987,233662).
route(harbor11,prodloc22,tr13,8987,53922).
route(harbor11,prodloc23,tr0,8516,221416).
route(harbor11,prodloc23,tr13,8516,51096).
route(harbor11,prodloc24,tr0,21584,561184).
route(harbor11,prodloc24,tr13,21584,129504).
route(harbor11,prodloc25,tr0,4581,119106).
route(harbor11,prodloc25,tr13,4581,27486).
route(harbor11,prodloc26,tr0,18146,471796).
route(harbor11,prodloc26,tr13,18146,108876).
route(harbor11,prodloc27,tr0,2363,61438).
route(harbor11,prodloc27,tr13,2363,14178).
route(harbor11,prodloc28,tr0,11951,310726).
route(harbor11,prodloc28,tr13,11951,71706).
route(harbor11,prodloc29,tr0,20236,526136).
route(harbor11,prodloc29,tr13,20236,121416).
route(harbor11,prodloc30,tr0,16574,430924).
route(harbor11,prodloc30,tr13,16574,99444).
route(harbor11,prodloc31,tr0,12012,312312).
route(harbor11,prodloc31,tr13,12012,72072).
route(harbor11,prodloc32,tr0,26271,683046).
route(harbor11,prodloc32,tr13,26271,157626).
route(harbor11,prodloc33,tr0,280,7280).
route(harbor11,prodloc33,tr13,280,1680).
route(harbor12,harbor0,tr13,25887,155322).
route(harbor12,harbor0,tr2,25887,77661).
route(harbor12,harbor1,tr13,22122,132732).
route(harbor12,harbor1,tr2,22122,66366).
route(harbor12,harbor2,tr13,13740,82440).
route(harbor12,harbor2,tr2,13740,41220).
route(harbor12,harbor3,tr13,9870,59220).
route(harbor12,harbor3,tr2,9870,29610).
route(harbor12,harbor4,tr13,26017,156102).
route(harbor12,harbor4,tr2,26017,78051).
route(harbor12,harbor5,tr13,9486,56916).
route(harbor12,harbor5,tr2,9486,28458).
route(harbor12,harbor6,tr13,14432,86592).
route(harbor12,harbor6,tr2,14432,43296).
route(harbor12,harbor7,tr13,5955,35730).
route(harbor12,harbor7,tr2,5955,17865).
route(harbor12,harbor8,tr13,15527,93162).
route(harbor12,harbor8,tr2,15527,46581).
route(harbor12,harbor9,tr13,15082,90492).
route(harbor12,harbor9,tr2,15082,45246).
route(harbor12,harbor10,tr13,7460,44760).
route(harbor12,harbor10,tr2,7460,22380).
route(harbor12,harbor11,tr13,11193,67158).
route(harbor12,harbor11,tr2,11193,33579).
route(harbor12,harbor13,tr13,16378,98268).
route(harbor12,harbor13,tr2,16378,49134).
route(harbor12,harbor14,tr13,9513,57078).
route(harbor12,harbor14,tr2,9513,28539).
route(harbor12,harbor15,tr13,1903,11418).
route(harbor12,harbor15,tr2,1903,5709).
route(harbor12,harbor16,tr13,16932,101592).
route(harbor12,harbor16,tr2,16932,50796).
route(harbor12,prodloc0,tr0,27721,720746).
route(harbor12,prodloc0,tr13,27721,166326).
route(harbor12,prodloc1,tr0,7817,203242).
route(harbor12,prodloc1,tr13,7817,46902).
route(harbor12,prodloc2,tr0,12125,315250).
route(harbor12,prodloc2,tr13,12125,72750).
route(harbor12,prodloc3,tr0,3915,101790).
route(harbor12,prodloc3,tr13,3915,23490).
route(harbor12,prodloc4,tr0,11781,306306).
route(harbor12,prodloc4,tr13,11781,70686).
route(harbor12,prodloc5,tr0,14747,383422).
route(harbor12,prodloc5,tr13,14747,88482).
route(harbor12,prodloc6,tr0,28064,729664).
route(harbor12,prodloc6,tr13,28064,168384).
route(harbor12,prodloc7,tr0,2262,58812).
route(harbor12,prodloc7,tr13,2262,13572).
route(harbor12,prodloc8,tr0,22474,584324).
route(harbor12,prodloc8,tr13,22474,134844).
route(harbor12,prodloc9,tr0,8020,208520).
route(harbor12,prodloc9,tr13,8020,48120).
route(harbor12,prodloc10,tr0,14912,387712).
route(harbor12,prodloc10,tr13,14912,89472).
route(harbor12,prodloc11,tr0,15089,392314).
route(harbor12,prodloc11,tr13,15089,90534).
route(harbor12,prodloc12,tr0,28267,734942).
route(harbor12,prodloc12,tr13,28267,169602).
route(harbor12,prodloc13,tr0,24510,637260).
route(harbor12,prodloc13,tr13,24510,147060).
route(harbor12,prodloc14,tr0,19575,508950).
route(harbor12,prodloc14,tr13,19575,117450).
route(harbor12,prodloc15,tr0,4900,127400).
route(harbor12,prodloc15,tr13,4900,29400).
route(harbor12,prodloc16,tr0,28205,733330).
route(harbor12,prodloc16,tr13,28205,169230).
route(harbor12,prodloc17,tr0,3304,85904).
route(harbor12,prodloc17,tr13,3304,19824).
route(harbor12,prodloc18,tr0,8617,224042).
route(harbor12,prodloc18,tr13,8617,51702).
route(harbor12,prodloc19,tr0,25723,668798).
route(harbor12,prodloc19,tr13,25723,154338).
route(harbor12,prodloc20,tr0,24198,629148).
route(harbor12,prodloc20,tr13,24198,145188).
route(harbor12,prodloc21,tr0,14102,366652).
route(harbor12,prodloc21,tr13,14102,84612).
route(harbor12,prodloc22,tr0,13132,341432).
route(harbor12,prodloc22,tr13,13132,78792).
route(harbor12,prodloc23,tr0,22412,582712).
route(harbor12,prodloc23,tr13,22412,134472).
route(harbor12,prodloc24,tr0,24913,647738).
route(harbor12,prodloc24,tr13,24913,149478).
route(harbor12,prodloc25,tr0,23568,612768).
route(harbor12,prodloc25,tr13,23568,141408).
route(harbor12,prodloc26,tr0,14233,370058).
route(harbor12,prodloc26,tr13,14233,85398).
route(harbor12,prodloc27,tr0,19368,503568).
route(harbor12,prodloc27,tr13,19368,116208).
route(harbor12,prodloc28,tr0,5401,140426).
route(harbor12,prodloc28,tr13,5401,32406).
route(harbor12,prodloc29,tr0,24795,644670).
route(harbor12,prodloc29,tr13,24795,148770).
route(harbor12,prodloc30,tr0,3703,96278).
route(harbor12,prodloc30,tr13,3703,22218).
route(harbor12,prodloc31,tr0,3623,94198).
route(harbor12,prodloc31,tr13,3623,21738).
route(harbor12,prodloc32,tr0,11158,290108).
route(harbor12,prodloc32,tr13,11158,66948).
route(harbor12,prodloc33,tr0,3741,97266).
route(harbor12,prodloc33,tr13,3741,22446).
route(harbor13,harbor0,tr13,6927,41562).
route(harbor13,harbor0,tr2,6927,20781).
route(harbor13,harbor1,tr13,27026,162156).
route(harbor13,harbor1,tr2,27026,81078).
route(harbor13,harbor2,tr13,11272,67632).
route(harbor13,harbor2,tr2,11272,33816).
route(harbor13,harbor3,tr13,25257,151542).
route(harbor13,harbor3,tr2,25257,75771).
route(harbor13,harbor4,tr13,17307,103842).
route(harbor13,harbor4,tr2,17307,51921).
route(harbor13,harbor5,tr13,5085,30510).
route(harbor13,harbor5,tr2,5085,15255).
route(harbor13,harbor6,tr13,25898,155388).
route(harbor13,harbor6,tr2,25898,77694).
route(harbor13,harbor7,tr13,26008,156048).
route(harbor13,harbor7,tr2,26008,78024).
route(harbor13,harbor8,tr13,22248,133488).
route(harbor13,harbor8,tr2,22248,66744).
route(harbor13,harbor9,tr13,4733,28398).
route(harbor13,harbor9,tr2,4733,14199).
route(harbor13,harbor10,tr13,20286,121716).
route(harbor13,harbor10,tr2,20286,60858).
route(harbor13,harbor11,tr13,27924,167544).
route(harbor13,harbor11,tr2,27924,83772).
route(harbor13,harbor12,tr13,12731,76386).
route(harbor13,harbor12,tr2,12731,38193).
route(harbor13,harbor14,tr13,26826,160956).
route(harbor13,harbor14,tr2,26826,80478).
route(harbor13,harbor15,tr13,17451,104706).
route(harbor13,harbor15,tr2,17451,52353).
route(harbor13,harbor16,tr13,16217,97302).
route(harbor13,harbor16,tr2,16217,48651).
route(harbor13,prodloc0,tr0,9780,254280).
route(harbor13,prodloc0,tr13,9780,58680).
route(harbor13,prodloc1,tr0,11129,289354).
route(harbor13,prodloc1,tr13,11129,66774).
route(harbor13,prodloc2,tr0,24936,648336).
route(harbor13,prodloc2,tr13,24936,149616).
route(harbor13,prodloc3,tr0,7917,205842).
route(harbor13,prodloc3,tr13,7917,47502).
route(harbor13,prodloc4,tr0,28419,738894).
route(harbor13,prodloc4,tr13,28419,170514).
route(harbor13,prodloc5,tr0,22222,577772).
route(harbor13,prodloc5,tr13,22222,133332).
route(harbor13,prodloc6,tr0,5115,132990).
route(harbor13,prodloc6,tr13,5115,30690).
route(harbor13,prodloc7,tr0,15044,391144).
route(harbor13,prodloc7,tr13,15044,90264).
route(harbor13,prodloc8,tr0,15462,402012).
route(harbor13,prodloc8,tr13,15462,92772).
route(harbor13,prodloc9,tr0,16240,422240).
route(harbor13,prodloc9,tr13,16240,97440).
route(harbor13,prodloc10,tr0,21266,552916).
route(harbor13,prodloc10,tr13,21266,127596).
route(harbor13,prodloc11,tr0,24972,649272).
route(harbor13,prodloc11,tr13,24972,149832).
route(harbor13,prodloc12,tr0,483,12558).
route(harbor13,prodloc12,tr13,483,2898).
route(harbor13,prodloc13,tr0,17587,457262).
route(harbor13,prodloc13,tr13,17587,105522).
route(harbor13,prodloc14,tr0,26330,684580).
route(harbor13,prodloc14,tr13,26330,157980).
route(harbor13,prodloc15,tr0,3649,94874).
route(harbor13,prodloc15,tr13,3649,21894).
route(harbor13,prodloc16,tr0,20468,532168).
route(harbor13,prodloc16,tr13,20468,122808).
route(harbor13,prodloc17,tr0,27438,713388).
route(harbor13,prodloc17,tr13,27438,164628).
route(harbor13,prodloc18,tr0,26971,701246).
route(harbor13,prodloc18,tr13,26971,161826).
route(harbor13,prodloc19,tr0,21326,554476).
route(harbor13,prodloc19,tr13,21326,127956).
route(harbor13,prodloc20,tr0,4230,109980).
route(harbor13,prodloc20,tr13,4230,25380).
route(harbor13,prodloc21,tr0,27787,722462).
route(harbor13,prodloc21,tr13,27787,166722).
route(harbor13,prodloc22,tr0,13560,352560).
route(harbor13,prodloc22,tr13,13560,81360).
route(harbor13,prodloc23,tr0,20499,532974).
route(harbor13,prodloc23,tr13,20499,122994).
route(harbor13,prodloc24,tr0,25109,652834).
route(harbor13,prodloc24,tr13,25109,150654).
route(harbor13,prodloc25,tr0,13562,352612).
route(harbor13,prodloc25,tr13,13562,81372).
route(harbor13,prodloc26,tr0,17139,445614).
route(harbor13,prodloc26,tr13,17139,102834).
route(harbor13,prodloc27,tr0,1479,38454).
route(harbor13,prodloc27,tr13,1479,8874).
route(harbor13,prodloc28,tr0,17380,451880).
route(harbor13,prodloc28,tr13,17380,104280).
route(harbor13,prodloc29,tr0,22297,579722).
route(harbor13,prodloc29,tr13,22297,133782).
route(harbor13,prodloc30,tr0,3009,78234).
route(harbor13,prodloc30,tr13,3009,18054).
route(harbor13,prodloc31,tr0,16770,436020).
route(harbor13,prodloc31,tr13,16770,100620).
route(harbor13,prodloc32,tr0,2610,67860).
route(harbor13,prodloc32,tr13,2610,15660).
route(harbor13,prodloc33,tr0,18170,472420).
route(harbor13,prodloc33,tr13,18170,109020).
route(harbor14,harbor0,tr13,6754,40524).
route(harbor14,harbor0,tr2,6754,20262).
route(harbor14,harbor1,tr13,10351,62106).
route(harbor14,harbor1,tr2,10351,31053).
route(harbor14,harbor2,tr13,17998,107988).
route(harbor14,harbor2,tr2,17998,53994).
route(harbor14,harbor3,tr13,17524,105144).
route(harbor14,harbor3,tr2,17524,52572).
route(harbor14,harbor4,tr13,10827,64962).
route(harbor14,harbor4,tr2,10827,32481).
route(harbor14,harbor5,tr13,23398,140388).
route(harbor14,harbor5,tr2,23398,70194).
route(harbor14,harbor6,tr13,19475,116850).
route(harbor14,harbor6,tr2,19475,58425).
route(harbor14,harbor7,tr13,26250,157500).
route(harbor14,harbor7,tr2,26250,78750).
route(harbor14,harbor8,tr13,11336,68016).
route(harbor14,harbor8,tr2,11336,34008).
route(harbor14,harbor9,tr13,5811,34866).
route(harbor14,harbor9,tr2,5811,17433).
route(harbor14,harbor10,tr13,14232,85392).
route(harbor14,harbor10,tr2,14232,42696).
route(harbor14,harbor11,tr13,7904,47424).
route(harbor14,harbor11,tr2,7904,23712).
route(harbor14,harbor12,tr13,6373,38238).
route(harbor14,harbor12,tr2,6373,19119).
route(harbor14,harbor13,tr13,21847,131082).
route(harbor14,harbor13,tr2,21847,65541).
route(harbor14,harbor15,tr13,5863,35178).
route(harbor14,harbor15,tr2,5863,17589).
route(harbor14,harbor16,tr13,13304,79824).
route(harbor14,harbor16,tr2,13304,39912).
route(harbor14,prodloc0,tr0,17677,459602).
route(harbor14,prodloc0,tr13,17677,106062).
route(harbor14,prodloc1,tr0,14339,372814).
route(harbor14,prodloc1,tr13,14339,86034).
route(harbor14,prodloc2,tr0,5854,152204).
route(harbor14,prodloc2,tr13,5854,35124).
route(harbor14,prodloc3,tr0,26054,677404).
route(harbor14,prodloc3,tr13,26054,156324).
route(harbor14,prodloc4,tr0,20372,529672).
route(harbor14,prodloc4,tr13,20372,122232).
route(harbor14,prodloc5,tr0,15651,406926).
route(harbor14,prodloc5,tr13,15651,93906).
route(harbor14,prodloc6,tr0,14431,375206).
route(harbor14,prodloc6,tr13,14431,86586).
route(harbor14,prodloc7,tr0,2530,65780).
route(harbor14,prodloc7,tr13,2530,15180).
route(harbor14,prodloc8,tr0,14617,380042).
route(harbor14,prodloc8,tr13,14617,87702).
route(harbor14,prodloc9,tr0,15489,402714).
route(harbor14,prodloc9,tr13,15489,92934).
route(harbor14,prodloc10,tr0,15339,398814).
route(harbor14,prodloc10,tr13,15339,92034).
route(harbor14,prodloc11,tr0,22947,596622).
route(harbor14,prodloc11,tr13,22947,137682).
route(harbor14,prodloc12,tr0,19106,496756).
route(harbor14,prodloc12,tr13,19106,114636).
route(harbor14,prodloc13,tr0,20277,527202).
route(harbor14,prodloc13,tr13,20277,121662).
route(harbor14,prodloc14,tr0,7418,192868).
route(harbor14,prodloc14,tr13,7418,44508).
route(harbor14,prodloc15,tr0,24538,637988).
route(harbor14,prodloc15,tr13,24538,147228).
route(harbor14,prodloc16,tr0,14666,381316).
route(harbor14,prodloc16,tr13,14666,87996).
route(harbor14,prodloc17,tr0,3554,92404).
route(harbor14,prodloc17,tr13,3554,21324).
route(harbor14,prodloc18,tr0,21111,548886).
route(harbor14,prodloc18,tr13,21111,126666).
route(harbor14,prodloc19,tr0,869,22594).
route(harbor14,prodloc19,tr13,869,5214).
route(harbor14,prodloc20,tr0,16017,416442).
route(harbor14,prodloc20,tr13,16017,96102).
route(harbor14,prodloc21,tr0,7989,207714).
route(harbor14,prodloc21,tr13,7989,47934).
route(harbor14,prodloc22,tr0,21505,559130).
route(harbor14,prodloc22,tr13,21505,129030).
route(harbor14,prodloc23,tr0,28938,752388).
route(harbor14,prodloc23,tr13,28938,173628).
route(harbor14,prodloc24,tr0,23586,613236).
route(harbor14,prodloc24,tr13,23586,141516).
route(harbor14,prodloc25,tr0,17230,447980).
route(harbor14,prodloc25,tr13,17230,103380).
route(harbor14,prodloc26,tr0,4946,128596).
route(harbor14,prodloc26,tr13,4946,29676).
route(harbor14,prodloc27,tr0,21538,559988).
route(harbor14,prodloc27,tr13,21538,129228).
route(harbor14,prodloc28,tr0,12079,314054).
route(harbor14,prodloc28,tr13,12079,72474).
route(harbor14,prodloc29,tr0,11780,306280).
route(harbor14,prodloc29,tr13,11780,70680).
route(harbor14,prodloc30,tr0,11749,305474).
route(harbor14,prodloc30,tr13,11749,70494).
route(harbor14,prodloc31,tr0,177,4602).
route(harbor14,prodloc31,tr13,177,1062).
route(harbor14,prodloc32,tr0,14406,374556).
route(harbor14,prodloc32,tr13,14406,86436).
route(harbor14,prodloc33,tr0,9812,255112).
route(harbor14,prodloc33,tr13,9812,58872).
route(harbor15,harbor0,tr13,6169,37014).
route(harbor15,harbor0,tr2,6169,18507).
route(harbor15,harbor1,tr13,15847,95082).
route(harbor15,harbor1,tr2,15847,47541).
route(harbor15,harbor2,tr13,19506,117036).
route(harbor15,harbor2,tr2,19506,58518).
route(harbor15,harbor3,tr13,27579,165474).
route(harbor15,harbor3,tr2,27579,82737).
route(harbor15,harbor4,tr13,10276,61656).
route(harbor15,harbor4,tr2,10276,30828).
route(harbor15,harbor5,tr13,27822,166932).
route(harbor15,harbor5,tr2,27822,83466).
route(harbor15,harbor6,tr13,15021,90126).
route(harbor15,harbor6,tr2,15021,45063).
route(harbor15,harbor7,tr13,25547,153282).
route(harbor15,harbor7,tr2,25547,76641).
route(harbor15,harbor8,tr13,23291,139746).
route(harbor15,harbor8,tr2,23291,69873).
route(harbor15,harbor9,tr13,6220,37320).
route(harbor15,harbor9,tr2,6220,18660).
route(harbor15,harbor10,tr13,9845,59070).
route(harbor15,harbor10,tr2,9845,29535).
route(harbor15,harbor11,tr13,4066,24396).
route(harbor15,harbor11,tr2,4066,12198).
route(harbor15,harbor12,tr13,25681,154086).
route(harbor15,harbor12,tr2,25681,77043).
route(harbor15,harbor13,tr13,7456,44736).
route(harbor15,harbor13,tr2,7456,22368).
route(harbor15,harbor14,tr13,14657,87942).
route(harbor15,harbor14,tr2,14657,43971).
route(harbor15,harbor16,tr13,16328,97968).
route(harbor15,harbor16,tr2,16328,48984).
route(harbor15,prodloc0,tr0,27272,709072).
route(harbor15,prodloc0,tr13,27272,163632).
route(harbor15,prodloc1,tr0,17245,448370).
route(harbor15,prodloc1,tr13,17245,103470).
route(harbor15,prodloc2,tr0,18320,476320).
route(harbor15,prodloc2,tr13,18320,109920).
route(harbor15,prodloc3,tr0,13971,363246).
route(harbor15,prodloc3,tr13,13971,83826).
route(harbor15,prodloc4,tr0,11478,298428).
route(harbor15,prodloc4,tr13,11478,68868).
route(harbor15,prodloc5,tr0,11739,305214).
route(harbor15,prodloc5,tr13,11739,70434).
route(harbor15,prodloc6,tr0,10269,266994).
route(harbor15,prodloc6,tr13,10269,61614).
route(harbor15,prodloc7,tr0,18495,480870).
route(harbor15,prodloc7,tr13,18495,110970).
route(harbor15,prodloc8,tr0,4597,119522).
route(harbor15,prodloc8,tr13,4597,27582).
route(harbor15,prodloc9,tr0,17380,451880).
route(harbor15,prodloc9,tr13,17380,104280).
route(harbor15,prodloc10,tr0,24358,633308).
route(harbor15,prodloc10,tr13,24358,146148).
route(harbor15,prodloc11,tr0,4003,104078).
route(harbor15,prodloc11,tr13,4003,24018).
route(harbor15,prodloc12,tr0,20051,521326).
route(harbor15,prodloc12,tr13,20051,120306).
route(harbor15,prodloc13,tr0,15714,408564).
route(harbor15,prodloc13,tr13,15714,94284).
route(harbor15,prodloc14,tr0,7287,189462).
route(harbor15,prodloc14,tr13,7287,43722).
route(harbor15,prodloc15,tr0,15777,410202).
route(harbor15,prodloc15,tr13,15777,94662).
route(harbor15,prodloc16,tr0,12028,312728).
route(harbor15,prodloc16,tr13,12028,72168).
route(harbor15,prodloc17,tr0,27521,715546).
route(harbor15,prodloc17,tr13,27521,165126).
route(harbor15,prodloc18,tr0,758,19708).
route(harbor15,prodloc18,tr13,758,4548).
route(harbor15,prodloc19,tr0,5439,141414).
route(harbor15,prodloc19,tr13,5439,32634).
route(harbor15,prodloc20,tr0,18792,488592).
route(harbor15,prodloc20,tr13,18792,112752).
route(harbor15,prodloc21,tr0,6334,164684).
route(harbor15,prodloc21,tr13,6334,38004).
route(harbor15,prodloc22,tr0,2802,72852).
route(harbor15,prodloc22,tr13,2802,16812).
route(harbor15,prodloc23,tr0,25958,674908).
route(harbor15,prodloc23,tr13,25958,155748).
route(harbor15,prodloc24,tr0,12812,333112).
route(harbor15,prodloc24,tr13,12812,76872).
route(harbor15,prodloc25,tr0,12995,337870).
route(harbor15,prodloc25,tr13,12995,77970).
route(harbor15,prodloc26,tr0,13682,355732).
route(harbor15,prodloc26,tr13,13682,82092).
route(harbor15,prodloc27,tr0,175,4550).
route(harbor15,prodloc27,tr13,175,1050).
route(harbor15,prodloc28,tr0,11751,305526).
route(harbor15,prodloc28,tr13,11751,70506).
route(harbor15,prodloc29,tr0,6019,156494).
route(harbor15,prodloc29,tr13,6019,36114).
route(harbor15,prodloc30,tr0,2844,73944).
route(harbor15,prodloc30,tr13,2844,17064).
route(harbor15,prodloc31,tr0,21617,562042).
route(harbor15,prodloc31,tr13,21617,129702).
route(harbor15,prodloc32,tr0,28283,735358).
route(harbor15,prodloc32,tr13,28283,169698).
route(harbor15,prodloc33,tr0,1754,45604).
route(harbor15,prodloc33,tr13,1754,10524).
route(harbor16,harbor0,tr13,11904,71424).
route(harbor16,harbor0,tr2,11904,35712).
route(harbor16,harbor1,tr13,22394,134364).
route(harbor16,harbor1,tr2,22394,67182).
route(harbor16,harbor2,tr13,26611,159666).
route(harbor16,harbor2,tr2,26611,79833).
route(harbor16,harbor3,tr13,7217,43302).
route(harbor16,harbor3,tr2,7217,21651).
route(harbor16,harbor4,tr13,19379,116274).
route(harbor16,harbor4,tr2,19379,58137).
route(harbor16,harbor5,tr13,15941,95646).
route(harbor16,harbor5,tr2,15941,47823).
route(harbor16,harbor6,tr13,13099,78594).
route(harbor16,harbor6,tr2,13099,39297).
route(harbor16,harbor7,tr13,11962,71772).
route(harbor16,harbor7,tr2,11962,35886).
route(harbor16,harbor8,tr13,16594,99564).
route(harbor16,harbor8,tr2,16594,49782).
route(harbor16,harbor9,tr13,27728,166368).
route(harbor16,harbor9,tr2,27728,83184).
route(harbor16,harbor10,tr13,3390,20340).
route(harbor16,harbor10,tr2,3390,10170).
route(harbor16,harbor11,tr13,9767,58602).
route(harbor16,harbor11,tr2,9767,29301).
route(harbor16,harbor12,tr13,7128,42768).
route(harbor16,harbor12,tr2,7128,21384).
route(harbor16,harbor13,tr13,11152,66912).
route(harbor16,harbor13,tr2,11152,33456).
route(harbor16,harbor14,tr13,3062,18372).
route(harbor16,harbor14,tr2,3062,9186).
route(harbor16,harbor15,tr13,27943,167658).
route(harbor16,harbor15,tr2,27943,83829).
route(harbor16,prodloc0,tr0,23062,599612).
route(harbor16,prodloc0,tr13,23062,138372).
route(harbor16,prodloc1,tr0,28267,734942).
route(harbor16,prodloc1,tr13,28267,169602).
route(harbor16,prodloc2,tr0,770,20020).
route(harbor16,prodloc2,tr13,770,4620).
route(harbor16,prodloc3,tr0,22044,573144).
route(harbor16,prodloc3,tr13,22044,132264).
route(harbor16,prodloc4,tr0,14526,377676).
route(harbor16,prodloc4,tr13,14526,87156).
route(harbor16,prodloc5,tr0,8880,230880).
route(harbor16,prodloc5,tr13,8880,53280).
route(harbor16,prodloc6,tr0,12199,317174).
route(harbor16,prodloc6,tr13,12199,73194).
route(harbor16,prodloc7,tr0,3514,91364).
route(harbor16,prodloc7,tr13,3514,21084).
route(harbor16,prodloc8,tr0,3447,89622).
route(harbor16,prodloc8,tr13,3447,20682).
route(harbor16,prodloc9,tr0,27379,711854).
route(harbor16,prodloc9,tr13,27379,164274).
route(harbor16,prodloc10,tr0,10397,270322).
route(harbor16,prodloc10,tr13,10397,62382).
route(harbor16,prodloc11,tr0,24443,635518).
route(harbor16,prodloc11,tr13,24443,146658).
route(harbor16,prodloc12,tr0,9903,257478).
route(harbor16,prodloc12,tr13,9903,59418).
route(harbor16,prodloc13,tr0,4607,119782).
route(harbor16,prodloc13,tr13,4607,27642).
route(harbor16,prodloc14,tr0,2880,74880).
route(harbor16,prodloc14,tr13,2880,17280).
route(harbor16,prodloc15,tr0,8321,216346).
route(harbor16,prodloc15,tr13,8321,49926).
route(harbor16,prodloc16,tr0,24537,637962).
route(harbor16,prodloc16,tr13,24537,147222).
route(harbor16,prodloc17,tr0,6453,167778).
route(harbor16,prodloc17,tr13,6453,38718).
route(harbor16,prodloc18,tr0,10116,263016).
route(harbor16,prodloc18,tr13,10116,60696).
route(harbor16,prodloc19,tr0,24403,634478).
route(harbor16,prodloc19,tr13,24403,146418).
route(harbor16,prodloc20,tr0,3676,95576).
route(harbor16,prodloc20,tr13,3676,22056).
route(harbor16,prodloc21,tr0,18419,478894).
route(harbor16,prodloc21,tr13,18419,110514).
route(harbor16,prodloc22,tr0,3763,97838).
route(harbor16,prodloc22,tr13,3763,22578).
route(harbor16,prodloc23,tr0,18063,469638).
route(harbor16,prodloc23,tr13,18063,108378).
route(harbor16,prodloc24,tr0,16335,424710).
route(harbor16,prodloc24,tr13,16335,98010).
route(harbor16,prodloc25,tr0,9615,249990).
route(harbor16,prodloc25,tr13,9615,57690).
route(harbor16,prodloc26,tr0,18283,475358).
route(harbor16,prodloc26,tr13,18283,109698).
route(harbor16,prodloc27,tr0,17352,451152).
route(harbor16,prodloc27,tr13,17352,104112).
route(harbor16,prodloc28,tr0,28711,746486).
route(harbor16,prodloc28,tr13,28711,172266).
route(harbor16,prodloc29,tr0,23960,622960).
route(harbor16,prodloc29,tr13,23960,143760).
route(harbor16,prodloc30,tr0,2931,76206).
route(harbor16,prodloc30,tr13,2931,17586).
route(harbor16,prodloc31,tr0,17998,467948).
route(harbor16,prodloc31,tr13,17998,107988).
route(harbor16,prodloc32,tr0,15849,412074).
route(harbor16,prodloc32,tr13,15849,95094).
route(harbor16,prodloc33,tr0,131,3406).
route(harbor16,prodloc33,tr13,131,786).
route(prodloc0,harbor0,tr0,16046,417196).
route(prodloc0,harbor0,tr13,16046,96276).
route(prodloc0,harbor1,tr0,676,17576).
route(prodloc0,harbor1,tr13,676,4056).
route(prodloc0,harbor2,tr0,468,12168).
route(prodloc0,harbor2,tr13,468,2808).
route(prodloc0,harbor3,tr0,19698,512148).
route(prodloc0,harbor3,tr13,19698,118188).
route(prodloc0,harbor4,tr0,9256,240656).
route(prodloc0,harbor4,tr13,9256,55536).
route(prodloc0,harbor5,tr0,3629,94354).
route(prodloc0,harbor5,tr13,3629,21774).
route(prodloc0,harbor6,tr0,6558,170508).
route(prodloc0,harbor6,tr13,6558,39348).
route(prodloc0,harbor7,tr0,26441,687466).
route(prodloc0,harbor7,tr13,26441,158646).
route(prodloc0,harbor8,tr0,21974,571324).
route(prodloc0,harbor8,tr13,21974,131844).
route(prodloc0,harbor9,tr0,25451,661726).
route(prodloc0,harbor9,tr13,25451,152706).
route(prodloc0,harbor10,tr0,22350,581100).
route(prodloc0,harbor10,tr13,22350,134100).
route(prodloc0,harbor11,tr0,19579,509054).
route(prodloc0,harbor11,tr13,19579,117474).
route(prodloc0,harbor12,tr0,20671,537446).
route(prodloc0,harbor12,tr13,20671,124026).
route(prodloc0,harbor13,tr0,9956,258856).
route(prodloc0,harbor13,tr13,9956,59736).
route(prodloc0,harbor14,tr0,13479,350454).
route(prodloc0,harbor14,tr13,13479,80874).
route(prodloc0,harbor15,tr0,26211,681486).
route(prodloc0,harbor15,tr13,26211,157266).
route(prodloc0,harbor16,tr0,22541,586066).
route(prodloc0,harbor16,tr13,22541,135246).
route(prodloc0,prodloc1,tr0,27031,702806).
route(prodloc0,prodloc1,tr13,27031,162186).
route(prodloc0,prodloc2,tr0,15895,413270).
route(prodloc0,prodloc2,tr13,15895,95370).
route(prodloc0,prodloc3,tr0,22835,593710).
route(prodloc0,prodloc3,tr13,22835,137010).
route(prodloc0,prodloc4,tr0,3170,82420).
route(prodloc0,prodloc4,tr13,3170,19020).
route(prodloc0,prodloc5,tr0,1751,45526).
route(prodloc0,prodloc5,tr13,1751,10506).
route(prodloc0,prodloc6,tr0,24148,627848).
route(prodloc0,prodloc6,tr13,24148,144888).
route(prodloc0,prodloc7,tr0,6217,161642).
route(prodloc0,prodloc7,tr13,6217,37302).
route(prodloc0,prodloc8,tr0,27025,702650).
route(prodloc0,prodloc8,tr13,27025,162150).
route(prodloc0,prodloc9,tr0,504,13104).
route(prodloc0,prodloc9,tr13,504,3024).
route(prodloc0,prodloc10,tr0,6739,175214).
route(prodloc0,prodloc10,tr13,6739,40434).
route(prodloc0,prodloc11,tr0,17768,461968).
route(prodloc0,prodloc11,tr13,17768,106608).
route(prodloc0,prodloc12,tr0,19652,510952).
route(prodloc0,prodloc12,tr13,19652,117912).
route(prodloc0,prodloc13,tr0,4691,121966).
route(prodloc0,prodloc13,tr13,4691,28146).
route(prodloc0,prodloc14,tr0,25771,670046).
route(prodloc0,prodloc14,tr13,25771,154626).
route(prodloc0,prodloc15,tr13,10111,60666).
route(prodloc0,prodloc15,tr15,10111,323552).
route(prodloc0,prodloc16,tr0,9295,241670).
route(prodloc0,prodloc16,tr13,9295,55770).
route(prodloc0,prodloc17,tr0,14582,379132).
route(prodloc0,prodloc17,tr13,14582,87492).
route(prodloc0,prodloc18,tr0,12204,317304).
route(prodloc0,prodloc18,tr13,12204,73224).
route(prodloc0,prodloc19,tr0,21682,563732).
route(prodloc0,prodloc19,tr13,21682,130092).
route(prodloc0,prodloc20,tr0,18014,468364).
route(prodloc0,prodloc20,tr13,18014,108084).
route(prodloc0,prodloc21,tr0,9635,250510).
route(prodloc0,prodloc21,tr13,9635,57810).
route(prodloc0,prodloc22,tr0,11558,300508).
route(prodloc0,prodloc22,tr13,11558,69348).
route(prodloc0,prodloc23,tr0,8799,228774).
route(prodloc0,prodloc23,tr13,8799,52794).
route(prodloc0,prodloc24,tr0,6849,178074).
route(prodloc0,prodloc24,tr13,6849,41094).
route(prodloc0,prodloc25,tr0,2125,55250).
route(prodloc0,prodloc25,tr13,2125,12750).
route(prodloc0,prodloc26,tr0,12408,322608).
route(prodloc0,prodloc26,tr13,12408,74448).
route(prodloc0,prodloc27,tr0,15195,395070).
route(prodloc0,prodloc27,tr13,15195,91170).
route(prodloc0,prodloc28,tr0,27166,706316).
route(prodloc0,prodloc28,tr13,27166,162996).
route(prodloc0,prodloc29,tr0,14088,366288).
route(prodloc0,prodloc29,tr13,14088,84528).
route(prodloc0,prodloc30,tr0,23400,608400).
route(prodloc0,prodloc30,tr13,23400,140400).
route(prodloc0,prodloc31,tr0,4640,120640).
route(prodloc0,prodloc31,tr13,4640,27840).
route(prodloc0,prodloc32,tr0,2752,71552).
route(prodloc0,prodloc32,tr13,2752,16512).
route(prodloc0,prodloc33,tr0,6874,178724).
route(prodloc0,prodloc33,tr13,6874,41244).
route(prodloc1,harbor0,tr0,19877,516802).
route(prodloc1,harbor0,tr13,19877,119262).
route(prodloc1,harbor1,tr0,13533,351858).
route(prodloc1,harbor1,tr13,13533,81198).
route(prodloc1,harbor2,tr0,20586,535236).
route(prodloc1,harbor2,tr13,20586,123516).
route(prodloc1,harbor3,tr0,6375,165750).
route(prodloc1,harbor3,tr13,6375,38250).
route(prodloc1,harbor4,tr0,14358,373308).
route(prodloc1,harbor4,tr13,14358,86148).
route(prodloc1,harbor5,tr0,15410,400660).
route(prodloc1,harbor5,tr13,15410,92460).
route(prodloc1,harbor6,tr0,3724,96824).
route(prodloc1,harbor6,tr13,3724,22344).
route(prodloc1,harbor7,tr0,20132,523432).
route(prodloc1,harbor7,tr13,20132,120792).
route(prodloc1,harbor8,tr0,11996,311896).
route(prodloc1,harbor8,tr13,11996,71976).
route(prodloc1,harbor9,tr0,12,312).
route(prodloc1,harbor9,tr13,12,72).
route(prodloc1,harbor10,tr0,13508,351208).
route(prodloc1,harbor10,tr13,13508,81048).
route(prodloc1,harbor11,tr0,12596,327496).
route(prodloc1,harbor11,tr13,12596,75576).
route(prodloc1,harbor12,tr0,19006,494156).
route(prodloc1,harbor12,tr13,19006,114036).
route(prodloc1,harbor13,tr0,23828,619528).
route(prodloc1,harbor13,tr13,23828,142968).
route(prodloc1,harbor14,tr0,4697,122122).
route(prodloc1,harbor14,tr13,4697,28182).
route(prodloc1,harbor15,tr0,19437,505362).
route(prodloc1,harbor15,tr13,19437,116622).
route(prodloc1,harbor16,tr0,9873,256698).
route(prodloc1,harbor16,tr13,9873,59238).
route(prodloc1,prodloc0,tr0,5775,150150).
route(prodloc1,prodloc0,tr13,5775,34650).
route(prodloc1,prodloc2,tr0,3858,100308).
route(prodloc1,prodloc2,tr13,3858,23148).
route(prodloc1,prodloc3,tr0,10735,279110).
route(prodloc1,prodloc3,tr13,10735,64410).
route(prodloc1,prodloc4,tr0,4934,128284).
route(prodloc1,prodloc4,tr13,4934,29604).
route(prodloc1,prodloc5,tr0,16404,426504).
route(prodloc1,prodloc5,tr13,16404,98424).
route(prodloc1,prodloc6,tr0,9297,241722).
route(prodloc1,prodloc6,tr13,9297,55782).
route(prodloc1,prodloc7,tr0,25961,674986).
route(prodloc1,prodloc7,tr13,25961,155766).
route(prodloc1,prodloc8,tr0,14920,387920).
route(prodloc1,prodloc8,tr13,14920,89520).
route(prodloc1,prodloc9,tr0,4268,110968).
route(prodloc1,prodloc9,tr13,4268,25608).
route(prodloc1,prodloc10,tr0,24954,648804).
route(prodloc1,prodloc10,tr13,24954,149724).
route(prodloc1,prodloc11,tr0,4112,106912).
route(prodloc1,prodloc11,tr13,4112,24672).
route(prodloc1,prodloc12,tr0,28937,752362).
route(prodloc1,prodloc12,tr13,28937,173622).
route(prodloc1,prodloc13,tr0,4331,112606).
route(prodloc1,prodloc13,tr13,4331,25986).
route(prodloc1,prodloc14,tr0,6407,166582).
route(prodloc1,prodloc14,tr13,6407,38442).
route(prodloc1,prodloc15,tr0,12849,334074).
route(prodloc1,prodloc15,tr13,12849,77094).
route(prodloc1,prodloc16,tr0,16135,419510).
route(prodloc1,prodloc16,tr13,16135,96810).
route(prodloc1,prodloc17,tr0,10925,284050).
route(prodloc1,prodloc17,tr13,10925,65550).
route(prodloc1,prodloc18,tr0,15497,402922).
route(prodloc1,prodloc18,tr13,15497,92982).
route(prodloc1,prodloc19,tr0,27058,703508).
route(prodloc1,prodloc19,tr13,27058,162348).
route(prodloc1,prodloc20,tr0,8465,220090).
route(prodloc1,prodloc20,tr13,8465,50790).
route(prodloc1,prodloc21,tr0,10178,264628).
route(prodloc1,prodloc21,tr13,10178,61068).
route(prodloc1,prodloc22,tr0,22509,585234).
route(prodloc1,prodloc22,tr13,22509,135054).
route(prodloc1,prodloc23,tr0,12078,314028).
route(prodloc1,prodloc23,tr13,12078,72468).
route(prodloc1,prodloc24,tr0,7670,199420).
route(prodloc1,prodloc24,tr13,7670,46020).
route(prodloc1,prodloc25,tr0,22015,572390).
route(prodloc1,prodloc25,tr13,22015,132090).
route(prodloc1,prodloc26,tr0,16838,437788).
route(prodloc1,prodloc26,tr13,16838,101028).
route(prodloc1,prodloc27,tr0,22981,597506).
route(prodloc1,prodloc27,tr15,22981,735392).
route(prodloc1,prodloc28,tr0,7271,189046).
route(prodloc1,prodloc28,tr13,7271,43626).
route(prodloc1,prodloc29,tr0,27904,725504).
route(prodloc1,prodloc29,tr15,27904,892928).
route(prodloc1,prodloc30,tr0,20687,537862).
route(prodloc1,prodloc30,tr13,20687,124122).
route(prodloc1,prodloc31,tr0,25591,665366).
route(prodloc1,prodloc31,tr13,25591,153546).
route(prodloc1,prodloc32,tr0,13025,338650).
route(prodloc1,prodloc32,tr13,13025,78150).
route(prodloc1,prodloc33,tr0,23111,600886).
route(prodloc1,prodloc33,tr13,23111,138666).
route(prodloc2,harbor0,tr0,7649,198874).
route(prodloc2,harbor0,tr13,7649,45894).
route(prodloc2,harbor1,tr0,21163,550238).
route(prodloc2,harbor1,tr13,21163,126978).
route(prodloc2,harbor2,tr0,7404,192504).
route(prodloc2,harbor2,tr13,7404,44424).
route(prodloc2,harbor3,tr0,10934,284284).
route(prodloc2,harbor3,tr13,10934,65604).
route(prodloc2,harbor4,tr0,5748,149448).
route(prodloc2,harbor4,tr13,5748,34488).
route(prodloc2,harbor5,tr0,10605,275730).
route(prodloc2,harbor5,tr13,10605,63630).
route(prodloc2,harbor6,tr0,27335,710710).
route(prodloc2,harbor6,tr13,27335,164010).
route(prodloc2,harbor7,tr0,21039,547014).
route(prodloc2,harbor7,tr13,21039,126234).
route(prodloc2,harbor8,tr0,12207,317382).
route(prodloc2,harbor8,tr13,12207,73242).
route(prodloc2,harbor9,tr0,12088,314288).
route(prodloc2,harbor9,tr13,12088,72528).
route(prodloc2,harbor10,tr0,12808,333008).
route(prodloc2,harbor10,tr13,12808,76848).
route(prodloc2,harbor11,tr0,19198,499148).
route(prodloc2,harbor11,tr13,19198,115188).
route(prodloc2,harbor12,tr0,13345,346970).
route(prodloc2,harbor12,tr13,13345,80070).
route(prodloc2,harbor13,tr0,6295,163670).
route(prodloc2,harbor13,tr13,6295,37770).
route(prodloc2,harbor14,tr0,28312,736112).
route(prodloc2,harbor14,tr13,28312,169872).
route(prodloc2,harbor15,tr0,19241,500266).
route(prodloc2,harbor15,tr13,19241,115446).
route(prodloc2,harbor16,tr0,28041,729066).
route(prodloc2,harbor16,tr13,28041,168246).
route(prodloc2,prodloc0,tr0,3574,92924).
route(prodloc2,prodloc0,tr13,3574,21444).
route(prodloc2,prodloc1,tr0,21190,550940).
route(prodloc2,prodloc1,tr13,21190,127140).
route(prodloc2,prodloc3,tr0,28164,732264).
route(prodloc2,prodloc3,tr13,28164,168984).
route(prodloc2,prodloc4,tr0,9729,252954).
route(prodloc2,prodloc4,tr13,9729,58374).
route(prodloc2,prodloc5,tr0,4396,114296).
route(prodloc2,prodloc5,tr13,4396,26376).
route(prodloc2,prodloc6,tr0,9739,253214).
route(prodloc2,prodloc6,tr13,9739,58434).
route(prodloc2,prodloc7,tr13,25393,152358).
route(prodloc2,prodloc7,tr15,25393,812576).
route(prodloc2,prodloc8,tr0,10481,272506).
route(prodloc2,prodloc8,tr13,10481,62886).
route(prodloc2,prodloc9,tr0,11023,286598).
route(prodloc2,prodloc9,tr13,11023,66138).
route(prodloc2,prodloc10,tr0,5562,144612).
route(prodloc2,prodloc10,tr13,5562,33372).
route(prodloc2,prodloc11,tr0,26875,698750).
route(prodloc2,prodloc11,tr13,26875,161250).
route(prodloc2,prodloc12,tr0,7593,197418).
route(prodloc2,prodloc12,tr13,7593,45558).
route(prodloc2,prodloc13,tr0,3095,80470).
route(prodloc2,prodloc13,tr13,3095,18570).
route(prodloc2,prodloc14,tr0,19829,515554).
route(prodloc2,prodloc14,tr13,19829,118974).
route(prodloc2,prodloc15,tr0,27060,703560).
route(prodloc2,prodloc15,tr13,27060,162360).
route(prodloc2,prodloc16,tr0,6890,179140).
route(prodloc2,prodloc16,tr13,6890,41340).
route(prodloc2,prodloc17,tr0,8164,212264).
route(prodloc2,prodloc17,tr13,8164,48984).
route(prodloc2,prodloc18,tr0,17654,459004).
route(prodloc2,prodloc18,tr13,17654,105924).
route(prodloc2,prodloc19,tr0,14247,370422).
route(prodloc2,prodloc19,tr13,14247,85482).
route(prodloc2,prodloc20,tr0,23463,610038).
route(prodloc2,prodloc20,tr13,23463,140778).
route(prodloc2,prodloc21,tr0,22639,588614).
route(prodloc2,prodloc21,tr13,22639,135834).
route(prodloc2,prodloc22,tr0,14210,369460).
route(prodloc2,prodloc22,tr13,14210,85260).
route(prodloc2,prodloc23,tr0,19225,499850).
route(prodloc2,prodloc23,tr13,19225,115350).
route(prodloc2,prodloc24,tr0,6771,176046).
route(prodloc2,prodloc24,tr13,6771,40626).
route(prodloc2,prodloc25,tr0,25373,659698).
route(prodloc2,prodloc25,tr13,25373,152238).
route(prodloc2,prodloc26,tr0,19442,505492).
route(prodloc2,prodloc26,tr13,19442,116652).
route(prodloc2,prodloc27,tr0,23490,610740).
route(prodloc2,prodloc27,tr13,23490,140940).
route(prodloc2,prodloc28,tr0,10599,275574).
route(prodloc2,prodloc28,tr13,10599,63594).
route(prodloc2,prodloc29,tr0,1048,27248).
route(prodloc2,prodloc29,tr13,1048,6288).
route(prodloc2,prodloc30,tr0,18437,479362).
route(prodloc2,prodloc30,tr13,18437,110622).
route(prodloc2,prodloc31,tr0,1349,35074).
route(prodloc2,prodloc31,tr13,1349,8094).
route(prodloc2,prodloc32,tr0,24004,624104).
route(prodloc2,prodloc32,tr13,24004,144024).
route(prodloc2,prodloc33,tr0,21370,555620).
route(prodloc2,prodloc33,tr13,21370,128220).
route(prodloc3,harbor0,tr0,10622,276172).
route(prodloc3,harbor0,tr13,10622,63732).
route(prodloc3,harbor1,tr0,28407,738582).
route(prodloc3,harbor1,tr13,28407,170442).
route(prodloc3,harbor2,tr0,17631,458406).
route(prodloc3,harbor2,tr13,17631,105786).
route(prodloc3,harbor3,tr0,18888,491088).
route(prodloc3,harbor3,tr13,18888,113328).
route(prodloc3,harbor4,tr0,26785,696410).
route(prodloc3,harbor4,tr13,26785,160710).
route(prodloc3,harbor5,tr0,16712,434512).
route(prodloc3,harbor5,tr13,16712,100272).
route(prodloc3,harbor6,tr0,12260,318760).
route(prodloc3,harbor6,tr13,12260,73560).
route(prodloc3,harbor7,tr0,9745,253370).
route(prodloc3,harbor7,tr13,9745,58470).
route(prodloc3,harbor8,tr0,9328,242528).
route(prodloc3,harbor8,tr13,9328,55968).
route(prodloc3,harbor9,tr0,7130,185380).
route(prodloc3,harbor9,tr13,7130,42780).
route(prodloc3,harbor10,tr0,16352,425152).
route(prodloc3,harbor10,tr13,16352,98112).
route(prodloc3,harbor11,tr0,27936,726336).
route(prodloc3,harbor11,tr13,27936,167616).
route(prodloc3,harbor12,tr0,5491,142766).
route(prodloc3,harbor12,tr13,5491,32946).
route(prodloc3,harbor13,tr0,24226,629876).
route(prodloc3,harbor13,tr13,24226,145356).
route(prodloc3,harbor14,tr0,4366,113516).
route(prodloc3,harbor14,tr13,4366,26196).
route(prodloc3,harbor15,tr0,11518,299468).
route(prodloc3,harbor15,tr13,11518,69108).
route(prodloc3,harbor16,tr0,6,156).
route(prodloc3,harbor16,tr13,6,36).
route(prodloc3,prodloc0,tr0,22776,592176).
route(prodloc3,prodloc0,tr13,22776,136656).
route(prodloc3,prodloc1,tr0,14924,388024).
route(prodloc3,prodloc1,tr13,14924,89544).
route(prodloc3,prodloc2,tr0,7951,206726).
route(prodloc3,prodloc2,tr13,7951,47706).
route(prodloc3,prodloc4,tr0,26869,698594).
route(prodloc3,prodloc4,tr13,26869,161214).
route(prodloc3,prodloc5,tr0,22977,597402).
route(prodloc3,prodloc5,tr13,22977,137862).
route(prodloc3,prodloc6,tr0,25665,667290).
route(prodloc3,prodloc6,tr13,25665,153990).
route(prodloc3,prodloc7,tr0,10806,280956).
route(prodloc3,prodloc7,tr13,10806,64836).
route(prodloc3,prodloc8,tr0,25101,652626).
route(prodloc3,prodloc8,tr13,25101,150606).
route(prodloc3,prodloc9,tr0,20775,540150).
route(prodloc3,prodloc9,tr13,20775,124650).
route(prodloc3,prodloc10,tr0,4139,107614).
route(prodloc3,prodloc10,tr13,4139,24834).
route(prodloc3,prodloc11,tr0,19046,495196).
route(prodloc3,prodloc11,tr13,19046,114276).
route(prodloc3,prodloc12,tr0,21637,562562).
route(prodloc3,prodloc12,tr13,21637,129822).
route(prodloc3,prodloc13,tr0,9495,246870).
route(prodloc3,prodloc13,tr13,9495,56970).
route(prodloc3,prodloc14,tr0,24039,625014).
route(prodloc3,prodloc14,tr13,24039,144234).
route(prodloc3,prodloc15,tr0,12527,325702).
route(prodloc3,prodloc15,tr13,12527,75162).
route(prodloc3,prodloc16,tr0,23991,623766).
route(prodloc3,prodloc16,tr13,23991,143946).
route(prodloc3,prodloc17,tr0,11369,295594).
route(prodloc3,prodloc17,tr13,11369,68214).
route(prodloc3,prodloc18,tr0,22242,578292).
route(prodloc3,prodloc18,tr13,22242,133452).
route(prodloc3,prodloc19,tr0,19609,509834).
route(prodloc3,prodloc19,tr13,19609,117654).
route(prodloc3,prodloc20,tr0,4403,114478).
route(prodloc3,prodloc20,tr13,4403,26418).
route(prodloc3,prodloc21,tr0,28912,751712).
route(prodloc3,prodloc21,tr13,28912,173472).
route(prodloc3,prodloc22,tr0,27516,715416).
route(prodloc3,prodloc22,tr13,27516,165096).
route(prodloc3,prodloc23,tr0,12765,331890).
route(prodloc3,prodloc23,tr13,12765,76590).
route(prodloc3,prodloc24,tr0,13658,355108).
route(prodloc3,prodloc24,tr13,13658,81948).
route(prodloc3,prodloc25,tr0,8861,230386).
route(prodloc3,prodloc25,tr13,8861,53166).
route(prodloc3,prodloc26,tr0,111,2886).
route(prodloc3,prodloc26,tr13,111,666).
route(prodloc3,prodloc27,tr0,8983,233558).
route(prodloc3,prodloc27,tr13,8983,53898).
route(prodloc3,prodloc28,tr0,17667,459342).
route(prodloc3,prodloc28,tr13,17667,106002).
route(prodloc3,prodloc29,tr0,28027,728702).
route(prodloc3,prodloc29,tr13,28027,168162).
route(prodloc3,prodloc30,tr0,27454,713804).
route(prodloc3,prodloc30,tr13,27454,164724).
route(prodloc3,prodloc31,tr0,26272,683072).
route(prodloc3,prodloc31,tr13,26272,157632).
route(prodloc3,prodloc32,tr0,19627,510302).
route(prodloc3,prodloc32,tr13,19627,117762).
route(prodloc3,prodloc33,tr0,23731,617006).
route(prodloc3,prodloc33,tr13,23731,142386).
route(prodloc4,harbor0,tr0,8931,232206).
route(prodloc4,harbor0,tr13,8931,53586).
route(prodloc4,harbor1,tr0,17374,451724).
route(prodloc4,harbor1,tr13,17374,104244).
route(prodloc4,harbor2,tr0,18476,480376).
route(prodloc4,harbor2,tr13,18476,110856).
route(prodloc4,harbor3,tr0,3764,97864).
route(prodloc4,harbor3,tr13,3764,22584).
route(prodloc4,harbor4,tr0,2754,71604).
route(prodloc4,harbor4,tr13,2754,16524).
route(prodloc4,harbor5,tr0,2787,72462).
route(prodloc4,harbor5,tr13,2787,16722).
route(prodloc4,harbor6,tr0,6410,166660).
route(prodloc4,harbor6,tr13,6410,38460).
route(prodloc4,harbor7,tr0,1979,51454).
route(prodloc4,harbor7,tr13,1979,11874).
route(prodloc4,harbor8,tr0,17789,462514).
route(prodloc4,harbor8,tr13,17789,106734).
route(prodloc4,harbor9,tr0,17723,460798).
route(prodloc4,harbor9,tr13,17723,106338).
route(prodloc4,harbor10,tr0,14911,387686).
route(prodloc4,harbor10,tr13,14911,89466).
route(prodloc4,harbor11,tr0,17655,459030).
route(prodloc4,harbor11,tr13,17655,105930).
route(prodloc4,harbor12,tr0,11118,289068).
route(prodloc4,harbor12,tr13,11118,66708).
route(prodloc4,harbor13,tr0,13265,344890).
route(prodloc4,harbor13,tr13,13265,79590).
route(prodloc4,harbor14,tr0,20767,539942).
route(prodloc4,harbor14,tr13,20767,124602).
route(prodloc4,harbor15,tr0,20495,532870).
route(prodloc4,harbor15,tr13,20495,122970).
route(prodloc4,harbor16,tr0,6069,157794).
route(prodloc4,harbor16,tr13,6069,36414).
route(prodloc4,prodloc0,tr0,7009,182234).
route(prodloc4,prodloc0,tr13,7009,42054).
route(prodloc4,prodloc1,tr0,11449,297674).
route(prodloc4,prodloc1,tr13,11449,68694).
route(prodloc4,prodloc2,tr0,4465,116090).
route(prodloc4,prodloc2,tr13,4465,26790).
route(prodloc4,prodloc3,tr0,5749,149474).
route(prodloc4,prodloc3,tr13,5749,34494).
route(prodloc4,prodloc5,tr0,8910,231660).
route(prodloc4,prodloc5,tr13,8910,53460).
route(prodloc4,prodloc6,tr0,13494,350844).
route(prodloc4,prodloc6,tr13,13494,80964).
route(prodloc4,prodloc7,tr0,19988,519688).
route(prodloc4,prodloc7,tr13,19988,119928).
route(prodloc4,prodloc8,tr0,20520,533520).
route(prodloc4,prodloc8,tr13,20520,123120).
route(prodloc4,prodloc9,tr0,21954,570804).
route(prodloc4,prodloc9,tr15,21954,702528).
route(prodloc4,prodloc10,tr0,3486,90636).
route(prodloc4,prodloc10,tr13,3486,20916).
route(prodloc4,prodloc11,tr0,11171,290446).
route(prodloc4,prodloc11,tr13,11171,67026).
route(prodloc4,prodloc12,tr0,16789,436514).
route(prodloc4,prodloc12,tr15,16789,537248).
route(prodloc4,prodloc13,tr0,2359,61334).
route(prodloc4,prodloc13,tr13,2359,14154).
route(prodloc4,prodloc14,tr0,8151,211926).
route(prodloc4,prodloc14,tr13,8151,48906).
route(prodloc4,prodloc15,tr0,23853,620178).
route(prodloc4,prodloc15,tr13,23853,143118).
route(prodloc4,prodloc16,tr0,2168,56368).
route(prodloc4,prodloc16,tr13,2168,13008).
route(prodloc4,prodloc17,tr0,553,14378).
route(prodloc4,prodloc17,tr13,553,3318).
route(prodloc4,prodloc18,tr0,15845,411970).
route(prodloc4,prodloc18,tr13,15845,95070).
route(prodloc4,prodloc19,tr0,27192,706992).
route(prodloc4,prodloc19,tr13,27192,163152).
route(prodloc4,prodloc20,tr0,15821,411346).
route(prodloc4,prodloc20,tr13,15821,94926).
route(prodloc4,prodloc21,tr0,20377,529802).
route(prodloc4,prodloc21,tr13,20377,122262).
route(prodloc4,prodloc22,tr0,22042,573092).
route(prodloc4,prodloc22,tr13,22042,132252).
route(prodloc4,prodloc23,tr0,7158,186108).
route(prodloc4,prodloc23,tr13,7158,42948).
route(prodloc4,prodloc24,tr0,16024,416624).
route(prodloc4,prodloc24,tr13,16024,96144).
route(prodloc4,prodloc25,tr0,5796,150696).
route(prodloc4,prodloc25,tr13,5796,34776).
route(prodloc4,prodloc26,tr0,14675,381550).
route(prodloc4,prodloc26,tr13,14675,88050).
route(prodloc4,prodloc27,tr0,5860,152360).
route(prodloc4,prodloc27,tr13,5860,35160).
route(prodloc4,prodloc28,tr0,14551,378326).
route(prodloc4,prodloc28,tr13,14551,87306).
route(prodloc4,prodloc29,tr0,16764,435864).
route(prodloc4,prodloc29,tr13,16764,100584).
route(prodloc4,prodloc30,tr0,5135,133510).
route(prodloc4,prodloc30,tr13,5135,30810).
route(prodloc4,prodloc31,tr0,21113,548938).
route(prodloc4,prodloc31,tr13,21113,126678).
route(prodloc4,prodloc32,tr0,19250,500500).
route(prodloc4,prodloc32,tr13,19250,115500).
route(prodloc4,prodloc33,tr0,12416,322816).
route(prodloc4,prodloc33,tr13,12416,74496).
route(prodloc5,harbor0,tr0,22959,596934).
route(prodloc5,harbor0,tr13,22959,137754).
route(prodloc5,harbor1,tr0,17588,457288).
route(prodloc5,harbor1,tr13,17588,105528).
route(prodloc5,harbor2,tr0,11627,302302).
route(prodloc5,harbor2,tr13,11627,69762).
route(prodloc5,harbor3,tr0,17604,457704).
route(prodloc5,harbor3,tr13,17604,105624).
route(prodloc5,harbor4,tr0,6861,178386).
route(prodloc5,harbor4,tr13,6861,41166).
route(prodloc5,harbor5,tr0,26303,683878).
route(prodloc5,harbor5,tr13,26303,157818).
route(prodloc5,harbor6,tr0,14315,372190).
route(prodloc5,harbor6,tr13,14315,85890).
route(prodloc5,harbor7,tr0,14686,381836).
route(prodloc5,harbor7,tr13,14686,88116).
route(prodloc5,harbor8,tr0,7188,186888).
route(prodloc5,harbor8,tr13,7188,43128).
route(prodloc5,harbor9,tr0,6080,158080).
route(prodloc5,harbor9,tr13,6080,36480).
route(prodloc5,harbor10,tr0,25350,659100).
route(prodloc5,harbor10,tr13,25350,152100).
route(prodloc5,harbor11,tr0,21290,553540).
route(prodloc5,harbor11,tr13,21290,127740).
route(prodloc5,harbor12,tr0,7131,185406).
route(prodloc5,harbor12,tr13,7131,42786).
route(prodloc5,harbor13,tr0,4418,114868).
route(prodloc5,harbor13,tr13,4418,26508).
route(prodloc5,harbor14,tr0,10075,261950).
route(prodloc5,harbor14,tr13,10075,60450).
route(prodloc5,harbor15,tr0,14661,381186).
route(prodloc5,harbor15,tr13,14661,87966).
route(prodloc5,harbor16,tr0,299,7774).
route(prodloc5,harbor16,tr13,299,1794).
route(prodloc5,prodloc0,tr0,8861,230386).
route(prodloc5,prodloc0,tr13,8861,53166).
route(prodloc5,prodloc1,tr0,17025,442650).
route(prodloc5,prodloc1,tr13,17025,102150).
route(prodloc5,prodloc2,tr0,22729,590954).
route(prodloc5,prodloc2,tr13,22729,136374).
route(prodloc5,prodloc3,tr0,4466,116116).
route(prodloc5,prodloc3,tr13,4466,26796).
route(prodloc5,prodloc4,tr0,15494,402844).
route(prodloc5,prodloc4,tr13,15494,92964).
route(prodloc5,prodloc6,tr0,9182,238732).
route(prodloc5,prodloc6,tr13,9182,55092).
route(prodloc5,prodloc7,tr0,2825,73450).
route(prodloc5,prodloc7,tr13,2825,16950).
route(prodloc5,prodloc8,tr0,21842,567892).
route(prodloc5,prodloc8,tr13,21842,131052).
route(prodloc5,prodloc9,tr0,4840,125840).
route(prodloc5,prodloc9,tr13,4840,29040).
route(prodloc5,prodloc10,tr0,9576,248976).
route(prodloc5,prodloc10,tr13,9576,57456).
route(prodloc5,prodloc11,tr0,23332,606632).
route(prodloc5,prodloc11,tr13,23332,139992).
route(prodloc5,prodloc12,tr0,14185,368810).
route(prodloc5,prodloc12,tr13,14185,85110).
route(prodloc5,prodloc13,tr0,27324,710424).
route(prodloc5,prodloc13,tr13,27324,163944).
route(prodloc5,prodloc14,tr0,16827,437502).
route(prodloc5,prodloc14,tr13,16827,100962).
route(prodloc5,prodloc15,tr0,11412,296712).
route(prodloc5,prodloc15,tr13,11412,68472).
route(prodloc5,prodloc16,tr0,16091,418366).
route(prodloc5,prodloc16,tr13,16091,96546).
route(prodloc5,prodloc17,tr0,26162,680212).
route(prodloc5,prodloc17,tr13,26162,156972).
route(prodloc5,prodloc18,tr0,17097,444522).
route(prodloc5,prodloc18,tr13,17097,102582).
route(prodloc5,prodloc19,tr0,7539,196014).
route(prodloc5,prodloc19,tr13,7539,45234).
route(prodloc5,prodloc20,tr0,17915,465790).
route(prodloc5,prodloc20,tr13,17915,107490).
route(prodloc5,prodloc21,tr0,12826,333476).
route(prodloc5,prodloc21,tr13,12826,76956).
route(prodloc5,prodloc22,tr0,18066,469716).
route(prodloc5,prodloc22,tr13,18066,108396).
route(prodloc5,prodloc23,tr0,19437,505362).
route(prodloc5,prodloc23,tr13,19437,116622).
route(prodloc5,prodloc24,tr0,27301,709826).
route(prodloc5,prodloc24,tr13,27301,163806).
route(prodloc5,prodloc25,tr0,6617,172042).
route(prodloc5,prodloc25,tr13,6617,39702).
route(prodloc5,prodloc26,tr0,26523,689598).
route(prodloc5,prodloc26,tr13,26523,159138).
route(prodloc5,prodloc27,tr0,7268,188968).
route(prodloc5,prodloc27,tr13,7268,43608).
route(prodloc5,prodloc28,tr0,16554,430404).
route(prodloc5,prodloc28,tr13,16554,99324).
route(prodloc5,prodloc29,tr13,17350,104100).
route(prodloc5,prodloc29,tr15,17350,555200).
route(prodloc5,prodloc30,tr0,22405,582530).
route(prodloc5,prodloc30,tr13,22405,134430).
route(prodloc5,prodloc31,tr0,26546,690196).
route(prodloc5,prodloc31,tr13,26546,159276).
route(prodloc5,prodloc32,tr0,17157,446082).
route(prodloc5,prodloc32,tr13,17157,102942).
route(prodloc5,prodloc33,tr0,12998,337948).
route(prodloc5,prodloc33,tr13,12998,77988).
route(prodloc6,harbor0,tr0,5950,154700).
route(prodloc6,harbor0,tr13,5950,35700).
route(prodloc6,harbor1,tr0,8169,212394).
route(prodloc6,harbor1,tr13,8169,49014).
route(prodloc6,harbor2,tr0,23022,598572).
route(prodloc6,harbor2,tr13,23022,138132).
route(prodloc6,harbor3,tr0,5937,154362).
route(prodloc6,harbor3,tr13,5937,35622).
route(prodloc6,harbor4,tr0,5833,151658).
route(prodloc6,harbor4,tr13,5833,34998).
route(prodloc6,harbor5,tr0,6996,181896).
route(prodloc6,harbor5,tr13,6996,41976).
route(prodloc6,harbor6,tr0,9631,250406).
route(prodloc6,harbor6,tr13,9631,57786).
route(prodloc6,harbor7,tr0,24926,648076).
route(prodloc6,harbor7,tr13,24926,149556).
route(prodloc6,harbor8,tr0,22359,581334).
route(prodloc6,harbor8,tr13,22359,134154).
route(prodloc6,harbor9,tr0,25418,660868).
route(prodloc6,harbor9,tr13,25418,152508).
route(prodloc6,harbor10,tr0,4208,109408).
route(prodloc6,harbor10,tr13,4208,25248).
route(prodloc6,harbor11,tr0,8928,232128).
route(prodloc6,harbor11,tr13,8928,53568).
route(prodloc6,harbor12,tr0,4801,124826).
route(prodloc6,harbor12,tr13,4801,28806).
route(prodloc6,harbor13,tr0,11733,305058).
route(prodloc6,harbor13,tr13,11733,70398).
route(prodloc6,harbor14,tr0,22362,581412).
route(prodloc6,harbor14,tr13,22362,134172).
route(prodloc6,harbor15,tr0,9913,257738).
route(prodloc6,harbor15,tr13,9913,59478).
route(prodloc6,harbor16,tr0,2584,67184).
route(prodloc6,harbor16,tr13,2584,15504).
route(prodloc6,prodloc0,tr0,17330,450580).
route(prodloc6,prodloc0,tr13,17330,103980).
route(prodloc6,prodloc1,tr13,10899,65394).
route(prodloc6,prodloc1,tr15,10899,348768).
route(prodloc6,prodloc2,tr0,14901,387426).
route(prodloc6,prodloc2,tr13,14901,89406).
route(prodloc6,prodloc3,tr0,14381,373906).
route(prodloc6,prodloc3,tr13,14381,86286).
route(prodloc6,prodloc4,tr13,5792,34752).
route(prodloc6,prodloc4,tr15,5792,185344).
route(prodloc6,prodloc5,tr0,5159,134134).
route(prodloc6,prodloc5,tr13,5159,30954).
route(prodloc6,prodloc7,tr0,23705,616330).
route(prodloc6,prodloc7,tr13,23705,142230).
route(prodloc6,prodloc8,tr0,24544,638144).
route(prodloc6,prodloc8,tr13,24544,147264).
route(prodloc6,prodloc9,tr0,16746,435396).
route(prodloc6,prodloc9,tr13,16746,100476).
route(prodloc6,prodloc10,tr0,8456,219856).
route(prodloc6,prodloc10,tr13,8456,50736).
route(prodloc6,prodloc11,tr0,25145,653770).
route(prodloc6,prodloc11,tr13,25145,150870).
route(prodloc6,prodloc12,tr0,6918,179868).
route(prodloc6,prodloc12,tr13,6918,41508).
route(prodloc6,prodloc13,tr0,2741,71266).
route(prodloc6,prodloc13,tr13,2741,16446).
route(prodloc6,prodloc14,tr0,27823,723398).
route(prodloc6,prodloc14,tr13,27823,166938).
route(prodloc6,prodloc15,tr0,14237,370162).
route(prodloc6,prodloc15,tr13,14237,85422).
route(prodloc6,prodloc16,tr0,6663,173238).
route(prodloc6,prodloc16,tr13,6663,39978).
route(prodloc6,prodloc17,tr0,22791,592566).
route(prodloc6,prodloc17,tr13,22791,136746).
route(prodloc6,prodloc18,tr0,6465,168090).
route(prodloc6,prodloc18,tr13,6465,38790).
route(prodloc6,prodloc19,tr0,17719,460694).
route(prodloc6,prodloc19,tr13,17719,106314).
route(prodloc6,prodloc20,tr0,8020,208520).
route(prodloc6,prodloc20,tr13,8020,48120).
route(prodloc6,prodloc21,tr0,22336,580736).
route(prodloc6,prodloc21,tr13,22336,134016).
route(prodloc6,prodloc22,tr0,25217,655642).
route(prodloc6,prodloc22,tr13,25217,151302).
route(prodloc6,prodloc23,tr0,17346,450996).
route(prodloc6,prodloc23,tr13,17346,104076).
route(prodloc6,prodloc24,tr0,19912,517712).
route(prodloc6,prodloc24,tr13,19912,119472).
route(prodloc6,prodloc25,tr0,13084,340184).
route(prodloc6,prodloc25,tr13,13084,78504).
route(prodloc6,prodloc26,tr0,21474,558324).
route(prodloc6,prodloc26,tr13,21474,128844).
route(prodloc6,prodloc27,tr13,181,1086).
route(prodloc6,prodloc27,tr15,181,5792).
route(prodloc6,prodloc28,tr0,401,10426).
route(prodloc6,prodloc28,tr13,401,2406).
route(prodloc6,prodloc29,tr0,2829,73554).
route(prodloc6,prodloc29,tr13,2829,16974).
route(prodloc6,prodloc30,tr0,15937,414362).
route(prodloc6,prodloc30,tr13,15937,95622).
route(prodloc6,prodloc31,tr0,5810,151060).
route(prodloc6,prodloc31,tr13,5810,34860).
route(prodloc6,prodloc32,tr0,9384,243984).
route(prodloc6,prodloc32,tr13,9384,56304).
route(prodloc6,prodloc33,tr0,25660,667160).
route(prodloc6,prodloc33,tr13,25660,153960).
route(prodloc7,harbor0,tr0,13031,338806).
route(prodloc7,harbor0,tr13,13031,78186).
route(prodloc7,harbor1,tr0,9837,255762).
route(prodloc7,harbor1,tr13,9837,59022).
route(prodloc7,harbor2,tr0,1388,36088).
route(prodloc7,harbor2,tr13,1388,8328).
route(prodloc7,harbor3,tr0,4343,112918).
route(prodloc7,harbor3,tr13,4343,26058).
route(prodloc7,harbor4,tr0,8447,219622).
route(prodloc7,harbor4,tr13,8447,50682).
route(prodloc7,harbor5,tr0,22199,577174).
route(prodloc7,harbor5,tr13,22199,133194).
route(prodloc7,harbor6,tr0,14064,365664).
route(prodloc7,harbor6,tr13,14064,84384).
route(prodloc7,harbor7,tr0,3573,92898).
route(prodloc7,harbor7,tr13,3573,21438).
route(prodloc7,harbor8,tr0,28571,742846).
route(prodloc7,harbor8,tr13,28571,171426).
route(prodloc7,harbor9,tr0,4849,126074).
route(prodloc7,harbor9,tr13,4849,29094).
route(prodloc7,harbor10,tr0,24576,638976).
route(prodloc7,harbor10,tr13,24576,147456).
route(prodloc7,harbor11,tr0,13564,352664).
route(prodloc7,harbor11,tr13,13564,81384).
route(prodloc7,harbor12,tr0,14138,367588).
route(prodloc7,harbor12,tr13,14138,84828).
route(prodloc7,harbor13,tr0,10774,280124).
route(prodloc7,harbor13,tr13,10774,64644).
route(prodloc7,harbor14,tr0,21452,557752).
route(prodloc7,harbor14,tr13,21452,128712).
route(prodloc7,harbor15,tr0,17293,449618).
route(prodloc7,harbor15,tr13,17293,103758).
route(prodloc7,harbor16,tr0,12263,318838).
route(prodloc7,harbor16,tr13,12263,73578).
route(prodloc7,prodloc0,tr0,17689,459914).
route(prodloc7,prodloc0,tr13,17689,106134).
route(prodloc7,prodloc1,tr0,3874,100724).
route(prodloc7,prodloc1,tr13,3874,23244).
route(prodloc7,prodloc2,tr0,482,12532).
route(prodloc7,prodloc2,tr13,482,2892).
route(prodloc7,prodloc3,tr0,15683,407758).
route(prodloc7,prodloc3,tr13,15683,94098).
route(prodloc7,prodloc4,tr0,9340,242840).
route(prodloc7,prodloc4,tr13,9340,56040).
route(prodloc7,prodloc5,tr0,23920,621920).
route(prodloc7,prodloc5,tr13,23920,143520).
route(prodloc7,prodloc6,tr0,5052,131352).
route(prodloc7,prodloc6,tr13,5052,30312).
route(prodloc7,prodloc8,tr0,9164,238264).
route(prodloc7,prodloc8,tr13,9164,54984).
route(prodloc7,prodloc9,tr0,8025,208650).
route(prodloc7,prodloc9,tr13,8025,48150).
route(prodloc7,prodloc10,tr0,11577,301002).
route(prodloc7,prodloc10,tr13,11577,69462).
route(prodloc7,prodloc11,tr0,9863,256438).
route(prodloc7,prodloc11,tr13,9863,59178).
route(prodloc7,prodloc12,tr0,14448,375648).
route(prodloc7,prodloc12,tr13,14448,86688).
route(prodloc7,prodloc13,tr0,13435,349310).
route(prodloc7,prodloc13,tr13,13435,80610).
route(prodloc7,prodloc14,tr0,14698,382148).
route(prodloc7,prodloc14,tr13,14698,88188).
route(prodloc7,prodloc15,tr0,3087,80262).
route(prodloc7,prodloc15,tr13,3087,18522).
route(prodloc7,prodloc16,tr0,15014,390364).
route(prodloc7,prodloc16,tr13,15014,90084).
route(prodloc7,prodloc17,tr0,5590,145340).
route(prodloc7,prodloc17,tr13,5590,33540).
route(prodloc7,prodloc18,tr0,20490,532740).
route(prodloc7,prodloc18,tr13,20490,122940).
route(prodloc7,prodloc19,tr0,5276,137176).
route(prodloc7,prodloc19,tr13,5276,31656).
route(prodloc7,prodloc20,tr0,21606,561756).
route(prodloc7,prodloc20,tr13,21606,129636).
route(prodloc7,prodloc21,tr0,784,20384).
route(prodloc7,prodloc21,tr13,784,4704).
route(prodloc7,prodloc22,tr0,17427,453102).
route(prodloc7,prodloc22,tr13,17427,104562).
route(prodloc7,prodloc23,tr0,27524,715624).
route(prodloc7,prodloc23,tr13,27524,165144).
route(prodloc7,prodloc24,tr0,7383,191958).
route(prodloc7,prodloc24,tr13,7383,44298).
route(prodloc7,prodloc25,tr0,17308,450008).
route(prodloc7,prodloc25,tr13,17308,103848).
route(prodloc7,prodloc26,tr0,8289,215514).
route(prodloc7,prodloc26,tr13,8289,49734).
route(prodloc7,prodloc27,tr0,7038,182988).
route(prodloc7,prodloc27,tr13,7038,42228).
route(prodloc7,prodloc28,tr0,13693,356018).
route(prodloc7,prodloc28,tr13,13693,82158).
route(prodloc7,prodloc29,tr0,3545,92170).
route(prodloc7,prodloc29,tr13,3545,21270).
route(prodloc7,prodloc30,tr0,451,11726).
route(prodloc7,prodloc30,tr13,451,2706).
route(prodloc7,prodloc31,tr0,14806,384956).
route(prodloc7,prodloc31,tr13,14806,88836).
route(prodloc7,prodloc32,tr0,28340,736840).
route(prodloc7,prodloc32,tr13,28340,170040).
route(prodloc7,prodloc33,tr0,28026,728676).
route(prodloc7,prodloc33,tr13,28026,168156).
route(prodloc8,harbor0,tr0,27968,727168).
route(prodloc8,harbor0,tr13,27968,167808).
route(prodloc8,harbor1,tr0,21207,551382).
route(prodloc8,harbor1,tr13,21207,127242).
route(prodloc8,harbor2,tr0,14982,389532).
route(prodloc8,harbor2,tr13,14982,89892).
route(prodloc8,harbor3,tr0,14493,376818).
route(prodloc8,harbor3,tr13,14493,86958).
route(prodloc8,harbor4,tr0,12388,322088).
route(prodloc8,harbor4,tr13,12388,74328).
route(prodloc8,harbor5,tr0,2210,57460).
route(prodloc8,harbor5,tr13,2210,13260).
route(prodloc8,harbor6,tr0,2300,59800).
route(prodloc8,harbor6,tr13,2300,13800).
route(prodloc8,harbor7,tr0,8745,227370).
route(prodloc8,harbor7,tr13,8745,52470).
route(prodloc8,harbor8,tr0,27313,710138).
route(prodloc8,harbor8,tr13,27313,163878).
route(prodloc8,harbor9,tr0,19027,494702).
route(prodloc8,harbor9,tr13,19027,114162).
route(prodloc8,harbor10,tr0,5202,135252).
route(prodloc8,harbor10,tr13,5202,31212).
route(prodloc8,harbor11,tr0,23257,604682).
route(prodloc8,harbor11,tr13,23257,139542).
route(prodloc8,harbor12,tr0,14928,388128).
route(prodloc8,harbor12,tr13,14928,89568).
route(prodloc8,harbor13,tr0,2110,54860).
route(prodloc8,harbor13,tr13,2110,12660).
route(prodloc8,harbor14,tr0,14761,383786).
route(prodloc8,harbor14,tr13,14761,88566).
route(prodloc8,harbor15,tr0,27955,726830).
route(prodloc8,harbor15,tr13,27955,167730).
route(prodloc8,harbor16,tr0,2327,60502).
route(prodloc8,harbor16,tr13,2327,13962).
route(prodloc8,prodloc0,tr0,11087,288262).
route(prodloc8,prodloc0,tr13,11087,66522).
route(prodloc8,prodloc1,tr0,9890,257140).
route(prodloc8,prodloc1,tr13,9890,59340).
route(prodloc8,prodloc2,tr0,14569,378794).
route(prodloc8,prodloc2,tr13,14569,87414).
route(prodloc8,prodloc3,tr0,23841,619866).
route(prodloc8,prodloc3,tr13,23841,143046).
route(prodloc8,prodloc4,tr0,25630,666380).
route(prodloc8,prodloc4,tr13,25630,153780).
route(prodloc8,prodloc5,tr0,24365,633490).
route(prodloc8,prodloc5,tr13,24365,146190).
route(prodloc8,prodloc6,tr0,7961,206986).
route(prodloc8,prodloc6,tr13,7961,47766).
route(prodloc8,prodloc7,tr0,10991,285766).
route(prodloc8,prodloc7,tr13,10991,65946).
route(prodloc8,prodloc9,tr0,5177,134602).
route(prodloc8,prodloc9,tr13,5177,31062).
route(prodloc8,prodloc10,tr0,18996,493896).
route(prodloc8,prodloc10,tr13,18996,113976).
route(prodloc8,prodloc11,tr0,25154,654004).
route(prodloc8,prodloc11,tr13,25154,150924).
route(prodloc8,prodloc12,tr0,14891,387166).
route(prodloc8,prodloc12,tr13,14891,89346).
route(prodloc8,prodloc13,tr0,6660,173160).
route(prodloc8,prodloc13,tr13,6660,39960).
route(prodloc8,prodloc14,tr0,6190,160940).
route(prodloc8,prodloc14,tr13,6190,37140).
route(prodloc8,prodloc15,tr0,704,18304).
route(prodloc8,prodloc15,tr13,704,4224).
route(prodloc8,prodloc16,tr0,8207,213382).
route(prodloc8,prodloc16,tr13,8207,49242).
route(prodloc8,prodloc17,tr0,23447,609622).
route(prodloc8,prodloc17,tr13,23447,140682).
route(prodloc8,prodloc18,tr0,28604,743704).
route(prodloc8,prodloc18,tr13,28604,171624).
route(prodloc8,prodloc19,tr0,21421,556946).
route(prodloc8,prodloc19,tr13,21421,128526).
route(prodloc8,prodloc20,tr0,4505,117130).
route(prodloc8,prodloc20,tr13,4505,27030).
route(prodloc8,prodloc21,tr0,23266,604916).
route(prodloc8,prodloc21,tr13,23266,139596).
route(prodloc8,prodloc22,tr0,11976,311376).
route(prodloc8,prodloc22,tr13,11976,71856).
route(prodloc8,prodloc23,tr0,5034,130884).
route(prodloc8,prodloc23,tr13,5034,30204).
route(prodloc8,prodloc24,tr0,7678,199628).
route(prodloc8,prodloc24,tr13,7678,46068).
route(prodloc8,prodloc25,tr0,20923,543998).
route(prodloc8,prodloc25,tr13,20923,125538).
route(prodloc8,prodloc26,tr0,27543,716118).
route(prodloc8,prodloc26,tr13,27543,165258).
route(prodloc8,prodloc27,tr0,16057,417482).
route(prodloc8,prodloc27,tr13,16057,96342).
route(prodloc8,prodloc28,tr0,26030,676780).
route(prodloc8,prodloc28,tr13,26030,156180).
route(prodloc8,prodloc29,tr13,14708,88248).
route(prodloc8,prodloc29,tr15,14708,470656).
route(prodloc8,prodloc30,tr0,25013,650338).
route(prodloc8,prodloc30,tr13,25013,150078).
route(prodloc8,prodloc31,tr0,9534,247884).
route(prodloc8,prodloc31,tr13,9534,57204).
route(prodloc8,prodloc32,tr0,18713,486538).
route(prodloc8,prodloc32,tr13,18713,112278).
route(prodloc8,prodloc33,tr0,9979,259454).
route(prodloc8,prodloc33,tr13,9979,59874).
route(prodloc9,harbor0,tr0,14124,367224).
route(prodloc9,harbor0,tr13,14124,84744).
route(prodloc9,harbor1,tr0,18639,484614).
route(prodloc9,harbor1,tr13,18639,111834).
route(prodloc9,harbor2,tr0,28922,751972).
route(prodloc9,harbor2,tr13,28922,173532).
route(prodloc9,harbor3,tr0,6769,175994).
route(prodloc9,harbor3,tr13,6769,40614).
route(prodloc9,harbor4,tr0,5349,139074).
route(prodloc9,harbor4,tr13,5349,32094).
route(prodloc9,harbor5,tr0,14747,383422).
route(prodloc9,harbor5,tr13,14747,88482).
route(prodloc9,harbor6,tr0,20164,524264).
route(prodloc9,harbor6,tr13,20164,120984).
route(prodloc9,harbor7,tr0,17800,462800).
route(prodloc9,harbor7,tr13,17800,106800).
route(prodloc9,harbor8,tr0,12327,320502).
route(prodloc9,harbor8,tr13,12327,73962).
route(prodloc9,harbor9,tr0,26619,692094).
route(prodloc9,harbor9,tr13,26619,159714).
route(prodloc9,harbor10,tr0,18077,470002).
route(prodloc9,harbor10,tr13,18077,108462).
route(prodloc9,harbor11,tr0,10462,272012).
route(prodloc9,harbor11,tr13,10462,62772).
route(prodloc9,harbor12,tr0,23412,608712).
route(prodloc9,harbor12,tr13,23412,140472).
route(prodloc9,harbor13,tr0,17310,450060).
route(prodloc9,harbor13,tr13,17310,103860).
route(prodloc9,harbor14,tr0,13718,356668).
route(prodloc9,harbor14,tr13,13718,82308).
route(prodloc9,harbor15,tr0,3877,100802).
route(prodloc9,harbor15,tr13,3877,23262).
route(prodloc9,harbor16,tr0,18543,482118).
route(prodloc9,harbor16,tr13,18543,111258).
route(prodloc9,prodloc0,tr0,11188,290888).
route(prodloc9,prodloc0,tr13,11188,67128).
route(prodloc9,prodloc1,tr0,27047,703222).
route(prodloc9,prodloc1,tr13,27047,162282).
route(prodloc9,prodloc2,tr0,20408,530608).
route(prodloc9,prodloc2,tr13,20408,122448).
route(prodloc9,prodloc3,tr0,27643,718718).
route(prodloc9,prodloc3,tr13,27643,165858).
route(prodloc9,prodloc4,tr0,19299,501774).
route(prodloc9,prodloc4,tr13,19299,115794).
route(prodloc9,prodloc5,tr0,11110,288860).
route(prodloc9,prodloc5,tr13,11110,66660).
route(prodloc9,prodloc6,tr13,14476,86856).
route(prodloc9,prodloc6,tr15,14476,463232).
route(prodloc9,prodloc7,tr0,12979,337454).
route(prodloc9,prodloc7,tr13,12979,77874).
route(prodloc9,prodloc8,tr0,28497,740922).
route(prodloc9,prodloc8,tr13,28497,170982).
route(prodloc9,prodloc10,tr0,14999,389974).
route(prodloc9,prodloc10,tr13,14999,89994).
route(prodloc9,prodloc11,tr0,4544,118144).
route(prodloc9,prodloc11,tr13,4544,27264).
route(prodloc9,prodloc12,tr0,4253,110578).
route(prodloc9,prodloc12,tr13,4253,25518).
route(prodloc9,prodloc13,tr0,16005,416130).
route(prodloc9,prodloc13,tr13,16005,96030).
route(prodloc9,prodloc14,tr0,197,5122).
route(prodloc9,prodloc14,tr13,197,1182).
route(prodloc9,prodloc15,tr0,20263,526838).
route(prodloc9,prodloc15,tr13,20263,121578).
route(prodloc9,prodloc16,tr0,26517,689442).
route(prodloc9,prodloc16,tr13,26517,159102).
route(prodloc9,prodloc17,tr0,13661,355186).
route(prodloc9,prodloc17,tr13,13661,81966).
route(prodloc9,prodloc18,tr0,2669,69394).
route(prodloc9,prodloc18,tr13,2669,16014).
route(prodloc9,prodloc19,tr0,16658,433108).
route(prodloc9,prodloc19,tr13,16658,99948).
route(prodloc9,prodloc20,tr0,24222,629772).
route(prodloc9,prodloc20,tr13,24222,145332).
route(prodloc9,prodloc21,tr0,1055,27430).
route(prodloc9,prodloc21,tr13,1055,6330).
route(prodloc9,prodloc22,tr0,27331,710606).
route(prodloc9,prodloc22,tr13,27331,163986).
route(prodloc9,prodloc23,tr0,16846,437996).
route(prodloc9,prodloc23,tr13,16846,101076).
route(prodloc9,prodloc24,tr0,28050,729300).
route(prodloc9,prodloc24,tr13,28050,168300).
route(prodloc9,prodloc25,tr0,8913,231738).
route(prodloc9,prodloc25,tr13,8913,53478).
route(prodloc9,prodloc26,tr0,344,8944).
route(prodloc9,prodloc26,tr13,344,2064).
route(prodloc9,prodloc27,tr0,12205,317330).
route(prodloc9,prodloc27,tr13,12205,73230).
route(prodloc9,prodloc28,tr0,16657,433082).
route(prodloc9,prodloc28,tr13,16657,99942).
route(prodloc9,prodloc29,tr0,17925,466050).
route(prodloc9,prodloc29,tr13,17925,107550).
route(prodloc9,prodloc30,tr0,529,13754).
route(prodloc9,prodloc30,tr13,529,3174).
route(prodloc9,prodloc31,tr0,9457,245882).
route(prodloc9,prodloc31,tr13,9457,56742).
route(prodloc9,prodloc32,tr0,3762,97812).
route(prodloc9,prodloc32,tr13,3762,22572).
route(prodloc9,prodloc33,tr0,593,15418).
route(prodloc9,prodloc33,tr13,593,3558).
route(prodloc10,harbor0,tr0,8956,232856).
route(prodloc10,harbor0,tr13,8956,53736).
route(prodloc10,harbor1,tr0,11192,290992).
route(prodloc10,harbor1,tr13,11192,67152).
route(prodloc10,harbor2,tr0,15170,394420).
route(prodloc10,harbor2,tr13,15170,91020).
route(prodloc10,harbor3,tr0,15393,400218).
route(prodloc10,harbor3,tr13,15393,92358).
route(prodloc10,harbor4,tr0,12109,314834).
route(prodloc10,harbor4,tr13,12109,72654).
route(prodloc10,harbor5,tr0,27606,717756).
route(prodloc10,harbor5,tr13,27606,165636).
route(prodloc10,harbor6,tr0,4524,117624).
route(prodloc10,harbor6,tr13,4524,27144).
route(prodloc10,harbor7,tr0,9785,254410).
route(prodloc10,harbor7,tr13,9785,58710).
route(prodloc10,harbor8,tr0,14708,382408).
route(prodloc10,harbor8,tr13,14708,88248).
route(prodloc10,harbor9,tr0,14963,389038).
route(prodloc10,harbor9,tr13,14963,89778).
route(prodloc10,harbor10,tr0,22397,582322).
route(prodloc10,harbor10,tr13,22397,134382).
route(prodloc10,harbor11,tr0,20262,526812).
route(prodloc10,harbor11,tr13,20262,121572).
route(prodloc10,harbor12,tr0,10864,282464).
route(prodloc10,harbor12,tr13,10864,65184).
route(prodloc10,harbor13,tr0,21855,568230).
route(prodloc10,harbor13,tr13,21855,131130).
route(prodloc10,harbor14,tr0,22677,589602).
route(prodloc10,harbor14,tr13,22677,136062).
route(prodloc10,harbor15,tr0,7952,206752).
route(prodloc10,harbor15,tr13,7952,47712).
route(prodloc10,harbor16,tr0,10260,266760).
route(prodloc10,harbor16,tr13,10260,61560).
route(prodloc10,prodloc0,tr0,10762,279812).
route(prodloc10,prodloc0,tr13,10762,64572).
route(prodloc10,prodloc1,tr0,25860,672360).
route(prodloc10,prodloc1,tr13,25860,155160).
route(prodloc10,prodloc2,tr0,4146,107796).
route(prodloc10,prodloc2,tr13,4146,24876).
route(prodloc10,prodloc3,tr0,22804,592904).
route(prodloc10,prodloc3,tr13,22804,136824).
route(prodloc10,prodloc4,tr0,15543,404118).
route(prodloc10,prodloc4,tr13,15543,93258).
route(prodloc10,prodloc5,tr0,3958,102908).
route(prodloc10,prodloc5,tr13,3958,23748).
route(prodloc10,prodloc6,tr0,11052,287352).
route(prodloc10,prodloc6,tr13,11052,66312).
route(prodloc10,prodloc7,tr0,16510,429260).
route(prodloc10,prodloc7,tr13,16510,99060).
route(prodloc10,prodloc8,tr0,9699,252174).
route(prodloc10,prodloc8,tr13,9699,58194).
route(prodloc10,prodloc9,tr0,22886,595036).
route(prodloc10,prodloc9,tr13,22886,137316).
route(prodloc10,prodloc11,tr0,7287,189462).
route(prodloc10,prodloc11,tr13,7287,43722).
route(prodloc10,prodloc12,tr0,536,13936).
route(prodloc10,prodloc12,tr13,536,3216).
route(prodloc10,prodloc13,tr0,11983,311558).
route(prodloc10,prodloc13,tr13,11983,71898).
route(prodloc10,prodloc14,tr0,16780,436280).
route(prodloc10,prodloc14,tr13,16780,100680).
route(prodloc10,prodloc15,tr0,23907,621582).
route(prodloc10,prodloc15,tr13,23907,143442).
route(prodloc10,prodloc16,tr0,522,13572).
route(prodloc10,prodloc16,tr13,522,3132).
route(prodloc10,prodloc17,tr0,13884,360984).
route(prodloc10,prodloc17,tr13,13884,83304).
route(prodloc10,prodloc18,tr0,28722,746772).
route(prodloc10,prodloc18,tr13,28722,172332).
route(prodloc10,prodloc19,tr0,16020,416520).
route(prodloc10,prodloc19,tr13,16020,96120).
route(prodloc10,prodloc20,tr0,1737,45162).
route(prodloc10,prodloc20,tr13,1737,10422).
route(prodloc10,prodloc21,tr0,9351,243126).
route(prodloc10,prodloc21,tr13,9351,56106).
route(prodloc10,prodloc22,tr0,56,1456).
route(prodloc10,prodloc22,tr13,56,336).
route(prodloc10,prodloc23,tr0,13758,357708).
route(prodloc10,prodloc23,tr13,13758,82548).
route(prodloc10,prodloc24,tr0,15183,394758).
route(prodloc10,prodloc24,tr13,15183,91098).
route(prodloc10,prodloc25,tr0,28810,749060).
route(prodloc10,prodloc25,tr13,28810,172860).
route(prodloc10,prodloc26,tr0,11782,306332).
route(prodloc10,prodloc26,tr13,11782,70692).
route(prodloc10,prodloc27,tr0,25011,650286).
route(prodloc10,prodloc27,tr13,25011,150066).
route(prodloc10,prodloc28,tr0,5307,137982).
route(prodloc10,prodloc28,tr13,5307,31842).
route(prodloc10,prodloc29,tr0,4294,111644).
route(prodloc10,prodloc29,tr13,4294,25764).
route(prodloc10,prodloc30,tr0,13279,345254).
route(prodloc10,prodloc30,tr13,13279,79674).
route(prodloc10,prodloc31,tr0,19498,506948).
route(prodloc10,prodloc31,tr13,19498,116988).
route(prodloc10,prodloc32,tr0,18396,478296).
route(prodloc10,prodloc32,tr13,18396,110376).
route(prodloc10,prodloc33,tr0,7866,204516).
route(prodloc10,prodloc33,tr13,7866,47196).
route(prodloc11,harbor0,tr0,8696,226096).
route(prodloc11,harbor0,tr13,8696,52176).
route(prodloc11,harbor1,tr0,10328,268528).
route(prodloc11,harbor1,tr13,10328,61968).
route(prodloc11,harbor2,tr0,25607,665782).
route(prodloc11,harbor2,tr13,25607,153642).
route(prodloc11,harbor3,tr0,19922,517972).
route(prodloc11,harbor3,tr13,19922,119532).
route(prodloc11,harbor4,tr0,26567,690742).
route(prodloc11,harbor4,tr13,26567,159402).
route(prodloc11,harbor5,tr0,4127,107302).
route(prodloc11,harbor5,tr13,4127,24762).
route(prodloc11,harbor6,tr0,1273,33098).
route(prodloc11,harbor6,tr13,1273,7638).
route(prodloc11,harbor7,tr0,18233,474058).
route(prodloc11,harbor7,tr13,18233,109398).
route(prodloc11,harbor8,tr0,19364,503464).
route(prodloc11,harbor8,tr13,19364,116184).
route(prodloc11,harbor9,tr0,23142,601692).
route(prodloc11,harbor9,tr13,23142,138852).
route(prodloc11,harbor10,tr0,69,1794).
route(prodloc11,harbor10,tr13,69,414).
route(prodloc11,harbor11,tr0,15858,412308).
route(prodloc11,harbor11,tr13,15858,95148).
route(prodloc11,harbor12,tr0,16309,424034).
route(prodloc11,harbor12,tr13,16309,97854).
route(prodloc11,harbor13,tr0,248,6448).
route(prodloc11,harbor13,tr13,248,1488).
route(prodloc11,harbor14,tr0,15237,396162).
route(prodloc11,harbor14,tr13,15237,91422).
route(prodloc11,harbor15,tr0,20682,537732).
route(prodloc11,harbor15,tr13,20682,124092).
route(prodloc11,harbor16,tr0,19576,508976).
route(prodloc11,harbor16,tr13,19576,117456).
route(prodloc11,prodloc0,tr0,3016,78416).
route(prodloc11,prodloc0,tr13,3016,18096).
route(prodloc11,prodloc1,tr0,24656,641056).
route(prodloc11,prodloc1,tr13,24656,147936).
route(prodloc11,prodloc2,tr0,1684,43784).
route(prodloc11,prodloc2,tr13,1684,10104).
route(prodloc11,prodloc3,tr0,11037,286962).
route(prodloc11,prodloc3,tr13,11037,66222).
route(prodloc11,prodloc4,tr0,23139,601614).
route(prodloc11,prodloc4,tr13,23139,138834).
route(prodloc11,prodloc5,tr0,21890,569140).
route(prodloc11,prodloc5,tr13,21890,131340).
route(prodloc11,prodloc6,tr0,1876,48776).
route(prodloc11,prodloc6,tr13,1876,11256).
route(prodloc11,prodloc7,tr0,11593,301418).
route(prodloc11,prodloc7,tr13,11593,69558).
route(prodloc11,prodloc8,tr0,1310,34060).
route(prodloc11,prodloc8,tr13,1310,7860).
route(prodloc11,prodloc9,tr0,12590,327340).
route(prodloc11,prodloc9,tr13,12590,75540).
route(prodloc11,prodloc10,tr0,18928,492128).
route(prodloc11,prodloc10,tr13,18928,113568).
route(prodloc11,prodloc12,tr0,21672,563472).
route(prodloc11,prodloc12,tr13,21672,130032).
route(prodloc11,prodloc13,tr0,7617,198042).
route(prodloc11,prodloc13,tr13,7617,45702).
route(prodloc11,prodloc14,tr0,20314,528164).
route(prodloc11,prodloc14,tr13,20314,121884).
route(prodloc11,prodloc15,tr0,13608,353808).
route(prodloc11,prodloc15,tr13,13608,81648).
route(prodloc11,prodloc16,tr0,3945,102570).
route(prodloc11,prodloc16,tr13,3945,23670).
route(prodloc11,prodloc17,tr0,23263,604838).
route(prodloc11,prodloc17,tr13,23263,139578).
route(prodloc11,prodloc18,tr0,6535,169910).
route(prodloc11,prodloc18,tr13,6535,39210).
route(prodloc11,prodloc19,tr0,18014,468364).
route(prodloc11,prodloc19,tr13,18014,108084).
route(prodloc11,prodloc20,tr0,28008,728208).
route(prodloc11,prodloc20,tr13,28008,168048).
route(prodloc11,prodloc21,tr0,23569,612794).
route(prodloc11,prodloc21,tr13,23569,141414).
route(prodloc11,prodloc22,tr0,21249,552474).
route(prodloc11,prodloc22,tr13,21249,127494).
route(prodloc11,prodloc23,tr0,26864,698464).
route(prodloc11,prodloc23,tr13,26864,161184).
route(prodloc11,prodloc24,tr0,6111,158886).
route(prodloc11,prodloc24,tr13,6111,36666).
route(prodloc11,prodloc25,tr0,9273,241098).
route(prodloc11,prodloc25,tr13,9273,55638).
route(prodloc11,prodloc26,tr0,9161,238186).
route(prodloc11,prodloc26,tr13,9161,54966).
route(prodloc11,prodloc27,tr0,23115,600990).
route(prodloc11,prodloc27,tr13,23115,138690).
route(prodloc11,prodloc28,tr0,6028,156728).
route(prodloc11,prodloc28,tr13,6028,36168).
route(prodloc11,prodloc29,tr0,23709,616434).
route(prodloc11,prodloc29,tr13,23709,142254).
route(prodloc11,prodloc30,tr0,26220,681720).
route(prodloc11,prodloc30,tr13,26220,157320).
route(prodloc11,prodloc31,tr0,19754,513604).
route(prodloc11,prodloc31,tr13,19754,118524).
route(prodloc11,prodloc32,tr0,26722,694772).
route(prodloc11,prodloc32,tr13,26722,160332).
route(prodloc11,prodloc33,tr0,6981,181506).
route(prodloc11,prodloc33,tr13,6981,41886).
route(prodloc12,harbor0,tr0,4113,106938).
route(prodloc12,harbor0,tr13,4113,24678).
route(prodloc12,harbor1,tr0,7606,197756).
route(prodloc12,harbor1,tr13,7606,45636).
route(prodloc12,harbor2,tr0,12947,336622).
route(prodloc12,harbor2,tr13,12947,77682).
route(prodloc12,harbor3,tr0,3471,90246).
route(prodloc12,harbor3,tr13,3471,20826).
route(prodloc12,harbor4,tr0,8661,225186).
route(prodloc12,harbor4,tr13,8661,51966).
route(prodloc12,harbor5,tr0,15152,393952).
route(prodloc12,harbor5,tr13,15152,90912).
route(prodloc12,harbor6,tr0,8064,209664).
route(prodloc12,harbor6,tr13,8064,48384).
route(prodloc12,harbor7,tr0,5362,139412).
route(prodloc12,harbor7,tr13,5362,32172).
route(prodloc12,harbor8,tr0,13346,346996).
route(prodloc12,harbor8,tr13,13346,80076).
route(prodloc12,harbor9,tr0,20694,538044).
route(prodloc12,harbor9,tr13,20694,124164).
route(prodloc12,harbor10,tr0,17407,452582).
route(prodloc12,harbor10,tr13,17407,104442).
route(prodloc12,harbor11,tr0,7733,201058).
route(prodloc12,harbor11,tr13,7733,46398).
route(prodloc12,harbor12,tr0,22912,595712).
route(prodloc12,harbor12,tr13,22912,137472).
route(prodloc12,harbor13,tr0,26494,688844).
route(prodloc12,harbor13,tr13,26494,158964).
route(prodloc12,harbor14,tr0,17345,450970).
route(prodloc12,harbor14,tr13,17345,104070).
route(prodloc12,harbor15,tr0,15417,400842).
route(prodloc12,harbor15,tr13,15417,92502).
route(prodloc12,harbor16,tr0,15731,409006).
route(prodloc12,harbor16,tr13,15731,94386).
route(prodloc12,prodloc0,tr0,9005,234130).
route(prodloc12,prodloc0,tr13,9005,54030).
route(prodloc12,prodloc1,tr0,14866,386516).
route(prodloc12,prodloc1,tr13,14866,89196).
route(prodloc12,prodloc2,tr0,23271,605046).
route(prodloc12,prodloc2,tr13,23271,139626).
route(prodloc12,prodloc3,tr0,4946,128596).
route(prodloc12,prodloc3,tr13,4946,29676).
route(prodloc12,prodloc4,tr0,5529,143754).
route(prodloc12,prodloc4,tr13,5529,33174).
route(prodloc12,prodloc5,tr0,28332,736632).
route(prodloc12,prodloc5,tr13,28332,169992).
route(prodloc12,prodloc6,tr0,7271,189046).
route(prodloc12,prodloc6,tr13,7271,43626).
route(prodloc12,prodloc7,tr0,8462,220012).
route(prodloc12,prodloc7,tr13,8462,50772).
route(prodloc12,prodloc8,tr0,10172,264472).
route(prodloc12,prodloc8,tr13,10172,61032).
route(prodloc12,prodloc9,tr0,17654,459004).
route(prodloc12,prodloc9,tr13,17654,105924).
route(prodloc12,prodloc10,tr0,5482,142532).
route(prodloc12,prodloc10,tr13,5482,32892).
route(prodloc12,prodloc11,tr0,5455,141830).
route(prodloc12,prodloc11,tr13,5455,32730).
route(prodloc12,prodloc13,tr0,21100,548600).
route(prodloc12,prodloc13,tr13,21100,126600).
route(prodloc12,prodloc14,tr0,26999,701974).
route(prodloc12,prodloc14,tr13,26999,161994).
route(prodloc12,prodloc15,tr0,13912,361712).
route(prodloc12,prodloc15,tr13,13912,83472).
route(prodloc12,prodloc16,tr0,28874,750724).
route(prodloc12,prodloc16,tr13,28874,173244).
route(prodloc12,prodloc17,tr0,25567,664742).
route(prodloc12,prodloc17,tr13,25567,153402).
route(prodloc12,prodloc18,tr0,24967,649142).
route(prodloc12,prodloc18,tr13,24967,149802).
route(prodloc12,prodloc19,tr0,10434,271284).
route(prodloc12,prodloc19,tr13,10434,62604).
route(prodloc12,prodloc20,tr0,23177,602602).
route(prodloc12,prodloc20,tr13,23177,139062).
route(prodloc12,prodloc21,tr0,4135,107510).
route(prodloc12,prodloc21,tr13,4135,24810).
route(prodloc12,prodloc22,tr0,4672,121472).
route(prodloc12,prodloc22,tr15,4672,149504).
route(prodloc12,prodloc23,tr0,16855,438230).
route(prodloc12,prodloc23,tr13,16855,101130).
route(prodloc12,prodloc24,tr0,6520,169520).
route(prodloc12,prodloc24,tr13,6520,39120).
route(prodloc12,prodloc25,tr0,12630,328380).
route(prodloc12,prodloc25,tr13,12630,75780).
route(prodloc12,prodloc26,tr0,25185,654810).
route(prodloc12,prodloc26,tr13,25185,151110).
route(prodloc12,prodloc27,tr0,26712,694512).
route(prodloc12,prodloc27,tr13,26712,160272).
route(prodloc12,prodloc28,tr0,23521,611546).
route(prodloc12,prodloc28,tr13,23521,141126).
route(prodloc12,prodloc29,tr0,10602,275652).
route(prodloc12,prodloc29,tr13,10602,63612).
route(prodloc12,prodloc30,tr0,17242,448292).
route(prodloc12,prodloc30,tr13,17242,103452).
route(prodloc12,prodloc31,tr0,12554,326404).
route(prodloc12,prodloc31,tr13,12554,75324).
route(prodloc12,prodloc32,tr0,9493,246818).
route(prodloc12,prodloc32,tr13,9493,56958).
route(prodloc12,prodloc33,tr0,12823,333398).
route(prodloc12,prodloc33,tr13,12823,76938).
route(prodloc13,harbor0,tr0,28495,740870).
route(prodloc13,harbor0,tr13,28495,170970).
route(prodloc13,harbor1,tr0,25159,654134).
route(prodloc13,harbor1,tr13,25159,150954).
route(prodloc13,harbor2,tr0,11202,291252).
route(prodloc13,harbor2,tr13,11202,67212).
route(prodloc13,harbor3,tr0,21590,561340).
route(prodloc13,harbor3,tr13,21590,129540).
route(prodloc13,harbor4,tr0,18202,473252).
route(prodloc13,harbor4,tr13,18202,109212).
route(prodloc13,harbor5,tr0,7210,187460).
route(prodloc13,harbor5,tr13,7210,43260).
route(prodloc13,harbor6,tr0,14418,374868).
route(prodloc13,harbor6,tr13,14418,86508).
route(prodloc13,harbor7,tr0,21841,567866).
route(prodloc13,harbor7,tr13,21841,131046).
route(prodloc13,harbor8,tr0,17848,464048).
route(prodloc13,harbor8,tr13,17848,107088).
route(prodloc13,harbor9,tr0,12188,316888).
route(prodloc13,harbor9,tr13,12188,73128).
route(prodloc13,harbor10,tr0,13148,341848).
route(prodloc13,harbor10,tr13,13148,78888).
route(prodloc13,harbor11,tr0,24976,649376).
route(prodloc13,harbor11,tr13,24976,149856).
route(prodloc13,harbor12,tr0,18778,488228).
route(prodloc13,harbor12,tr13,18778,112668).
route(prodloc13,harbor13,tr0,28476,740376).
route(prodloc13,harbor13,tr13,28476,170856).
route(prodloc13,harbor14,tr0,13814,359164).
route(prodloc13,harbor14,tr13,13814,82884).
route(prodloc13,harbor15,tr0,863,22438).
route(prodloc13,harbor15,tr13,863,5178).
route(prodloc13,harbor16,tr0,21746,565396).
route(prodloc13,harbor16,tr13,21746,130476).
route(prodloc13,prodloc0,tr0,14104,366704).
route(prodloc13,prodloc0,tr13,14104,84624).
route(prodloc13,prodloc1,tr0,3881,100906).
route(prodloc13,prodloc1,tr13,3881,23286).
route(prodloc13,prodloc2,tr0,20037,520962).
route(prodloc13,prodloc2,tr13,20037,120222).
route(prodloc13,prodloc3,tr0,17193,447018).
route(prodloc13,prodloc3,tr13,17193,103158).
route(prodloc13,prodloc4,tr0,2449,63674).
route(prodloc13,prodloc4,tr13,2449,14694).
route(prodloc13,prodloc5,tr0,3807,98982).
route(prodloc13,prodloc5,tr13,3807,22842).
route(prodloc13,prodloc6,tr0,4863,126438).
route(prodloc13,prodloc6,tr13,4863,29178).
route(prodloc13,prodloc7,tr0,12049,313274).
route(prodloc13,prodloc7,tr13,12049,72294).
route(prodloc13,prodloc8,tr0,21082,548132).
route(prodloc13,prodloc8,tr13,21082,126492).
route(prodloc13,prodloc9,tr0,4574,118924).
route(prodloc13,prodloc9,tr13,4574,27444).
route(prodloc13,prodloc10,tr0,17829,463554).
route(prodloc13,prodloc10,tr13,17829,106974).
route(prodloc13,prodloc11,tr0,2089,54314).
route(prodloc13,prodloc11,tr13,2089,12534).
route(prodloc13,prodloc12,tr13,14878,89268).
route(prodloc13,prodloc12,tr15,14878,476096).
route(prodloc13,prodloc14,tr0,10659,277134).
route(prodloc13,prodloc14,tr13,10659,63954).
route(prodloc13,prodloc15,tr0,24583,639158).
route(prodloc13,prodloc15,tr13,24583,147498).
route(prodloc13,prodloc16,tr0,23437,609362).
route(prodloc13,prodloc16,tr13,23437,140622).
route(prodloc13,prodloc17,tr0,3440,89440).
route(prodloc13,prodloc17,tr13,3440,20640).
route(prodloc13,prodloc18,tr0,426,11076).
route(prodloc13,prodloc18,tr13,426,2556).
route(prodloc13,prodloc19,tr0,15412,400712).
route(prodloc13,prodloc19,tr13,15412,92472).
route(prodloc13,prodloc20,tr0,18361,477386).
route(prodloc13,prodloc20,tr13,18361,110166).
route(prodloc13,prodloc21,tr0,16497,428922).
route(prodloc13,prodloc21,tr13,16497,98982).
route(prodloc13,prodloc22,tr0,17242,448292).
route(prodloc13,prodloc22,tr13,17242,103452).
route(prodloc13,prodloc23,tr0,15169,394394).
route(prodloc13,prodloc23,tr13,15169,91014).
route(prodloc13,prodloc24,tr0,23788,618488).
route(prodloc13,prodloc24,tr13,23788,142728).
route(prodloc13,prodloc25,tr0,5309,138034).
route(prodloc13,prodloc25,tr13,5309,31854).
route(prodloc13,prodloc26,tr0,13629,354354).
route(prodloc13,prodloc26,tr15,13629,436128).
route(prodloc13,prodloc27,tr0,23069,599794).
route(prodloc13,prodloc27,tr13,23069,138414).
route(prodloc13,prodloc28,tr0,17204,447304).
route(prodloc13,prodloc28,tr13,17204,103224).
route(prodloc13,prodloc29,tr0,1864,48464).
route(prodloc13,prodloc29,tr13,1864,11184).
route(prodloc13,prodloc30,tr0,15847,412022).
route(prodloc13,prodloc30,tr13,15847,95082).
route(prodloc13,prodloc31,tr0,6902,179452).
route(prodloc13,prodloc31,tr13,6902,41412).
route(prodloc13,prodloc32,tr0,22917,595842).
route(prodloc13,prodloc32,tr13,22917,137502).
route(prodloc13,prodloc33,tr0,8977,233402).
route(prodloc13,prodloc33,tr13,8977,53862).
route(prodloc14,harbor0,tr0,11670,303420).
route(prodloc14,harbor0,tr13,11670,70020).
route(prodloc14,harbor1,tr0,25413,660738).
route(prodloc14,harbor1,tr13,25413,152478).
route(prodloc14,harbor2,tr0,22007,572182).
route(prodloc14,harbor2,tr13,22007,132042).
route(prodloc14,harbor3,tr0,12057,313482).
route(prodloc14,harbor3,tr13,12057,72342).
route(prodloc14,harbor4,tr0,18816,489216).
route(prodloc14,harbor4,tr13,18816,112896).
route(prodloc14,harbor5,tr0,8503,221078).
route(prodloc14,harbor5,tr13,8503,51018).
route(prodloc14,harbor6,tr0,24687,641862).
route(prodloc14,harbor6,tr13,24687,148122).
route(prodloc14,harbor7,tr0,20173,524498).
route(prodloc14,harbor7,tr13,20173,121038).
route(prodloc14,harbor8,tr0,25509,663234).
route(prodloc14,harbor8,tr13,25509,153054).
route(prodloc14,harbor9,tr0,19136,497536).
route(prodloc14,harbor9,tr13,19136,114816).
route(prodloc14,harbor10,tr0,9463,246038).
route(prodloc14,harbor10,tr13,9463,56778).
route(prodloc14,harbor11,tr0,1559,40534).
route(prodloc14,harbor11,tr13,1559,9354).
route(prodloc14,harbor12,tr0,27227,707902).
route(prodloc14,harbor12,tr13,27227,163362).
route(prodloc14,harbor13,tr0,13759,357734).
route(prodloc14,harbor13,tr13,13759,82554).
route(prodloc14,harbor14,tr0,25917,673842).
route(prodloc14,harbor14,tr13,25917,155502).
route(prodloc14,harbor15,tr0,21147,549822).
route(prodloc14,harbor15,tr13,21147,126882).
route(prodloc14,harbor16,tr0,21023,546598).
route(prodloc14,harbor16,tr13,21023,126138).
route(prodloc14,prodloc0,tr0,6371,165646).
route(prodloc14,prodloc0,tr13,6371,38226).
route(prodloc14,prodloc1,tr0,9673,251498).
route(prodloc14,prodloc1,tr13,9673,58038).
route(prodloc14,prodloc2,tr0,2895,75270).
route(prodloc14,prodloc2,tr13,2895,17370).
route(prodloc14,prodloc3,tr0,16777,436202).
route(prodloc14,prodloc3,tr13,16777,100662).
route(prodloc14,prodloc4,tr0,9252,240552).
route(prodloc14,prodloc4,tr13,9252,55512).
route(prodloc14,prodloc5,tr0,22497,584922).
route(prodloc14,prodloc5,tr13,22497,134982).
route(prodloc14,prodloc6,tr0,9280,241280).
route(prodloc14,prodloc6,tr13,9280,55680).
route(prodloc14,prodloc7,tr0,3513,91338).
route(prodloc14,prodloc7,tr13,3513,21078).
route(prodloc14,prodloc8,tr0,13706,356356).
route(prodloc14,prodloc8,tr13,13706,82236).
route(prodloc14,prodloc9,tr0,24809,645034).
route(prodloc14,prodloc9,tr13,24809,148854).
route(prodloc14,prodloc10,tr0,20502,533052).
route(prodloc14,prodloc10,tr13,20502,123012).
route(prodloc14,prodloc11,tr0,14954,388804).
route(prodloc14,prodloc11,tr13,14954,89724).
route(prodloc14,prodloc12,tr0,7591,197366).
route(prodloc14,prodloc12,tr13,7591,45546).
route(prodloc14,prodloc13,tr0,18525,481650).
route(prodloc14,prodloc13,tr13,18525,111150).
route(prodloc14,prodloc15,tr0,10177,264602).
route(prodloc14,prodloc15,tr13,10177,61062).
route(prodloc14,prodloc16,tr0,13629,354354).
route(prodloc14,prodloc16,tr13,13629,81774).
route(prodloc14,prodloc17,tr0,26651,692926).
route(prodloc14,prodloc17,tr13,26651,159906).
route(prodloc14,prodloc18,tr0,8406,218556).
route(prodloc14,prodloc18,tr13,8406,50436).
route(prodloc14,prodloc19,tr0,24054,625404).
route(prodloc14,prodloc19,tr13,24054,144324).
route(prodloc14,prodloc20,tr0,9839,255814).
route(prodloc14,prodloc20,tr13,9839,59034).
route(prodloc14,prodloc21,tr0,22797,592722).
route(prodloc14,prodloc21,tr13,22797,136782).
route(prodloc14,prodloc22,tr0,19959,518934).
route(prodloc14,prodloc22,tr13,19959,119754).
route(prodloc14,prodloc23,tr0,23102,600652).
route(prodloc14,prodloc23,tr13,23102,138612).
route(prodloc14,prodloc24,tr0,13346,346996).
route(prodloc14,prodloc24,tr13,13346,80076).
route(prodloc14,prodloc25,tr0,12705,330330).
route(prodloc14,prodloc25,tr13,12705,76230).
route(prodloc14,prodloc26,tr0,5878,152828).
route(prodloc14,prodloc26,tr13,5878,35268).
route(prodloc14,prodloc27,tr0,2047,53222).
route(prodloc14,prodloc27,tr13,2047,12282).
route(prodloc14,prodloc28,tr0,21067,547742).
route(prodloc14,prodloc28,tr13,21067,126402).
route(prodloc14,prodloc29,tr0,4017,104442).
route(prodloc14,prodloc29,tr13,4017,24102).
route(prodloc14,prodloc30,tr0,17896,465296).
route(prodloc14,prodloc30,tr13,17896,107376).
route(prodloc14,prodloc31,tr0,5,130).
route(prodloc14,prodloc31,tr13,5,30).
route(prodloc14,prodloc32,tr0,6957,180882).
route(prodloc14,prodloc32,tr13,6957,41742).
route(prodloc14,prodloc33,tr0,18962,493012).
route(prodloc14,prodloc33,tr13,18962,113772).
route(prodloc15,harbor0,tr0,24517,637442).
route(prodloc15,harbor0,tr13,24517,147102).
route(prodloc15,harbor1,tr0,4403,114478).
route(prodloc15,harbor1,tr13,4403,26418).
route(prodloc15,harbor2,tr0,10388,270088).
route(prodloc15,harbor2,tr13,10388,62328).
route(prodloc15,harbor3,tr0,2653,68978).
route(prodloc15,harbor3,tr13,2653,15918).
route(prodloc15,harbor4,tr0,14568,378768).
route(prodloc15,harbor4,tr13,14568,87408).
route(prodloc15,harbor5,tr0,3899,101374).
route(prodloc15,harbor5,tr13,3899,23394).
route(prodloc15,harbor6,tr0,15816,411216).
route(prodloc15,harbor6,tr13,15816,94896).
route(prodloc15,harbor7,tr0,7126,185276).
route(prodloc15,harbor7,tr13,7126,42756).
route(prodloc15,harbor8,tr0,24441,635466).
route(prodloc15,harbor8,tr13,24441,146646).
route(prodloc15,harbor9,tr0,4340,112840).
route(prodloc15,harbor9,tr13,4340,26040).
route(prodloc15,harbor10,tr0,20285,527410).
route(prodloc15,harbor10,tr13,20285,121710).
route(prodloc15,harbor11,tr0,2046,53196).
route(prodloc15,harbor11,tr13,2046,12276).
route(prodloc15,harbor12,tr0,23760,617760).
route(prodloc15,harbor12,tr13,23760,142560).
route(prodloc15,harbor13,tr0,11623,302198).
route(prodloc15,harbor13,tr13,11623,69738).
route(prodloc15,harbor14,tr0,19400,504400).
route(prodloc15,harbor14,tr13,19400,116400).
route(prodloc15,harbor15,tr0,8857,230282).
route(prodloc15,harbor15,tr13,8857,53142).
route(prodloc15,harbor16,tr0,23752,617552).
route(prodloc15,harbor16,tr13,23752,142512).
route(prodloc15,prodloc0,tr0,4483,116558).
route(prodloc15,prodloc0,tr13,4483,26898).
route(prodloc15,prodloc1,tr0,4299,111774).
route(prodloc15,prodloc1,tr13,4299,25794).
route(prodloc15,prodloc2,tr0,21053,547378).
route(prodloc15,prodloc2,tr13,21053,126318).
route(prodloc15,prodloc3,tr0,18414,478764).
route(prodloc15,prodloc3,tr13,18414,110484).
route(prodloc15,prodloc4,tr0,11749,305474).
route(prodloc15,prodloc4,tr13,11749,70494).
route(prodloc15,prodloc5,tr0,14252,370552).
route(prodloc15,prodloc5,tr13,14252,85512).
route(prodloc15,prodloc6,tr0,4091,106366).
route(prodloc15,prodloc6,tr13,4091,24546).
route(prodloc15,prodloc7,tr0,3612,93912).
route(prodloc15,prodloc7,tr13,3612,21672).
route(prodloc15,prodloc8,tr0,3586,93236).
route(prodloc15,prodloc8,tr13,3586,21516).
route(prodloc15,prodloc9,tr0,16415,426790).
route(prodloc15,prodloc9,tr13,16415,98490).
route(prodloc15,prodloc10,tr0,15267,396942).
route(prodloc15,prodloc10,tr13,15267,91602).
route(prodloc15,prodloc11,tr0,26441,687466).
route(prodloc15,prodloc11,tr13,26441,158646).
route(prodloc15,prodloc12,tr0,8833,229658).
route(prodloc15,prodloc12,tr13,8833,52998).
route(prodloc15,prodloc13,tr0,10260,266760).
route(prodloc15,prodloc13,tr13,10260,61560).
route(prodloc15,prodloc14,tr0,28247,734422).
route(prodloc15,prodloc14,tr13,28247,169482).
route(prodloc15,prodloc16,tr0,8091,210366).
route(prodloc15,prodloc16,tr13,8091,48546).
route(prodloc15,prodloc17,tr0,24836,645736).
route(prodloc15,prodloc17,tr13,24836,149016).
route(prodloc15,prodloc18,tr0,11130,289380).
route(prodloc15,prodloc18,tr13,11130,66780).
route(prodloc15,prodloc19,tr0,26491,688766).
route(prodloc15,prodloc19,tr13,26491,158946).
route(prodloc15,prodloc20,tr0,12997,337922).
route(prodloc15,prodloc20,tr13,12997,77982).
route(prodloc15,prodloc21,tr0,23328,606528).
route(prodloc15,prodloc21,tr13,23328,139968).
route(prodloc15,prodloc22,tr0,17333,450658).
route(prodloc15,prodloc22,tr13,17333,103998).
route(prodloc15,prodloc23,tr0,13505,351130).
route(prodloc15,prodloc23,tr13,13505,81030).
route(prodloc15,prodloc24,tr0,8612,223912).
route(prodloc15,prodloc24,tr13,8612,51672).
route(prodloc15,prodloc25,tr0,13673,355498).
route(prodloc15,prodloc25,tr13,13673,82038).
route(prodloc15,prodloc26,tr0,18593,483418).
route(prodloc15,prodloc26,tr13,18593,111558).
route(prodloc15,prodloc27,tr0,18495,480870).
route(prodloc15,prodloc27,tr13,18495,110970).
route(prodloc15,prodloc28,tr0,26517,689442).
route(prodloc15,prodloc28,tr13,26517,159102).
route(prodloc15,prodloc29,tr0,4778,124228).
route(prodloc15,prodloc29,tr13,4778,28668).
route(prodloc15,prodloc30,tr0,12809,333034).
route(prodloc15,prodloc30,tr13,12809,76854).
route(prodloc15,prodloc31,tr0,9468,246168).
route(prodloc15,prodloc31,tr13,9468,56808).
route(prodloc15,prodloc32,tr0,2218,57668).
route(prodloc15,prodloc32,tr13,2218,13308).
route(prodloc15,prodloc33,tr0,22644,588744).
route(prodloc15,prodloc33,tr13,22644,135864).
route(prodloc16,harbor0,tr0,21503,559078).
route(prodloc16,harbor0,tr13,21503,129018).
route(prodloc16,harbor1,tr0,17187,446862).
route(prodloc16,harbor1,tr13,17187,103122).
route(prodloc16,harbor2,tr0,16300,423800).
route(prodloc16,harbor2,tr13,16300,97800).
route(prodloc16,harbor3,tr0,5796,150696).
route(prodloc16,harbor3,tr13,5796,34776).
route(prodloc16,harbor4,tr0,15460,401960).
route(prodloc16,harbor4,tr13,15460,92760).
route(prodloc16,harbor5,tr0,24440,635440).
route(prodloc16,harbor5,tr13,24440,146640).
route(prodloc16,harbor6,tr0,3837,99762).
route(prodloc16,harbor6,tr13,3837,23022).
route(prodloc16,harbor7,tr0,24673,641498).
route(prodloc16,harbor7,tr13,24673,148038).
route(prodloc16,harbor8,tr0,25700,668200).
route(prodloc16,harbor8,tr13,25700,154200).
route(prodloc16,harbor9,tr0,26359,685334).
route(prodloc16,harbor9,tr13,26359,158154).
route(prodloc16,harbor10,tr0,14252,370552).
route(prodloc16,harbor10,tr13,14252,85512).
route(prodloc16,harbor11,tr0,28210,733460).
route(prodloc16,harbor11,tr13,28210,169260).
route(prodloc16,harbor12,tr0,26967,701142).
route(prodloc16,harbor12,tr13,26967,161802).
route(prodloc16,harbor13,tr0,19795,514670).
route(prodloc16,harbor13,tr13,19795,118770).
route(prodloc16,harbor14,tr0,19118,497068).
route(prodloc16,harbor14,tr13,19118,114708).
route(prodloc16,harbor15,tr0,932,24232).
route(prodloc16,harbor15,tr13,932,5592).
route(prodloc16,harbor16,tr0,12945,336570).
route(prodloc16,harbor16,tr13,12945,77670).
route(prodloc16,prodloc0,tr0,14085,366210).
route(prodloc16,prodloc0,tr13,14085,84510).
route(prodloc16,prodloc1,tr0,16189,420914).
route(prodloc16,prodloc1,tr13,16189,97134).
route(prodloc16,prodloc2,tr0,21349,555074).
route(prodloc16,prodloc2,tr13,21349,128094).
route(prodloc16,prodloc3,tr0,7038,182988).
route(prodloc16,prodloc3,tr13,7038,42228).
route(prodloc16,prodloc4,tr0,16737,435162).
route(prodloc16,prodloc4,tr13,16737,100422).
route(prodloc16,prodloc5,tr0,2107,54782).
route(prodloc16,prodloc5,tr13,2107,12642).
route(prodloc16,prodloc6,tr0,20052,521352).
route(prodloc16,prodloc6,tr13,20052,120312).
route(prodloc16,prodloc7,tr0,11450,297700).
route(prodloc16,prodloc7,tr13,11450,68700).
route(prodloc16,prodloc8,tr0,26132,679432).
route(prodloc16,prodloc8,tr13,26132,156792).
route(prodloc16,prodloc9,tr0,24571,638846).
route(prodloc16,prodloc9,tr13,24571,147426).
route(prodloc16,prodloc10,tr0,18920,491920).
route(prodloc16,prodloc10,tr13,18920,113520).
route(prodloc16,prodloc11,tr0,26224,681824).
route(prodloc16,prodloc11,tr13,26224,157344).
route(prodloc16,prodloc12,tr0,16559,430534).
route(prodloc16,prodloc12,tr13,16559,99354).
route(prodloc16,prodloc13,tr0,17191,446966).
route(prodloc16,prodloc13,tr13,17191,103146).
route(prodloc16,prodloc14,tr0,5333,138658).
route(prodloc16,prodloc14,tr13,5333,31998).
route(prodloc16,prodloc15,tr0,11180,290680).
route(prodloc16,prodloc15,tr13,11180,67080).
route(prodloc16,prodloc17,tr13,1491,8946).
route(prodloc16,prodloc17,tr15,1491,47712).
route(prodloc16,prodloc18,tr0,16553,430378).
route(prodloc16,prodloc18,tr13,16553,99318).
route(prodloc16,prodloc19,tr0,15206,395356).
route(prodloc16,prodloc19,tr13,15206,91236).
route(prodloc16,prodloc20,tr0,21259,552734).
route(prodloc16,prodloc20,tr13,21259,127554).
route(prodloc16,prodloc21,tr0,8376,217776).
route(prodloc16,prodloc21,tr13,8376,50256).
route(prodloc16,prodloc22,tr0,5182,134732).
route(prodloc16,prodloc22,tr13,5182,31092).
route(prodloc16,prodloc23,tr0,4810,125060).
route(prodloc16,prodloc23,tr13,4810,28860).
route(prodloc16,prodloc24,tr0,7465,194090).
route(prodloc16,prodloc24,tr13,7465,44790).
route(prodloc16,prodloc25,tr0,3125,81250).
route(prodloc16,prodloc25,tr13,3125,18750).
route(prodloc16,prodloc26,tr0,18506,481156).
route(prodloc16,prodloc26,tr13,18506,111036).
route(prodloc16,prodloc27,tr0,20995,545870).
route(prodloc16,prodloc27,tr13,20995,125970).
route(prodloc16,prodloc28,tr0,20852,542152).
route(prodloc16,prodloc28,tr13,20852,125112).
route(prodloc16,prodloc29,tr0,19015,494390).
route(prodloc16,prodloc29,tr13,19015,114090).
route(prodloc16,prodloc30,tr0,25220,655720).
route(prodloc16,prodloc30,tr13,25220,151320).
route(prodloc16,prodloc31,tr0,15790,410540).
route(prodloc16,prodloc31,tr13,15790,94740).
route(prodloc16,prodloc32,tr0,911,23686).
route(prodloc16,prodloc32,tr13,911,5466).
route(prodloc16,prodloc33,tr0,15631,406406).
route(prodloc16,prodloc33,tr13,15631,93786).
route(prodloc17,harbor0,tr0,26350,685100).
route(prodloc17,harbor0,tr13,26350,158100).
route(prodloc17,harbor1,tr0,28048,729248).
route(prodloc17,harbor1,tr13,28048,168288).
route(prodloc17,harbor2,tr0,28687,745862).
route(prodloc17,harbor2,tr13,28687,172122).
route(prodloc17,harbor3,tr0,17959,466934).
route(prodloc17,harbor3,tr13,17959,107754).
route(prodloc17,harbor4,tr0,9375,243750).
route(prodloc17,harbor4,tr13,9375,56250).
route(prodloc17,harbor5,tr0,27843,723918).
route(prodloc17,harbor5,tr13,27843,167058).
route(prodloc17,harbor6,tr0,6007,156182).
route(prodloc17,harbor6,tr13,6007,36042).
route(prodloc17,harbor7,tr0,23901,621426).
route(prodloc17,harbor7,tr13,23901,143406).
route(prodloc17,harbor8,tr0,6586,171236).
route(prodloc17,harbor8,tr13,6586,39516).
route(prodloc17,harbor9,tr0,26104,678704).
route(prodloc17,harbor9,tr13,26104,156624).
route(prodloc17,harbor10,tr0,904,23504).
route(prodloc17,harbor10,tr13,904,5424).
route(prodloc17,harbor11,tr0,9924,258024).
route(prodloc17,harbor11,tr13,9924,59544).
route(prodloc17,harbor12,tr0,26329,684554).
route(prodloc17,harbor12,tr13,26329,157974).
route(prodloc17,harbor13,tr0,19811,515086).
route(prodloc17,harbor13,tr13,19811,118866).
route(prodloc17,harbor14,tr0,16333,424658).
route(prodloc17,harbor14,tr13,16333,97998).
route(prodloc17,harbor15,tr0,25131,653406).
route(prodloc17,harbor15,tr13,25131,150786).
route(prodloc17,harbor16,tr0,27309,710034).
route(prodloc17,harbor16,tr13,27309,163854).
route(prodloc17,prodloc0,tr0,22040,573040).
route(prodloc17,prodloc0,tr13,22040,132240).
route(prodloc17,prodloc1,tr0,25003,650078).
route(prodloc17,prodloc1,tr13,25003,150018).
route(prodloc17,prodloc2,tr0,9559,248534).
route(prodloc17,prodloc2,tr13,9559,57354).
route(prodloc17,prodloc3,tr0,20783,540358).
route(prodloc17,prodloc3,tr13,20783,124698).
route(prodloc17,prodloc4,tr0,28025,728650).
route(prodloc17,prodloc4,tr13,28025,168150).
route(prodloc17,prodloc5,tr0,6649,172874).
route(prodloc17,prodloc5,tr13,6649,39894).
route(prodloc17,prodloc6,tr0,7301,189826).
route(prodloc17,prodloc6,tr13,7301,43806).
route(prodloc17,prodloc7,tr0,7889,205114).
route(prodloc17,prodloc7,tr13,7889,47334).
route(prodloc17,prodloc8,tr0,16690,433940).
route(prodloc17,prodloc8,tr13,16690,100140).
route(prodloc17,prodloc9,tr0,10028,260728).
route(prodloc17,prodloc9,tr13,10028,60168).
route(prodloc17,prodloc10,tr0,18874,490724).
route(prodloc17,prodloc10,tr13,18874,113244).
route(prodloc17,prodloc11,tr0,20886,543036).
route(prodloc17,prodloc11,tr13,20886,125316).
route(prodloc17,prodloc12,tr0,24357,633282).
route(prodloc17,prodloc12,tr13,24357,146142).
route(prodloc17,prodloc13,tr0,20646,536796).
route(prodloc17,prodloc13,tr13,20646,123876).
route(prodloc17,prodloc14,tr0,14230,369980).
route(prodloc17,prodloc14,tr13,14230,85380).
route(prodloc17,prodloc15,tr0,17312,450112).
route(prodloc17,prodloc15,tr13,17312,103872).
route(prodloc17,prodloc16,tr0,14013,364338).
route(prodloc17,prodloc16,tr13,14013,84078).
route(prodloc17,prodloc18,tr0,21417,556842).
route(prodloc17,prodloc18,tr13,21417,128502).
route(prodloc17,prodloc19,tr0,13851,360126).
route(prodloc17,prodloc19,tr13,13851,83106).
route(prodloc17,prodloc20,tr0,4203,109278).
route(prodloc17,prodloc20,tr13,4203,25218).
route(prodloc17,prodloc21,tr0,24950,648700).
route(prodloc17,prodloc21,tr13,24950,149700).
route(prodloc17,prodloc22,tr0,1041,27066).
route(prodloc17,prodloc22,tr13,1041,6246).
route(prodloc17,prodloc23,tr0,63,1638).
route(prodloc17,prodloc23,tr13,63,378).
route(prodloc17,prodloc24,tr0,26896,699296).
route(prodloc17,prodloc24,tr13,26896,161376).
route(prodloc17,prodloc25,tr0,22557,586482).
route(prodloc17,prodloc25,tr13,22557,135342).
route(prodloc17,prodloc26,tr0,27817,723242).
route(prodloc17,prodloc26,tr13,27817,166902).
route(prodloc17,prodloc27,tr0,25450,661700).
route(prodloc17,prodloc27,tr13,25450,152700).
route(prodloc17,prodloc28,tr0,23058,599508).
route(prodloc17,prodloc28,tr13,23058,138348).
route(prodloc17,prodloc29,tr0,18933,492258).
route(prodloc17,prodloc29,tr13,18933,113598).
route(prodloc17,prodloc30,tr0,21434,557284).
route(prodloc17,prodloc30,tr13,21434,128604).
route(prodloc17,prodloc31,tr0,18202,473252).
route(prodloc17,prodloc31,tr13,18202,109212).
route(prodloc17,prodloc32,tr0,8508,221208).
route(prodloc17,prodloc32,tr13,8508,51048).
route(prodloc17,prodloc33,tr0,28259,734734).
route(prodloc17,prodloc33,tr13,28259,169554).
route(prodloc18,harbor0,tr0,23578,613028).
route(prodloc18,harbor0,tr13,23578,141468).
route(prodloc18,harbor1,tr0,14706,382356).
route(prodloc18,harbor1,tr13,14706,88236).
route(prodloc18,harbor2,tr0,4345,112970).
route(prodloc18,harbor2,tr13,4345,26070).
route(prodloc18,harbor3,tr0,21480,558480).
route(prodloc18,harbor3,tr13,21480,128880).
route(prodloc18,harbor4,tr0,7982,207532).
route(prodloc18,harbor4,tr13,7982,47892).
route(prodloc18,harbor5,tr0,18684,485784).
route(prodloc18,harbor5,tr13,18684,112104).
route(prodloc18,harbor6,tr0,23323,606398).
route(prodloc18,harbor6,tr13,23323,139938).
route(prodloc18,harbor7,tr0,24245,630370).
route(prodloc18,harbor7,tr13,24245,145470).
route(prodloc18,harbor8,tr0,5699,148174).
route(prodloc18,harbor8,tr13,5699,34194).
route(prodloc18,harbor9,tr0,3667,95342).
route(prodloc18,harbor9,tr13,3667,22002).
route(prodloc18,harbor10,tr0,23569,612794).
route(prodloc18,harbor10,tr13,23569,141414).
route(prodloc18,harbor11,tr0,27663,719238).
route(prodloc18,harbor11,tr13,27663,165978).
route(prodloc18,harbor12,tr0,13668,355368).
route(prodloc18,harbor12,tr13,13668,82008).
route(prodloc18,harbor13,tr0,23396,608296).
route(prodloc18,harbor13,tr13,23396,140376).
route(prodloc18,harbor14,tr0,7862,204412).
route(prodloc18,harbor14,tr13,7862,47172).
route(prodloc18,harbor15,tr0,5354,139204).
route(prodloc18,harbor15,tr13,5354,32124).
route(prodloc18,harbor16,tr0,14301,371826).
route(prodloc18,harbor16,tr13,14301,85806).
route(prodloc18,prodloc0,tr0,507,13182).
route(prodloc18,prodloc0,tr13,507,3042).
route(prodloc18,prodloc1,tr0,2674,69524).
route(prodloc18,prodloc1,tr13,2674,16044).
route(prodloc18,prodloc2,tr0,14191,368966).
route(prodloc18,prodloc2,tr13,14191,85146).
route(prodloc18,prodloc3,tr0,25024,650624).
route(prodloc18,prodloc3,tr13,25024,150144).
route(prodloc18,prodloc4,tr0,13976,363376).
route(prodloc18,prodloc4,tr13,13976,83856).
route(prodloc18,prodloc5,tr0,22310,580060).
route(prodloc18,prodloc5,tr13,22310,133860).
route(prodloc18,prodloc6,tr13,20548,123288).
route(prodloc18,prodloc6,tr15,20548,657536).
route(prodloc18,prodloc7,tr0,28594,743444).
route(prodloc18,prodloc7,tr13,28594,171564).
route(prodloc18,prodloc8,tr0,4378,113828).
route(prodloc18,prodloc8,tr13,4378,26268).
route(prodloc18,prodloc9,tr0,25724,668824).
route(prodloc18,prodloc9,tr13,25724,154344).
route(prodloc18,prodloc10,tr0,20642,536692).
route(prodloc18,prodloc10,tr13,20642,123852).
route(prodloc18,prodloc11,tr0,19230,499980).
route(prodloc18,prodloc11,tr13,19230,115380).
route(prodloc18,prodloc12,tr0,20700,538200).
route(prodloc18,prodloc12,tr13,20700,124200).
route(prodloc18,prodloc13,tr0,4569,118794).
route(prodloc18,prodloc13,tr13,4569,27414).
route(prodloc18,prodloc14,tr0,12365,321490).
route(prodloc18,prodloc14,tr13,12365,74190).
route(prodloc18,prodloc15,tr0,18044,469144).
route(prodloc18,prodloc15,tr13,18044,108264).
route(prodloc18,prodloc16,tr0,26953,700778).
route(prodloc18,prodloc16,tr13,26953,161718).
route(prodloc18,prodloc17,tr0,7993,207818).
route(prodloc18,prodloc17,tr13,7993,47958).
route(prodloc18,prodloc19,tr0,19330,502580).
route(prodloc18,prodloc19,tr13,19330,115980).
route(prodloc18,prodloc20,tr0,27622,718172).
route(prodloc18,prodloc20,tr13,27622,165732).
route(prodloc18,prodloc21,tr0,17197,447122).
route(prodloc18,prodloc21,tr13,17197,103182).
route(prodloc18,prodloc22,tr0,24632,640432).
route(prodloc18,prodloc22,tr13,24632,147792).
route(prodloc18,prodloc23,tr0,22650,588900).
route(prodloc18,prodloc23,tr13,22650,135900).
route(prodloc18,prodloc24,tr0,21475,558350).
route(prodloc18,prodloc24,tr13,21475,128850).
route(prodloc18,prodloc25,tr0,18043,469118).
route(prodloc18,prodloc25,tr15,18043,577376).
route(prodloc18,prodloc26,tr0,22937,596362).
route(prodloc18,prodloc26,tr13,22937,137622).
route(prodloc18,prodloc27,tr0,1529,39754).
route(prodloc18,prodloc27,tr13,1529,9174).
route(prodloc18,prodloc28,tr0,20297,527722).
route(prodloc18,prodloc28,tr13,20297,121782).
route(prodloc18,prodloc29,tr0,8584,223184).
route(prodloc18,prodloc29,tr13,8584,51504).
route(prodloc18,prodloc30,tr0,6703,174278).
route(prodloc18,prodloc30,tr13,6703,40218).
route(prodloc18,prodloc31,tr0,1474,38324).
route(prodloc18,prodloc31,tr13,1474,8844).
route(prodloc18,prodloc32,tr0,10161,264186).
route(prodloc18,prodloc32,tr13,10161,60966).
route(prodloc18,prodloc33,tr0,9109,236834).
route(prodloc18,prodloc33,tr13,9109,54654).
route(prodloc19,harbor0,tr0,20400,530400).
route(prodloc19,harbor0,tr13,20400,122400).
route(prodloc19,harbor1,tr0,19154,498004).
route(prodloc19,harbor1,tr13,19154,114924).
route(prodloc19,harbor2,tr0,16504,429104).
route(prodloc19,harbor2,tr13,16504,99024).
route(prodloc19,harbor3,tr0,24182,628732).
route(prodloc19,harbor3,tr13,24182,145092).
route(prodloc19,harbor4,tr0,6920,179920).
route(prodloc19,harbor4,tr13,6920,41520).
route(prodloc19,harbor5,tr0,7137,185562).
route(prodloc19,harbor5,tr13,7137,42822).
route(prodloc19,harbor6,tr0,13659,355134).
route(prodloc19,harbor6,tr13,13659,81954).
route(prodloc19,harbor7,tr0,25464,662064).
route(prodloc19,harbor7,tr13,25464,152784).
route(prodloc19,harbor8,tr0,23439,609414).
route(prodloc19,harbor8,tr13,23439,140634).
route(prodloc19,harbor9,tr0,14723,382798).
route(prodloc19,harbor9,tr13,14723,88338).
route(prodloc19,harbor10,tr0,21733,565058).
route(prodloc19,harbor10,tr13,21733,130398).
route(prodloc19,harbor11,tr0,26107,678782).
route(prodloc19,harbor11,tr13,26107,156642).
route(prodloc19,harbor12,tr0,14187,368862).
route(prodloc19,harbor12,tr13,14187,85122).
route(prodloc19,harbor13,tr0,4343,112918).
route(prodloc19,harbor13,tr13,4343,26058).
route(prodloc19,harbor14,tr0,6885,179010).
route(prodloc19,harbor14,tr13,6885,41310).
route(prodloc19,harbor15,tr0,9376,243776).
route(prodloc19,harbor15,tr13,9376,56256).
route(prodloc19,harbor16,tr0,16190,420940).
route(prodloc19,harbor16,tr13,16190,97140).
route(prodloc19,prodloc0,tr0,23949,622674).
route(prodloc19,prodloc0,tr13,23949,143694).
route(prodloc19,prodloc1,tr0,23790,618540).
route(prodloc19,prodloc1,tr13,23790,142740).
route(prodloc19,prodloc2,tr0,15611,405886).
route(prodloc19,prodloc2,tr13,15611,93666).
route(prodloc19,prodloc3,tr0,14044,365144).
route(prodloc19,prodloc3,tr13,14044,84264).
route(prodloc19,prodloc4,tr0,20708,538408).
route(prodloc19,prodloc4,tr13,20708,124248).
route(prodloc19,prodloc5,tr0,11868,308568).
route(prodloc19,prodloc5,tr13,11868,71208).
route(prodloc19,prodloc6,tr0,8161,212186).
route(prodloc19,prodloc6,tr13,8161,48966).
route(prodloc19,prodloc7,tr0,26857,698282).
route(prodloc19,prodloc7,tr13,26857,161142).
route(prodloc19,prodloc8,tr0,13974,363324).
route(prodloc19,prodloc8,tr13,13974,83844).
route(prodloc19,prodloc9,tr0,17543,456118).
route(prodloc19,prodloc9,tr13,17543,105258).
route(prodloc19,prodloc10,tr0,20388,530088).
route(prodloc19,prodloc10,tr13,20388,122328).
route(prodloc19,prodloc11,tr0,18802,488852).
route(prodloc19,prodloc11,tr13,18802,112812).
route(prodloc19,prodloc12,tr0,5353,139178).
route(prodloc19,prodloc12,tr15,5353,171296).
route(prodloc19,prodloc13,tr0,2851,74126).
route(prodloc19,prodloc13,tr13,2851,17106).
route(prodloc19,prodloc14,tr0,1575,40950).
route(prodloc19,prodloc14,tr13,1575,9450).
route(prodloc19,prodloc15,tr0,4223,109798).
route(prodloc19,prodloc15,tr13,4223,25338).
route(prodloc19,prodloc16,tr0,99,2574).
route(prodloc19,prodloc16,tr13,99,594).
route(prodloc19,prodloc17,tr0,18588,483288).
route(prodloc19,prodloc17,tr13,18588,111528).
route(prodloc19,prodloc18,tr0,27725,720850).
route(prodloc19,prodloc18,tr13,27725,166350).
route(prodloc19,prodloc20,tr0,19069,495794).
route(prodloc19,prodloc20,tr13,19069,114414).
route(prodloc19,prodloc21,tr0,26710,694460).
route(prodloc19,prodloc21,tr13,26710,160260).
route(prodloc19,prodloc22,tr0,28418,738868).
route(prodloc19,prodloc22,tr13,28418,170508).
route(prodloc19,prodloc23,tr0,26120,679120).
route(prodloc19,prodloc23,tr13,26120,156720).
route(prodloc19,prodloc24,tr0,18164,472264).
route(prodloc19,prodloc24,tr13,18164,108984).
route(prodloc19,prodloc25,tr0,10573,274898).
route(prodloc19,prodloc25,tr13,10573,63438).
route(prodloc19,prodloc26,tr13,13947,83682).
route(prodloc19,prodloc26,tr15,13947,446304).
route(prodloc19,prodloc27,tr0,25323,658398).
route(prodloc19,prodloc27,tr13,25323,151938).
route(prodloc19,prodloc28,tr0,23341,606866).
route(prodloc19,prodloc28,tr13,23341,140046).
route(prodloc19,prodloc29,tr0,14115,366990).
route(prodloc19,prodloc29,tr13,14115,84690).
route(prodloc19,prodloc30,tr0,12098,314548).
route(prodloc19,prodloc30,tr13,12098,72588).
route(prodloc19,prodloc31,tr0,8444,219544).
route(prodloc19,prodloc31,tr13,8444,50664).
route(prodloc19,prodloc32,tr0,24863,646438).
route(prodloc19,prodloc32,tr13,24863,149178).
route(prodloc19,prodloc33,tr0,626,16276).
route(prodloc19,prodloc33,tr13,626,3756).
route(prodloc20,harbor0,tr0,14961,388986).
route(prodloc20,harbor0,tr13,14961,89766).
route(prodloc20,harbor1,tr0,23967,623142).
route(prodloc20,harbor1,tr13,23967,143802).
route(prodloc20,harbor2,tr0,4722,122772).
route(prodloc20,harbor2,tr13,4722,28332).
route(prodloc20,harbor3,tr0,10016,260416).
route(prodloc20,harbor3,tr13,10016,60096).
route(prodloc20,harbor4,tr0,14060,365560).
route(prodloc20,harbor4,tr13,14060,84360).
route(prodloc20,harbor5,tr0,19908,517608).
route(prodloc20,harbor5,tr13,19908,119448).
route(prodloc20,harbor6,tr0,24681,641706).
route(prodloc20,harbor6,tr13,24681,148086).
route(prodloc20,harbor7,tr0,18751,487526).
route(prodloc20,harbor7,tr13,18751,112506).
route(prodloc20,harbor8,tr0,7924,206024).
route(prodloc20,harbor8,tr13,7924,47544).
route(prodloc20,harbor9,tr0,6294,163644).
route(prodloc20,harbor9,tr13,6294,37764).
route(prodloc20,harbor10,tr0,973,25298).
route(prodloc20,harbor10,tr13,973,5838).
route(prodloc20,harbor11,tr0,1907,49582).
route(prodloc20,harbor11,tr13,1907,11442).
route(prodloc20,harbor12,tr0,4891,127166).
route(prodloc20,harbor12,tr13,4891,29346).
route(prodloc20,harbor13,tr0,25487,662662).
route(prodloc20,harbor13,tr13,25487,152922).
route(prodloc20,harbor14,tr0,15759,409734).
route(prodloc20,harbor14,tr13,15759,94554).
route(prodloc20,harbor15,tr0,21594,561444).
route(prodloc20,harbor15,tr13,21594,129564).
route(prodloc20,harbor16,tr0,10179,264654).
route(prodloc20,harbor16,tr13,10179,61074).
route(prodloc20,prodloc0,tr0,545,14170).
route(prodloc20,prodloc0,tr13,545,3270).
route(prodloc20,prodloc1,tr13,3848,23088).
route(prodloc20,prodloc1,tr15,3848,123136).
route(prodloc20,prodloc2,tr0,9673,251498).
route(prodloc20,prodloc2,tr13,9673,58038).
route(prodloc20,prodloc3,tr0,18683,485758).
route(prodloc20,prodloc3,tr13,18683,112098).
route(prodloc20,prodloc4,tr0,19080,496080).
route(prodloc20,prodloc4,tr13,19080,114480).
route(prodloc20,prodloc5,tr0,7854,204204).
route(prodloc20,prodloc5,tr13,7854,47124).
route(prodloc20,prodloc6,tr0,10565,274690).
route(prodloc20,prodloc6,tr13,10565,63390).
route(prodloc20,prodloc7,tr0,3524,91624).
route(prodloc20,prodloc7,tr13,3524,21144).
route(prodloc20,prodloc8,tr0,9527,247702).
route(prodloc20,prodloc8,tr13,9527,57162).
route(prodloc20,prodloc9,tr0,18846,489996).
route(prodloc20,prodloc9,tr13,18846,113076).
route(prodloc20,prodloc10,tr0,22241,578266).
route(prodloc20,prodloc10,tr13,22241,133446).
route(prodloc20,prodloc11,tr0,22986,597636).
route(prodloc20,prodloc11,tr13,22986,137916).
route(prodloc20,prodloc12,tr0,27062,703612).
route(prodloc20,prodloc12,tr13,27062,162372).
route(prodloc20,prodloc13,tr0,2522,65572).
route(prodloc20,prodloc13,tr13,2522,15132).
route(prodloc20,prodloc14,tr0,7253,188578).
route(prodloc20,prodloc14,tr13,7253,43518).
route(prodloc20,prodloc15,tr0,19208,499408).
route(prodloc20,prodloc15,tr13,19208,115248).
route(prodloc20,prodloc16,tr0,12670,329420).
route(prodloc20,prodloc16,tr13,12670,76020).
route(prodloc20,prodloc17,tr0,8609,223834).
route(prodloc20,prodloc17,tr13,8609,51654).
route(prodloc20,prodloc18,tr0,1071,27846).
route(prodloc20,prodloc18,tr13,1071,6426).
route(prodloc20,prodloc19,tr0,25485,662610).
route(prodloc20,prodloc19,tr13,25485,152910).
route(prodloc20,prodloc21,tr0,25423,660998).
route(prodloc20,prodloc21,tr13,25423,152538).
route(prodloc20,prodloc22,tr0,22170,576420).
route(prodloc20,prodloc22,tr13,22170,133020).
route(prodloc20,prodloc23,tr0,7225,187850).
route(prodloc20,prodloc23,tr13,7225,43350).
route(prodloc20,prodloc24,tr0,9985,259610).
route(prodloc20,prodloc24,tr13,9985,59910).
route(prodloc20,prodloc25,tr0,608,15808).
route(prodloc20,prodloc25,tr13,608,3648).
route(prodloc20,prodloc26,tr0,12077,314002).
route(prodloc20,prodloc26,tr13,12077,72462).
route(prodloc20,prodloc27,tr0,19059,495534).
route(prodloc20,prodloc27,tr13,19059,114354).
route(prodloc20,prodloc28,tr0,9147,237822).
route(prodloc20,prodloc28,tr13,9147,54882).
route(prodloc20,prodloc29,tr0,9450,245700).
route(prodloc20,prodloc29,tr13,9450,56700).
route(prodloc20,prodloc30,tr0,1266,32916).
route(prodloc20,prodloc30,tr13,1266,7596).
route(prodloc20,prodloc31,tr0,6518,169468).
route(prodloc20,prodloc31,tr13,6518,39108).
route(prodloc20,prodloc32,tr0,15395,400270).
route(prodloc20,prodloc32,tr13,15395,92370).
route(prodloc20,prodloc33,tr0,23913,621738).
route(prodloc20,prodloc33,tr13,23913,143478).
route(prodloc21,harbor0,tr0,14123,367198).
route(prodloc21,harbor0,tr13,14123,84738).
route(prodloc21,harbor1,tr0,3049,79274).
route(prodloc21,harbor1,tr13,3049,18294).
route(prodloc21,harbor2,tr0,26034,676884).
route(prodloc21,harbor2,tr13,26034,156204).
route(prodloc21,harbor3,tr0,18812,489112).
route(prodloc21,harbor3,tr13,18812,112872).
route(prodloc21,harbor4,tr0,501,13026).
route(prodloc21,harbor4,tr13,501,3006).
route(prodloc21,harbor5,tr0,26829,697554).
route(prodloc21,harbor5,tr13,26829,160974).
route(prodloc21,harbor6,tr0,615,15990).
route(prodloc21,harbor6,tr13,615,3690).
route(prodloc21,harbor7,tr0,28421,738946).
route(prodloc21,harbor7,tr13,28421,170526).
route(prodloc21,harbor8,tr0,8977,233402).
route(prodloc21,harbor8,tr13,8977,53862).
route(prodloc21,harbor9,tr0,6004,156104).
route(prodloc21,harbor9,tr13,6004,36024).
route(prodloc21,harbor10,tr0,25059,651534).
route(prodloc21,harbor10,tr13,25059,150354).
route(prodloc21,harbor11,tr0,26350,685100).
route(prodloc21,harbor11,tr13,26350,158100).
route(prodloc21,harbor12,tr0,13822,359372).
route(prodloc21,harbor12,tr13,13822,82932).
route(prodloc21,harbor13,tr0,25164,654264).
route(prodloc21,harbor13,tr13,25164,150984).
route(prodloc21,harbor14,tr0,21946,570596).
route(prodloc21,harbor14,tr13,21946,131676).
route(prodloc21,harbor15,tr0,12831,333606).
route(prodloc21,harbor15,tr13,12831,76986).
route(prodloc21,harbor16,tr0,28702,746252).
route(prodloc21,harbor16,tr13,28702,172212).
route(prodloc21,prodloc0,tr0,15756,409656).
route(prodloc21,prodloc0,tr13,15756,94536).
route(prodloc21,prodloc1,tr0,10586,275236).
route(prodloc21,prodloc1,tr13,10586,63516).
route(prodloc21,prodloc2,tr0,26397,686322).
route(prodloc21,prodloc2,tr13,26397,158382).
route(prodloc21,prodloc3,tr0,4118,107068).
route(prodloc21,prodloc3,tr13,4118,24708).
route(prodloc21,prodloc4,tr0,18252,474552).
route(prodloc21,prodloc4,tr13,18252,109512).
route(prodloc21,prodloc5,tr0,629,16354).
route(prodloc21,prodloc5,tr13,629,3774).
route(prodloc21,prodloc6,tr0,24415,634790).
route(prodloc21,prodloc6,tr13,24415,146490).
route(prodloc21,prodloc7,tr0,8996,233896).
route(prodloc21,prodloc7,tr13,8996,53976).
route(prodloc21,prodloc8,tr0,14830,385580).
route(prodloc21,prodloc8,tr13,14830,88980).
route(prodloc21,prodloc9,tr0,27135,705510).
route(prodloc21,prodloc9,tr13,27135,162810).
route(prodloc21,prodloc10,tr0,874,22724).
route(prodloc21,prodloc10,tr13,874,5244).
route(prodloc21,prodloc11,tr0,10851,282126).
route(prodloc21,prodloc11,tr13,10851,65106).
route(prodloc21,prodloc12,tr0,8653,224978).
route(prodloc21,prodloc12,tr13,8653,51918).
route(prodloc21,prodloc13,tr0,27160,706160).
route(prodloc21,prodloc13,tr13,27160,162960).
route(prodloc21,prodloc14,tr0,19420,504920).
route(prodloc21,prodloc14,tr13,19420,116520).
route(prodloc21,prodloc15,tr0,18767,487942).
route(prodloc21,prodloc15,tr13,18767,112602).
route(prodloc21,prodloc16,tr0,5693,148018).
route(prodloc21,prodloc16,tr13,5693,34158).
route(prodloc21,prodloc17,tr0,8622,224172).
route(prodloc21,prodloc17,tr13,8622,51732).
route(prodloc21,prodloc18,tr0,24740,643240).
route(prodloc21,prodloc18,tr13,24740,148440).
route(prodloc21,prodloc19,tr0,7310,190060).
route(prodloc21,prodloc19,tr13,7310,43860).
route(prodloc21,prodloc20,tr0,14712,382512).
route(prodloc21,prodloc20,tr13,14712,88272).
route(prodloc21,prodloc22,tr0,10099,262574).
route(prodloc21,prodloc22,tr13,10099,60594).
route(prodloc21,prodloc23,tr0,391,10166).
route(prodloc21,prodloc23,tr13,391,2346).
route(prodloc21,prodloc24,tr0,23524,611624).
route(prodloc21,prodloc24,tr13,23524,141144).
route(prodloc21,prodloc25,tr0,10799,280774).
route(prodloc21,prodloc25,tr13,10799,64794).
route(prodloc21,prodloc26,tr0,25283,657358).
route(prodloc21,prodloc26,tr13,25283,151698).
route(prodloc21,prodloc27,tr0,5264,136864).
route(prodloc21,prodloc27,tr13,5264,31584).
route(prodloc21,prodloc28,tr0,17624,458224).
route(prodloc21,prodloc28,tr13,17624,105744).
route(prodloc21,prodloc29,tr0,21862,568412).
route(prodloc21,prodloc29,tr13,21862,131172).
route(prodloc21,prodloc30,tr0,18064,469664).
route(prodloc21,prodloc30,tr13,18064,108384).
route(prodloc21,prodloc31,tr0,28524,741624).
route(prodloc21,prodloc31,tr13,28524,171144).
route(prodloc21,prodloc32,tr0,19228,499928).
route(prodloc21,prodloc32,tr13,19228,115368).
route(prodloc21,prodloc33,tr0,19453,505778).
route(prodloc21,prodloc33,tr13,19453,116718).
route(prodloc22,harbor0,tr0,1199,31174).
route(prodloc22,harbor0,tr13,1199,7194).
route(prodloc22,harbor1,tr0,19014,494364).
route(prodloc22,harbor1,tr13,19014,114084).
route(prodloc22,harbor2,tr0,22371,581646).
route(prodloc22,harbor2,tr13,22371,134226).
route(prodloc22,harbor3,tr0,3437,89362).
route(prodloc22,harbor3,tr13,3437,20622).
route(prodloc22,harbor4,tr0,12307,319982).
route(prodloc22,harbor4,tr13,12307,73842).
route(prodloc22,harbor5,tr0,5495,142870).
route(prodloc22,harbor5,tr13,5495,32970).
route(prodloc22,harbor6,tr0,12033,312858).
route(prodloc22,harbor6,tr13,12033,72198).
route(prodloc22,harbor7,tr0,21750,565500).
route(prodloc22,harbor7,tr13,21750,130500).
route(prodloc22,harbor8,tr0,16754,435604).
route(prodloc22,harbor8,tr13,16754,100524).
route(prodloc22,harbor9,tr0,4848,126048).
route(prodloc22,harbor9,tr13,4848,29088).
route(prodloc22,harbor10,tr0,13626,354276).
route(prodloc22,harbor10,tr13,13626,81756).
route(prodloc22,harbor11,tr0,19068,495768).
route(prodloc22,harbor11,tr13,19068,114408).
route(prodloc22,harbor12,tr0,13378,347828).
route(prodloc22,harbor12,tr13,13378,80268).
route(prodloc22,harbor13,tr0,23366,607516).
route(prodloc22,harbor13,tr13,23366,140196).
route(prodloc22,harbor14,tr0,6836,177736).
route(prodloc22,harbor14,tr13,6836,41016).
route(prodloc22,harbor15,tr0,13802,358852).
route(prodloc22,harbor15,tr13,13802,82812).
route(prodloc22,harbor16,tr0,28391,738166).
route(prodloc22,harbor16,tr13,28391,170346).
route(prodloc22,prodloc0,tr0,14463,376038).
route(prodloc22,prodloc0,tr13,14463,86778).
route(prodloc22,prodloc1,tr0,15546,404196).
route(prodloc22,prodloc1,tr13,15546,93276).
route(prodloc22,prodloc2,tr0,24605,639730).
route(prodloc22,prodloc2,tr13,24605,147630).
route(prodloc22,prodloc3,tr0,9743,253318).
route(prodloc22,prodloc3,tr13,9743,58458).
route(prodloc22,prodloc4,tr0,15525,403650).
route(prodloc22,prodloc4,tr13,15525,93150).
route(prodloc22,prodloc5,tr0,16670,433420).
route(prodloc22,prodloc5,tr13,16670,100020).
route(prodloc22,prodloc6,tr0,23060,599560).
route(prodloc22,prodloc6,tr13,23060,138360).
route(prodloc22,prodloc7,tr0,21041,547066).
route(prodloc22,prodloc7,tr13,21041,126246).
route(prodloc22,prodloc8,tr0,22851,594126).
route(prodloc22,prodloc8,tr13,22851,137106).
route(prodloc22,prodloc9,tr0,12908,335608).
route(prodloc22,prodloc9,tr13,12908,77448).
route(prodloc22,prodloc10,tr0,21550,560300).
route(prodloc22,prodloc10,tr13,21550,129300).
route(prodloc22,prodloc11,tr0,14413,374738).
route(prodloc22,prodloc11,tr13,14413,86478).
route(prodloc22,prodloc12,tr0,15393,400218).
route(prodloc22,prodloc12,tr13,15393,92358).
route(prodloc22,prodloc13,tr0,13413,348738).
route(prodloc22,prodloc13,tr13,13413,80478).
route(prodloc22,prodloc14,tr0,1684,43784).
route(prodloc22,prodloc14,tr13,1684,10104).
route(prodloc22,prodloc15,tr0,23150,601900).
route(prodloc22,prodloc15,tr13,23150,138900).
route(prodloc22,prodloc16,tr0,14456,375856).
route(prodloc22,prodloc16,tr13,14456,86736).
route(prodloc22,prodloc17,tr0,25469,662194).
route(prodloc22,prodloc17,tr13,25469,152814).
route(prodloc22,prodloc18,tr0,15290,397540).
route(prodloc22,prodloc18,tr13,15290,91740).
route(prodloc22,prodloc19,tr0,21617,562042).
route(prodloc22,prodloc19,tr13,21617,129702).
route(prodloc22,prodloc20,tr0,27388,712088).
route(prodloc22,prodloc20,tr13,27388,164328).
route(prodloc22,prodloc21,tr0,9434,245284).
route(prodloc22,prodloc21,tr13,9434,56604).
route(prodloc22,prodloc23,tr0,7957,206882).
route(prodloc22,prodloc23,tr13,7957,47742).
route(prodloc22,prodloc24,tr0,17,442).
route(prodloc22,prodloc24,tr13,17,102).
route(prodloc22,prodloc25,tr0,26446,687596).
route(prodloc22,prodloc25,tr13,26446,158676).
route(prodloc22,prodloc26,tr0,26160,680160).
route(prodloc22,prodloc26,tr13,26160,156960).
route(prodloc22,prodloc27,tr0,24442,635492).
route(prodloc22,prodloc27,tr13,24442,146652).
route(prodloc22,prodloc28,tr0,8571,222846).
route(prodloc22,prodloc28,tr13,8571,51426).
route(prodloc22,prodloc29,tr0,18811,489086).
route(prodloc22,prodloc29,tr13,18811,112866).
route(prodloc22,prodloc30,tr0,2545,66170).
route(prodloc22,prodloc30,tr13,2545,15270).
route(prodloc22,prodloc31,tr0,23459,609934).
route(prodloc22,prodloc31,tr13,23459,140754).
route(prodloc22,prodloc32,tr0,13230,343980).
route(prodloc22,prodloc32,tr13,13230,79380).
route(prodloc22,prodloc33,tr0,27473,714298).
route(prodloc22,prodloc33,tr13,27473,164838).
route(prodloc23,harbor0,tr0,18101,470626).
route(prodloc23,harbor0,tr13,18101,108606).
route(prodloc23,harbor1,tr0,1116,29016).
route(prodloc23,harbor1,tr13,1116,6696).
route(prodloc23,harbor2,tr0,23157,602082).
route(prodloc23,harbor2,tr13,23157,138942).
route(prodloc23,harbor3,tr0,27348,711048).
route(prodloc23,harbor3,tr13,27348,164088).
route(prodloc23,harbor4,tr0,20261,526786).
route(prodloc23,harbor4,tr13,20261,121566).
route(prodloc23,harbor5,tr0,5787,150462).
route(prodloc23,harbor5,tr13,5787,34722).
route(prodloc23,harbor6,tr0,5197,135122).
route(prodloc23,harbor6,tr13,5197,31182).
route(prodloc23,harbor7,tr0,1218,31668).
route(prodloc23,harbor7,tr13,1218,7308).
route(prodloc23,harbor8,tr0,11891,309166).
route(prodloc23,harbor8,tr13,11891,71346).
route(prodloc23,harbor9,tr0,7090,184340).
route(prodloc23,harbor9,tr13,7090,42540).
route(prodloc23,harbor10,tr0,8403,218478).
route(prodloc23,harbor10,tr13,8403,50418).
route(prodloc23,harbor11,tr0,25910,673660).
route(prodloc23,harbor11,tr13,25910,155460).
route(prodloc23,harbor12,tr0,11377,295802).
route(prodloc23,harbor12,tr13,11377,68262).
route(prodloc23,harbor13,tr0,14052,365352).
route(prodloc23,harbor13,tr13,14052,84312).
route(prodloc23,harbor14,tr0,28546,742196).
route(prodloc23,harbor14,tr13,28546,171276).
route(prodloc23,harbor15,tr0,1876,48776).
route(prodloc23,harbor15,tr13,1876,11256).
route(prodloc23,harbor16,tr0,9167,238342).
route(prodloc23,harbor16,tr13,9167,55002).
route(prodloc23,prodloc0,tr0,23030,598780).
route(prodloc23,prodloc0,tr13,23030,138180).
route(prodloc23,prodloc1,tr0,12480,324480).
route(prodloc23,prodloc1,tr13,12480,74880).
route(prodloc23,prodloc2,tr0,26442,687492).
route(prodloc23,prodloc2,tr13,26442,158652).
route(prodloc23,prodloc3,tr0,10223,265798).
route(prodloc23,prodloc3,tr13,10223,61338).
route(prodloc23,prodloc4,tr0,14569,378794).
route(prodloc23,prodloc4,tr13,14569,87414).
route(prodloc23,prodloc5,tr0,9412,244712).
route(prodloc23,prodloc5,tr13,9412,56472).
route(prodloc23,prodloc6,tr0,12224,317824).
route(prodloc23,prodloc6,tr13,12224,73344).
route(prodloc23,prodloc7,tr0,12460,323960).
route(prodloc23,prodloc7,tr13,12460,74760).
route(prodloc23,prodloc8,tr0,24604,639704).
route(prodloc23,prodloc8,tr13,24604,147624).
route(prodloc23,prodloc9,tr0,12872,334672).
route(prodloc23,prodloc9,tr13,12872,77232).
route(prodloc23,prodloc10,tr0,1506,39156).
route(prodloc23,prodloc10,tr13,1506,9036).
route(prodloc23,prodloc11,tr0,28399,738374).
route(prodloc23,prodloc11,tr13,28399,170394).
route(prodloc23,prodloc12,tr0,4860,126360).
route(prodloc23,prodloc12,tr13,4860,29160).
route(prodloc23,prodloc13,tr0,17166,446316).
route(prodloc23,prodloc13,tr13,17166,102996).
route(prodloc23,prodloc14,tr0,13266,344916).
route(prodloc23,prodloc14,tr13,13266,79596).
route(prodloc23,prodloc15,tr0,25329,658554).
route(prodloc23,prodloc15,tr13,25329,151974).
route(prodloc23,prodloc16,tr0,6390,166140).
route(prodloc23,prodloc16,tr13,6390,38340).
route(prodloc23,prodloc17,tr0,880,22880).
route(prodloc23,prodloc17,tr13,880,5280).
route(prodloc23,prodloc18,tr0,945,24570).
route(prodloc23,prodloc18,tr13,945,5670).
route(prodloc23,prodloc19,tr0,28921,751946).
route(prodloc23,prodloc19,tr13,28921,173526).
route(prodloc23,prodloc20,tr0,18497,480922).
route(prodloc23,prodloc20,tr13,18497,110982).
route(prodloc23,prodloc21,tr0,2911,75686).
route(prodloc23,prodloc21,tr13,2911,17466).
route(prodloc23,prodloc22,tr0,6348,165048).
route(prodloc23,prodloc22,tr13,6348,38088).
route(prodloc23,prodloc24,tr0,10363,269438).
route(prodloc23,prodloc24,tr13,10363,62178).
route(prodloc23,prodloc25,tr0,4675,121550).
route(prodloc23,prodloc25,tr13,4675,28050).
route(prodloc23,prodloc26,tr0,20669,537394).
route(prodloc23,prodloc26,tr13,20669,124014).
route(prodloc23,prodloc27,tr0,18680,485680).
route(prodloc23,prodloc27,tr13,18680,112080).
route(prodloc23,prodloc28,tr0,22554,586404).
route(prodloc23,prodloc28,tr13,22554,135324).
route(prodloc23,prodloc29,tr0,20482,532532).
route(prodloc23,prodloc29,tr13,20482,122892).
route(prodloc23,prodloc30,tr0,1221,31746).
route(prodloc23,prodloc30,tr13,1221,7326).
route(prodloc23,prodloc31,tr0,20706,538356).
route(prodloc23,prodloc31,tr13,20706,124236).
route(prodloc23,prodloc32,tr0,25450,661700).
route(prodloc23,prodloc32,tr13,25450,152700).
route(prodloc23,prodloc33,tr0,20903,543478).
route(prodloc23,prodloc33,tr13,20903,125418).
route(prodloc24,harbor0,tr0,8491,220766).
route(prodloc24,harbor0,tr13,8491,50946).
route(prodloc24,harbor1,tr0,21276,553176).
route(prodloc24,harbor1,tr13,21276,127656).
route(prodloc24,harbor2,tr0,14576,378976).
route(prodloc24,harbor2,tr13,14576,87456).
route(prodloc24,harbor3,tr0,26611,691886).
route(prodloc24,harbor3,tr13,26611,159666).
route(prodloc24,harbor4,tr0,21762,565812).
route(prodloc24,harbor4,tr13,21762,130572).
route(prodloc24,harbor5,tr0,2366,61516).
route(prodloc24,harbor5,tr13,2366,14196).
route(prodloc24,harbor6,tr0,3369,87594).
route(prodloc24,harbor6,tr13,3369,20214).
route(prodloc24,harbor7,tr0,14631,380406).
route(prodloc24,harbor7,tr13,14631,87786).
route(prodloc24,harbor8,tr0,1740,45240).
route(prodloc24,harbor8,tr13,1740,10440).
route(prodloc24,harbor9,tr0,11199,291174).
route(prodloc24,harbor9,tr13,11199,67194).
route(prodloc24,harbor10,tr0,2232,58032).
route(prodloc24,harbor10,tr13,2232,13392).
route(prodloc24,harbor11,tr0,16651,432926).
route(prodloc24,harbor11,tr13,16651,99906).
route(prodloc24,harbor12,tr0,10567,274742).
route(prodloc24,harbor12,tr13,10567,63402).
route(prodloc24,harbor13,tr0,24401,634426).
route(prodloc24,harbor13,tr13,24401,146406).
route(prodloc24,harbor14,tr0,14151,367926).
route(prodloc24,harbor14,tr13,14151,84906).
route(prodloc24,harbor15,tr0,961,24986).
route(prodloc24,harbor15,tr13,961,5766).
route(prodloc24,harbor16,tr0,12334,320684).
route(prodloc24,harbor16,tr13,12334,74004).
route(prodloc24,prodloc0,tr0,1693,44018).
route(prodloc24,prodloc0,tr13,1693,10158).
route(prodloc24,prodloc1,tr0,10442,271492).
route(prodloc24,prodloc1,tr13,10442,62652).
route(prodloc24,prodloc2,tr0,10831,281606).
route(prodloc24,prodloc2,tr13,10831,64986).
route(prodloc24,prodloc3,tr0,14943,388518).
route(prodloc24,prodloc3,tr13,14943,89658).
route(prodloc24,prodloc4,tr0,27988,727688).
route(prodloc24,prodloc4,tr13,27988,167928).
route(prodloc24,prodloc5,tr0,14750,383500).
route(prodloc24,prodloc5,tr13,14750,88500).
route(prodloc24,prodloc6,tr0,2831,73606).
route(prodloc24,prodloc6,tr13,2831,16986).
route(prodloc24,prodloc7,tr0,24413,634738).
route(prodloc24,prodloc7,tr13,24413,146478).
route(prodloc24,prodloc8,tr0,2926,76076).
route(prodloc24,prodloc8,tr15,2926,93632).
route(prodloc24,prodloc9,tr0,15045,391170).
route(prodloc24,prodloc9,tr13,15045,90270).
route(prodloc24,prodloc10,tr0,14021,364546).
route(prodloc24,prodloc10,tr13,14021,84126).
route(prodloc24,prodloc11,tr0,26179,680654).
route(prodloc24,prodloc11,tr13,26179,157074).
route(prodloc24,prodloc12,tr0,4821,125346).
route(prodloc24,prodloc12,tr13,4821,28926).
route(prodloc24,prodloc13,tr0,4184,108784).
route(prodloc24,prodloc13,tr13,4184,25104).
route(prodloc24,prodloc14,tr0,27562,716612).
route(prodloc24,prodloc14,tr13,27562,165372).
route(prodloc24,prodloc15,tr0,23288,605488).
route(prodloc24,prodloc15,tr13,23288,139728).
route(prodloc24,prodloc16,tr0,26481,688506).
route(prodloc24,prodloc16,tr13,26481,158886).
route(prodloc24,prodloc17,tr0,26529,689754).
route(prodloc24,prodloc17,tr13,26529,159174).
route(prodloc24,prodloc18,tr0,3092,80392).
route(prodloc24,prodloc18,tr13,3092,18552).
route(prodloc24,prodloc19,tr0,9475,246350).
route(prodloc24,prodloc19,tr13,9475,56850).
route(prodloc24,prodloc20,tr0,24085,626210).
route(prodloc24,prodloc20,tr13,24085,144510).
route(prodloc24,prodloc21,tr0,27937,726362).
route(prodloc24,prodloc21,tr13,27937,167622).
route(prodloc24,prodloc22,tr0,16000,416000).
route(prodloc24,prodloc22,tr13,16000,96000).
route(prodloc24,prodloc23,tr0,2870,74620).
route(prodloc24,prodloc23,tr13,2870,17220).
route(prodloc24,prodloc25,tr0,26149,679874).
route(prodloc24,prodloc25,tr13,26149,156894).
route(prodloc24,prodloc26,tr0,15260,396760).
route(prodloc24,prodloc26,tr13,15260,91560).
route(prodloc24,prodloc27,tr0,5085,132210).
route(prodloc24,prodloc27,tr13,5085,30510).
route(prodloc24,prodloc28,tr0,16367,425542).
route(prodloc24,prodloc28,tr13,16367,98202).
route(prodloc24,prodloc29,tr0,14093,366418).
route(prodloc24,prodloc29,tr13,14093,84558).
route(prodloc24,prodloc30,tr0,27436,713336).
route(prodloc24,prodloc30,tr13,27436,164616).
route(prodloc24,prodloc31,tr0,19553,508378).
route(prodloc24,prodloc31,tr13,19553,117318).
route(prodloc24,prodloc32,tr0,15968,415168).
route(prodloc24,prodloc32,tr13,15968,95808).
route(prodloc24,prodloc33,tr0,16014,416364).
route(prodloc24,prodloc33,tr13,16014,96084).
route(prodloc25,harbor0,tr0,12455,323830).
route(prodloc25,harbor0,tr13,12455,74730).
route(prodloc25,harbor1,tr0,2130,55380).
route(prodloc25,harbor1,tr13,2130,12780).
route(prodloc25,harbor2,tr0,6282,163332).
route(prodloc25,harbor2,tr13,6282,37692).
route(prodloc25,harbor3,tr0,7583,197158).
route(prodloc25,harbor3,tr13,7583,45498).
route(prodloc25,harbor4,tr0,26954,700804).
route(prodloc25,harbor4,tr13,26954,161724).
route(prodloc25,harbor5,tr0,19305,501930).
route(prodloc25,harbor5,tr13,19305,115830).
route(prodloc25,harbor6,tr0,8992,233792).
route(prodloc25,harbor6,tr13,8992,53952).
route(prodloc25,harbor7,tr0,4911,127686).
route(prodloc25,harbor7,tr13,4911,29466).
route(prodloc25,harbor8,tr0,21233,552058).
route(prodloc25,harbor8,tr13,21233,127398).
route(prodloc25,harbor9,tr0,19996,519896).
route(prodloc25,harbor9,tr13,19996,119976).
route(prodloc25,harbor10,tr0,27688,719888).
route(prodloc25,harbor10,tr13,27688,166128).
route(prodloc25,harbor11,tr0,19210,499460).
route(prodloc25,harbor11,tr13,19210,115260).
route(prodloc25,harbor12,tr0,24860,646360).
route(prodloc25,harbor12,tr13,24860,149160).
route(prodloc25,harbor13,tr0,7082,184132).
route(prodloc25,harbor13,tr13,7082,42492).
route(prodloc25,harbor14,tr0,16156,420056).
route(prodloc25,harbor14,tr13,16156,96936).
route(prodloc25,harbor15,tr0,2912,75712).
route(prodloc25,harbor15,tr13,2912,17472).
route(prodloc25,harbor16,tr0,4131,107406).
route(prodloc25,harbor16,tr13,4131,24786).
route(prodloc25,prodloc0,tr0,5180,134680).
route(prodloc25,prodloc0,tr13,5180,31080).
route(prodloc25,prodloc1,tr0,26553,690378).
route(prodloc25,prodloc1,tr13,26553,159318).
route(prodloc25,prodloc2,tr0,15888,413088).
route(prodloc25,prodloc2,tr13,15888,95328).
route(prodloc25,prodloc3,tr0,21205,551330).
route(prodloc25,prodloc3,tr13,21205,127230).
route(prodloc25,prodloc4,tr0,5552,144352).
route(prodloc25,prodloc4,tr13,5552,33312).
route(prodloc25,prodloc5,tr0,9910,257660).
route(prodloc25,prodloc5,tr13,9910,59460).
route(prodloc25,prodloc6,tr0,5066,131716).
route(prodloc25,prodloc6,tr13,5066,30396).
route(prodloc25,prodloc7,tr0,5621,146146).
route(prodloc25,prodloc7,tr13,5621,33726).
route(prodloc25,prodloc8,tr0,1863,48438).
route(prodloc25,prodloc8,tr13,1863,11178).
route(prodloc25,prodloc9,tr0,28404,738504).
route(prodloc25,prodloc9,tr13,28404,170424).
route(prodloc25,prodloc10,tr0,16095,418470).
route(prodloc25,prodloc10,tr13,16095,96570).
route(prodloc25,prodloc11,tr0,15765,409890).
route(prodloc25,prodloc11,tr13,15765,94590).
route(prodloc25,prodloc12,tr0,17801,462826).
route(prodloc25,prodloc12,tr13,17801,106806).
route(prodloc25,prodloc13,tr0,3619,94094).
route(prodloc25,prodloc13,tr13,3619,21714).
route(prodloc25,prodloc14,tr0,26622,692172).
route(prodloc25,prodloc14,tr13,26622,159732).
route(prodloc25,prodloc15,tr0,21429,557154).
route(prodloc25,prodloc15,tr13,21429,128574).
route(prodloc25,prodloc16,tr0,22974,597324).
route(prodloc25,prodloc16,tr13,22974,137844).
route(prodloc25,prodloc17,tr0,10206,265356).
route(prodloc25,prodloc17,tr13,10206,61236).
route(prodloc25,prodloc18,tr0,27733,721058).
route(prodloc25,prodloc18,tr13,27733,166398).
route(prodloc25,prodloc19,tr0,2741,71266).
route(prodloc25,prodloc19,tr13,2741,16446).
route(prodloc25,prodloc20,tr0,18040,469040).
route(prodloc25,prodloc20,tr13,18040,108240).
route(prodloc25,prodloc21,tr0,28639,744614).
route(prodloc25,prodloc21,tr13,28639,171834).
route(prodloc25,prodloc22,tr0,11559,300534).
route(prodloc25,prodloc22,tr15,11559,369888).
route(prodloc25,prodloc23,tr0,22359,581334).
route(prodloc25,prodloc23,tr13,22359,134154).
route(prodloc25,prodloc24,tr0,25036,650936).
route(prodloc25,prodloc24,tr13,25036,150216).
route(prodloc25,prodloc26,tr0,7835,203710).
route(prodloc25,prodloc26,tr13,7835,47010).
route(prodloc25,prodloc27,tr0,8282,215332).
route(prodloc25,prodloc27,tr13,8282,49692).
route(prodloc25,prodloc28,tr0,21896,569296).
route(prodloc25,prodloc28,tr13,21896,131376).
route(prodloc25,prodloc29,tr0,4685,121810).
route(prodloc25,prodloc29,tr13,4685,28110).
route(prodloc25,prodloc30,tr0,25439,661414).
route(prodloc25,prodloc30,tr13,25439,152634).
route(prodloc25,prodloc31,tr0,2571,66846).
route(prodloc25,prodloc31,tr13,2571,15426).
route(prodloc25,prodloc32,tr0,28642,744692).
route(prodloc25,prodloc32,tr13,28642,171852).
route(prodloc25,prodloc33,tr0,10026,260676).
route(prodloc25,prodloc33,tr15,10026,320832).
route(prodloc26,harbor0,tr0,13165,342290).
route(prodloc26,harbor0,tr13,13165,78990).
route(prodloc26,harbor1,tr0,4871,126646).
route(prodloc26,harbor1,tr13,4871,29226).
route(prodloc26,harbor2,tr0,15158,394108).
route(prodloc26,harbor2,tr13,15158,90948).
route(prodloc26,harbor3,tr0,26689,693914).
route(prodloc26,harbor3,tr13,26689,160134).
route(prodloc26,harbor4,tr0,17898,465348).
route(prodloc26,harbor4,tr13,17898,107388).
route(prodloc26,harbor5,tr0,26701,694226).
route(prodloc26,harbor5,tr13,26701,160206).
route(prodloc26,harbor6,tr0,23776,618176).
route(prodloc26,harbor6,tr13,23776,142656).
route(prodloc26,harbor7,tr0,21663,563238).
route(prodloc26,harbor7,tr13,21663,129978).
route(prodloc26,harbor8,tr0,3725,96850).
route(prodloc26,harbor8,tr13,3725,22350).
route(prodloc26,harbor9,tr0,22381,581906).
route(prodloc26,harbor9,tr13,22381,134286).
route(prodloc26,harbor10,tr0,6970,181220).
route(prodloc26,harbor10,tr13,6970,41820).
route(prodloc26,harbor11,tr0,5178,134628).
route(prodloc26,harbor11,tr13,5178,31068).
route(prodloc26,harbor12,tr0,28951,752726).
route(prodloc26,harbor12,tr13,28951,173706).
route(prodloc26,harbor13,tr0,24643,640718).
route(prodloc26,harbor13,tr13,24643,147858).
route(prodloc26,harbor14,tr0,16048,417248).
route(prodloc26,harbor14,tr13,16048,96288).
route(prodloc26,harbor15,tr0,28214,733564).
route(prodloc26,harbor15,tr13,28214,169284).
route(prodloc26,harbor16,tr0,22996,597896).
route(prodloc26,harbor16,tr13,22996,137976).
route(prodloc26,prodloc0,tr0,27369,711594).
route(prodloc26,prodloc0,tr13,27369,164214).
route(prodloc26,prodloc1,tr13,6241,37446).
route(prodloc26,prodloc1,tr15,6241,199712).
route(prodloc26,prodloc2,tr0,14711,382486).
route(prodloc26,prodloc2,tr13,14711,88266).
route(prodloc26,prodloc3,tr0,15112,392912).
route(prodloc26,prodloc3,tr13,15112,90672).
route(prodloc26,prodloc4,tr0,8383,217958).
route(prodloc26,prodloc4,tr13,8383,50298).
route(prodloc26,prodloc5,tr0,1524,39624).
route(prodloc26,prodloc5,tr13,1524,9144).
route(prodloc26,prodloc6,tr0,6206,161356).
route(prodloc26,prodloc6,tr13,6206,37236).
route(prodloc26,prodloc7,tr0,3845,99970).
route(prodloc26,prodloc7,tr13,3845,23070).
route(prodloc26,prodloc8,tr0,9340,242840).
route(prodloc26,prodloc8,tr13,9340,56040).
route(prodloc26,prodloc9,tr0,4387,114062).
route(prodloc26,prodloc9,tr13,4387,26322).
route(prodloc26,prodloc10,tr0,15513,403338).
route(prodloc26,prodloc10,tr13,15513,93078).
route(prodloc26,prodloc11,tr0,12962,337012).
route(prodloc26,prodloc11,tr13,12962,77772).
route(prodloc26,prodloc12,tr0,14906,387556).
route(prodloc26,prodloc12,tr13,14906,89436).
route(prodloc26,prodloc13,tr0,22602,587652).
route(prodloc26,prodloc13,tr13,22602,135612).
route(prodloc26,prodloc14,tr0,17861,464386).
route(prodloc26,prodloc14,tr13,17861,107166).
route(prodloc26,prodloc15,tr0,256,6656).
route(prodloc26,prodloc15,tr13,256,1536).
route(prodloc26,prodloc16,tr0,27649,718874).
route(prodloc26,prodloc16,tr13,27649,165894).
route(prodloc26,prodloc17,tr0,28323,736398).
route(prodloc26,prodloc17,tr13,28323,169938).
route(prodloc26,prodloc18,tr0,6539,170014).
route(prodloc26,prodloc18,tr13,6539,39234).
route(prodloc26,prodloc19,tr0,16476,428376).
route(prodloc26,prodloc19,tr13,16476,98856).
route(prodloc26,prodloc20,tr0,18992,493792).
route(prodloc26,prodloc20,tr15,18992,607744).
route(prodloc26,prodloc21,tr0,23179,602654).
route(prodloc26,prodloc21,tr13,23179,139074).
route(prodloc26,prodloc22,tr0,21248,552448).
route(prodloc26,prodloc22,tr13,21248,127488).
route(prodloc26,prodloc23,tr0,15253,396578).
route(prodloc26,prodloc23,tr13,15253,91518).
route(prodloc26,prodloc24,tr0,23950,622700).
route(prodloc26,prodloc24,tr13,23950,143700).
route(prodloc26,prodloc25,tr0,15034,390884).
route(prodloc26,prodloc25,tr13,15034,90204).
route(prodloc26,prodloc27,tr0,3932,102232).
route(prodloc26,prodloc27,tr13,3932,23592).
route(prodloc26,prodloc28,tr0,11414,296764).
route(prodloc26,prodloc28,tr13,11414,68484).
route(prodloc26,prodloc29,tr0,28212,733512).
route(prodloc26,prodloc29,tr13,28212,169272).
route(prodloc26,prodloc30,tr0,431,11206).
route(prodloc26,prodloc30,tr13,431,2586).
route(prodloc26,prodloc31,tr0,18933,492258).
route(prodloc26,prodloc31,tr13,18933,113598).
route(prodloc26,prodloc32,tr0,1597,41522).
route(prodloc26,prodloc32,tr13,1597,9582).
route(prodloc26,prodloc33,tr0,16614,431964).
route(prodloc26,prodloc33,tr13,16614,99684).
route(prodloc27,harbor0,tr0,24266,630916).
route(prodloc27,harbor0,tr13,24266,145596).
route(prodloc27,harbor1,tr0,23667,615342).
route(prodloc27,harbor1,tr13,23667,142002).
route(prodloc27,harbor2,tr0,19377,503802).
route(prodloc27,harbor2,tr13,19377,116262).
route(prodloc27,harbor3,tr0,23246,604396).
route(prodloc27,harbor3,tr13,23246,139476).
route(prodloc27,harbor4,tr0,25771,670046).
route(prodloc27,harbor4,tr13,25771,154626).
route(prodloc27,harbor5,tr0,4843,125918).
route(prodloc27,harbor5,tr13,4843,29058).
route(prodloc27,harbor6,tr0,3100,80600).
route(prodloc27,harbor6,tr13,3100,18600).
route(prodloc27,harbor7,tr0,17736,461136).
route(prodloc27,harbor7,tr13,17736,106416).
route(prodloc27,harbor8,tr0,15549,404274).
route(prodloc27,harbor8,tr13,15549,93294).
route(prodloc27,harbor9,tr0,4036,104936).
route(prodloc27,harbor9,tr13,4036,24216).
route(prodloc27,harbor10,tr0,24305,631930).
route(prodloc27,harbor10,tr13,24305,145830).
route(prodloc27,harbor11,tr0,17839,463814).
route(prodloc27,harbor11,tr13,17839,107034).
route(prodloc27,harbor12,tr0,6475,168350).
route(prodloc27,harbor12,tr13,6475,38850).
route(prodloc27,harbor13,tr0,16918,439868).
route(prodloc27,harbor13,tr13,16918,101508).
route(prodloc27,harbor14,tr0,2562,66612).
route(prodloc27,harbor14,tr13,2562,15372).
route(prodloc27,harbor15,tr0,13669,355394).
route(prodloc27,harbor15,tr13,13669,82014).
route(prodloc27,harbor16,tr0,14905,387530).
route(prodloc27,harbor16,tr13,14905,89430).
route(prodloc27,prodloc0,tr0,5909,153634).
route(prodloc27,prodloc0,tr13,5909,35454).
route(prodloc27,prodloc1,tr0,18126,471276).
route(prodloc27,prodloc1,tr13,18126,108756).
route(prodloc27,prodloc2,tr0,3618,94068).
route(prodloc27,prodloc2,tr13,3618,21708).
route(prodloc27,prodloc3,tr0,22695,590070).
route(prodloc27,prodloc3,tr13,22695,136170).
route(prodloc27,prodloc4,tr0,5335,138710).
route(prodloc27,prodloc4,tr13,5335,32010).
route(prodloc27,prodloc5,tr0,7395,192270).
route(prodloc27,prodloc5,tr13,7395,44370).
route(prodloc27,prodloc6,tr0,3405,88530).
route(prodloc27,prodloc6,tr13,3405,20430).
route(prodloc27,prodloc7,tr0,790,20540).
route(prodloc27,prodloc7,tr13,790,4740).
route(prodloc27,prodloc8,tr0,2394,62244).
route(prodloc27,prodloc8,tr13,2394,14364).
route(prodloc27,prodloc9,tr0,26165,680290).
route(prodloc27,prodloc9,tr13,26165,156990).
route(prodloc27,prodloc10,tr0,2645,68770).
route(prodloc27,prodloc10,tr13,2645,15870).
route(prodloc27,prodloc11,tr0,17022,442572).
route(prodloc27,prodloc11,tr13,17022,102132).
route(prodloc27,prodloc12,tr0,2816,73216).
route(prodloc27,prodloc12,tr13,2816,16896).
route(prodloc27,prodloc13,tr0,1376,35776).
route(prodloc27,prodloc13,tr13,1376,8256).
route(prodloc27,prodloc14,tr0,28890,751140).
route(prodloc27,prodloc14,tr13,28890,173340).
route(prodloc27,prodloc15,tr0,28714,746564).
route(prodloc27,prodloc15,tr13,28714,172284).
route(prodloc27,prodloc16,tr0,4326,112476).
route(prodloc27,prodloc16,tr13,4326,25956).
route(prodloc27,prodloc17,tr0,18942,492492).
route(prodloc27,prodloc17,tr13,18942,113652).
route(prodloc27,prodloc18,tr0,9719,252694).
route(prodloc27,prodloc18,tr13,9719,58314).
route(prodloc27,prodloc19,tr0,13541,352066).
route(prodloc27,prodloc19,tr13,13541,81246).
route(prodloc27,prodloc20,tr0,22922,595972).
route(prodloc27,prodloc20,tr13,22922,137532).
route(prodloc27,prodloc21,tr0,26546,690196).
route(prodloc27,prodloc21,tr13,26546,159276).
route(prodloc27,prodloc22,tr0,6545,170170).
route(prodloc27,prodloc22,tr13,6545,39270).
route(prodloc27,prodloc23,tr0,4576,118976).
route(prodloc27,prodloc23,tr13,4576,27456).
route(prodloc27,prodloc24,tr0,24742,643292).
route(prodloc27,prodloc24,tr13,24742,148452).
route(prodloc27,prodloc25,tr0,4556,118456).
route(prodloc27,prodloc25,tr13,4556,27336).
route(prodloc27,prodloc26,tr0,8681,225706).
route(prodloc27,prodloc26,tr13,8681,52086).
route(prodloc27,prodloc28,tr0,24097,626522).
route(prodloc27,prodloc28,tr13,24097,144582).
route(prodloc27,prodloc29,tr0,21614,561964).
route(prodloc27,prodloc29,tr13,21614,129684).
route(prodloc27,prodloc30,tr0,14140,367640).
route(prodloc27,prodloc30,tr13,14140,84840).
route(prodloc27,prodloc31,tr0,11501,299026).
route(prodloc27,prodloc31,tr13,11501,69006).
route(prodloc27,prodloc32,tr0,8171,212446).
route(prodloc27,prodloc32,tr13,8171,49026).
route(prodloc27,prodloc33,tr0,18148,471848).
route(prodloc27,prodloc33,tr13,18148,108888).
route(prodloc28,harbor0,tr0,1033,26858).
route(prodloc28,harbor0,tr13,1033,6198).
route(prodloc28,harbor1,tr0,7320,190320).
route(prodloc28,harbor1,tr13,7320,43920).
route(prodloc28,harbor2,tr0,17785,462410).
route(prodloc28,harbor2,tr13,17785,106710).
route(prodloc28,harbor3,tr0,17355,451230).
route(prodloc28,harbor3,tr13,17355,104130).
route(prodloc28,harbor4,tr0,21898,569348).
route(prodloc28,harbor4,tr13,21898,131388).
route(prodloc28,harbor5,tr0,5981,155506).
route(prodloc28,harbor5,tr13,5981,35886).
route(prodloc28,harbor6,tr0,5287,137462).
route(prodloc28,harbor6,tr13,5287,31722).
route(prodloc28,harbor7,tr0,3024,78624).
route(prodloc28,harbor7,tr13,3024,18144).
route(prodloc28,harbor8,tr0,4145,107770).
route(prodloc28,harbor8,tr13,4145,24870).
route(prodloc28,harbor9,tr0,6990,181740).
route(prodloc28,harbor9,tr13,6990,41940).
route(prodloc28,harbor10,tr0,22601,587626).
route(prodloc28,harbor10,tr13,22601,135606).
route(prodloc28,harbor11,tr0,4236,110136).
route(prodloc28,harbor11,tr13,4236,25416).
route(prodloc28,harbor12,tr0,15440,401440).
route(prodloc28,harbor12,tr13,15440,92640).
route(prodloc28,harbor13,tr0,2889,75114).
route(prodloc28,harbor13,tr13,2889,17334).
route(prodloc28,harbor14,tr0,12570,326820).
route(prodloc28,harbor14,tr13,12570,75420).
route(prodloc28,harbor15,tr0,11795,306670).
route(prodloc28,harbor15,tr13,11795,70770).
route(prodloc28,harbor16,tr0,18918,491868).
route(prodloc28,harbor16,tr13,18918,113508).
route(prodloc28,prodloc0,tr0,8192,212992).
route(prodloc28,prodloc0,tr13,8192,49152).
route(prodloc28,prodloc1,tr0,9979,259454).
route(prodloc28,prodloc1,tr13,9979,59874).
route(prodloc28,prodloc2,tr0,18797,488722).
route(prodloc28,prodloc2,tr13,18797,112782).
route(prodloc28,prodloc3,tr0,13197,343122).
route(prodloc28,prodloc3,tr13,13197,79182).
route(prodloc28,prodloc4,tr0,16170,420420).
route(prodloc28,prodloc4,tr15,16170,517440).
route(prodloc28,prodloc5,tr0,27327,710502).
route(prodloc28,prodloc5,tr13,27327,163962).
route(prodloc28,prodloc6,tr0,5140,133640).
route(prodloc28,prodloc6,tr13,5140,30840).
route(prodloc28,prodloc7,tr0,20548,534248).
route(prodloc28,prodloc7,tr13,20548,123288).
route(prodloc28,prodloc8,tr0,15034,390884).
route(prodloc28,prodloc8,tr15,15034,481088).
route(prodloc28,prodloc9,tr0,1500,39000).
route(prodloc28,prodloc9,tr13,1500,9000).
route(prodloc28,prodloc10,tr0,19063,495638).
route(prodloc28,prodloc10,tr13,19063,114378).
route(prodloc28,prodloc11,tr0,19735,513110).
route(prodloc28,prodloc11,tr15,19735,631520).
route(prodloc28,prodloc12,tr0,16737,435162).
route(prodloc28,prodloc12,tr13,16737,100422).
route(prodloc28,prodloc13,tr0,4968,129168).
route(prodloc28,prodloc13,tr13,4968,29808).
route(prodloc28,prodloc14,tr0,28372,737672).
route(prodloc28,prodloc14,tr13,28372,170232).
route(prodloc28,prodloc15,tr0,18215,473590).
route(prodloc28,prodloc15,tr13,18215,109290).
route(prodloc28,prodloc16,tr0,5441,141466).
route(prodloc28,prodloc16,tr13,5441,32646).
route(prodloc28,prodloc17,tr0,24244,630344).
route(prodloc28,prodloc17,tr13,24244,145464).
route(prodloc28,prodloc18,tr0,23031,598806).
route(prodloc28,prodloc18,tr13,23031,138186).
route(prodloc28,prodloc19,tr0,12152,315952).
route(prodloc28,prodloc19,tr13,12152,72912).
route(prodloc28,prodloc20,tr0,13603,353678).
route(prodloc28,prodloc20,tr13,13603,81618).
route(prodloc28,prodloc21,tr0,9758,253708).
route(prodloc28,prodloc21,tr13,9758,58548).
route(prodloc28,prodloc22,tr0,20190,524940).
route(prodloc28,prodloc22,tr13,20190,121140).
route(prodloc28,prodloc23,tr0,26855,698230).
route(prodloc28,prodloc23,tr13,26855,161130).
route(prodloc28,prodloc24,tr0,24488,636688).
route(prodloc28,prodloc24,tr13,24488,146928).
route(prodloc28,prodloc25,tr0,23745,617370).
route(prodloc28,prodloc25,tr13,23745,142470).
route(prodloc28,prodloc26,tr0,24724,642824).
route(prodloc28,prodloc26,tr13,24724,148344).
route(prodloc28,prodloc27,tr0,1400,36400).
route(prodloc28,prodloc27,tr13,1400,8400).
route(prodloc28,prodloc29,tr0,23807,618982).
route(prodloc28,prodloc29,tr13,23807,142842).
route(prodloc28,prodloc30,tr0,6438,167388).
route(prodloc28,prodloc30,tr13,6438,38628).
route(prodloc28,prodloc31,tr0,3011,78286).
route(prodloc28,prodloc31,tr13,3011,18066).
route(prodloc28,prodloc32,tr0,13108,340808).
route(prodloc28,prodloc32,tr13,13108,78648).
route(prodloc28,prodloc33,tr0,23781,618306).
route(prodloc28,prodloc33,tr13,23781,142686).
route(prodloc29,harbor0,tr0,20437,531362).
route(prodloc29,harbor0,tr13,20437,122622).
route(prodloc29,harbor1,tr0,25161,654186).
route(prodloc29,harbor1,tr13,25161,150966).
route(prodloc29,harbor2,tr0,24432,635232).
route(prodloc29,harbor2,tr13,24432,146592).
route(prodloc29,harbor3,tr0,16339,424814).
route(prodloc29,harbor3,tr13,16339,98034).
route(prodloc29,harbor4,tr0,28363,737438).
route(prodloc29,harbor4,tr13,28363,170178).
route(prodloc29,harbor5,tr0,19742,513292).
route(prodloc29,harbor5,tr13,19742,118452).
route(prodloc29,harbor6,tr0,5156,134056).
route(prodloc29,harbor6,tr13,5156,30936).
route(prodloc29,harbor7,tr0,22470,584220).
route(prodloc29,harbor7,tr13,22470,134820).
route(prodloc29,harbor8,tr0,25745,669370).
route(prodloc29,harbor8,tr13,25745,154470).
route(prodloc29,harbor9,tr0,17644,458744).
route(prodloc29,harbor9,tr13,17644,105864).
route(prodloc29,harbor10,tr0,19979,519454).
route(prodloc29,harbor10,tr13,19979,119874).
route(prodloc29,harbor11,tr0,18993,493818).
route(prodloc29,harbor11,tr13,18993,113958).
route(prodloc29,harbor12,tr0,16711,434486).
route(prodloc29,harbor12,tr13,16711,100266).
route(prodloc29,harbor13,tr0,1381,35906).
route(prodloc29,harbor13,tr13,1381,8286).
route(prodloc29,harbor14,tr0,15152,393952).
route(prodloc29,harbor14,tr13,15152,90912).
route(prodloc29,harbor15,tr0,13340,346840).
route(prodloc29,harbor15,tr13,13340,80040).
route(prodloc29,harbor16,tr0,8459,219934).
route(prodloc29,harbor16,tr13,8459,50754).
route(prodloc29,prodloc0,tr0,27638,718588).
route(prodloc29,prodloc0,tr13,27638,165828).
route(prodloc29,prodloc1,tr0,18178,472628).
route(prodloc29,prodloc1,tr13,18178,109068).
route(prodloc29,prodloc2,tr0,13655,355030).
route(prodloc29,prodloc2,tr13,13655,81930).
route(prodloc29,prodloc3,tr0,26845,697970).
route(prodloc29,prodloc3,tr13,26845,161070).
route(prodloc29,prodloc5,tr0,5399,140374).
route(prodloc29,prodloc5,tr13,5399,32394).
route(prodloc29,prodloc6,tr0,27080,704080).
route(prodloc29,prodloc6,tr13,27080,162480).
route(prodloc29,prodloc7,tr0,5221,135746).
route(prodloc29,prodloc7,tr13,5221,31326).
route(prodloc29,prodloc8,tr0,15155,394030).
route(prodloc29,prodloc8,tr13,15155,90930).
route(prodloc29,prodloc9,tr0,26613,691938).
route(prodloc29,prodloc9,tr13,26613,159678).
route(prodloc29,prodloc10,tr0,20013,520338).
route(prodloc29,prodloc10,tr13,20013,120078).
route(prodloc29,prodloc11,tr0,20084,522184).
route(prodloc29,prodloc11,tr13,20084,120504).
route(prodloc29,prodloc12,tr0,4927,128102).
route(prodloc29,prodloc12,tr13,4927,29562).
route(prodloc29,prodloc13,tr0,2241,58266).
route(prodloc29,prodloc13,tr13,2241,13446).
route(prodloc29,prodloc14,tr0,7772,202072).
route(prodloc29,prodloc14,tr13,7772,46632).
route(prodloc29,prodloc15,tr0,21575,560950).
route(prodloc29,prodloc15,tr13,21575,129450).
route(prodloc29,prodloc16,tr0,28804,748904).
route(prodloc29,prodloc16,tr13,28804,172824).
route(prodloc29,prodloc17,tr0,3567,92742).
route(prodloc29,prodloc17,tr13,3567,21402).
route(prodloc29,prodloc18,tr0,6459,167934).
route(prodloc29,prodloc18,tr13,6459,38754).
route(prodloc29,prodloc19,tr0,5282,137332).
route(prodloc29,prodloc19,tr13,5282,31692).
route(prodloc29,prodloc20,tr0,24961,648986).
route(prodloc29,prodloc20,tr13,24961,149766).
route(prodloc29,prodloc21,tr0,5501,143026).
route(prodloc29,prodloc21,tr13,5501,33006).
route(prodloc29,prodloc22,tr0,21875,568750).
route(prodloc29,prodloc22,tr13,21875,131250).
route(prodloc29,prodloc23,tr0,14172,368472).
route(prodloc29,prodloc23,tr13,14172,85032).
route(prodloc29,prodloc24,tr0,3221,83746).
route(prodloc29,prodloc24,tr13,3221,19326).
route(prodloc29,prodloc25,tr0,8889,231114).
route(prodloc29,prodloc25,tr13,8889,53334).
route(prodloc29,prodloc26,tr0,969,25194).
route(prodloc29,prodloc26,tr13,969,5814).
route(prodloc29,prodloc27,tr0,23845,619970).
route(prodloc29,prodloc27,tr13,23845,143070).
route(prodloc29,prodloc28,tr0,16708,434408).
route(prodloc29,prodloc28,tr13,16708,100248).
route(prodloc29,prodloc30,tr0,9859,256334).
route(prodloc29,prodloc30,tr15,9859,315488).
route(prodloc29,prodloc31,tr0,8753,227578).
route(prodloc29,prodloc31,tr13,8753,52518).
route(prodloc29,prodloc32,tr0,7526,195676).
route(prodloc29,prodloc32,tr13,7526,45156).
route(prodloc29,prodloc33,tr0,2630,68380).
route(prodloc29,prodloc33,tr13,2630,15780).
route(prodloc30,harbor0,tr0,26932,700232).
route(prodloc30,harbor0,tr13,26932,161592).
route(prodloc30,harbor1,tr0,9747,253422).
route(prodloc30,harbor1,tr13,9747,58482).
route(prodloc30,harbor2,tr0,27670,719420).
route(prodloc30,harbor2,tr13,27670,166020).
route(prodloc30,harbor3,tr0,14437,375362).
route(prodloc30,harbor3,tr13,14437,86622).
route(prodloc30,harbor4,tr0,15816,411216).
route(prodloc30,harbor4,tr13,15816,94896).
route(prodloc30,harbor5,tr0,6069,157794).
route(prodloc30,harbor5,tr13,6069,36414).
route(prodloc30,harbor6,tr0,18421,478946).
route(prodloc30,harbor6,tr13,18421,110526).
route(prodloc30,harbor7,tr0,2981,77506).
route(prodloc30,harbor7,tr13,2981,17886).
route(prodloc30,harbor8,tr0,3346,86996).
route(prodloc30,harbor8,tr13,3346,20076).
route(prodloc30,harbor9,tr0,18240,474240).
route(prodloc30,harbor9,tr13,18240,109440).
route(prodloc30,harbor10,tr0,10888,283088).
route(prodloc30,harbor10,tr13,10888,65328).
route(prodloc30,harbor11,tr0,24789,644514).
route(prodloc30,harbor11,tr13,24789,148734).
route(prodloc30,harbor12,tr0,11654,303004).
route(prodloc30,harbor12,tr13,11654,69924).
route(prodloc30,harbor13,tr0,8532,221832).
route(prodloc30,harbor13,tr13,8532,51192).
route(prodloc30,harbor14,tr0,28086,730236).
route(prodloc30,harbor14,tr13,28086,168516).
route(prodloc30,harbor15,tr0,23245,604370).
route(prodloc30,harbor15,tr13,23245,139470).
route(prodloc30,harbor16,tr0,2202,57252).
route(prodloc30,harbor16,tr13,2202,13212).
route(prodloc30,prodloc0,tr0,28408,738608).
route(prodloc30,prodloc0,tr13,28408,170448).
route(prodloc30,prodloc1,tr0,6115,158990).
route(prodloc30,prodloc1,tr13,6115,36690).
route(prodloc30,prodloc2,tr0,25639,666614).
route(prodloc30,prodloc2,tr13,25639,153834).
route(prodloc30,prodloc3,tr0,903,23478).
route(prodloc30,prodloc3,tr13,903,5418).
route(prodloc30,prodloc4,tr0,19441,505466).
route(prodloc30,prodloc4,tr13,19441,116646).
route(prodloc30,prodloc5,tr0,26645,692770).
route(prodloc30,prodloc5,tr13,26645,159870).
route(prodloc30,prodloc6,tr0,24002,624052).
route(prodloc30,prodloc6,tr13,24002,144012).
route(prodloc30,prodloc7,tr0,9179,238654).
route(prodloc30,prodloc7,tr13,9179,55074).
route(prodloc30,prodloc8,tr0,2734,71084).
route(prodloc30,prodloc8,tr13,2734,16404).
route(prodloc30,prodloc9,tr0,8184,212784).
route(prodloc30,prodloc9,tr13,8184,49104).
route(prodloc30,prodloc10,tr0,24378,633828).
route(prodloc30,prodloc10,tr13,24378,146268).
route(prodloc30,prodloc11,tr0,25421,660946).
route(prodloc30,prodloc11,tr13,25421,152526).
route(prodloc30,prodloc12,tr0,17651,458926).
route(prodloc30,prodloc12,tr13,17651,105906).
route(prodloc30,prodloc13,tr0,25572,664872).
route(prodloc30,prodloc13,tr13,25572,153432).
route(prodloc30,prodloc14,tr0,5611,145886).
route(prodloc30,prodloc14,tr13,5611,33666).
route(prodloc30,prodloc15,tr0,20787,540462).
route(prodloc30,prodloc15,tr13,20787,124722).
route(prodloc30,prodloc16,tr0,23143,601718).
route(prodloc30,prodloc16,tr13,23143,138858).
route(prodloc30,prodloc17,tr0,28504,741104).
route(prodloc30,prodloc17,tr13,28504,171024).
route(prodloc30,prodloc18,tr0,8120,211120).
route(prodloc30,prodloc18,tr13,8120,48720).
route(prodloc30,prodloc19,tr0,14360,373360).
route(prodloc30,prodloc19,tr13,14360,86160).
route(prodloc30,prodloc20,tr0,10917,283842).
route(prodloc30,prodloc20,tr13,10917,65502).
route(prodloc30,prodloc21,tr0,3254,84604).
route(prodloc30,prodloc21,tr13,3254,19524).
route(prodloc30,prodloc22,tr0,19547,508222).
route(prodloc30,prodloc22,tr13,19547,117282).
route(prodloc30,prodloc23,tr0,27179,706654).
route(prodloc30,prodloc23,tr13,27179,163074).
route(prodloc30,prodloc24,tr0,8410,218660).
route(prodloc30,prodloc24,tr13,8410,50460).
route(prodloc30,prodloc25,tr0,6202,161252).
route(prodloc30,prodloc25,tr13,6202,37212).
route(prodloc30,prodloc26,tr0,14814,385164).
route(prodloc30,prodloc26,tr13,14814,88884).
route(prodloc30,prodloc27,tr0,5277,137202).
route(prodloc30,prodloc27,tr13,5277,31662).
route(prodloc30,prodloc28,tr0,4333,112658).
route(prodloc30,prodloc28,tr13,4333,25998).
route(prodloc30,prodloc29,tr0,25907,673582).
route(prodloc30,prodloc29,tr13,25907,155442).
route(prodloc30,prodloc31,tr0,28513,741338).
route(prodloc30,prodloc31,tr13,28513,171078).
route(prodloc30,prodloc32,tr0,9825,255450).
route(prodloc30,prodloc32,tr13,9825,58950).
route(prodloc30,prodloc33,tr0,1826,47476).
route(prodloc30,prodloc33,tr13,1826,10956).
route(prodloc31,harbor0,tr0,4863,126438).
route(prodloc31,harbor0,tr13,4863,29178).
route(prodloc31,harbor1,tr0,10518,273468).
route(prodloc31,harbor1,tr13,10518,63108).
route(prodloc31,harbor2,tr0,23297,605722).
route(prodloc31,harbor2,tr13,23297,139782).
route(prodloc31,harbor3,tr0,21782,566332).
route(prodloc31,harbor3,tr13,21782,130692).
route(prodloc31,harbor4,tr0,12560,326560).
route(prodloc31,harbor4,tr13,12560,75360).
route(prodloc31,harbor5,tr0,275,7150).
route(prodloc31,harbor5,tr13,275,1650).
route(prodloc31,harbor6,tr0,3219,83694).
route(prodloc31,harbor6,tr13,3219,19314).
route(prodloc31,harbor7,tr0,6704,174304).
route(prodloc31,harbor7,tr13,6704,40224).
route(prodloc31,harbor8,tr0,9271,241046).
route(prodloc31,harbor8,tr13,9271,55626).
route(prodloc31,harbor9,tr0,20102,522652).
route(prodloc31,harbor9,tr13,20102,120612).
route(prodloc31,harbor10,tr0,14216,369616).
route(prodloc31,harbor10,tr13,14216,85296).
route(prodloc31,harbor11,tr0,13940,362440).
route(prodloc31,harbor11,tr13,13940,83640).
route(prodloc31,harbor12,tr0,15106,392756).
route(prodloc31,harbor12,tr13,15106,90636).
route(prodloc31,harbor13,tr0,23088,600288).
route(prodloc31,harbor13,tr13,23088,138528).
route(prodloc31,harbor14,tr0,15703,408278).
route(prodloc31,harbor14,tr13,15703,94218).
route(prodloc31,harbor15,tr0,2338,60788).
route(prodloc31,harbor15,tr13,2338,14028).
route(prodloc31,harbor16,tr0,13144,341744).
route(prodloc31,harbor16,tr13,13144,78864).
route(prodloc31,prodloc0,tr0,14807,384982).
route(prodloc31,prodloc0,tr13,14807,88842).
route(prodloc31,prodloc1,tr0,27179,706654).
route(prodloc31,prodloc1,tr13,27179,163074).
route(prodloc31,prodloc2,tr0,26249,682474).
route(prodloc31,prodloc2,tr13,26249,157494).
route(prodloc31,prodloc3,tr0,18883,490958).
route(prodloc31,prodloc3,tr13,18883,113298).
route(prodloc31,prodloc4,tr0,8542,222092).
route(prodloc31,prodloc4,tr13,8542,51252).
route(prodloc31,prodloc5,tr0,20364,529464).
route(prodloc31,prodloc5,tr13,20364,122184).
route(prodloc31,prodloc6,tr13,18697,112182).
route(prodloc31,prodloc6,tr15,18697,598304).
route(prodloc31,prodloc7,tr0,10003,260078).
route(prodloc31,prodloc7,tr13,10003,60018).
route(prodloc31,prodloc8,tr0,5220,135720).
route(prodloc31,prodloc8,tr13,5220,31320).
route(prodloc31,prodloc9,tr0,8105,210730).
route(prodloc31,prodloc9,tr13,8105,48630).
route(prodloc31,prodloc10,tr0,8052,209352).
route(prodloc31,prodloc10,tr13,8052,48312).
route(prodloc31,prodloc11,tr0,19346,502996).
route(prodloc31,prodloc11,tr13,19346,116076).
route(prodloc31,prodloc12,tr0,18951,492726).
route(prodloc31,prodloc12,tr13,18951,113706).
route(prodloc31,prodloc13,tr0,21399,556374).
route(prodloc31,prodloc13,tr13,21399,128394).
route(prodloc31,prodloc14,tr0,16245,422370).
route(prodloc31,prodloc14,tr13,16245,97470).
route(prodloc31,prodloc15,tr0,1331,34606).
route(prodloc31,prodloc15,tr13,1331,7986).
route(prodloc31,prodloc16,tr0,9385,244010).
route(prodloc31,prodloc16,tr13,9385,56310).
route(prodloc31,prodloc17,tr0,2359,61334).
route(prodloc31,prodloc17,tr13,2359,14154).
route(prodloc31,prodloc18,tr0,22146,575796).
route(prodloc31,prodloc18,tr13,22146,132876).
route(prodloc31,prodloc19,tr0,403,10478).
route(prodloc31,prodloc19,tr13,403,2418).
route(prodloc31,prodloc20,tr0,18816,489216).
route(prodloc31,prodloc20,tr13,18816,112896).
route(prodloc31,prodloc21,tr0,7451,193726).
route(prodloc31,prodloc21,tr13,7451,44706).
route(prodloc31,prodloc22,tr0,18370,477620).
route(prodloc31,prodloc22,tr13,18370,110220).
route(prodloc31,prodloc23,tr0,25269,656994).
route(prodloc31,prodloc23,tr13,25269,151614).
route(prodloc31,prodloc24,tr0,15561,404586).
route(prodloc31,prodloc24,tr13,15561,93366).
route(prodloc31,prodloc25,tr0,8724,226824).
route(prodloc31,prodloc25,tr13,8724,52344).
route(prodloc31,prodloc26,tr0,4742,123292).
route(prodloc31,prodloc26,tr13,4742,28452).
route(prodloc31,prodloc27,tr0,11049,287274).
route(prodloc31,prodloc27,tr13,11049,66294).
route(prodloc31,prodloc28,tr0,16506,429156).
route(prodloc31,prodloc28,tr13,16506,99036).
route(prodloc31,prodloc29,tr0,21297,553722).
route(prodloc31,prodloc29,tr13,21297,127782).
route(prodloc31,prodloc30,tr0,1846,47996).
route(prodloc31,prodloc30,tr13,1846,11076).
route(prodloc31,prodloc32,tr0,19948,518648).
route(prodloc31,prodloc32,tr13,19948,119688).
route(prodloc31,prodloc33,tr0,23384,607984).
route(prodloc31,prodloc33,tr13,23384,140304).
route(prodloc32,harbor0,tr0,15871,412646).
route(prodloc32,harbor0,tr13,15871,95226).
route(prodloc32,harbor1,tr0,12094,314444).
route(prodloc32,harbor1,tr13,12094,72564).
route(prodloc32,harbor2,tr0,26815,697190).
route(prodloc32,harbor2,tr13,26815,160890).
route(prodloc32,harbor3,tr0,16646,432796).
route(prodloc32,harbor3,tr13,16646,99876).
route(prodloc32,harbor4,tr0,7417,192842).
route(prodloc32,harbor4,tr13,7417,44502).
route(prodloc32,harbor5,tr0,25962,675012).
route(prodloc32,harbor5,tr13,25962,155772).
route(prodloc32,harbor6,tr0,21636,562536).
route(prodloc32,harbor6,tr13,21636,129816).
route(prodloc32,harbor7,tr0,7169,186394).
route(prodloc32,harbor7,tr13,7169,43014).
route(prodloc32,harbor8,tr0,25223,655798).
route(prodloc32,harbor8,tr13,25223,151338).
route(prodloc32,harbor9,tr0,23496,610896).
route(prodloc32,harbor9,tr13,23496,140976).
route(prodloc32,harbor10,tr0,4774,124124).
route(prodloc32,harbor10,tr13,4774,28644).
route(prodloc32,harbor11,tr0,26586,691236).
route(prodloc32,harbor11,tr13,26586,159516).
route(prodloc32,harbor12,tr0,13922,361972).
route(prodloc32,harbor12,tr13,13922,83532).
route(prodloc32,harbor13,tr0,5687,147862).
route(prodloc32,harbor13,tr13,5687,34122).
route(prodloc32,harbor14,tr0,4561,118586).
route(prodloc32,harbor14,tr13,4561,27366).
route(prodloc32,harbor15,tr0,19824,515424).
route(prodloc32,harbor15,tr13,19824,118944).
route(prodloc32,harbor16,tr0,19110,496860).
route(prodloc32,harbor16,tr13,19110,114660).
route(prodloc32,prodloc0,tr0,3473,90298).
route(prodloc32,prodloc0,tr13,3473,20838).
route(prodloc32,prodloc1,tr0,14781,384306).
route(prodloc32,prodloc1,tr13,14781,88686).
route(prodloc32,prodloc2,tr0,10678,277628).
route(prodloc32,prodloc2,tr13,10678,64068).
route(prodloc32,prodloc3,tr0,28356,737256).
route(prodloc32,prodloc3,tr13,28356,170136).
route(prodloc32,prodloc4,tr0,15153,393978).
route(prodloc32,prodloc4,tr13,15153,90918).
route(prodloc32,prodloc5,tr0,6740,175240).
route(prodloc32,prodloc5,tr13,6740,40440).
route(prodloc32,prodloc6,tr0,14137,367562).
route(prodloc32,prodloc6,tr13,14137,84822).
route(prodloc32,prodloc7,tr0,19859,516334).
route(prodloc32,prodloc7,tr13,19859,119154).
route(prodloc32,prodloc8,tr0,13005,338130).
route(prodloc32,prodloc8,tr13,13005,78030).
route(prodloc32,prodloc9,tr0,23311,606086).
route(prodloc32,prodloc9,tr13,23311,139866).
route(prodloc32,prodloc10,tr0,15148,393848).
route(prodloc32,prodloc10,tr13,15148,90888).
route(prodloc32,prodloc11,tr0,4923,127998).
route(prodloc32,prodloc11,tr13,4923,29538).
route(prodloc32,prodloc12,tr0,14168,368368).
route(prodloc32,prodloc12,tr13,14168,85008).
route(prodloc32,prodloc13,tr0,17460,453960).
route(prodloc32,prodloc13,tr13,17460,104760).
route(prodloc32,prodloc14,tr0,4200,109200).
route(prodloc32,prodloc14,tr13,4200,25200).
route(prodloc32,prodloc15,tr0,7728,200928).
route(prodloc32,prodloc15,tr13,7728,46368).
route(prodloc32,prodloc16,tr0,16478,428428).
route(prodloc32,prodloc16,tr13,16478,98868).
route(prodloc32,prodloc17,tr0,24678,641628).
route(prodloc32,prodloc17,tr13,24678,148068).
route(prodloc32,prodloc18,tr0,24292,631592).
route(prodloc32,prodloc18,tr13,24292,145752).
route(prodloc32,prodloc19,tr0,3909,101634).
route(prodloc32,prodloc19,tr13,3909,23454).
route(prodloc32,prodloc20,tr0,12820,333320).
route(prodloc32,prodloc20,tr13,12820,76920).
route(prodloc32,prodloc21,tr0,26232,682032).
route(prodloc32,prodloc21,tr13,26232,157392).
route(prodloc32,prodloc22,tr0,6117,159042).
route(prodloc32,prodloc22,tr13,6117,36702).
route(prodloc32,prodloc23,tr0,27473,714298).
route(prodloc32,prodloc23,tr13,27473,164838).
route(prodloc32,prodloc24,tr0,6293,163618).
route(prodloc32,prodloc24,tr13,6293,37758).
route(prodloc32,prodloc25,tr0,10582,275132).
route(prodloc32,prodloc25,tr13,10582,63492).
route(prodloc32,prodloc26,tr0,6726,174876).
route(prodloc32,prodloc26,tr13,6726,40356).
route(prodloc32,prodloc27,tr0,23361,607386).
route(prodloc32,prodloc27,tr13,23361,140166).
route(prodloc32,prodloc28,tr0,21515,559390).
route(prodloc32,prodloc28,tr13,21515,129090).
route(prodloc32,prodloc29,tr0,12105,314730).
route(prodloc32,prodloc29,tr13,12105,72630).
route(prodloc32,prodloc30,tr0,2455,63830).
route(prodloc32,prodloc30,tr13,2455,14730).
route(prodloc32,prodloc31,tr0,9077,236002).
route(prodloc32,prodloc31,tr13,9077,54462).
route(prodloc32,prodloc33,tr0,4916,127816).
route(prodloc32,prodloc33,tr13,4916,29496).
route(prodloc33,harbor0,tr0,4687,121862).
route(prodloc33,harbor0,tr13,4687,28122).
route(prodloc33,harbor1,tr0,26144,679744).
route(prodloc33,harbor1,tr13,26144,156864).
route(prodloc33,harbor2,tr0,8362,217412).
route(prodloc33,harbor2,tr13,8362,50172).
route(prodloc33,harbor3,tr0,26737,695162).
route(prodloc33,harbor3,tr13,26737,160422).
route(prodloc33,harbor4,tr0,1001,26026).
route(prodloc33,harbor4,tr13,1001,6006).
route(prodloc33,harbor5,tr0,10798,280748).
route(prodloc33,harbor5,tr13,10798,64788).
route(prodloc33,harbor6,tr0,24389,634114).
route(prodloc33,harbor6,tr13,24389,146334).
route(prodloc33,harbor7,tr0,21415,556790).
route(prodloc33,harbor7,tr13,21415,128490).
route(prodloc33,harbor8,tr0,21274,553124).
route(prodloc33,harbor8,tr13,21274,127644).
route(prodloc33,harbor9,tr0,6354,165204).
route(prodloc33,harbor9,tr13,6354,38124).
route(prodloc33,harbor10,tr0,14301,371826).
route(prodloc33,harbor10,tr13,14301,85806).
route(prodloc33,harbor11,tr0,28265,734890).
route(prodloc33,harbor11,tr13,28265,169590).
route(prodloc33,harbor12,tr0,13790,358540).
route(prodloc33,harbor12,tr13,13790,82740).
route(prodloc33,harbor13,tr0,10326,268476).
route(prodloc33,harbor13,tr13,10326,61956).
route(prodloc33,harbor14,tr0,9949,258674).
route(prodloc33,harbor14,tr13,9949,59694).
route(prodloc33,harbor15,tr0,11322,294372).
route(prodloc33,harbor15,tr13,11322,67932).
route(prodloc33,harbor16,tr0,8102,210652).
route(prodloc33,harbor16,tr13,8102,48612).
route(prodloc33,prodloc0,tr0,26413,686738).
route(prodloc33,prodloc0,tr13,26413,158478).
route(prodloc33,prodloc1,tr0,19969,519194).
route(prodloc33,prodloc1,tr13,19969,119814).
route(prodloc33,prodloc2,tr0,26014,676364).
route(prodloc33,prodloc2,tr13,26014,156084).
route(prodloc33,prodloc3,tr0,25201,655226).
route(prodloc33,prodloc3,tr13,25201,151206).
route(prodloc33,prodloc4,tr0,25433,661258).
route(prodloc33,prodloc4,tr13,25433,152598).
route(prodloc33,prodloc5,tr0,8779,228254).
route(prodloc33,prodloc5,tr13,8779,52674).
route(prodloc33,prodloc6,tr0,6975,181350).
route(prodloc33,prodloc6,tr13,6975,41850).
route(prodloc33,prodloc7,tr0,19776,514176).
route(prodloc33,prodloc7,tr13,19776,118656).
route(prodloc33,prodloc8,tr0,7859,204334).
route(prodloc33,prodloc8,tr13,7859,47154).
route(prodloc33,prodloc9,tr0,16295,423670).
route(prodloc33,prodloc9,tr13,16295,97770).
route(prodloc33,prodloc10,tr0,28621,744146).
route(prodloc33,prodloc10,tr13,28621,171726).
route(prodloc33,prodloc11,tr0,18094,470444).
route(prodloc33,prodloc11,tr13,18094,108564).
route(prodloc33,prodloc12,tr0,21660,563160).
route(prodloc33,prodloc12,tr13,21660,129960).
route(prodloc33,prodloc13,tr0,10136,263536).
route(prodloc33,prodloc13,tr13,10136,60816).
route(prodloc33,prodloc14,tr0,4991,129766).
route(prodloc33,prodloc14,tr13,4991,29946).
route(prodloc33,prodloc15,tr0,15249,396474).
route(prodloc33,prodloc15,tr13,15249,91494).
route(prodloc33,prodloc16,tr0,19802,514852).
route(prodloc33,prodloc16,tr13,19802,118812).
route(prodloc33,prodloc17,tr0,8522,221572).
route(prodloc33,prodloc17,tr13,8522,51132).
route(prodloc33,prodloc18,tr0,21048,547248).
route(prodloc33,prodloc18,tr13,21048,126288).
route(prodloc33,prodloc19,tr0,23049,599274).
route(prodloc33,prodloc19,tr13,23049,138294).
route(prodloc33,prodloc20,tr0,6171,160446).
route(prodloc33,prodloc20,tr13,6171,37026).
route(prodloc33,prodloc21,tr0,10715,278590).
route(prodloc33,prodloc21,tr13,10715,64290).
route(prodloc33,prodloc22,tr0,542,14092).
route(prodloc33,prodloc22,tr13,542,3252).
route(prodloc33,prodloc23,tr0,3671,95446).
route(prodloc33,prodloc23,tr13,3671,22026).
route(prodloc33,prodloc24,tr0,27411,712686).
route(prodloc33,prodloc24,tr13,27411,164466).
route(prodloc33,prodloc25,tr0,20308,528008).
route(prodloc33,prodloc25,tr13,20308,121848).
route(prodloc33,prodloc26,tr0,5623,146198).
route(prodloc33,prodloc26,tr13,5623,33738).
route(prodloc33,prodloc27,tr0,25870,672620).
route(prodloc33,prodloc27,tr13,25870,155220).
route(prodloc33,prodloc28,tr0,18430,479180).
route(prodloc33,prodloc28,tr13,18430,110580).
route(prodloc33,prodloc29,tr0,16374,425724).
route(prodloc33,prodloc29,tr13,16374,98244).
route(prodloc33,prodloc30,tr0,14839,385814).
route(prodloc33,prodloc30,tr13,14839,89034).
route(prodloc33,prodloc31,tr0,5495,142870).
route(prodloc33,prodloc31,tr13,5495,32970).
hub(harbor5).
hub(harbor8).
hub(harbor10).
hub(prodloc0).
hub(prodloc14).
hub(prodloc16).
hub(prodloc24).
hub(prodloc25).
hub(prodloc28).
hub(prodloc32).
