% Multibatching benchmark instance
% Source: instances.lp
% seed=18  harbors=17  prodlocs=34  hubs=10  disruptions=2

% ---- locations ----
location(harbor0).
location(harbor1).
location(harbor2).
location(harbor3).
location(harbor4).
location(harbor5).
location(harbor6).
location(harbor7).
location(harbor8).
location(harbor9).
location(harbor10).
location(harbor11).
location(harbor12).
location(harbor13).
location(harbor14).
location(harbor15).
location(harbor16).
location(prodloc0).
location(prodloc1).
location(prodloc2).
location(prodloc3).
location(prodloc4).
location(prodloc5).
location(prodloc6).
location(prodloc7).
location(prodloc8).
location(prodloc9).
location(prodloc10).
location(prodloc11).
location(prodloc12).
location(prodloc13).
location(prodloc14).
location(prodloc15).
location(prodloc16).
location(prodloc17).
location(prodloc18).
location(prodloc19).
location(prodloc20).
location(prodloc21).
location(prodloc22).
location(prodloc23).
location(prodloc24).
location(prodloc25).
location(prodloc26).
location(prodloc27).
location(prodloc28).
location(prodloc29).
location(prodloc30).
location(prodloc31).
location(prodloc32).
location(prodloc33).

% ---- transport resources ----
transportCapacity(tr0,1800).
transportCO2(tr0,1680).
transportCost(tr0,26).
transportSpeed(tr0,12).
transportCapacity(tr1,65).
transportCO2(tr1,90).
transportCost(tr1,1).
transportSpeed(tr1,35).
transportCapacity(tr10,1).
transportCO2(tr10,700).
transportCost(tr10,4).
transportSpeed(tr10,40).
transportCapacity(tr11,65).
transportCO2(tr11,62).
transportCost(tr11,1).
transportSpeed(tr11,25).
transportCapacity(tr12,65).
transportCO2(tr12,709).
transportCost(tr12,3).
transportSpeed(tr12,55).
transportCapacity(tr13,68).
transportCO2(tr13,160).
transportCost(tr13,6).
transportSpeed(tr13,25).
transportCapacity(tr14,146).
transportCO2(tr14,780).
transportCost(tr14,4).
transportSpeed(tr14,50).
transportCapacity(tr15,2217).
transportCO2(tr15,49470).
transportCost(tr15,32).
transportSpeed(tr15,625).
transportCapacity(tr2,96).
transportCO2(tr2,709).
transportCost(tr2,3).
transportSpeed(tr2,55).
transportCapacity(tr3,1).
transportCO2(tr3,6250).
transportCost(tr3,108).
transportSpeed(tr3,25).
transportCapacity(tr4,148).
transportCO2(tr4,780).
transportCost(tr4,4).
transportSpeed(tr4,50).
transportCapacity(tr5,65).
transportCO2(tr5,780).
transportCost(tr5,3).
transportSpeed(tr5,50).
transportCapacity(tr6,1).
transportCO2(tr6,100).
transportCost(tr6,40).
transportSpeed(tr6,25).
transportCapacity(tr7,1).
transportCO2(tr7,18000).
transportCost(tr7,278).
transportSpeed(tr7,10).
transportCapacity(tr8,1).
transportCO2(tr8,14400).
transportCost(tr8,107).
transportSpeed(tr8,25).
transportCapacity(tr9,65).
transportCO2(tr9,708).
transportCost(tr9,2).
transportSpeed(tr9,60).

% ---- parts ----
part(part0).
partSize(part0,21).
valid_transport(part0,tr0).
valid_transport(part0,tr15).
valid_transport(part0,tr14).
valid_transport(part0,tr13).
valid_transport(part0,tr4).
part(part1).
partSize(part1,1).
valid_transport(part1,tr0).
valid_transport(part1,tr2).
valid_transport(part1,tr15).
valid_transport(part1,tr9).
valid_transport(part1,tr12).
valid_transport(part1,tr13).
valid_transport(part1,tr11).
part(part10).
partSize(part10,1).
valid_transport(part10,tr0).
valid_transport(part10,tr2).
valid_transport(part10,tr15).
valid_transport(part10,tr9).
valid_transport(part10,tr12).
valid_transport(part10,tr13).
valid_transport(part10,tr11).
part(part11).
partSize(part11,83).
valid_transport(part11,tr0).
valid_transport(part11,tr7).
valid_transport(part11,tr8).
valid_transport(part11,tr15).
valid_transport(part11,tr3).
valid_transport(part11,tr13).
part(part12).
partSize(part12,273).
valid_transport(part12,tr0).
valid_transport(part12,tr7).
valid_transport(part12,tr8).
valid_transport(part12,tr15).
valid_transport(part12,tr3).
valid_transport(part12,tr13).
part(part13).
partSize(part13,1).
valid_transport(part13,tr0).
valid_transport(part13,tr2).
valid_transport(part13,tr15).
valid_transport(part13,tr9).
valid_transport(part13,tr12).
valid_transport(part13,tr13).
valid_transport(part13,tr11).
part(part14).
partSize(part14,68).
valid_transport(part14,tr0).
valid_transport(part14,tr15).
valid_transport(part14,tr13).
part(part15).
partSize(part15,4).
valid_transport(part15,tr0).
valid_transport(part15,tr2).
valid_transport(part15,tr15).
valid_transport(part15,tr9).
valid_transport(part15,tr12).
valid_transport(part15,tr13).
valid_transport(part15,tr11).
part(part16).
partSize(part16,4).
valid_transport(part16,tr0).
valid_transport(part16,tr2).
valid_transport(part16,tr15).
valid_transport(part16,tr9).
valid_transport(part16,tr12).
valid_transport(part16,tr13).
valid_transport(part16,tr11).
part(part17).
partSize(part17,8).
valid_transport(part17,tr0).
valid_transport(part17,tr15).
valid_transport(part17,tr14).
valid_transport(part17,tr13).
valid_transport(part17,tr4).
part(part18).
partSize(part18,24).
valid_transport(part18,tr0).
valid_transport(part18,tr15).
valid_transport(part18,tr14).
valid_transport(part18,tr13).
valid_transport(part18,tr4).
part(part19).
partSize(part19,6).
valid_transport(part19,tr0).
valid_transport(part19,tr2).
valid_transport(part19,tr15).
valid_transport(part19,tr9).
valid_transport(part19,tr12).
valid_transport(part19,tr13).
valid_transport(part19,tr11).
part(part2).
partSize(part2,19).
valid_transport(part2,tr0).
valid_transport(part2,tr15).
valid_transport(part2,tr14).
valid_transport(part2,tr13).
valid_transport(part2,tr4).
part(part20).
partSize(part20,128).
valid_transport(part20,tr0).
valid_transport(part20,tr7).
valid_transport(part20,tr8).
valid_transport(part20,tr15).
valid_transport(part20,tr3).
valid_transport(part20,tr13).
part(part21).
partSize(part21,25).
valid_transport(part21,tr0).
valid_transport(part21,tr15).
valid_transport(part21,tr14).
valid_transport(part21,tr13).
valid_transport(part21,tr4).
part(part22).
partSize(part22,7).
valid_transport(part22,tr0).
valid_transport(part22,tr2).
valid_transport(part22,tr15).
valid_transport(part22,tr9).
valid_transport(part22,tr12).
valid_transport(part22,tr13).
valid_transport(part22,tr11).
part(part23).
partSize(part23,5).
valid_transport(part23,tr0).
valid_transport(part23,tr15).
valid_transport(part23,tr14).
valid_transport(part23,tr13).
valid_transport(part23,tr4).
part(part24).
partSize(part24,55).
valid_transport(part24,tr0).
valid_transport(part24,tr7).
valid_transport(part24,tr8).
valid_transport(part24,tr15).
valid_transport(part24,tr3).
valid_transport(part24,tr13).
part(part25).
partSize(part25,5).
valid_transport(part25,tr0).
valid_transport(part25,tr4).
valid_transport(part25,tr2).
valid_transport(part25,tr15).
valid_transport(part25,tr13).
part(part26).
partSize(part26,32).
valid_transport(part26,tr0).
valid_transport(part26,tr7).
valid_transport(part26,tr8).
valid_transport(part26,tr15).
valid_transport(part26,tr3).
valid_transport(part26,tr13).
part(part27).
partSize(part27,5).
valid_transport(part27,tr0).
valid_transport(part27,tr2).
valid_transport(part27,tr15).
valid_transport(part27,tr9).
valid_transport(part27,tr12).
valid_transport(part27,tr13).
valid_transport(part27,tr11).
part(part28).
partSize(part28,3).
valid_transport(part28,tr0).
valid_transport(part28,tr4).
valid_transport(part28,tr2).
valid_transport(part28,tr15).
valid_transport(part28,tr14).
valid_transport(part28,tr13).
part(part29).
partSize(part29,627).
part(part3).
partSize(part3,48).
valid_transport(part3,tr0).
valid_transport(part3,tr7).
valid_transport(part3,tr8).
valid_transport(part3,tr15).
valid_transport(part3,tr3).
valid_transport(part3,tr13).
part(part30).
partSize(part30,2).
valid_transport(part30,tr0).
valid_transport(part30,tr2).
valid_transport(part30,tr15).
valid_transport(part30,tr9).
valid_transport(part30,tr12).
valid_transport(part30,tr13).
valid_transport(part30,tr11).
part(part31).
partSize(part31,144).
valid_transport(part31,tr0).
valid_transport(part31,tr7).
valid_transport(part31,tr8).
valid_transport(part31,tr15).
valid_transport(part31,tr3).
valid_transport(part31,tr13).
part(part32).
partSize(part32,16).
valid_transport(part32,tr0).
valid_transport(part32,tr4).
valid_transport(part32,tr2).
valid_transport(part32,tr15).
valid_transport(part32,tr14).
valid_transport(part32,tr13).
part(part33).
partSize(part33,7).
valid_transport(part33,tr0).
valid_transport(part33,tr2).
valid_transport(part33,tr15).
valid_transport(part33,tr9).
valid_transport(part33,tr12).
valid_transport(part33,tr13).
valid_transport(part33,tr11).
part(part3345).
partSize(part3345,353).
valid_transport(part3345,tr0).
valid_transport(part3345,tr7).
valid_transport(part3345,tr8).
valid_transport(part3345,tr15).
valid_transport(part3345,tr3).
valid_transport(part3345,tr13).
part(part34).
partSize(part34,2).
valid_transport(part34,tr0).
valid_transport(part34,tr2).
valid_transport(part34,tr15).
valid_transport(part34,tr9).
valid_transport(part34,tr12).
valid_transport(part34,tr13).
valid_transport(part34,tr11).
part(part4).
partSize(part4,2).
valid_transport(part4,tr0).
valid_transport(part4,tr2).
valid_transport(part4,tr15).
valid_transport(part4,tr9).
valid_transport(part4,tr12).
valid_transport(part4,tr13).
valid_transport(part4,tr11).
part(part5).
partSize(part5,2).
valid_transport(part5,tr0).
valid_transport(part5,tr2).
valid_transport(part5,tr15).
valid_transport(part5,tr9).
valid_transport(part5,tr12).
valid_transport(part5,tr14).
valid_transport(part5,tr13).
valid_transport(part5,tr11).
part(part6).
partSize(part6,111).
valid_transport(part6,tr0).
valid_transport(part6,tr7).
valid_transport(part6,tr8).
valid_transport(part6,tr15).
valid_transport(part6,tr3).
valid_transport(part6,tr13).
part(part8).
partSize(part8,163).
valid_transport(part8,tr0).
valid_transport(part8,tr7).
valid_transport(part8,tr8).
valid_transport(part8,tr15).
valid_transport(part8,tr3).
valid_transport(part8,tr13).
part(part9).
partSize(part9,2).
valid_transport(part9,tr0).
valid_transport(part9,tr2).
valid_transport(part9,tr15).
valid_transport(part9,tr9).
valid_transport(part9,tr12).
valid_transport(part9,tr13).
valid_transport(part9,tr11).

% ---- demand ----
demandOffer(part0,prodloc11,40).
demandOffer(part0,prodloc7,40).
demandOffer(part0,prodloc28,-27).
demandOffer(part0,prodloc21,-53).
demandOffer(part1,prodloc15,20).
demandOffer(part1,prodloc12,20).
demandOffer(part1,prodloc31,-20).
demandOffer(part1,prodloc11,-20).
demandOffer(part10,prodloc30,20).
demandOffer(part10,prodloc18,20).
demandOffer(part10,prodloc29,-20).
demandOffer(part10,prodloc16,-20).
demandOffer(part12,prodloc12,10).
demandOffer(part12,prodloc16,20).
demandOffer(part12,prodloc7,-10).
demandOffer(part12,prodloc20,-10).
demandOffer(part12,prodloc33,-10).
demandOffer(part13,prodloc11,20).
demandOffer(part13,prodloc15,20).
demandOffer(part13,prodloc10,-20).
demandOffer(part13,prodloc12,-20).
demandOffer(part14,prodloc23,26).
demandOffer(part14,prodloc32,-26).
demandOffer(part15,prodloc12,53).
demandOffer(part15,prodloc31,27).
demandOffer(part15,prodloc13,-53).
demandOffer(part15,prodloc19,-27).
demandOffer(part16,prodloc16,53).
demandOffer(part16,prodloc0,27).
demandOffer(part16,prodloc21,-53).
demandOffer(part16,prodloc25,-27).
demandOffer(part17,prodloc14,20).
demandOffer(part17,prodloc25,-20).
demandOffer(part18,prodloc22,40).
demandOffer(part18,prodloc33,40).
demandOffer(part18,prodloc17,-27).
demandOffer(part18,prodloc19,-53).
demandOffer(part19,prodloc7,26).
demandOffer(part19,prodloc18,-26).
demandOffer(part2,prodloc30,40).
demandOffer(part2,prodloc32,40).
demandOffer(part2,prodloc9,-27).
demandOffer(part2,prodloc31,-53).
demandOffer(part20,prodloc10,53).
demandOffer(part20,prodloc12,27).
demandOffer(part20,prodloc13,-14).
demandOffer(part20,prodloc27,-46).
demandOffer(part20,prodloc8,-20).
demandOffer(part21,prodloc26,26).
demandOffer(part21,prodloc32,-26).
demandOffer(part22,prodloc30,53).
demandOffer(part22,prodloc6,27).
demandOffer(part22,prodloc12,-53).
demandOffer(part22,prodloc16,-27).
demandOffer(part23,prodloc21,20).
demandOffer(part23,prodloc30,20).
demandOffer(part23,prodloc5,-20).
demandOffer(part23,prodloc31,-20).
demandOffer(part25,prodloc9,20).
demandOffer(part25,prodloc30,-20).
demandOffer(part26,prodloc9,20).
demandOffer(part26,prodloc31,20).
demandOffer(part26,prodloc5,-14).
demandOffer(part26,prodloc15,-26).
demandOffer(part27,prodloc5,53).
demandOffer(part27,prodloc22,27).
demandOffer(part27,prodloc13,-53).
demandOffer(part27,prodloc25,-27).
demandOffer(part28,prodloc33,20).
demandOffer(part28,prodloc0,20).
demandOffer(part28,prodloc8,-20).
demandOffer(part28,prodloc5,-20).
demandOffer(part3,prodloc30,40).
demandOffer(part3,prodloc25,-14).
demandOffer(part3,prodloc11,-26).
demandOffer(part30,prodloc24,40).
demandOffer(part30,prodloc26,40).
demandOffer(part30,prodloc8,-27).
demandOffer(part30,prodloc17,-53).
demandOffer(part31,prodloc25,7).
demandOffer(part31,prodloc23,7).
demandOffer(part31,prodloc9,-14).
demandOffer(part32,prodloc21,53).
demandOffer(part32,prodloc19,27).
demandOffer(part32,prodloc8,-53).
demandOffer(part32,prodloc27,-27).
demandOffer(part33,prodloc1,53).
demandOffer(part33,prodloc27,27).
demandOffer(part33,prodloc9,-53).
demandOffer(part33,prodloc10,-27).
demandOffer(part34,prodloc27,20).
demandOffer(part34,prodloc0,-20).
demandOffer(part4,prodloc32,26).
demandOffer(part4,prodloc29,-26).
demandOffer(part5,prodloc6,20).
demandOffer(part5,prodloc0,-20).
demandOffer(part6,prodloc16,27).
demandOffer(part6,prodloc27,53).
demandOffer(part6,prodloc25,-24).
demandOffer(part6,prodloc15,-36).
demandOffer(part6,prodloc19,-10).
demandOffer(part6,prodloc17,-10).
demandOffer(part8,prodloc30,3).
demandOffer(part8,prodloc26,17).
demandOffer(part8,prodloc9,-10).
demandOffer(part8,prodloc14,-10).
demandOffer(part9,prodloc11,20).
demandOffer(part9,prodloc23,-20).

% ---- network (ASP-generated) ----
route(harbor0,harbor1,tr13,23959,143754).
route(harbor0,harbor1,tr2,23959,71877).
route(harbor0,harbor2,tr13,20617,123702).
route(harbor0,harbor2,tr2,20617,61851).
route(harbor0,harbor3,tr13,9758,58548).
route(harbor0,harbor3,tr2,9758,29274).
route(harbor0,harbor4,tr13,16273,97638).
route(harbor0,harbor4,tr2,16273,48819).
route(harbor0,harbor5,tr13,1948,11688).
route(harbor0,harbor5,tr2,1948,5844).
route(harbor0,harbor6,tr13,25587,153522).
route(harbor0,harbor6,tr2,25587,76761).
route(harbor0,harbor7,tr13,27140,162840).
route(harbor0,harbor7,tr2,27140,81420).
route(harbor0,harbor8,tr13,3098,18588).
route(harbor0,harbor8,tr2,3098,9294).
route(harbor0,harbor9,tr13,11566,69396).
route(harbor0,harbor9,tr2,11566,34698).
route(harbor0,harbor10,tr13,24888,149328).
route(harbor0,harbor10,tr2,24888,74664).
route(harbor0,harbor11,tr13,17728,106368).
route(harbor0,harbor11,tr2,17728,53184).
route(harbor0,harbor12,tr13,24146,144876).
route(harbor0,harbor12,tr2,24146,72438).
route(harbor0,harbor13,tr13,5881,35286).
route(harbor0,harbor13,tr2,5881,17643).
route(harbor0,harbor14,tr13,28154,168924).
route(harbor0,harbor14,tr2,28154,84462).
route(harbor0,harbor15,tr13,17190,103140).
route(harbor0,harbor15,tr2,17190,51570).
route(harbor0,harbor16,tr13,4979,29874).
route(harbor0,harbor16,tr2,4979,14937).
route(harbor0,prodloc0,tr0,6928,180128).
route(harbor0,prodloc0,tr13,6928,41568).
route(harbor0,prodloc1,tr0,8595,223470).
route(harbor0,prodloc1,tr13,8595,51570).
route(harbor0,prodloc2,tr0,2505,65130).
route(harbor0,prodloc2,tr13,2505,15030).
route(harbor0,prodloc3,tr0,5349,139074).
route(harbor0,prodloc3,tr13,5349,32094).
route(harbor0,prodloc4,tr0,27509,715234).
route(harbor0,prodloc4,tr13,27509,165054).
route(harbor0,prodloc5,tr0,18754,487604).
route(harbor0,prodloc5,tr13,18754,112524).
route(harbor0,prodloc6,tr0,22895,595270).
route(harbor0,prodloc6,tr13,22895,137370).
route(harbor0,prodloc7,tr0,26100,678600).
route(harbor0,prodloc7,tr13,26100,156600).
route(harbor0,prodloc8,tr0,7559,196534).
route(harbor0,prodloc8,tr13,7559,45354).
route(harbor0,prodloc9,tr0,4272,111072).
route(harbor0,prodloc9,tr13,4272,25632).
route(harbor0,prodloc10,tr0,9834,255684).
route(harbor0,prodloc10,tr13,9834,59004).
route(harbor0,prodloc11,tr0,3485,90610).
route(harbor0,prodloc11,tr13,3485,20910).
route(harbor0,prodloc12,tr0,19245,500370).
route(harbor0,prodloc12,tr13,19245,115470).
route(harbor0,prodloc13,tr0,12253,318578).
route(harbor0,prodloc13,tr13,12253,73518).
route(harbor0,prodloc14,tr0,2118,55068).
route(harbor0,prodloc14,tr13,2118,12708).
route(harbor0,prodloc15,tr0,11719,304694).
route(harbor0,prodloc15,tr13,11719,70314).
route(harbor0,prodloc16,tr0,10766,279916).
route(harbor0,prodloc16,tr13,10766,64596).
route(harbor0,prodloc17,tr0,2912,75712).
route(harbor0,prodloc17,tr13,2912,17472).
route(harbor0,prodloc18,tr0,19760,513760).
route(harbor0,prodloc18,tr13,19760,118560).
route(harbor0,prodloc19,tr0,8740,227240).
route(harbor0,prodloc19,tr13,8740,52440).
route(harbor0,prodloc20,tr0,11390,296140).
route(harbor0,prodloc20,tr13,11390,68340).
route(harbor0,prodloc21,tr0,23573,612898).
route(harbor0,prodloc21,tr13,23573,141438).
route(harbor0,prodloc22,tr0,5598,145548).
route(harbor0,prodloc22,tr13,5598,33588).
route(harbor0,prodloc23,tr0,12997,337922).
route(harbor0,prodloc23,tr13,12997,77982).
route(harbor0,prodloc24,tr0,22908,595608).
route(harbor0,prodloc24,tr13,22908,137448).
route(harbor0,prodloc25,tr0,13368,347568).
route(harbor0,prodloc25,tr13,13368,80208).
route(harbor0,prodloc26,tr0,27149,705874).
route(harbor0,prodloc26,tr13,27149,162894).
route(harbor0,prodloc27,tr0,16807,436982).
route(harbor0,prodloc27,tr13,16807,100842).
route(harbor0,prodloc28,tr0,13414,348764).
route(harbor0,prodloc28,tr13,13414,80484).
route(harbor0,prodloc29,tr0,24297,631722).
route(harbor0,prodloc29,tr13,24297,145782).
route(harbor0,prodloc30,tr0,17102,444652).
route(harbor0,prodloc30,tr13,17102,102612).
route(harbor0,prodloc31,tr0,23230,603980).
route(harbor0,prodloc31,tr13,23230,139380).
route(harbor0,prodloc32,tr0,363,9438).
route(harbor0,prodloc32,tr13,363,2178).
route(harbor0,prodloc33,tr0,8954,232804).
route(harbor0,prodloc33,tr13,8954,53724).
route(harbor1,harbor0,tr13,14262,85572).
route(harbor1,harbor0,tr2,14262,42786).
route(harbor1,harbor2,tr13,26329,157974).
route(harbor1,harbor2,tr2,26329,78987).
route(harbor1,harbor3,tr13,24479,146874).
route(harbor1,harbor3,tr2,24479,73437).
route(harbor1,harbor4,tr13,1527,9162).
route(harbor1,harbor4,tr2,1527,4581).
route(harbor1,harbor5,tr13,18545,111270).
route(harbor1,harbor5,tr2,18545,55635).
route(harbor1,harbor6,tr13,8429,50574).
route(harbor1,harbor6,tr2,8429,25287).
route(harbor1,harbor7,tr13,13210,79260).
route(harbor1,harbor7,tr2,13210,39630).
route(harbor1,harbor8,tr13,8992,53952).
route(harbor1,harbor8,tr2,8992,26976).
route(harbor1,harbor9,tr13,2967,17802).
route(harbor1,harbor9,tr2,2967,8901).
route(harbor1,harbor10,tr13,7093,42558).
route(harbor1,harbor10,tr2,7093,21279).
route(harbor1,harbor11,tr13,9338,56028).
route(harbor1,harbor11,tr2,9338,28014).
route(harbor1,harbor12,tr13,5348,32088).
route(harbor1,harbor12,tr2,5348,16044).
route(harbor1,harbor13,tr13,12288,73728).
route(harbor1,harbor13,tr2,12288,36864).
route(harbor1,harbor14,tr13,4498,26988).
route(harbor1,harbor14,tr2,4498,13494).
route(harbor1,harbor15,tr13,22781,136686).
route(harbor1,harbor15,tr2,22781,68343).
route(harbor1,harbor16,tr13,22178,133068).
route(harbor1,harbor16,tr2,22178,66534).
route(harbor1,prodloc0,tr0,21228,551928).
route(harbor1,prodloc0,tr13,21228,127368).
route(harbor1,prodloc1,tr0,14348,373048).
route(harbor1,prodloc1,tr13,14348,86088).
route(harbor1,prodloc2,tr0,2930,76180).
route(harbor1,prodloc2,tr13,2930,17580).
route(harbor1,prodloc3,tr0,3510,91260).
route(harbor1,prodloc3,tr13,3510,21060).
route(harbor1,prodloc4,tr0,24799,644774).
route(harbor1,prodloc4,tr13,24799,148794).
route(harbor1,prodloc5,tr0,27638,718588).
route(harbor1,prodloc5,tr13,27638,165828).
route(harbor1,prodloc6,tr0,10724,278824).
route(harbor1,prodloc6,tr13,10724,64344).
route(harbor1,prodloc7,tr0,27368,711568).
route(harbor1,prodloc7,tr13,27368,164208).
route(harbor1,prodloc8,tr0,22432,583232).
route(harbor1,prodloc8,tr13,22432,134592).
route(harbor1,prodloc9,tr0,8526,221676).
route(harbor1,prodloc9,tr13,8526,51156).
route(harbor1,prodloc10,tr0,25511,663286).
route(harbor1,prodloc10,tr13,25511,153066).
route(harbor1,prodloc11,tr0,27190,706940).
route(harbor1,prodloc11,tr13,27190,163140).
route(harbor1,prodloc12,tr0,18274,475124).
route(harbor1,prodloc12,tr13,18274,109644).
route(harbor1,prodloc13,tr0,25420,660920).
route(harbor1,prodloc13,tr13,25420,152520).
route(harbor1,prodloc14,tr0,15271,397046).
route(harbor1,prodloc14,tr13,15271,91626).
route(harbor1,prodloc15,tr0,17376,451776).
route(harbor1,prodloc15,tr13,17376,104256).
route(harbor1,prodloc16,tr0,18768,487968).
route(harbor1,prodloc16,tr13,18768,112608).
route(harbor1,prodloc17,tr0,2882,74932).
route(harbor1,prodloc17,tr13,2882,17292).
route(harbor1,prodloc18,tr0,7176,186576).
route(harbor1,prodloc18,tr13,7176,43056).
route(harbor1,prodloc19,tr0,23234,604084).
route(harbor1,prodloc19,tr13,23234,139404).
route(harbor1,prodloc20,tr0,2485,64610).
route(harbor1,prodloc20,tr13,2485,14910).
route(harbor1,prodloc21,tr0,28661,745186).
route(harbor1,prodloc21,tr13,28661,171966).
route(harbor1,prodloc22,tr0,15322,398372).
route(harbor1,prodloc22,tr13,15322,91932).
route(harbor1,prodloc23,tr0,25502,663052).
route(harbor1,prodloc23,tr13,25502,153012).
route(harbor1,prodloc24,tr0,10336,268736).
route(harbor1,prodloc24,tr13,10336,62016).
route(harbor1,prodloc25,tr0,5321,138346).
route(harbor1,prodloc25,tr13,5321,31926).
route(harbor1,prodloc26,tr0,24883,646958).
route(harbor1,prodloc26,tr13,24883,149298).
route(harbor1,prodloc27,tr0,23679,615654).
route(harbor1,prodloc27,tr13,23679,142074).
route(harbor1,prodloc28,tr0,3066,79716).
route(harbor1,prodloc28,tr13,3066,18396).
route(harbor1,prodloc29,tr0,7222,187772).
route(harbor1,prodloc29,tr13,7222,43332).
route(harbor1,prodloc30,tr0,11920,309920).
route(harbor1,prodloc30,tr13,11920,71520).
route(harbor1,prodloc31,tr0,28243,734318).
route(harbor1,prodloc31,tr13,28243,169458).
route(harbor1,prodloc32,tr0,17662,459212).
route(harbor1,prodloc32,tr13,17662,105972).
route(harbor1,prodloc33,tr0,20937,544362).
route(harbor1,prodloc33,tr13,20937,125622).
route(harbor2,harbor0,tr13,16122,96732).
route(harbor2,harbor0,tr2,16122,48366).
route(harbor2,harbor1,tr13,17385,104310).
route(harbor2,harbor1,tr2,17385,52155).
route(harbor2,harbor3,tr13,25287,151722).
route(harbor2,harbor3,tr2,25287,75861).
route(harbor2,harbor4,tr13,16641,99846).
route(harbor2,harbor4,tr2,16641,49923).
route(harbor2,harbor5,tr13,25408,152448).
route(harbor2,harbor5,tr2,25408,76224).
route(harbor2,harbor6,tr13,12494,74964).
route(harbor2,harbor6,tr2,12494,37482).
route(harbor2,harbor7,tr13,28179,169074).
route(harbor2,harbor7,tr2,28179,84537).
route(harbor2,harbor8,tr13,13241,79446).
route(harbor2,harbor8,tr2,13241,39723).
route(harbor2,harbor9,tr13,22204,133224).
route(harbor2,harbor9,tr2,22204,66612).
route(harbor2,harbor10,tr13,10128,60768).
route(harbor2,harbor10,tr2,10128,30384).
route(harbor2,harbor11,tr13,14954,89724).
route(harbor2,harbor11,tr2,14954,44862).
route(harbor2,harbor12,tr13,24856,149136).
route(harbor2,harbor12,tr2,24856,74568).
route(harbor2,harbor13,tr13,705,4230).
route(harbor2,harbor13,tr2,705,2115).
route(harbor2,harbor14,tr13,16704,100224).
route(harbor2,harbor14,tr2,16704,50112).
route(harbor2,harbor15,tr13,21229,127374).
route(harbor2,harbor15,tr2,21229,63687).
route(harbor2,harbor16,tr13,27352,164112).
route(harbor2,harbor16,tr2,27352,82056).
route(harbor2,prodloc0,tr0,6240,162240).
route(harbor2,prodloc0,tr13,6240,37440).
route(harbor2,prodloc1,tr0,21524,559624).
route(harbor2,prodloc1,tr13,21524,129144).
route(harbor2,prodloc2,tr0,6680,173680).
route(harbor2,prodloc2,tr13,6680,40080).
route(harbor2,prodloc3,tr0,577,15002).
route(harbor2,prodloc3,tr13,577,3462).
route(harbor2,prodloc4,tr0,2728,70928).
route(harbor2,prodloc4,tr13,2728,16368).
route(harbor2,prodloc5,tr0,13014,338364).
route(harbor2,prodloc5,tr13,13014,78084).
route(harbor2,prodloc6,tr0,21671,563446).
route(harbor2,prodloc6,tr13,21671,130026).
route(harbor2,prodloc7,tr0,24606,639756).
route(harbor2,prodloc7,tr13,24606,147636).
route(harbor2,prodloc8,tr0,11968,311168).
route(harbor2,prodloc8,tr13,11968,71808).
route(harbor2,prodloc9,tr0,23380,607880).
route(harbor2,prodloc9,tr13,23380,140280).
route(harbor2,prodloc10,tr0,2167,56342).
route(harbor2,prodloc10,tr13,2167,13002).
route(harbor2,prodloc11,tr0,18920,491920).
route(harbor2,prodloc11,tr13,18920,113520).
route(harbor2,prodloc12,tr0,424,11024).
route(harbor2,prodloc12,tr13,424,2544).
route(harbor2,prodloc13,tr0,9192,238992).
route(harbor2,prodloc13,tr13,9192,55152).
route(harbor2,prodloc14,tr0,6997,181922).
route(harbor2,prodloc14,tr13,6997,41982).
route(harbor2,prodloc15,tr0,8076,209976).
route(harbor2,prodloc15,tr13,8076,48456).
route(harbor2,prodloc16,tr0,17657,459082).
route(harbor2,prodloc16,tr13,17657,105942).
route(harbor2,prodloc17,tr0,4589,119314).
route(harbor2,prodloc17,tr13,4589,27534).
route(harbor2,prodloc18,tr0,23362,607412).
route(harbor2,prodloc18,tr13,23362,140172).
route(harbor2,prodloc19,tr0,21138,549588).
route(harbor2,prodloc19,tr13,21138,126828).
route(harbor2,prodloc20,tr0,10291,267566).
route(harbor2,prodloc20,tr13,10291,61746).
route(harbor2,prodloc21,tr0,602,15652).
route(harbor2,prodloc21,tr13,602,3612).
route(harbor2,prodloc22,tr0,4236,110136).
route(harbor2,prodloc22,tr13,4236,25416).
route(harbor2,prodloc23,tr0,7538,195988).
route(harbor2,prodloc23,tr13,7538,45228).
route(harbor2,prodloc24,tr0,23496,610896).
route(harbor2,prodloc24,tr13,23496,140976).
route(harbor2,prodloc25,tr0,23264,604864).
route(harbor2,prodloc25,tr13,23264,139584).
route(harbor2,prodloc26,tr0,14628,380328).
route(harbor2,prodloc26,tr13,14628,87768).
route(harbor2,prodloc27,tr0,9029,234754).
route(harbor2,prodloc27,tr13,9029,54174).
route(harbor2,prodloc28,tr0,564,14664).
route(harbor2,prodloc28,tr13,564,3384).
route(harbor2,prodloc29,tr0,17264,448864).
route(harbor2,prodloc29,tr13,17264,103584).
route(harbor2,prodloc30,tr0,13908,361608).
route(harbor2,prodloc30,tr13,13908,83448).
route(harbor2,prodloc31,tr0,22095,574470).
route(harbor2,prodloc31,tr13,22095,132570).
route(harbor2,prodloc32,tr0,24405,634530).
route(harbor2,prodloc32,tr13,24405,146430).
route(harbor2,prodloc33,tr0,16771,436046).
route(harbor2,prodloc33,tr13,16771,100626).
route(harbor3,harbor0,tr13,5490,32940).
route(harbor3,harbor0,tr2,5490,16470).
route(harbor3,harbor1,tr13,8828,52968).
route(harbor3,harbor1,tr2,8828,26484).
route(harbor3,harbor2,tr13,13619,81714).
route(harbor3,harbor2,tr2,13619,40857).
route(harbor3,harbor4,tr13,4513,27078).
route(harbor3,harbor4,tr2,4513,13539).
route(harbor3,harbor5,tr13,29238,175428).
route(harbor3,harbor5,tr2,29238,87714).
route(harbor3,harbor6,tr13,16394,98364).
route(harbor3,harbor6,tr2,16394,49182).
route(harbor3,harbor7,tr13,20106,120636).
route(harbor3,harbor7,tr2,20106,60318).
route(harbor3,harbor8,tr13,7972,47832).
route(harbor3,harbor8,tr2,7972,23916).
route(harbor3,harbor9,tr13,20157,120942).
route(harbor3,harbor9,tr2,20157,60471).
route(harbor3,harbor10,tr13,9038,54228).
route(harbor3,harbor10,tr2,9038,27114).
route(harbor3,harbor11,tr13,15587,93522).
route(harbor3,harbor11,tr2,15587,46761).
route(harbor3,harbor12,tr13,2029,12174).
route(harbor3,harbor12,tr2,2029,6087).
route(harbor3,harbor13,tr13,17271,103626).
route(harbor3,harbor13,tr2,17271,51813).
route(harbor3,harbor14,tr13,19895,119370).
route(harbor3,harbor14,tr2,19895,59685).
route(harbor3,harbor15,tr13,23154,138924).
route(harbor3,harbor15,tr2,23154,69462).
route(harbor3,harbor16,tr13,26031,156186).
route(harbor3,harbor16,tr2,26031,78093).
route(harbor3,prodloc0,tr0,11485,298610).
route(harbor3,prodloc0,tr13,11485,68910).
route(harbor3,prodloc1,tr0,16599,431574).
route(harbor3,prodloc1,tr13,16599,99594).
route(harbor3,prodloc2,tr0,1832,47632).
route(harbor3,prodloc2,tr13,1832,10992).
route(harbor3,prodloc3,tr0,20056,521456).
route(harbor3,prodloc3,tr13,20056,120336).
route(harbor3,prodloc4,tr0,14888,387088).
route(harbor3,prodloc4,tr13,14888,89328).
route(harbor3,prodloc5,tr0,9581,249106).
route(harbor3,prodloc5,tr13,9581,57486).
route(harbor3,prodloc6,tr0,26218,681668).
route(harbor3,prodloc6,tr13,26218,157308).
route(harbor3,prodloc7,tr0,22611,587886).
route(harbor3,prodloc7,tr13,22611,135666).
route(harbor3,prodloc8,tr0,9401,244426).
route(harbor3,prodloc8,tr13,9401,56406).
route(harbor3,prodloc9,tr0,23215,603590).
route(harbor3,prodloc9,tr13,23215,139290).
route(harbor3,prodloc10,tr0,20263,526838).
route(harbor3,prodloc10,tr13,20263,121578).
route(harbor3,prodloc11,tr0,466,12116).
route(harbor3,prodloc11,tr13,466,2796).
route(harbor3,prodloc12,tr0,6233,162058).
route(harbor3,prodloc12,tr13,6233,37398).
route(harbor3,prodloc13,tr0,21654,563004).
route(harbor3,prodloc13,tr13,21654,129924).
route(harbor3,prodloc14,tr0,20862,542412).
route(harbor3,prodloc14,tr13,20862,125172).
route(harbor3,prodloc15,tr0,28520,741520).
route(harbor3,prodloc15,tr13,28520,171120).
route(harbor3,prodloc16,tr0,17046,443196).
route(harbor3,prodloc16,tr13,17046,102276).
route(harbor3,prodloc17,tr0,18652,484952).
route(harbor3,prodloc17,tr13,18652,111912).
route(harbor3,prodloc18,tr0,7079,184054).
route(harbor3,prodloc18,tr13,7079,42474).
route(harbor3,prodloc19,tr0,744,19344).
route(harbor3,prodloc19,tr13,744,4464).
route(harbor3,prodloc20,tr0,5493,142818).
route(harbor3,prodloc20,tr13,5493,32958).
route(harbor3,prodloc21,tr0,9742,253292).
route(harbor3,prodloc21,tr13,9742,58452).
route(harbor3,prodloc22,tr0,27494,714844).
route(harbor3,prodloc22,tr13,27494,164964).
route(harbor3,prodloc23,tr0,7736,201136).
route(harbor3,prodloc23,tr13,7736,46416).
route(harbor3,prodloc24,tr0,6176,160576).
route(harbor3,prodloc24,tr13,6176,37056).
route(harbor3,prodloc25,tr0,13500,351000).
route(harbor3,prodloc25,tr13,13500,81000).
route(harbor3,prodloc26,tr0,2186,56836).
route(harbor3,prodloc26,tr13,2186,13116).
route(harbor3,prodloc27,tr0,27142,705692).
route(harbor3,prodloc27,tr13,27142,162852).
route(harbor3,prodloc28,tr0,18066,469716).
route(harbor3,prodloc28,tr13,18066,108396).
route(harbor3,prodloc29,tr0,28421,738946).
route(harbor3,prodloc29,tr13,28421,170526).
route(harbor3,prodloc30,tr0,5788,150488).
route(harbor3,prodloc30,tr13,5788,34728).
route(harbor3,prodloc31,tr0,960,24960).
route(harbor3,prodloc31,tr13,960,5760).
route(harbor3,prodloc32,tr0,14874,386724).
route(harbor3,prodloc32,tr13,14874,89244).
route(harbor3,prodloc33,tr0,17858,464308).
route(harbor3,prodloc33,tr13,17858,107148).
route(harbor4,harbor0,tr13,20522,123132).
route(harbor4,harbor0,tr2,20522,61566).
route(harbor4,harbor1,tr13,8193,49158).
route(harbor4,harbor1,tr2,8193,24579).
route(harbor4,harbor2,tr13,15087,90522).
route(harbor4,harbor2,tr2,15087,45261).
route(harbor4,harbor3,tr13,2771,16626).
route(harbor4,harbor3,tr2,2771,8313).
route(harbor4,harbor5,tr13,24117,144702).
route(harbor4,harbor5,tr2,24117,72351).
route(harbor4,harbor6,tr13,22728,136368).
route(harbor4,harbor6,tr2,22728,68184).
route(harbor4,harbor7,tr13,27307,163842).
route(harbor4,harbor7,tr2,27307,81921).
route(harbor4,harbor8,tr13,15978,95868).
route(harbor4,harbor8,tr2,15978,47934).
route(harbor4,harbor9,tr13,15746,94476).
route(harbor4,harbor9,tr2,15746,47238).
route(harbor4,harbor10,tr13,6863,41178).
route(harbor4,harbor10,tr2,6863,20589).
route(harbor4,harbor11,tr13,6214,37284).
route(harbor4,harbor11,tr2,6214,18642).
route(harbor4,harbor12,tr13,24928,149568).
route(harbor4,harbor12,tr2,24928,74784).
route(harbor4,harbor13,tr13,14594,87564).
route(harbor4,harbor13,tr2,14594,43782).
route(harbor4,harbor14,tr13,10602,63612).
route(harbor4,harbor14,tr2,10602,31806).
route(harbor4,harbor15,tr13,20955,125730).
route(harbor4,harbor15,tr2,20955,62865).
route(harbor4,harbor16,tr13,8659,51954).
route(harbor4,harbor16,tr2,8659,25977).
route(harbor4,prodloc0,tr0,14199,369174).
route(harbor4,prodloc0,tr13,14199,85194).
route(harbor4,prodloc1,tr0,9792,254592).
route(harbor4,prodloc1,tr13,9792,58752).
route(harbor4,prodloc2,tr0,4354,113204).
route(harbor4,prodloc2,tr13,4354,26124).
route(harbor4,prodloc3,tr0,6430,167180).
route(harbor4,prodloc3,tr13,6430,38580).
route(harbor4,prodloc4,tr0,12394,322244).
route(harbor4,prodloc4,tr13,12394,74364).
route(harbor4,prodloc5,tr0,27616,718016).
route(harbor4,prodloc5,tr13,27616,165696).
route(harbor4,prodloc6,tr0,20624,536224).
route(harbor4,prodloc6,tr13,20624,123744).
route(harbor4,prodloc7,tr0,10799,280774).
route(harbor4,prodloc7,tr13,10799,64794).
route(harbor4,prodloc8,tr0,24098,626548).
route(harbor4,prodloc8,tr13,24098,144588).
route(harbor4,prodloc9,tr0,22895,595270).
route(harbor4,prodloc9,tr13,22895,137370).
route(harbor4,prodloc10,tr0,22516,585416).
route(harbor4,prodloc10,tr13,22516,135096).
route(harbor4,prodloc11,tr0,18121,471146).
route(harbor4,prodloc11,tr13,18121,108726).
route(harbor4,prodloc12,tr0,17659,459134).
route(harbor4,prodloc12,tr13,17659,105954).
route(harbor4,prodloc13,tr0,8597,223522).
route(harbor4,prodloc13,tr13,8597,51582).
route(harbor4,prodloc14,tr0,12222,317772).
route(harbor4,prodloc14,tr13,12222,73332).
route(harbor4,prodloc15,tr0,7026,182676).
route(harbor4,prodloc15,tr13,7026,42156).
route(harbor4,prodloc16,tr0,1161,30186).
route(harbor4,prodloc16,tr13,1161,6966).
route(harbor4,prodloc17,tr0,21673,563498).
route(harbor4,prodloc17,tr13,21673,130038).
route(harbor4,prodloc18,tr0,21505,559130).
route(harbor4,prodloc18,tr13,21505,129030).
route(harbor4,prodloc19,tr0,24517,637442).
route(harbor4,prodloc19,tr13,24517,147102).
route(harbor4,prodloc20,tr0,2074,53924).
route(harbor4,prodloc20,tr13,2074,12444).
route(harbor4,prodloc21,tr0,20262,526812).
route(harbor4,prodloc21,tr13,20262,121572).
route(harbor4,prodloc22,tr0,4742,123292).
route(harbor4,prodloc22,tr13,4742,28452).
route(harbor4,prodloc23,tr0,12823,333398).
route(harbor4,prodloc23,tr13,12823,76938).
route(harbor4,prodloc24,tr0,2189,56914).
route(harbor4,prodloc24,tr13,2189,13134).
route(harbor4,prodloc25,tr0,2946,76596).
route(harbor4,prodloc25,tr13,2946,17676).
route(harbor4,prodloc26,tr0,16153,419978).
route(harbor4,prodloc26,tr13,16153,96918).
route(harbor4,prodloc27,tr0,8471,220246).
route(harbor4,prodloc27,tr13,8471,50826).
route(harbor4,prodloc28,tr0,11442,297492).
route(harbor4,prodloc28,tr13,11442,68652).
route(harbor4,prodloc29,tr0,6962,181012).
route(harbor4,prodloc29,tr13,6962,41772).
route(harbor4,prodloc30,tr0,15635,406510).
route(harbor4,prodloc30,tr13,15635,93810).
route(harbor4,prodloc31,tr0,2254,58604).
route(harbor4,prodloc31,tr13,2254,13524).
route(harbor4,prodloc32,tr0,2346,60996).
route(harbor4,prodloc32,tr13,2346,14076).
route(harbor4,prodloc33,tr0,28650,744900).
route(harbor4,prodloc33,tr13,28650,171900).
route(harbor5,harbor0,tr13,11828,70968).
route(harbor5,harbor0,tr2,11828,35484).
route(harbor5,harbor1,tr13,5014,30084).
route(harbor5,harbor1,tr2,5014,15042).
route(harbor5,harbor2,tr13,11188,67128).
route(harbor5,harbor2,tr2,11188,33564).
route(harbor5,harbor3,tr13,10982,65892).
route(harbor5,harbor3,tr2,10982,32946).
route(harbor5,harbor4,tr13,494,2964).
route(harbor5,harbor4,tr2,494,1482).
route(harbor5,harbor6,tr13,14154,84924).
route(harbor5,harbor6,tr2,14154,42462).
route(harbor5,harbor7,tr13,11508,69048).
route(harbor5,harbor7,tr2,11508,34524).
route(harbor5,harbor8,tr13,6570,39420).
route(harbor5,harbor8,tr2,6570,19710).
route(harbor5,harbor9,tr13,1236,7416).
route(harbor5,harbor9,tr2,1236,3708).
route(harbor5,harbor10,tr13,9491,56946).
route(harbor5,harbor10,tr2,9491,28473).
route(harbor5,harbor11,tr13,6900,41400).
route(harbor5,harbor11,tr2,6900,20700).
route(harbor5,harbor12,tr13,26714,160284).
route(harbor5,harbor12,tr2,26714,80142).
route(harbor5,harbor13,tr13,7770,46620).
route(harbor5,harbor13,tr2,7770,23310).
route(harbor5,harbor14,tr13,6011,36066).
route(harbor5,harbor14,tr2,6011,18033).
route(harbor5,harbor15,tr13,20175,121050).
route(harbor5,harbor15,tr2,20175,60525).
route(harbor5,harbor16,tr13,4988,29928).
route(harbor5,harbor16,tr2,4988,14964).
route(harbor5,prodloc0,tr0,11309,294034).
route(harbor5,prodloc0,tr13,11309,67854).
route(harbor5,prodloc1,tr0,26643,692718).
route(harbor5,prodloc1,tr13,26643,159858).
route(harbor5,prodloc2,tr0,20678,537628).
route(harbor5,prodloc2,tr13,20678,124068).
route(harbor5,prodloc3,tr0,6641,172666).
route(harbor5,prodloc3,tr13,6641,39846).
route(harbor5,prodloc4,tr0,680,17680).
route(harbor5,prodloc4,tr13,680,4080).
route(harbor5,prodloc5,tr0,19312,502112).
route(harbor5,prodloc5,tr13,19312,115872).
route(harbor5,prodloc6,tr0,1157,30082).
route(harbor5,prodloc6,tr13,1157,6942).
route(harbor5,prodloc7,tr0,4116,107016).
route(harbor5,prodloc7,tr13,4116,24696).
route(harbor5,prodloc8,tr0,18371,477646).
route(harbor5,prodloc8,tr13,18371,110226).
route(harbor5,prodloc9,tr0,26585,691210).
route(harbor5,prodloc9,tr13,26585,159510).
route(harbor5,prodloc10,tr0,25708,668408).
route(harbor5,prodloc10,tr13,25708,154248).
route(harbor5,prodloc11,tr0,10611,275886).
route(harbor5,prodloc11,tr13,10611,63666).
route(harbor5,prodloc12,tr0,4922,127972).
route(harbor5,prodloc12,tr13,4922,29532).
route(harbor5,prodloc13,tr0,1806,46956).
route(harbor5,prodloc13,tr13,1806,10836).
route(harbor5,prodloc14,tr0,7907,205582).
route(harbor5,prodloc14,tr13,7907,47442).
route(harbor5,prodloc15,tr0,21947,570622).
route(harbor5,prodloc15,tr13,21947,131682).
route(harbor5,prodloc16,tr0,25941,674466).
route(harbor5,prodloc16,tr13,25941,155646).
route(harbor5,prodloc17,tr0,23823,619398).
route(harbor5,prodloc17,tr13,23823,142938).
route(harbor5,prodloc18,tr0,5290,137540).
route(harbor5,prodloc18,tr13,5290,31740).
route(harbor5,prodloc19,tr0,11105,288730).
route(harbor5,prodloc19,tr13,11105,66630).
route(harbor5,prodloc20,tr0,9958,258908).
route(harbor5,prodloc20,tr13,9958,59748).
route(harbor5,prodloc21,tr0,22584,587184).
route(harbor5,prodloc21,tr13,22584,135504).
route(harbor5,prodloc22,tr0,18117,471042).
route(harbor5,prodloc22,tr13,18117,108702).
route(harbor5,prodloc23,tr0,10557,274482).
route(harbor5,prodloc23,tr13,10557,63342).
route(harbor5,prodloc24,tr0,25476,662376).
route(harbor5,prodloc24,tr13,25476,152856).
route(harbor5,prodloc25,tr0,19156,498056).
route(harbor5,prodloc25,tr13,19156,114936).
route(harbor5,prodloc26,tr0,10545,274170).
route(harbor5,prodloc26,tr13,10545,63270).
route(harbor5,prodloc27,tr0,27925,726050).
route(harbor5,prodloc27,tr13,27925,167550).
route(harbor5,prodloc28,tr0,17014,442364).
route(harbor5,prodloc28,tr13,17014,102084).
route(harbor5,prodloc29,tr0,27064,703664).
route(harbor5,prodloc29,tr13,27064,162384).
route(harbor5,prodloc30,tr0,19092,496392).
route(harbor5,prodloc30,tr13,19092,114552).
route(harbor5,prodloc31,tr0,10884,282984).
route(harbor5,prodloc31,tr13,10884,65304).
route(harbor5,prodloc32,tr0,28184,732784).
route(harbor5,prodloc32,tr13,28184,169104).
route(harbor5,prodloc33,tr0,8487,220662).
route(harbor5,prodloc33,tr13,8487,50922).
route(harbor6,harbor0,tr13,9349,56094).
route(harbor6,harbor0,tr2,9349,28047).
route(harbor6,harbor1,tr13,11699,70194).
route(harbor6,harbor1,tr2,11699,35097).
route(harbor6,harbor2,tr13,7687,46122).
route(harbor6,harbor2,tr2,7687,23061).
route(harbor6,harbor3,tr13,15495,92970).
route(harbor6,harbor3,tr2,15495,46485).
route(harbor6,harbor4,tr13,12087,72522).
route(harbor6,harbor4,tr2,12087,36261).
route(harbor6,harbor5,tr13,13723,82338).
route(harbor6,harbor5,tr2,13723,41169).
route(harbor6,harbor7,tr13,13708,82248).
route(harbor6,harbor7,tr2,13708,41124).
route(harbor6,harbor8,tr13,11986,71916).
route(harbor6,harbor8,tr2,11986,35958).
route(harbor6,harbor9,tr13,26528,159168).
route(harbor6,harbor9,tr2,26528,79584).
route(harbor6,harbor10,tr13,17543,105258).
route(harbor6,harbor10,tr2,17543,52629).
route(harbor6,harbor11,tr13,25739,154434).
route(harbor6,harbor11,tr2,25739,77217).
route(harbor6,harbor12,tr13,3850,23100).
route(harbor6,harbor12,tr2,3850,11550).
route(harbor6,harbor13,tr13,9011,54066).
route(harbor6,harbor13,tr2,9011,27033).
route(harbor6,harbor14,tr13,15273,91638).
route(harbor6,harbor14,tr2,15273,45819).
route(harbor6,harbor15,tr13,5039,30234).
route(harbor6,harbor15,tr2,5039,15117).
route(harbor6,harbor16,tr13,22068,132408).
route(harbor6,harbor16,tr2,22068,66204).
route(harbor6,prodloc0,tr0,27802,722852).
route(harbor6,prodloc0,tr13,27802,166812).
route(harbor6,prodloc1,tr0,6785,176410).
route(harbor6,prodloc1,tr13,6785,40710).
route(harbor6,prodloc2,tr0,16070,417820).
route(harbor6,prodloc2,tr13,16070,96420).
route(harbor6,prodloc3,tr0,11827,307502).
route(harbor6,prodloc3,tr13,11827,70962).
route(harbor6,prodloc4,tr0,7557,196482).
route(harbor6,prodloc4,tr13,7557,45342).
route(harbor6,prodloc5,tr0,15334,398684).
route(harbor6,prodloc5,tr13,15334,92004).
route(harbor6,prodloc6,tr0,9264,240864).
route(harbor6,prodloc6,tr13,9264,55584).
route(harbor6,prodloc7,tr0,26617,692042).
route(harbor6,prodloc7,tr13,26617,159702).
route(harbor6,prodloc8,tr0,6258,162708).
route(harbor6,prodloc8,tr13,6258,37548).
route(harbor6,prodloc9,tr0,15646,406796).
route(harbor6,prodloc9,tr13,15646,93876).
route(harbor6,prodloc10,tr0,4807,124982).
route(harbor6,prodloc10,tr13,4807,28842).
route(harbor6,prodloc11,tr0,8478,220428).
route(harbor6,prodloc11,tr13,8478,50868).
route(harbor6,prodloc12,tr0,10063,261638).
route(harbor6,prodloc12,tr13,10063,60378).
route(harbor6,prodloc13,tr0,12577,327002).
route(harbor6,prodloc13,tr13,12577,75462).
route(harbor6,prodloc14,tr0,22635,588510).
route(harbor6,prodloc14,tr13,22635,135810).
route(harbor6,prodloc15,tr0,11294,293644).
route(harbor6,prodloc15,tr13,11294,67764).
route(harbor6,prodloc16,tr0,24773,644098).
route(harbor6,prodloc16,tr13,24773,148638).
route(harbor6,prodloc17,tr0,8451,219726).
route(harbor6,prodloc17,tr13,8451,50706).
route(harbor6,prodloc18,tr0,27543,716118).
route(harbor6,prodloc18,tr13,27543,165258).
route(harbor6,prodloc19,tr0,16115,418990).
route(harbor6,prodloc19,tr13,16115,96690).
route(harbor6,prodloc20,tr0,10124,263224).
route(harbor6,prodloc20,tr13,10124,60744).
route(harbor6,prodloc21,tr0,6325,164450).
route(harbor6,prodloc21,tr13,6325,37950).
route(harbor6,prodloc22,tr0,9642,250692).
route(harbor6,prodloc22,tr13,9642,57852).
route(harbor6,prodloc23,tr0,18711,486486).
route(harbor6,prodloc23,tr13,18711,112266).
route(harbor6,prodloc24,tr0,719,18694).
route(harbor6,prodloc24,tr13,719,4314).
route(harbor6,prodloc25,tr0,22829,593554).
route(harbor6,prodloc25,tr13,22829,136974).
route(harbor6,prodloc26,tr0,12761,331786).
route(harbor6,prodloc26,tr13,12761,76566).
route(harbor6,prodloc27,tr0,22386,582036).
route(harbor6,prodloc27,tr13,22386,134316).
route(harbor6,prodloc28,tr0,7548,196248).
route(harbor6,prodloc28,tr13,7548,45288).
route(harbor6,prodloc29,tr0,24795,644670).
route(harbor6,prodloc29,tr13,24795,148770).
route(harbor6,prodloc30,tr0,24988,649688).
route(harbor6,prodloc30,tr13,24988,149928).
route(harbor6,prodloc31,tr0,22133,575458).
route(harbor6,prodloc31,tr13,22133,132798).
route(harbor6,prodloc32,tr0,23545,612170).
route(harbor6,prodloc32,tr13,23545,141270).
route(harbor6,prodloc33,tr0,12893,335218).
route(harbor6,prodloc33,tr13,12893,77358).
route(harbor7,harbor0,tr13,1505,9030).
route(harbor7,harbor0,tr2,1505,4515).
route(harbor7,harbor1,tr13,17094,102564).
route(harbor7,harbor1,tr2,17094,51282).
route(harbor7,harbor2,tr13,19609,117654).
route(harbor7,harbor2,tr2,19609,58827).
route(harbor7,harbor3,tr13,3551,21306).
route(harbor7,harbor3,tr2,3551,10653).
route(harbor7,harbor4,tr13,28014,168084).
route(harbor7,harbor4,tr2,28014,84042).
route(harbor7,harbor5,tr13,22021,132126).
route(harbor7,harbor5,tr2,22021,66063).
route(harbor7,harbor6,tr13,11711,70266).
route(harbor7,harbor6,tr2,11711,35133).
route(harbor7,harbor8,tr13,1833,10998).
route(harbor7,harbor8,tr2,1833,5499).
route(harbor7,harbor9,tr13,25195,151170).
route(harbor7,harbor9,tr2,25195,75585).
route(harbor7,harbor10,tr13,25615,153690).
route(harbor7,harbor10,tr2,25615,76845).
route(harbor7,harbor11,tr13,12942,77652).
route(harbor7,harbor11,tr2,12942,38826).
route(harbor7,harbor12,tr13,24787,148722).
route(harbor7,harbor12,tr2,24787,74361).
route(harbor7,harbor13,tr13,13893,83358).
route(harbor7,harbor13,tr2,13893,41679).
route(harbor7,harbor14,tr13,27262,163572).
route(harbor7,harbor14,tr2,27262,81786).
route(harbor7,harbor15,tr13,24863,149178).
route(harbor7,harbor15,tr2,24863,74589).
route(harbor7,harbor16,tr13,27742,166452).
route(harbor7,harbor16,tr2,27742,83226).
route(harbor7,prodloc0,tr0,2269,58994).
route(harbor7,prodloc0,tr13,2269,13614).
route(harbor7,prodloc1,tr0,13641,354666).
route(harbor7,prodloc1,tr13,13641,81846).
route(harbor7,prodloc2,tr0,28711,746486).
route(harbor7,prodloc2,tr13,28711,172266).
route(harbor7,prodloc3,tr0,20218,525668).
route(harbor7,prodloc3,tr13,20218,121308).
route(harbor7,prodloc4,tr0,23149,601874).
route(harbor7,prodloc4,tr13,23149,138894).
route(harbor7,prodloc5,tr0,22047,573222).
route(harbor7,prodloc5,tr13,22047,132282).
route(harbor7,prodloc6,tr0,11767,305942).
route(harbor7,prodloc6,tr13,11767,70602).
route(harbor7,prodloc7,tr0,15749,409474).
route(harbor7,prodloc7,tr13,15749,94494).
route(harbor7,prodloc8,tr0,11311,294086).
route(harbor7,prodloc8,tr13,11311,67866).
route(harbor7,prodloc9,tr0,28093,730418).
route(harbor7,prodloc9,tr13,28093,168558).
route(harbor7,prodloc10,tr0,18189,472914).
route(harbor7,prodloc10,tr13,18189,109134).
route(harbor7,prodloc11,tr0,6544,170144).
route(harbor7,prodloc11,tr13,6544,39264).
route(harbor7,prodloc12,tr0,22119,575094).
route(harbor7,prodloc12,tr13,22119,132714).
route(harbor7,prodloc13,tr0,14012,364312).
route(harbor7,prodloc13,tr13,14012,84072).
route(harbor7,prodloc14,tr0,26610,691860).
route(harbor7,prodloc14,tr13,26610,159660).
route(harbor7,prodloc15,tr0,9902,257452).
route(harbor7,prodloc15,tr13,9902,59412).
route(harbor7,prodloc16,tr0,17895,465270).
route(harbor7,prodloc16,tr13,17895,107370).
route(harbor7,prodloc17,tr0,12826,333476).
route(harbor7,prodloc17,tr13,12826,76956).
route(harbor7,prodloc18,tr0,18802,488852).
route(harbor7,prodloc18,tr13,18802,112812).
route(harbor7,prodloc19,tr0,7942,206492).
route(harbor7,prodloc19,tr13,7942,47652).
route(harbor7,prodloc20,tr0,23421,608946).
route(harbor7,prodloc20,tr13,23421,140526).
route(harbor7,prodloc21,tr0,26258,682708).
route(harbor7,prodloc21,tr13,26258,157548).
route(harbor7,prodloc22,tr0,24809,645034).
route(harbor7,prodloc22,tr13,24809,148854).
route(harbor7,prodloc23,tr0,17197,447122).
route(harbor7,prodloc23,tr13,17197,103182).
route(harbor7,prodloc24,tr0,2572,66872).
route(harbor7,prodloc24,tr13,2572,15432).
route(harbor7,prodloc25,tr0,7339,190814).
route(harbor7,prodloc25,tr13,7339,44034).
route(harbor7,prodloc26,tr0,2302,59852).
route(harbor7,prodloc26,tr13,2302,13812).
route(harbor7,prodloc27,tr0,24712,642512).
route(harbor7,prodloc27,tr13,24712,148272).
route(harbor7,prodloc28,tr0,24698,642148).
route(harbor7,prodloc28,tr13,24698,148188).
route(harbor7,prodloc29,tr0,19066,495716).
route(harbor7,prodloc29,tr13,19066,114396).
route(harbor7,prodloc30,tr0,16864,438464).
route(harbor7,prodloc30,tr13,16864,101184).
route(harbor7,prodloc31,tr0,14046,365196).
route(harbor7,prodloc31,tr13,14046,84276).
route(harbor7,prodloc32,tr0,11157,290082).
route(harbor7,prodloc32,tr13,11157,66942).
route(harbor7,prodloc33,tr0,26420,686920).
route(harbor7,prodloc33,tr13,26420,158520).
route(harbor8,harbor0,tr13,8580,51480).
route(harbor8,harbor0,tr2,8580,25740).
route(harbor8,harbor1,tr13,13872,83232).
route(harbor8,harbor1,tr2,13872,41616).
route(harbor8,harbor2,tr13,11716,70296).
route(harbor8,harbor2,tr2,11716,35148).
route(harbor8,harbor3,tr13,22244,133464).
route(harbor8,harbor3,tr2,22244,66732).
route(harbor8,harbor4,tr13,10279,61674).
route(harbor8,harbor4,tr2,10279,30837).
route(harbor8,harbor5,tr13,17804,106824).
route(harbor8,harbor5,tr2,17804,53412).
route(harbor8,harbor6,tr13,28908,173448).
route(harbor8,harbor6,tr2,28908,86724).
route(harbor8,harbor7,tr13,12014,72084).
route(harbor8,harbor7,tr2,12014,36042).
route(harbor8,harbor9,tr13,18748,112488).
route(harbor8,harbor9,tr2,18748,56244).
route(harbor8,harbor10,tr13,11636,69816).
route(harbor8,harbor10,tr2,11636,34908).
route(harbor8,harbor11,tr13,23345,140070).
route(harbor8,harbor11,tr2,23345,70035).
route(harbor8,harbor12,tr13,19328,115968).
route(harbor8,harbor12,tr2,19328,57984).
route(harbor8,harbor13,tr13,21544,129264).
route(harbor8,harbor13,tr2,21544,64632).
route(harbor8,harbor14,tr13,6051,36306).
route(harbor8,harbor14,tr2,6051,18153).
route(harbor8,harbor15,tr13,9256,55536).
route(harbor8,harbor15,tr2,9256,27768).
route(harbor8,harbor16,tr13,5671,34026).
route(harbor8,harbor16,tr2,5671,17013).
route(harbor8,prodloc0,tr0,1181,30706).
route(harbor8,prodloc0,tr13,1181,7086).
route(harbor8,prodloc1,tr0,10334,268684).
route(harbor8,prodloc1,tr13,10334,62004).
route(harbor8,prodloc2,tr0,671,17446).
route(harbor8,prodloc2,tr13,671,4026).
route(harbor8,prodloc3,tr0,23365,607490).
route(harbor8,prodloc3,tr13,23365,140190).
route(harbor8,prodloc4,tr0,27773,722098).
route(harbor8,prodloc4,tr13,27773,166638).
route(harbor8,prodloc5,tr0,6153,159978).
route(harbor8,prodloc5,tr13,6153,36918).
route(harbor8,prodloc6,tr0,12562,326612).
route(harbor8,prodloc6,tr13,12562,75372).
route(harbor8,prodloc7,tr0,25193,655018).
route(harbor8,prodloc7,tr13,25193,151158).
route(harbor8,prodloc8,tr0,7941,206466).
route(harbor8,prodloc8,tr13,7941,47646).
route(harbor8,prodloc9,tr0,10737,279162).
route(harbor8,prodloc9,tr13,10737,64422).
route(harbor8,prodloc10,tr0,18424,479024).
route(harbor8,prodloc10,tr13,18424,110544).
route(harbor8,prodloc11,tr0,15890,413140).
route(harbor8,prodloc11,tr13,15890,95340).
route(harbor8,prodloc12,tr0,3556,92456).
route(harbor8,prodloc12,tr13,3556,21336).
route(harbor8,prodloc13,tr0,15406,400556).
route(harbor8,prodloc13,tr13,15406,92436).
route(harbor8,prodloc14,tr0,27926,726076).
route(harbor8,prodloc14,tr13,27926,167556).
route(harbor8,prodloc15,tr0,9794,254644).
route(harbor8,prodloc15,tr13,9794,58764).
route(harbor8,prodloc16,tr0,27004,702104).
route(harbor8,prodloc16,tr13,27004,162024).
route(harbor8,prodloc17,tr0,10568,274768).
route(harbor8,prodloc17,tr13,10568,63408).
route(harbor8,prodloc18,tr0,27186,706836).
route(harbor8,prodloc18,tr13,27186,163116).
route(harbor8,prodloc19,tr0,4702,122252).
route(harbor8,prodloc19,tr13,4702,28212).
route(harbor8,prodloc20,tr0,20647,536822).
route(harbor8,prodloc20,tr13,20647,123882).
route(harbor8,prodloc21,tr0,2611,67886).
route(harbor8,prodloc21,tr13,2611,15666).
route(harbor8,prodloc22,tr0,9736,253136).
route(harbor8,prodloc22,tr13,9736,58416).
route(harbor8,prodloc23,tr0,7390,192140).
route(harbor8,prodloc23,tr13,7390,44340).
route(harbor8,prodloc24,tr0,8865,230490).
route(harbor8,prodloc24,tr13,8865,53190).
route(harbor8,prodloc25,tr0,7292,189592).
route(harbor8,prodloc25,tr13,7292,43752).
route(harbor8,prodloc26,tr0,28852,750152).
route(harbor8,prodloc26,tr13,28852,173112).
route(harbor8,prodloc27,tr0,23033,598858).
route(harbor8,prodloc27,tr13,23033,138198).
route(harbor8,prodloc28,tr0,13393,348218).
route(harbor8,prodloc28,tr13,13393,80358).
route(harbor8,prodloc29,tr0,13328,346528).
route(harbor8,prodloc29,tr13,13328,79968).
route(harbor8,prodloc30,tr0,6763,175838).
route(harbor8,prodloc30,tr13,6763,40578).
route(harbor8,prodloc31,tr0,2300,59800).
route(harbor8,prodloc31,tr13,2300,13800).
route(harbor8,prodloc32,tr0,3992,103792).
route(harbor8,prodloc32,tr13,3992,23952).
route(harbor8,prodloc33,tr0,13585,353210).
route(harbor8,prodloc33,tr13,13585,81510).
route(harbor9,harbor0,tr13,10272,61632).
route(harbor9,harbor0,tr2,10272,30816).
route(harbor9,harbor1,tr13,10441,62646).
route(harbor9,harbor1,tr2,10441,31323).
route(harbor9,harbor2,tr13,11117,66702).
route(harbor9,harbor2,tr2,11117,33351).
route(harbor9,harbor3,tr13,25866,155196).
route(harbor9,harbor3,tr2,25866,77598).
route(harbor9,harbor4,tr13,20429,122574).
route(harbor9,harbor4,tr2,20429,61287).
route(harbor9,harbor5,tr13,6793,40758).
route(harbor9,harbor5,tr2,6793,20379).
route(harbor9,harbor6,tr13,23739,142434).
route(harbor9,harbor6,tr2,23739,71217).
route(harbor9,harbor7,tr13,27138,162828).
route(harbor9,harbor7,tr2,27138,81414).
route(harbor9,harbor8,tr13,28926,173556).
route(harbor9,harbor8,tr2,28926,86778).
route(harbor9,harbor10,tr13,1047,6282).
route(harbor9,harbor10,tr2,1047,3141).
route(harbor9,harbor11,tr13,29240,175440).
route(harbor9,harbor11,tr2,29240,87720).
route(harbor9,harbor12,tr13,2866,17196).
route(harbor9,harbor12,tr2,2866,8598).
route(harbor9,harbor13,tr13,25764,154584).
route(harbor9,harbor13,tr2,25764,77292).
route(harbor9,harbor14,tr13,20425,122550).
route(harbor9,harbor14,tr2,20425,61275).
route(harbor9,harbor15,tr13,22189,133134).
route(harbor9,harbor15,tr2,22189,66567).
route(harbor9,harbor16,tr13,18266,109596).
route(harbor9,harbor16,tr2,18266,54798).
route(harbor9,prodloc0,tr0,20151,523926).
route(harbor9,prodloc0,tr13,20151,120906).
route(harbor9,prodloc1,tr0,18926,492076).
route(harbor9,prodloc1,tr13,18926,113556).
route(harbor9,prodloc2,tr0,5316,138216).
route(harbor9,prodloc2,tr13,5316,31896).
route(harbor9,prodloc3,tr0,5379,139854).
route(harbor9,prodloc3,tr13,5379,32274).
route(harbor9,prodloc4,tr0,22045,573170).
route(harbor9,prodloc4,tr13,22045,132270).
route(harbor9,prodloc5,tr0,294,7644).
route(harbor9,prodloc5,tr13,294,1764).
route(harbor9,prodloc6,tr0,205,5330).
route(harbor9,prodloc6,tr13,205,1230).
route(harbor9,prodloc7,tr0,18019,468494).
route(harbor9,prodloc7,tr13,18019,108114).
route(harbor9,prodloc8,tr0,4338,112788).
route(harbor9,prodloc8,tr13,4338,26028).
route(harbor9,prodloc9,tr0,12778,332228).
route(harbor9,prodloc9,tr13,12778,76668).
route(harbor9,prodloc10,tr0,27578,717028).
route(harbor9,prodloc10,tr13,27578,165468).
route(harbor9,prodloc11,tr0,17386,452036).
route(harbor9,prodloc11,tr13,17386,104316).
route(harbor9,prodloc12,tr0,4090,106340).
route(harbor9,prodloc12,tr13,4090,24540).
route(harbor9,prodloc13,tr0,18534,481884).
route(harbor9,prodloc13,tr13,18534,111204).
route(harbor9,prodloc14,tr0,4422,114972).
route(harbor9,prodloc14,tr13,4422,26532).
route(harbor9,prodloc15,tr0,27431,713206).
route(harbor9,prodloc15,tr13,27431,164586).
route(harbor9,prodloc16,tr0,16746,435396).
route(harbor9,prodloc16,tr13,16746,100476).
route(harbor9,prodloc17,tr0,20114,522964).
route(harbor9,prodloc17,tr13,20114,120684).
route(harbor9,prodloc18,tr0,6865,178490).
route(harbor9,prodloc18,tr13,6865,41190).
route(harbor9,prodloc19,tr0,13402,348452).
route(harbor9,prodloc19,tr13,13402,80412).
route(harbor9,prodloc20,tr0,13296,345696).
route(harbor9,prodloc20,tr13,13296,79776).
route(harbor9,prodloc21,tr0,7193,187018).
route(harbor9,prodloc21,tr13,7193,43158).
route(harbor9,prodloc22,tr0,11100,288600).
route(harbor9,prodloc22,tr13,11100,66600).
route(harbor9,prodloc23,tr0,4559,118534).
route(harbor9,prodloc23,tr13,4559,27354).
route(harbor9,prodloc24,tr0,21643,562718).
route(harbor9,prodloc24,tr13,21643,129858).
route(harbor9,prodloc25,tr0,19119,497094).
route(harbor9,prodloc25,tr13,19119,114714).
route(harbor9,prodloc26,tr0,12674,329524).
route(harbor9,prodloc26,tr13,12674,76044).
route(harbor9,prodloc27,tr0,14113,366938).
route(harbor9,prodloc27,tr13,14113,84678).
route(harbor9,prodloc28,tr0,1560,40560).
route(harbor9,prodloc28,tr13,1560,9360).
route(harbor9,prodloc29,tr0,17845,463970).
route(harbor9,prodloc29,tr13,17845,107070).
route(harbor9,prodloc30,tr0,12434,323284).
route(harbor9,prodloc30,tr13,12434,74604).
route(harbor9,prodloc31,tr0,28640,744640).
route(harbor9,prodloc31,tr13,28640,171840).
route(harbor9,prodloc32,tr0,6697,174122).
route(harbor9,prodloc32,tr13,6697,40182).
route(harbor9,prodloc33,tr0,16214,421564).
route(harbor9,prodloc33,tr13,16214,97284).
route(harbor10,harbor0,tr13,22957,137742).
route(harbor10,harbor0,tr2,22957,68871).
route(harbor10,harbor1,tr13,10780,64680).
route(harbor10,harbor1,tr2,10780,32340).
route(harbor10,harbor2,tr13,14930,89580).
route(harbor10,harbor2,tr2,14930,44790).
route(harbor10,harbor3,tr13,22530,135180).
route(harbor10,harbor3,tr2,22530,67590).
route(harbor10,harbor4,tr13,20274,121644).
route(harbor10,harbor4,tr2,20274,60822).
route(harbor10,harbor5,tr13,15219,91314).
route(harbor10,harbor5,tr2,15219,45657).
route(harbor10,harbor6,tr13,1898,11388).
route(harbor10,harbor6,tr2,1898,5694).
route(harbor10,harbor7,tr13,13594,81564).
route(harbor10,harbor7,tr2,13594,40782).
route(harbor10,harbor8,tr13,2982,17892).
route(harbor10,harbor8,tr2,2982,8946).
route(harbor10,harbor9,tr13,1406,8436).
route(harbor10,harbor9,tr2,1406,4218).
route(harbor10,harbor11,tr13,17008,102048).
route(harbor10,harbor11,tr2,17008,51024).
route(harbor10,harbor12,tr13,19507,117042).
route(harbor10,harbor12,tr2,19507,58521).
route(harbor10,harbor13,tr13,8281,49686).
route(harbor10,harbor13,tr2,8281,24843).
route(harbor10,harbor14,tr13,5153,30918).
route(harbor10,harbor14,tr2,5153,15459).
route(harbor10,harbor15,tr13,2016,12096).
route(harbor10,harbor15,tr2,2016,6048).
route(harbor10,harbor16,tr13,22243,133458).
route(harbor10,harbor16,tr2,22243,66729).
route(harbor10,prodloc0,tr0,24395,634270).
route(harbor10,prodloc0,tr13,24395,146370).
route(harbor10,prodloc1,tr0,24099,626574).
route(harbor10,prodloc1,tr13,24099,144594).
route(harbor10,prodloc2,tr0,8877,230802).
route(harbor10,prodloc2,tr13,8877,53262).
route(harbor10,prodloc3,tr0,20117,523042).
route(harbor10,prodloc3,tr13,20117,120702).
route(harbor10,prodloc4,tr0,28861,750386).
route(harbor10,prodloc4,tr13,28861,173166).
route(harbor10,prodloc5,tr0,4228,109928).
route(harbor10,prodloc5,tr13,4228,25368).
route(harbor10,prodloc6,tr0,21425,557050).
route(harbor10,prodloc6,tr13,21425,128550).
route(harbor10,prodloc7,tr0,26696,694096).
route(harbor10,prodloc7,tr13,26696,160176).
route(harbor10,prodloc8,tr0,11082,288132).
route(harbor10,prodloc8,tr13,11082,66492).
route(harbor10,prodloc9,tr0,20796,540696).
route(harbor10,prodloc9,tr13,20796,124776).
route(harbor10,prodloc10,tr0,3656,95056).
route(harbor10,prodloc10,tr13,3656,21936).
route(harbor10,prodloc11,tr0,872,22672).
route(harbor10,prodloc11,tr13,872,5232).
route(harbor10,prodloc12,tr0,22308,580008).
route(harbor10,prodloc12,tr13,22308,133848).
route(harbor10,prodloc13,tr0,26998,701948).
route(harbor10,prodloc13,tr13,26998,161988).
route(harbor10,prodloc14,tr0,1686,43836).
route(harbor10,prodloc14,tr13,1686,10116).
route(harbor10,prodloc15,tr0,938,24388).
route(harbor10,prodloc15,tr13,938,5628).
route(harbor10,prodloc16,tr0,3629,94354).
route(harbor10,prodloc16,tr13,3629,21774).
route(harbor10,prodloc17,tr0,9904,257504).
route(harbor10,prodloc17,tr13,9904,59424).
route(harbor10,prodloc18,tr0,10919,283894).
route(harbor10,prodloc18,tr13,10919,65514).
route(harbor10,prodloc19,tr0,8800,228800).
route(harbor10,prodloc19,tr13,8800,52800).
route(harbor10,prodloc20,tr0,9744,253344).
route(harbor10,prodloc20,tr13,9744,58464).
route(harbor10,prodloc21,tr0,14964,389064).
route(harbor10,prodloc21,tr13,14964,89784).
route(harbor10,prodloc22,tr0,17700,460200).
route(harbor10,prodloc22,tr13,17700,106200).
route(harbor10,prodloc23,tr0,4798,124748).
route(harbor10,prodloc23,tr13,4798,28788).
route(harbor10,prodloc24,tr0,11080,288080).
route(harbor10,prodloc24,tr13,11080,66480).
route(harbor10,prodloc25,tr0,12884,334984).
route(harbor10,prodloc25,tr13,12884,77304).
route(harbor10,prodloc26,tr0,27074,703924).
route(harbor10,prodloc26,tr13,27074,162444).
route(harbor10,prodloc27,tr0,9481,246506).
route(harbor10,prodloc27,tr13,9481,56886).
route(harbor10,prodloc28,tr0,24428,635128).
route(harbor10,prodloc28,tr13,24428,146568).
route(harbor10,prodloc29,tr0,2675,69550).
route(harbor10,prodloc29,tr13,2675,16050).
route(harbor10,prodloc30,tr0,2051,53326).
route(harbor10,prodloc30,tr13,2051,12306).
route(harbor10,prodloc31,tr0,7645,198770).
route(harbor10,prodloc31,tr13,7645,45870).
route(harbor10,prodloc32,tr0,17326,450476).
route(harbor10,prodloc32,tr13,17326,103956).
route(harbor10,prodloc33,tr0,20079,522054).
route(harbor10,prodloc33,tr13,20079,120474).
route(harbor11,harbor0,tr13,13778,82668).
route(harbor11,harbor0,tr2,13778,41334).
route(harbor11,harbor1,tr13,29002,174012).
route(harbor11,harbor1,tr2,29002,87006).
route(harbor11,harbor2,tr13,2291,13746).
route(harbor11,harbor2,tr2,2291,6873).
route(harbor11,harbor3,tr13,4237,25422).
route(harbor11,harbor3,tr2,4237,12711).
route(harbor11,harbor4,tr13,8624,51744).
route(harbor11,harbor4,tr2,8624,25872).
route(harbor11,harbor5,tr13,21943,131658).
route(harbor11,harbor5,tr2,21943,65829).
route(harbor11,harbor6,tr13,17189,103134).
route(harbor11,harbor6,tr2,17189,51567).
route(harbor11,harbor7,tr13,10505,63030).
route(harbor11,harbor7,tr2,10505,31515).
route(harbor11,harbor8,tr13,8139,48834).
route(harbor11,harbor8,tr2,8139,24417).
route(harbor11,harbor9,tr13,18334,110004).
route(harbor11,harbor9,tr2,18334,55002).
route(harbor11,harbor10,tr13,1367,8202).
route(harbor11,harbor10,tr2,1367,4101).
route(harbor11,harbor12,tr13,561,3366).
route(harbor11,harbor12,tr2,561,1683).
route(harbor11,harbor13,tr13,16765,100590).
route(harbor11,harbor13,tr2,16765,50295).
route(harbor11,harbor14,tr13,28000,168000).
route(harbor11,harbor14,tr2,28000,84000).
route(harbor11,harbor15,tr13,25598,153588).
route(harbor11,harbor15,tr2,25598,76794).
route(harbor11,harbor16,tr13,19625,117750).
route(harbor11,harbor16,tr2,19625,58875).
route(harbor11,prodloc0,tr0,24821,645346).
route(harbor11,prodloc0,tr13,24821,148926).
route(harbor11,prodloc1,tr0,14598,379548).
route(harbor11,prodloc1,tr13,14598,87588).
route(harbor11,prodloc2,tr0,20889,543114).
route(harbor11,prodloc2,tr13,20889,125334).
route(harbor11,prodloc3,tr0,3758,97708).
route(harbor11,prodloc3,tr13,3758,22548).
route(harbor11,prodloc4,tr0,12478,324428).
route(harbor11,prodloc4,tr13,12478,74868).
route(harbor11,prodloc5,tr0,11040,287040).
route(harbor11,prodloc5,tr13,11040,66240).
route(harbor11,prodloc6,tr0,27577,717002).
route(harbor11,prodloc6,tr13,27577,165462).
route(harbor11,prodloc7,tr0,2534,65884).
route(harbor11,prodloc7,tr13,2534,15204).
route(harbor11,prodloc8,tr0,16596,431496).
route(harbor11,prodloc8,tr13,16596,99576).
route(harbor11,prodloc9,tr0,13837,359762).
route(harbor11,prodloc9,tr13,13837,83022).
route(harbor11,prodloc10,tr0,21735,565110).
route(harbor11,prodloc10,tr13,21735,130410).
route(harbor11,prodloc11,tr0,3899,101374).
route(harbor11,prodloc11,tr13,3899,23394).
route(harbor11,prodloc12,tr0,8884,230984).
route(harbor11,prodloc12,tr13,8884,53304).
route(harbor11,prodloc13,tr0,20669,537394).
route(harbor11,prodloc13,tr13,20669,124014).
route(harbor11,prodloc14,tr0,6042,157092).
route(harbor11,prodloc14,tr13,6042,36252).
route(harbor11,prodloc15,tr0,22256,578656).
route(harbor11,prodloc15,tr13,22256,133536).
route(harbor11,prodloc16,tr0,23536,611936).
route(harbor11,prodloc16,tr13,23536,141216).
route(harbor11,prodloc17,tr0,1619,42094).
route(harbor11,prodloc17,tr13,1619,9714).
route(harbor11,prodloc18,tr0,10347,269022).
route(harbor11,prodloc18,tr13,10347,62082).
route(harbor11,prodloc19,tr0,26063,677638).
route(harbor11,prodloc19,tr13,26063,156378).
route(harbor11,prodloc20,tr0,1473,38298).
route(harbor11,prodloc20,tr13,1473,8838).
route(harbor11,prodloc21,tr0,17845,463970).
route(harbor11,prodloc21,tr13,17845,107070).
route(harbor11,prodloc22,tr0,9842,255892).
route(harbor11,prodloc22,tr13,9842,59052).
route(harbor11,prodloc23,tr0,6912,179712).
route(harbor11,prodloc23,tr13,6912,41472).
route(harbor11,prodloc24,tr0,13815,359190).
route(harbor11,prodloc24,tr13,13815,82890).
route(harbor11,prodloc25,tr0,5747,149422).
route(harbor11,prodloc25,tr13,5747,34482).
route(harbor11,prodloc26,tr0,6187,160862).
route(harbor11,prodloc26,tr13,6187,37122).
route(harbor11,prodloc27,tr0,26323,684398).
route(harbor11,prodloc27,tr13,26323,157938).
route(harbor11,prodloc28,tr0,4571,118846).
route(harbor11,prodloc28,tr13,4571,27426).
route(harbor11,prodloc29,tr0,23411,608686).
route(harbor11,prodloc29,tr13,23411,140466).
route(harbor11,prodloc30,tr0,15497,402922).
route(harbor11,prodloc30,tr13,15497,92982).
route(harbor11,prodloc31,tr0,15176,394576).
route(harbor11,prodloc31,tr13,15176,91056).
route(harbor11,prodloc32,tr0,20270,527020).
route(harbor11,prodloc32,tr13,20270,121620).
route(harbor11,prodloc33,tr0,16550,430300).
route(harbor11,prodloc33,tr13,16550,99300).
route(harbor12,harbor0,tr13,7941,47646).
route(harbor12,harbor0,tr2,7941,23823).
route(harbor12,harbor1,tr13,23487,140922).
route(harbor12,harbor1,tr2,23487,70461).
route(harbor12,harbor2,tr13,1581,9486).
route(harbor12,harbor2,tr2,1581,4743).
route(harbor12,harbor3,tr13,4912,29472).
route(harbor12,harbor3,tr2,4912,14736).
route(harbor12,harbor4,tr13,16950,101700).
route(harbor12,harbor4,tr2,16950,50850).
route(harbor12,harbor5,tr13,11311,67866).
route(harbor12,harbor5,tr2,11311,33933).
route(harbor12,harbor6,tr13,11919,71514).
route(harbor12,harbor6,tr2,11919,35757).
route(harbor12,harbor7,tr13,9101,54606).
route(harbor12,harbor7,tr2,9101,27303).
route(harbor12,harbor8,tr13,22997,137982).
route(harbor12,harbor8,tr2,22997,68991).
route(harbor12,harbor9,tr13,16482,98892).
route(harbor12,harbor9,tr2,16482,49446).
route(harbor12,harbor10,tr13,5862,35172).
route(harbor12,harbor10,tr2,5862,17586).
route(harbor12,harbor11,tr13,20017,120102).
route(harbor12,harbor11,tr2,20017,60051).
route(harbor12,harbor13,tr13,12434,74604).
route(harbor12,harbor13,tr2,12434,37302).
route(harbor12,harbor14,tr13,14741,88446).
route(harbor12,harbor14,tr2,14741,44223).
route(harbor12,harbor15,tr13,17229,103374).
route(harbor12,harbor15,tr2,17229,51687).
route(harbor12,harbor16,tr13,7150,42900).
route(harbor12,harbor16,tr2,7150,21450).
route(harbor12,prodloc0,tr0,11843,307918).
route(harbor12,prodloc0,tr13,11843,71058).
route(harbor12,prodloc1,tr0,7822,203372).
route(harbor12,prodloc1,tr13,7822,46932).
route(harbor12,prodloc2,tr0,21268,552968).
route(harbor12,prodloc2,tr13,21268,127608).
route(harbor12,prodloc3,tr0,10870,282620).
route(harbor12,prodloc3,tr13,10870,65220).
route(harbor12,prodloc4,tr0,19796,514696).
route(harbor12,prodloc4,tr13,19796,118776).
route(harbor12,prodloc5,tr0,15507,403182).
route(harbor12,prodloc5,tr13,15507,93042).
route(harbor12,prodloc6,tr0,23648,614848).
route(harbor12,prodloc6,tr13,23648,141888).
route(harbor12,prodloc7,tr0,12796,332696).
route(harbor12,prodloc7,tr13,12796,76776).
route(harbor12,prodloc8,tr0,11462,298012).
route(harbor12,prodloc8,tr13,11462,68772).
route(harbor12,prodloc9,tr0,16210,421460).
route(harbor12,prodloc9,tr13,16210,97260).
route(harbor12,prodloc10,tr0,27639,718614).
route(harbor12,prodloc10,tr13,27639,165834).
route(harbor12,prodloc11,tr0,8156,212056).
route(harbor12,prodloc11,tr13,8156,48936).
route(harbor12,prodloc12,tr0,14019,364494).
route(harbor12,prodloc12,tr13,14019,84114).
route(harbor12,prodloc13,tr0,17817,463242).
route(harbor12,prodloc13,tr13,17817,106902).
route(harbor12,prodloc14,tr0,12772,332072).
route(harbor12,prodloc14,tr13,12772,76632).
route(harbor12,prodloc15,tr0,25145,653770).
route(harbor12,prodloc15,tr13,25145,150870).
route(harbor12,prodloc16,tr0,4750,123500).
route(harbor12,prodloc16,tr13,4750,28500).
route(harbor12,prodloc17,tr0,15412,400712).
route(harbor12,prodloc17,tr13,15412,92472).
route(harbor12,prodloc18,tr0,758,19708).
route(harbor12,prodloc18,tr13,758,4548).
route(harbor12,prodloc19,tr0,11795,306670).
route(harbor12,prodloc19,tr13,11795,70770).
route(harbor12,prodloc20,tr0,5137,133562).
route(harbor12,prodloc20,tr13,5137,30822).
route(harbor12,prodloc21,tr0,26921,699946).
route(harbor12,prodloc21,tr13,26921,161526).
route(harbor12,prodloc22,tr0,18064,469664).
route(harbor12,prodloc22,tr13,18064,108384).
route(harbor12,prodloc23,tr0,20520,533520).
route(harbor12,prodloc23,tr13,20520,123120).
route(harbor12,prodloc24,tr0,6746,175396).
route(harbor12,prodloc24,tr13,6746,40476).
route(harbor12,prodloc25,tr0,16279,423254).
route(harbor12,prodloc25,tr13,16279,97674).
route(harbor12,prodloc26,tr0,15263,396838).
route(harbor12,prodloc26,tr13,15263,91578).
route(harbor12,prodloc27,tr0,10147,263822).
route(harbor12,prodloc27,tr13,10147,60882).
route(harbor12,prodloc28,tr0,13990,363740).
route(harbor12,prodloc28,tr13,13990,83940).
route(harbor12,prodloc29,tr0,7719,200694).
route(harbor12,prodloc29,tr13,7719,46314).
route(harbor12,prodloc30,tr0,3810,99060).
route(harbor12,prodloc30,tr13,3810,22860).
route(harbor12,prodloc31,tr0,25877,672802).
route(harbor12,prodloc31,tr13,25877,155262).
route(harbor12,prodloc32,tr0,10027,260702).
route(harbor12,prodloc32,tr13,10027,60162).
route(harbor12,prodloc33,tr0,23140,601640).
route(harbor12,prodloc33,tr13,23140,138840).
route(harbor13,harbor0,tr13,225,1350).
route(harbor13,harbor0,tr2,225,675).
route(harbor13,harbor1,tr13,1507,9042).
route(harbor13,harbor1,tr2,1507,4521).
route(harbor13,harbor2,tr13,25700,154200).
route(harbor13,harbor2,tr2,25700,77100).
route(harbor13,harbor3,tr13,22765,136590).
route(harbor13,harbor3,tr2,22765,68295).
route(harbor13,harbor4,tr13,2906,17436).
route(harbor13,harbor4,tr2,2906,8718).
route(harbor13,harbor5,tr13,15695,94170).
route(harbor13,harbor5,tr2,15695,47085).
route(harbor13,harbor6,tr13,8085,48510).
route(harbor13,harbor6,tr2,8085,24255).
route(harbor13,harbor7,tr13,20157,120942).
route(harbor13,harbor7,tr2,20157,60471).
route(harbor13,harbor8,tr13,14141,84846).
route(harbor13,harbor8,tr2,14141,42423).
route(harbor13,harbor9,tr13,2883,17298).
route(harbor13,harbor9,tr2,2883,8649).
route(harbor13,harbor10,tr13,22260,133560).
route(harbor13,harbor10,tr2,22260,66780).
route(harbor13,harbor11,tr13,12348,74088).
route(harbor13,harbor11,tr2,12348,37044).
route(harbor13,harbor12,tr13,16799,100794).
route(harbor13,harbor12,tr2,16799,50397).
route(harbor13,harbor14,tr13,11947,71682).
route(harbor13,harbor14,tr2,11947,35841).
route(harbor13,harbor15,tr13,1396,8376).
route(harbor13,harbor15,tr2,1396,4188).
route(harbor13,harbor16,tr13,18339,110034).
route(harbor13,harbor16,tr2,18339,55017).
route(harbor13,prodloc0,tr0,23548,612248).
route(harbor13,prodloc0,tr13,23548,141288).
route(harbor13,prodloc1,tr0,24912,647712).
route(harbor13,prodloc1,tr13,24912,149472).
route(harbor13,prodloc2,tr0,9568,248768).
route(harbor13,prodloc2,tr13,9568,57408).
route(harbor13,prodloc3,tr0,27773,722098).
route(harbor13,prodloc3,tr13,27773,166638).
route(harbor13,prodloc4,tr0,1507,39182).
route(harbor13,prodloc4,tr13,1507,9042).
route(harbor13,prodloc5,tr0,10851,282126).
route(harbor13,prodloc5,tr13,10851,65106).
route(harbor13,prodloc6,tr0,5996,155896).
route(harbor13,prodloc6,tr13,5996,35976).
route(harbor13,prodloc7,tr0,11318,294268).
route(harbor13,prodloc7,tr13,11318,67908).
route(harbor13,prodloc8,tr0,7717,200642).
route(harbor13,prodloc8,tr13,7717,46302).
route(harbor13,prodloc9,tr0,17999,467974).
route(harbor13,prodloc9,tr13,17999,107994).
route(harbor13,prodloc10,tr0,3074,79924).
route(harbor13,prodloc10,tr13,3074,18444).
route(harbor13,prodloc11,tr0,21861,568386).
route(harbor13,prodloc11,tr13,21861,131166).
route(harbor13,prodloc12,tr0,4192,108992).
route(harbor13,prodloc12,tr13,4192,25152).
route(harbor13,prodloc13,tr0,22009,572234).
route(harbor13,prodloc13,tr13,22009,132054).
route(harbor13,prodloc14,tr0,26042,677092).
route(harbor13,prodloc14,tr13,26042,156252).
route(harbor13,prodloc15,tr0,19667,511342).
route(harbor13,prodloc15,tr13,19667,118002).
route(harbor13,prodloc16,tr0,19323,502398).
route(harbor13,prodloc16,tr13,19323,115938).
route(harbor13,prodloc17,tr0,19354,503204).
route(harbor13,prodloc17,tr13,19354,116124).
route(harbor13,prodloc18,tr0,25468,662168).
route(harbor13,prodloc18,tr13,25468,152808).
route(harbor13,prodloc19,tr0,5488,142688).
route(harbor13,prodloc19,tr13,5488,32928).
route(harbor13,prodloc20,tr0,28808,749008).
route(harbor13,prodloc20,tr13,28808,172848).
route(harbor13,prodloc21,tr0,26887,699062).
route(harbor13,prodloc21,tr13,26887,161322).
route(harbor13,prodloc22,tr0,7864,204464).
route(harbor13,prodloc22,tr13,7864,47184).
route(harbor13,prodloc23,tr0,5698,148148).
route(harbor13,prodloc23,tr13,5698,34188).
route(harbor13,prodloc24,tr0,11146,289796).
route(harbor13,prodloc24,tr13,11146,66876).
route(harbor13,prodloc25,tr0,28887,751062).
route(harbor13,prodloc25,tr13,28887,173322).
route(harbor13,prodloc26,tr0,1390,36140).
route(harbor13,prodloc26,tr13,1390,8340).
route(harbor13,prodloc27,tr0,27887,725062).
route(harbor13,prodloc27,tr13,27887,167322).
route(harbor13,prodloc28,tr0,14277,371202).
route(harbor13,prodloc28,tr13,14277,85662).
route(harbor13,prodloc29,tr0,18673,485498).
route(harbor13,prodloc29,tr13,18673,112038).
route(harbor13,prodloc30,tr0,27190,706940).
route(harbor13,prodloc30,tr13,27190,163140).
route(harbor13,prodloc31,tr0,9137,237562).
route(harbor13,prodloc31,tr13,9137,54822).
route(harbor13,prodloc32,tr0,12855,334230).
route(harbor13,prodloc32,tr13,12855,77130).
route(harbor13,prodloc33,tr0,4118,107068).
route(harbor13,prodloc33,tr13,4118,24708).
route(harbor14,harbor0,tr13,16010,96060).
route(harbor14,harbor0,tr2,16010,48030).
route(harbor14,harbor1,tr13,6948,41688).
route(harbor14,harbor1,tr2,6948,20844).
route(harbor14,harbor2,tr13,21392,128352).
route(harbor14,harbor2,tr2,21392,64176).
route(harbor14,harbor3,tr13,12070,72420).
route(harbor14,harbor3,tr2,12070,36210).
route(harbor14,harbor4,tr13,5147,30882).
route(harbor14,harbor4,tr2,5147,15441).
route(harbor14,harbor5,tr13,4956,29736).
route(harbor14,harbor5,tr2,4956,14868).
route(harbor14,harbor6,tr13,28080,168480).
route(harbor14,harbor6,tr2,28080,84240).
route(harbor14,harbor7,tr13,2766,16596).
route(harbor14,harbor7,tr2,2766,8298).
route(harbor14,harbor8,tr13,8413,50478).
route(harbor14,harbor8,tr2,8413,25239).
route(harbor14,harbor9,tr13,25963,155778).
route(harbor14,harbor9,tr2,25963,77889).
route(harbor14,harbor10,tr13,25714,154284).
route(harbor14,harbor10,tr2,25714,77142).
route(harbor14,harbor11,tr13,13943,83658).
route(harbor14,harbor11,tr2,13943,41829).
route(harbor14,harbor12,tr13,19485,116910).
route(harbor14,harbor12,tr2,19485,58455).
route(harbor14,harbor13,tr13,6018,36108).
route(harbor14,harbor13,tr2,6018,18054).
route(harbor14,harbor15,tr13,20450,122700).
route(harbor14,harbor15,tr2,20450,61350).
route(harbor14,harbor16,tr13,12270,73620).
route(harbor14,harbor16,tr2,12270,36810).
route(harbor14,prodloc0,tr0,26770,696020).
route(harbor14,prodloc0,tr13,26770,160620).
route(harbor14,prodloc1,tr0,8354,217204).
route(harbor14,prodloc1,tr13,8354,50124).
route(harbor14,prodloc2,tr0,19497,506922).
route(harbor14,prodloc2,tr13,19497,116982).
route(harbor14,prodloc3,tr0,12556,326456).
route(harbor14,prodloc3,tr13,12556,75336).
route(harbor14,prodloc4,tr0,20771,540046).
route(harbor14,prodloc4,tr13,20771,124626).
route(harbor14,prodloc5,tr0,18644,484744).
route(harbor14,prodloc5,tr13,18644,111864).
route(harbor14,prodloc6,tr0,1832,47632).
route(harbor14,prodloc6,tr13,1832,10992).
route(harbor14,prodloc7,tr0,6545,170170).
route(harbor14,prodloc7,tr13,6545,39270).
route(harbor14,prodloc8,tr0,2553,66378).
route(harbor14,prodloc8,tr13,2553,15318).
route(harbor14,prodloc9,tr0,8446,219596).
route(harbor14,prodloc9,tr13,8446,50676).
route(harbor14,prodloc10,tr0,22680,589680).
route(harbor14,prodloc10,tr13,22680,136080).
route(harbor14,prodloc11,tr0,15577,405002).
route(harbor14,prodloc11,tr13,15577,93462).
route(harbor14,prodloc12,tr0,17770,462020).
route(harbor14,prodloc12,tr13,17770,106620).
route(harbor14,prodloc13,tr0,17096,444496).
route(harbor14,prodloc13,tr13,17096,102576).
route(harbor14,prodloc14,tr0,9304,241904).
route(harbor14,prodloc14,tr13,9304,55824).
route(harbor14,prodloc15,tr0,26520,689520).
route(harbor14,prodloc15,tr13,26520,159120).
route(harbor14,prodloc16,tr0,25370,659620).
route(harbor14,prodloc16,tr13,25370,152220).
route(harbor14,prodloc17,tr0,15135,393510).
route(harbor14,prodloc17,tr13,15135,90810).
route(harbor14,prodloc18,tr0,13590,353340).
route(harbor14,prodloc18,tr13,13590,81540).
route(harbor14,prodloc19,tr0,19039,495014).
route(harbor14,prodloc19,tr13,19039,114234).
route(harbor14,prodloc20,tr0,15083,392158).
route(harbor14,prodloc20,tr13,15083,90498).
route(harbor14,prodloc21,tr0,14053,365378).
route(harbor14,prodloc21,tr13,14053,84318).
route(harbor14,prodloc22,tr0,14609,379834).
route(harbor14,prodloc22,tr13,14609,87654).
route(harbor14,prodloc23,tr0,5713,148538).
route(harbor14,prodloc23,tr13,5713,34278).
route(harbor14,prodloc24,tr0,22428,583128).
route(harbor14,prodloc24,tr13,22428,134568).
route(harbor14,prodloc25,tr0,16250,422500).
route(harbor14,prodloc25,tr13,16250,97500).
route(harbor14,prodloc26,tr0,17746,461396).
route(harbor14,prodloc26,tr13,17746,106476).
route(harbor14,prodloc27,tr0,21795,566670).
route(harbor14,prodloc27,tr13,21795,130770).
route(harbor14,prodloc28,tr0,16135,419510).
route(harbor14,prodloc28,tr13,16135,96810).
route(harbor14,prodloc29,tr0,24390,634140).
route(harbor14,prodloc29,tr13,24390,146340).
route(harbor14,prodloc30,tr0,27740,721240).
route(harbor14,prodloc30,tr13,27740,166440).
route(harbor14,prodloc31,tr0,16722,434772).
route(harbor14,prodloc31,tr13,16722,100332).
route(harbor14,prodloc32,tr0,11438,297388).
route(harbor14,prodloc32,tr13,11438,68628).
route(harbor14,prodloc33,tr0,17478,454428).
route(harbor14,prodloc33,tr13,17478,104868).
route(harbor15,harbor0,tr13,1342,8052).
route(harbor15,harbor0,tr2,1342,4026).
route(harbor15,harbor1,tr13,28321,169926).
route(harbor15,harbor1,tr2,28321,84963).
route(harbor15,harbor2,tr13,5701,34206).
route(harbor15,harbor2,tr2,5701,17103).
route(harbor15,harbor3,tr13,25044,150264).
route(harbor15,harbor3,tr2,25044,75132).
route(harbor15,harbor4,tr13,18422,110532).
route(harbor15,harbor4,tr2,18422,55266).
route(harbor15,harbor5,tr13,20078,120468).
route(harbor15,harbor5,tr2,20078,60234).
route(harbor15,harbor6,tr13,6142,36852).
route(harbor15,harbor6,tr2,6142,18426).
route(harbor15,harbor7,tr13,23343,140058).
route(harbor15,harbor7,tr2,23343,70029).
route(harbor15,harbor8,tr13,12202,73212).
route(harbor15,harbor8,tr2,12202,36606).
route(harbor15,harbor9,tr13,8515,51090).
route(harbor15,harbor9,tr2,8515,25545).
route(harbor15,harbor10,tr13,23014,138084).
route(harbor15,harbor10,tr2,23014,69042).
route(harbor15,harbor11,tr13,18259,109554).
route(harbor15,harbor11,tr2,18259,54777).
route(harbor15,harbor12,tr13,1556,9336).
route(harbor15,harbor12,tr2,1556,4668).
route(harbor15,harbor13,tr13,27463,164778).
route(harbor15,harbor13,tr2,27463,82389).
route(harbor15,harbor14,tr13,15584,93504).
route(harbor15,harbor14,tr2,15584,46752).
route(harbor15,harbor16,tr13,23659,141954).
route(harbor15,harbor16,tr2,23659,70977).
route(harbor15,prodloc0,tr0,6177,160602).
route(harbor15,prodloc0,tr13,6177,37062).
route(harbor15,prodloc1,tr0,4634,120484).
route(harbor15,prodloc1,tr13,4634,27804).
route(harbor15,prodloc2,tr0,1767,45942).
route(harbor15,prodloc2,tr13,1767,10602).
route(harbor15,prodloc3,tr0,5473,142298).
route(harbor15,prodloc3,tr13,5473,32838).
route(harbor15,prodloc4,tr0,26397,686322).
route(harbor15,prodloc4,tr13,26397,158382).
route(harbor15,prodloc5,tr0,7337,190762).
route(harbor15,prodloc5,tr13,7337,44022).
route(harbor15,prodloc6,tr0,23463,610038).
route(harbor15,prodloc6,tr13,23463,140778).
route(harbor15,prodloc7,tr0,3014,78364).
route(harbor15,prodloc7,tr13,3014,18084).
route(harbor15,prodloc8,tr0,25238,656188).
route(harbor15,prodloc8,tr13,25238,151428).
route(harbor15,prodloc9,tr0,8878,230828).
route(harbor15,prodloc9,tr13,8878,53268).
route(harbor15,prodloc10,tr0,5391,140166).
route(harbor15,prodloc10,tr13,5391,32346).
route(harbor15,prodloc11,tr0,2237,58162).
route(harbor15,prodloc11,tr13,2237,13422).
route(harbor15,prodloc12,tr0,790,20540).
route(harbor15,prodloc12,tr13,790,4740).
route(harbor15,prodloc13,tr0,10917,283842).
route(harbor15,prodloc13,tr13,10917,65502).
route(harbor15,prodloc14,tr0,7926,206076).
route(harbor15,prodloc14,tr13,7926,47556).
route(harbor15,prodloc15,tr0,27189,706914).
route(harbor15,prodloc15,tr13,27189,163134).
route(harbor15,prodloc16,tr0,21641,562666).
route(harbor15,prodloc16,tr13,21641,129846).
route(harbor15,prodloc17,tr0,27401,712426).
route(harbor15,prodloc17,tr13,27401,164406).
route(harbor15,prodloc18,tr0,27322,710372).
route(harbor15,prodloc18,tr13,27322,163932).
route(harbor15,prodloc19,tr0,20414,530764).
route(harbor15,prodloc19,tr13,20414,122484).
route(harbor15,prodloc20,tr0,15382,399932).
route(harbor15,prodloc20,tr13,15382,92292).
route(harbor15,prodloc21,tr0,8121,211146).
route(harbor15,prodloc21,tr13,8121,48726).
route(harbor15,prodloc22,tr0,25188,654888).
route(harbor15,prodloc22,tr13,25188,151128).
route(harbor15,prodloc23,tr0,15373,399698).
route(harbor15,prodloc23,tr13,15373,92238).
route(harbor15,prodloc24,tr0,400,10400).
route(harbor15,prodloc24,tr13,400,2400).
route(harbor15,prodloc25,tr0,5703,148278).
route(harbor15,prodloc25,tr13,5703,34218).
route(harbor15,prodloc26,tr0,27149,705874).
route(harbor15,prodloc26,tr13,27149,162894).
route(harbor15,prodloc27,tr0,4936,128336).
route(harbor15,prodloc27,tr13,4936,29616).
route(harbor15,prodloc28,tr0,25061,651586).
route(harbor15,prodloc28,tr13,25061,150366).
route(harbor15,prodloc29,tr0,9842,255892).
route(harbor15,prodloc29,tr13,9842,59052).
route(harbor15,prodloc30,tr0,28468,740168).
route(harbor15,prodloc30,tr13,28468,170808).
route(harbor15,prodloc31,tr0,13157,342082).
route(harbor15,prodloc31,tr13,13157,78942).
route(harbor15,prodloc32,tr0,19390,504140).
route(harbor15,prodloc32,tr13,19390,116340).
route(harbor15,prodloc33,tr0,40,1040).
route(harbor15,prodloc33,tr13,40,240).
route(harbor16,harbor0,tr13,39,234).
route(harbor16,harbor0,tr2,39,117).
route(harbor16,harbor1,tr13,28449,170694).
route(harbor16,harbor1,tr2,28449,85347).
route(harbor16,harbor2,tr13,12486,74916).
route(harbor16,harbor2,tr2,12486,37458).
route(harbor16,harbor3,tr13,13935,83610).
route(harbor16,harbor3,tr2,13935,41805).
route(harbor16,harbor4,tr13,1287,7722).
route(harbor16,harbor4,tr2,1287,3861).
route(harbor16,harbor5,tr13,27505,165030).
route(harbor16,harbor5,tr2,27505,82515).
route(harbor16,harbor6,tr13,6676,40056).
route(harbor16,harbor6,tr2,6676,20028).
route(harbor16,harbor7,tr13,28463,170778).
route(harbor16,harbor7,tr2,28463,85389).
route(harbor16,harbor8,tr13,11711,70266).
route(harbor16,harbor8,tr2,11711,35133).
route(harbor16,harbor9,tr13,21442,128652).
route(harbor16,harbor9,tr2,21442,64326).
route(harbor16,harbor10,tr13,19310,115860).
route(harbor16,harbor10,tr2,19310,57930).
route(harbor16,harbor11,tr13,17986,107916).
route(harbor16,harbor11,tr2,17986,53958).
route(harbor16,harbor12,tr13,28040,168240).
route(harbor16,harbor12,tr2,28040,84120).
route(harbor16,harbor13,tr13,17186,103116).
route(harbor16,harbor13,tr2,17186,51558).
route(harbor16,harbor14,tr13,26518,159108).
route(harbor16,harbor14,tr2,26518,79554).
route(harbor16,harbor15,tr13,19177,115062).
route(harbor16,harbor15,tr2,19177,57531).
route(harbor16,prodloc0,tr0,9294,241644).
route(harbor16,prodloc0,tr13,9294,55764).
route(harbor16,prodloc1,tr0,14234,370084).
route(harbor16,prodloc1,tr13,14234,85404).
route(harbor16,prodloc2,tr0,3644,94744).
route(harbor16,prodloc2,tr13,3644,21864).
route(harbor16,prodloc3,tr0,7147,185822).
route(harbor16,prodloc3,tr13,7147,42882).
route(harbor16,prodloc4,tr0,27801,722826).
route(harbor16,prodloc4,tr13,27801,166806).
route(harbor16,prodloc5,tr0,17268,448968).
route(harbor16,prodloc5,tr13,17268,103608).
route(harbor16,prodloc6,tr0,27157,706082).
route(harbor16,prodloc6,tr13,27157,162942).
route(harbor16,prodloc7,tr0,10154,264004).
route(harbor16,prodloc7,tr13,10154,60924).
route(harbor16,prodloc8,tr0,8732,227032).
route(harbor16,prodloc8,tr13,8732,52392).
route(harbor16,prodloc9,tr0,14069,365794).
route(harbor16,prodloc9,tr13,14069,84414).
route(harbor16,prodloc10,tr0,13543,352118).
route(harbor16,prodloc10,tr13,13543,81258).
route(harbor16,prodloc11,tr0,9089,236314).
route(harbor16,prodloc11,tr13,9089,54534).
route(harbor16,prodloc12,tr0,24904,647504).
route(harbor16,prodloc12,tr13,24904,149424).
route(harbor16,prodloc13,tr0,8391,218166).
route(harbor16,prodloc13,tr13,8391,50346).
route(harbor16,prodloc14,tr0,11123,289198).
route(harbor16,prodloc14,tr13,11123,66738).
route(harbor16,prodloc15,tr0,3972,103272).
route(harbor16,prodloc15,tr13,3972,23832).
route(harbor16,prodloc16,tr0,22128,575328).
route(harbor16,prodloc16,tr13,22128,132768).
route(harbor16,prodloc17,tr0,1145,29770).
route(harbor16,prodloc17,tr13,1145,6870).
route(harbor16,prodloc18,tr0,3960,102960).
route(harbor16,prodloc18,tr13,3960,23760).
route(harbor16,prodloc19,tr0,1378,35828).
route(harbor16,prodloc19,tr13,1378,8268).
route(harbor16,prodloc20,tr0,18106,470756).
route(harbor16,prodloc20,tr13,18106,108636).
route(harbor16,prodloc21,tr0,21776,566176).
route(harbor16,prodloc21,tr13,21776,130656).
route(harbor16,prodloc22,tr0,26517,689442).
route(harbor16,prodloc22,tr13,26517,159102).
route(harbor16,prodloc23,tr0,12388,322088).
route(harbor16,prodloc23,tr13,12388,74328).
route(harbor16,prodloc24,tr0,1794,46644).
route(harbor16,prodloc24,tr13,1794,10764).
route(harbor16,prodloc25,tr0,16692,433992).
route(harbor16,prodloc25,tr13,16692,100152).
route(harbor16,prodloc26,tr0,19039,495014).
route(harbor16,prodloc26,tr13,19039,114234).
route(harbor16,prodloc27,tr0,22513,585338).
route(harbor16,prodloc27,tr13,22513,135078).
route(harbor16,prodloc28,tr0,26667,693342).
route(harbor16,prodloc28,tr13,26667,160002).
route(harbor16,prodloc29,tr0,18277,475202).
route(harbor16,prodloc29,tr13,18277,109662).
route(harbor16,prodloc30,tr0,22348,581048).
route(harbor16,prodloc30,tr13,22348,134088).
route(harbor16,prodloc31,tr0,4286,111436).
route(harbor16,prodloc31,tr13,4286,25716).
route(harbor16,prodloc32,tr0,10824,281424).
route(harbor16,prodloc32,tr13,10824,64944).
route(harbor16,prodloc33,tr0,5124,133224).
route(harbor16,prodloc33,tr13,5124,30744).
route(prodloc0,harbor0,tr0,3876,100776).
route(prodloc0,harbor0,tr13,3876,23256).
route(prodloc0,harbor1,tr0,3403,88478).
route(prodloc0,harbor1,tr13,3403,20418).
route(prodloc0,harbor2,tr0,23998,623948).
route(prodloc0,harbor2,tr13,23998,143988).
route(prodloc0,harbor3,tr0,20719,538694).
route(prodloc0,harbor3,tr13,20719,124314).
route(prodloc0,harbor4,tr0,24062,625612).
route(prodloc0,harbor4,tr13,24062,144372).
route(prodloc0,harbor5,tr0,3826,99476).
route(prodloc0,harbor5,tr13,3826,22956).
route(prodloc0,harbor6,tr0,384,9984).
route(prodloc0,harbor6,tr13,384,2304).
route(prodloc0,harbor7,tr0,28182,732732).
route(prodloc0,harbor7,tr13,28182,169092).
route(prodloc0,harbor8,tr0,54,1404).
route(prodloc0,harbor8,tr13,54,324).
route(prodloc0,harbor9,tr0,25117,653042).
route(prodloc0,harbor9,tr13,25117,150702).
route(prodloc0,harbor10,tr0,20065,521690).
route(prodloc0,harbor10,tr13,20065,120390).
route(prodloc0,harbor11,tr0,8437,219362).
route(prodloc0,harbor11,tr13,8437,50622).
route(prodloc0,harbor12,tr0,15359,399334).
route(prodloc0,harbor12,tr13,15359,92154).
route(prodloc0,harbor13,tr0,14921,387946).
route(prodloc0,harbor13,tr13,14921,89526).
route(prodloc0,harbor14,tr0,2715,70590).
route(prodloc0,harbor14,tr13,2715,16290).
route(prodloc0,harbor15,tr0,3327,86502).
route(prodloc0,harbor15,tr13,3327,19962).
route(prodloc0,harbor16,tr0,26677,693602).
route(prodloc0,harbor16,tr13,26677,160062).
route(prodloc0,prodloc1,tr0,6033,156858).
route(prodloc0,prodloc1,tr13,6033,36198).
route(prodloc0,prodloc2,tr0,15317,398242).
route(prodloc0,prodloc2,tr13,15317,91902).
route(prodloc0,prodloc3,tr0,248,6448).
route(prodloc0,prodloc3,tr13,248,1488).
route(prodloc0,prodloc4,tr0,27380,711880).
route(prodloc0,prodloc4,tr13,27380,164280).
route(prodloc0,prodloc5,tr13,20009,120054).
route(prodloc0,prodloc5,tr15,20009,640288).
route(prodloc0,prodloc6,tr0,13903,361478).
route(prodloc0,prodloc6,tr13,13903,83418).
route(prodloc0,prodloc7,tr0,11715,304590).
route(prodloc0,prodloc7,tr13,11715,70290).
route(prodloc0,prodloc8,tr0,14316,372216).
route(prodloc0,prodloc8,tr13,14316,85896).
route(prodloc0,prodloc9,tr0,6910,179660).
route(prodloc0,prodloc9,tr13,6910,41460).
route(prodloc0,prodloc10,tr0,17882,464932).
route(prodloc0,prodloc10,tr13,17882,107292).
route(prodloc0,prodloc11,tr0,4691,121966).
route(prodloc0,prodloc11,tr13,4691,28146).
route(prodloc0,prodloc12,tr0,25824,671424).
route(prodloc0,prodloc12,tr13,25824,154944).
route(prodloc0,prodloc13,tr0,13931,362206).
route(prodloc0,prodloc13,tr13,13931,83586).
route(prodloc0,prodloc14,tr0,18712,486512).
route(prodloc0,prodloc14,tr13,18712,112272).
route(prodloc0,prodloc15,tr0,22276,579176).
route(prodloc0,prodloc15,tr13,22276,133656).
route(prodloc0,prodloc16,tr0,21258,552708).
route(prodloc0,prodloc16,tr13,21258,127548).
route(prodloc0,prodloc17,tr0,27657,719082).
route(prodloc0,prodloc17,tr13,27657,165942).
route(prodloc0,prodloc18,tr0,13373,347698).
route(prodloc0,prodloc18,tr13,13373,80238).
route(prodloc0,prodloc19,tr0,12227,317902).
route(prodloc0,prodloc19,tr13,12227,73362).
route(prodloc0,prodloc20,tr0,6291,163566).
route(prodloc0,prodloc20,tr13,6291,37746).
route(prodloc0,prodloc21,tr13,24507,147042).
route(prodloc0,prodloc21,tr15,24507,784224).
route(prodloc0,prodloc22,tr0,7865,204490).
route(prodloc0,prodloc22,tr13,7865,47190).
route(prodloc0,prodloc23,tr0,19124,497224).
route(prodloc0,prodloc23,tr13,19124,114744).
route(prodloc0,prodloc24,tr0,26942,700492).
route(prodloc0,prodloc24,tr13,26942,161652).
route(prodloc0,prodloc25,tr0,9772,254072).
route(prodloc0,prodloc25,tr13,9772,58632).
route(prodloc0,prodloc26,tr0,555,14430).
route(prodloc0,prodloc26,tr13,555,3330).
route(prodloc0,prodloc27,tr0,4992,129792).
route(prodloc0,prodloc27,tr13,4992,29952).
route(prodloc0,prodloc28,tr0,26554,690404).
route(prodloc0,prodloc28,tr13,26554,159324).
route(prodloc0,prodloc29,tr0,16997,441922).
route(prodloc0,prodloc29,tr13,16997,101982).
route(prodloc0,prodloc30,tr0,17604,457704).
route(prodloc0,prodloc30,tr13,17604,105624).
route(prodloc0,prodloc31,tr0,19796,514696).
route(prodloc0,prodloc31,tr13,19796,118776).
route(prodloc0,prodloc32,tr0,11526,299676).
route(prodloc0,prodloc32,tr13,11526,69156).
route(prodloc0,prodloc33,tr0,6321,164346).
route(prodloc0,prodloc33,tr13,6321,37926).
route(prodloc1,harbor0,tr0,14925,388050).
route(prodloc1,harbor0,tr13,14925,89550).
route(prodloc1,harbor1,tr0,21264,552864).
route(prodloc1,harbor1,tr13,21264,127584).
route(prodloc1,harbor2,tr0,13399,348374).
route(prodloc1,harbor2,tr13,13399,80394).
route(prodloc1,harbor3,tr0,19266,500916).
route(prodloc1,harbor3,tr13,19266,115596).
route(prodloc1,harbor4,tr0,23650,614900).
route(prodloc1,harbor4,tr13,23650,141900).
route(prodloc1,harbor5,tr0,24788,644488).
route(prodloc1,harbor5,tr13,24788,148728).
route(prodloc1,harbor6,tr0,24016,624416).
route(prodloc1,harbor6,tr13,24016,144096).
route(prodloc1,harbor7,tr0,23664,615264).
route(prodloc1,harbor7,tr13,23664,141984).
route(prodloc1,harbor8,tr0,15770,410020).
route(prodloc1,harbor8,tr13,15770,94620).
route(prodloc1,harbor9,tr0,22215,577590).
route(prodloc1,harbor9,tr13,22215,133290).
route(prodloc1,harbor10,tr0,20914,543764).
route(prodloc1,harbor10,tr13,20914,125484).
route(prodloc1,harbor11,tr0,6317,164242).
route(prodloc1,harbor11,tr13,6317,37902).
route(prodloc1,harbor12,tr0,1171,30446).
route(prodloc1,harbor12,tr13,1171,7026).
route(prodloc1,harbor13,tr0,22876,594776).
route(prodloc1,harbor13,tr13,22876,137256).
route(prodloc1,harbor14,tr0,16452,427752).
route(prodloc1,harbor14,tr13,16452,98712).
route(prodloc1,harbor15,tr0,607,15782).
route(prodloc1,harbor15,tr13,607,3642).
route(prodloc1,harbor16,tr0,16915,439790).
route(prodloc1,harbor16,tr13,16915,101490).
route(prodloc1,prodloc0,tr0,27739,721214).
route(prodloc1,prodloc0,tr13,27739,166434).
route(prodloc1,prodloc2,tr0,11015,286390).
route(prodloc1,prodloc2,tr13,11015,66090).
route(prodloc1,prodloc3,tr0,9454,245804).
route(prodloc1,prodloc3,tr13,9454,56724).
route(prodloc1,prodloc4,tr0,14528,377728).
route(prodloc1,prodloc4,tr13,14528,87168).
route(prodloc1,prodloc5,tr0,26415,686790).
route(prodloc1,prodloc5,tr13,26415,158490).
route(prodloc1,prodloc6,tr0,4059,105534).
route(prodloc1,prodloc6,tr13,4059,24354).
route(prodloc1,prodloc7,tr0,13047,339222).
route(prodloc1,prodloc7,tr13,13047,78282).
route(prodloc1,prodloc8,tr0,5877,152802).
route(prodloc1,prodloc8,tr13,5877,35262).
route(prodloc1,prodloc9,tr13,16739,100434).
route(prodloc1,prodloc9,tr15,16739,535648).
route(prodloc1,prodloc10,tr13,19807,118842).
route(prodloc1,prodloc10,tr15,19807,633824).
route(prodloc1,prodloc11,tr0,755,19630).
route(prodloc1,prodloc11,tr13,755,4530).
route(prodloc1,prodloc12,tr0,336,8736).
route(prodloc1,prodloc12,tr13,336,2016).
route(prodloc1,prodloc13,tr0,4024,104624).
route(prodloc1,prodloc13,tr13,4024,24144).
route(prodloc1,prodloc14,tr0,10259,266734).
route(prodloc1,prodloc14,tr13,10259,61554).
route(prodloc1,prodloc15,tr0,9721,252746).
route(prodloc1,prodloc15,tr13,9721,58326).
route(prodloc1,prodloc16,tr0,133,3458).
route(prodloc1,prodloc16,tr13,133,798).
route(prodloc1,prodloc17,tr0,24513,637338).
route(prodloc1,prodloc17,tr13,24513,147078).
route(prodloc1,prodloc18,tr0,2239,58214).
route(prodloc1,prodloc18,tr13,2239,13434).
route(prodloc1,prodloc19,tr0,13688,355888).
route(prodloc1,prodloc19,tr13,13688,82128).
route(prodloc1,prodloc20,tr0,3399,88374).
route(prodloc1,prodloc20,tr13,3399,20394).
route(prodloc1,prodloc21,tr0,22396,582296).
route(prodloc1,prodloc21,tr13,22396,134376).
route(prodloc1,prodloc22,tr0,20330,528580).
route(prodloc1,prodloc22,tr13,20330,121980).
route(prodloc1,prodloc23,tr0,25146,653796).
route(prodloc1,prodloc23,tr13,25146,150876).
route(prodloc1,prodloc24,tr0,15299,397774).
route(prodloc1,prodloc24,tr13,15299,91794).
route(prodloc1,prodloc25,tr0,15081,392106).
route(prodloc1,prodloc25,tr13,15081,90486).
route(prodloc1,prodloc26,tr0,1735,45110).
route(prodloc1,prodloc26,tr13,1735,10410).
route(prodloc1,prodloc27,tr0,22828,593528).
route(prodloc1,prodloc27,tr13,22828,136968).
route(prodloc1,prodloc28,tr0,823,21398).
route(prodloc1,prodloc28,tr13,823,4938).
route(prodloc1,prodloc29,tr0,3752,97552).
route(prodloc1,prodloc29,tr13,3752,22512).
route(prodloc1,prodloc30,tr0,26924,700024).
route(prodloc1,prodloc30,tr13,26924,161544).
route(prodloc1,prodloc31,tr0,23560,612560).
route(prodloc1,prodloc31,tr13,23560,141360).
route(prodloc1,prodloc32,tr0,7861,204386).
route(prodloc1,prodloc32,tr13,7861,47166).
route(prodloc1,prodloc33,tr0,23005,598130).
route(prodloc1,prodloc33,tr13,23005,138030).
route(prodloc2,harbor0,tr0,18631,484406).
route(prodloc2,harbor0,tr13,18631,111786).
route(prodloc2,harbor1,tr0,12312,320112).
route(prodloc2,harbor1,tr13,12312,73872).
route(prodloc2,harbor2,tr0,717,18642).
route(prodloc2,harbor2,tr13,717,4302).
route(prodloc2,harbor3,tr0,28148,731848).
route(prodloc2,harbor3,tr13,28148,168888).
route(prodloc2,harbor4,tr0,18394,478244).
route(prodloc2,harbor4,tr13,18394,110364).
route(prodloc2,harbor5,tr0,2099,54574).
route(prodloc2,harbor5,tr13,2099,12594).
route(prodloc2,harbor6,tr0,4539,118014).
route(prodloc2,harbor6,tr13,4539,27234).
route(prodloc2,harbor7,tr0,2062,53612).
route(prodloc2,harbor7,tr13,2062,12372).
route(prodloc2,harbor8,tr0,21347,555022).
route(prodloc2,harbor8,tr13,21347,128082).
route(prodloc2,harbor9,tr0,28778,748228).
route(prodloc2,harbor9,tr13,28778,172668).
route(prodloc2,harbor10,tr0,20658,537108).
route(prodloc2,harbor10,tr13,20658,123948).
route(prodloc2,harbor11,tr0,27153,705978).
route(prodloc2,harbor11,tr13,27153,162918).
route(prodloc2,harbor12,tr0,15219,395694).
route(prodloc2,harbor12,tr13,15219,91314).
route(prodloc2,harbor13,tr0,11166,290316).
route(prodloc2,harbor13,tr13,11166,66996).
route(prodloc2,harbor14,tr0,11164,290264).
route(prodloc2,harbor14,tr13,11164,66984).
route(prodloc2,harbor15,tr0,4145,107770).
route(prodloc2,harbor15,tr13,4145,24870).
route(prodloc2,harbor16,tr0,13060,339560).
route(prodloc2,harbor16,tr13,13060,78360).
route(prodloc2,prodloc0,tr0,17636,458536).
route(prodloc2,prodloc0,tr13,17636,105816).
route(prodloc2,prodloc1,tr0,3696,96096).
route(prodloc2,prodloc1,tr13,3696,22176).
route(prodloc2,prodloc3,tr0,16565,430690).
route(prodloc2,prodloc3,tr13,16565,99390).
route(prodloc2,prodloc4,tr0,21472,558272).
route(prodloc2,prodloc4,tr13,21472,128832).
route(prodloc2,prodloc5,tr0,13310,346060).
route(prodloc2,prodloc5,tr13,13310,79860).
route(prodloc2,prodloc6,tr0,20704,538304).
route(prodloc2,prodloc6,tr13,20704,124224).
route(prodloc2,prodloc7,tr0,27271,709046).
route(prodloc2,prodloc7,tr13,27271,163626).
route(prodloc2,prodloc8,tr0,19165,498290).
route(prodloc2,prodloc8,tr13,19165,114990).
route(prodloc2,prodloc9,tr0,2836,73736).
route(prodloc2,prodloc9,tr13,2836,17016).
route(prodloc2,prodloc10,tr0,15348,399048).
route(prodloc2,prodloc10,tr13,15348,92088).
route(prodloc2,prodloc11,tr0,12708,330408).
route(prodloc2,prodloc11,tr13,12708,76248).
route(prodloc2,prodloc12,tr0,6065,157690).
route(prodloc2,prodloc12,tr13,6065,36390).
route(prodloc2,prodloc13,tr0,21046,547196).
route(prodloc2,prodloc13,tr13,21046,126276).
route(prodloc2,prodloc14,tr0,12258,318708).
route(prodloc2,prodloc14,tr13,12258,73548).
route(prodloc2,prodloc15,tr0,16492,428792).
route(prodloc2,prodloc15,tr13,16492,98952).
route(prodloc2,prodloc16,tr0,16642,432692).
route(prodloc2,prodloc16,tr13,16642,99852).
route(prodloc2,prodloc17,tr0,14025,364650).
route(prodloc2,prodloc17,tr13,14025,84150).
route(prodloc2,prodloc18,tr0,2571,66846).
route(prodloc2,prodloc18,tr13,2571,15426).
route(prodloc2,prodloc19,tr0,19952,518752).
route(prodloc2,prodloc19,tr13,19952,119712).
route(prodloc2,prodloc20,tr0,6949,180674).
route(prodloc2,prodloc20,tr13,6949,41694).
route(prodloc2,prodloc21,tr0,5701,148226).
route(prodloc2,prodloc21,tr13,5701,34206).
route(prodloc2,prodloc22,tr0,7513,195338).
route(prodloc2,prodloc22,tr13,7513,45078).
route(prodloc2,prodloc23,tr0,16621,432146).
route(prodloc2,prodloc23,tr13,16621,99726).
route(prodloc2,prodloc24,tr0,1912,49712).
route(prodloc2,prodloc24,tr13,1912,11472).
route(prodloc2,prodloc25,tr0,1745,45370).
route(prodloc2,prodloc25,tr13,1745,10470).
route(prodloc2,prodloc26,tr0,4758,123708).
route(prodloc2,prodloc26,tr13,4758,28548).
route(prodloc2,prodloc27,tr0,8725,226850).
route(prodloc2,prodloc27,tr13,8725,52350).
route(prodloc2,prodloc28,tr0,14207,369382).
route(prodloc2,prodloc28,tr13,14207,85242).
route(prodloc2,prodloc29,tr0,1257,32682).
route(prodloc2,prodloc29,tr13,1257,7542).
route(prodloc2,prodloc30,tr0,15236,396136).
route(prodloc2,prodloc30,tr13,15236,91416).
route(prodloc2,prodloc31,tr0,9290,241540).
route(prodloc2,prodloc31,tr13,9290,55740).
route(prodloc2,prodloc32,tr0,11194,291044).
route(prodloc2,prodloc32,tr13,11194,67164).
route(prodloc2,prodloc33,tr0,1327,34502).
route(prodloc2,prodloc33,tr13,1327,7962).
route(prodloc3,harbor0,tr0,3305,85930).
route(prodloc3,harbor0,tr13,3305,19830).
route(prodloc3,harbor1,tr0,6678,173628).
route(prodloc3,harbor1,tr13,6678,40068).
route(prodloc3,harbor2,tr0,1231,32006).
route(prodloc3,harbor2,tr13,1231,7386).
route(prodloc3,harbor3,tr0,15830,411580).
route(prodloc3,harbor3,tr13,15830,94980).
route(prodloc3,harbor4,tr0,4358,113308).
route(prodloc3,harbor4,tr13,4358,26148).
route(prodloc3,harbor5,tr0,27846,723996).
route(prodloc3,harbor5,tr13,27846,167076).
route(prodloc3,harbor6,tr0,20246,526396).
route(prodloc3,harbor6,tr13,20246,121476).
route(prodloc3,harbor7,tr0,27192,706992).
route(prodloc3,harbor7,tr13,27192,163152).
route(prodloc3,harbor8,tr0,17128,445328).
route(prodloc3,harbor8,tr13,17128,102768).
route(prodloc3,harbor9,tr0,24222,629772).
route(prodloc3,harbor9,tr13,24222,145332).
route(prodloc3,harbor10,tr0,944,24544).
route(prodloc3,harbor10,tr13,944,5664).
route(prodloc3,harbor11,tr0,9804,254904).
route(prodloc3,harbor11,tr13,9804,58824).
route(prodloc3,harbor12,tr0,2515,65390).
route(prodloc3,harbor12,tr13,2515,15090).
route(prodloc3,harbor13,tr0,16277,423202).
route(prodloc3,harbor13,tr13,16277,97662).
route(prodloc3,harbor14,tr0,11790,306540).
route(prodloc3,harbor14,tr13,11790,70740).
route(prodloc3,harbor15,tr0,16062,417612).
route(prodloc3,harbor15,tr13,16062,96372).
route(prodloc3,harbor16,tr0,4314,112164).
route(prodloc3,harbor16,tr13,4314,25884).
route(prodloc3,prodloc0,tr0,10290,267540).
route(prodloc3,prodloc0,tr13,10290,61740).
route(prodloc3,prodloc1,tr0,20561,534586).
route(prodloc3,prodloc1,tr13,20561,123366).
route(prodloc3,prodloc2,tr0,19499,506974).
route(prodloc3,prodloc2,tr13,19499,116994).
route(prodloc3,prodloc4,tr0,10897,283322).
route(prodloc3,prodloc4,tr13,10897,65382).
route(prodloc3,prodloc5,tr0,28399,738374).
route(prodloc3,prodloc5,tr13,28399,170394).
route(prodloc3,prodloc6,tr0,25635,666510).
route(prodloc3,prodloc6,tr13,25635,153810).
route(prodloc3,prodloc7,tr0,8678,225628).
route(prodloc3,prodloc7,tr13,8678,52068).
route(prodloc3,prodloc8,tr0,11181,290706).
route(prodloc3,prodloc8,tr13,11181,67086).
route(prodloc3,prodloc9,tr0,19917,517842).
route(prodloc3,prodloc9,tr13,19917,119502).
route(prodloc3,prodloc10,tr0,19967,519142).
route(prodloc3,prodloc10,tr13,19967,119802).
route(prodloc3,prodloc11,tr0,10075,261950).
route(prodloc3,prodloc11,tr13,10075,60450).
route(prodloc3,prodloc12,tr0,1608,41808).
route(prodloc3,prodloc12,tr13,1608,9648).
route(prodloc3,prodloc13,tr0,14300,371800).
route(prodloc3,prodloc13,tr13,14300,85800).
route(prodloc3,prodloc14,tr0,12625,328250).
route(prodloc3,prodloc14,tr13,12625,75750).
route(prodloc3,prodloc15,tr0,17082,444132).
route(prodloc3,prodloc15,tr13,17082,102492).
route(prodloc3,prodloc16,tr0,2311,60086).
route(prodloc3,prodloc16,tr13,2311,13866).
route(prodloc3,prodloc17,tr0,2199,57174).
route(prodloc3,prodloc17,tr13,2199,13194).
route(prodloc3,prodloc18,tr0,22288,579488).
route(prodloc3,prodloc18,tr13,22288,133728).
route(prodloc3,prodloc19,tr0,18059,469534).
route(prodloc3,prodloc19,tr13,18059,108354).
route(prodloc3,prodloc20,tr0,27753,721578).
route(prodloc3,prodloc20,tr13,27753,166518).
route(prodloc3,prodloc21,tr0,9525,247650).
route(prodloc3,prodloc21,tr13,9525,57150).
route(prodloc3,prodloc22,tr0,1744,45344).
route(prodloc3,prodloc22,tr13,1744,10464).
route(prodloc3,prodloc23,tr0,10644,276744).
route(prodloc3,prodloc23,tr13,10644,63864).
route(prodloc3,prodloc24,tr0,6931,180206).
route(prodloc3,prodloc24,tr13,6931,41586).
route(prodloc3,prodloc25,tr0,9914,257764).
route(prodloc3,prodloc25,tr13,9914,59484).
route(prodloc3,prodloc26,tr0,20446,531596).
route(prodloc3,prodloc26,tr13,20446,122676).
route(prodloc3,prodloc27,tr0,9882,256932).
route(prodloc3,prodloc27,tr13,9882,59292).
route(prodloc3,prodloc28,tr0,11426,297076).
route(prodloc3,prodloc28,tr13,11426,68556).
route(prodloc3,prodloc29,tr0,1309,34034).
route(prodloc3,prodloc29,tr13,1309,7854).
route(prodloc3,prodloc30,tr0,25786,670436).
route(prodloc3,prodloc30,tr13,25786,154716).
route(prodloc3,prodloc31,tr0,9657,251082).
route(prodloc3,prodloc31,tr13,9657,57942).
route(prodloc3,prodloc32,tr0,5062,131612).
route(prodloc3,prodloc32,tr13,5062,30372).
route(prodloc3,prodloc33,tr0,6716,174616).
route(prodloc3,prodloc33,tr13,6716,40296).
route(prodloc4,harbor0,tr0,1617,42042).
route(prodloc4,harbor0,tr13,1617,9702).
route(prodloc4,harbor1,tr0,22053,573378).
route(prodloc4,harbor1,tr13,22053,132318).
route(prodloc4,harbor2,tr0,25355,659230).
route(prodloc4,harbor2,tr13,25355,152130).
route(prodloc4,harbor3,tr0,7766,201916).
route(prodloc4,harbor3,tr13,7766,46596).
route(prodloc4,harbor4,tr0,2989,77714).
route(prodloc4,harbor4,tr13,2989,17934).
route(prodloc4,harbor5,tr0,15807,410982).
route(prodloc4,harbor5,tr13,15807,94842).
route(prodloc4,harbor6,tr0,15203,395278).
route(prodloc4,harbor6,tr13,15203,91218).
route(prodloc4,harbor7,tr0,407,10582).
route(prodloc4,harbor7,tr13,407,2442).
route(prodloc4,harbor8,tr0,28601,743626).
route(prodloc4,harbor8,tr13,28601,171606).
route(prodloc4,harbor9,tr0,9593,249418).
route(prodloc4,harbor9,tr13,9593,57558).
route(prodloc4,harbor10,tr0,12741,331266).
route(prodloc4,harbor10,tr13,12741,76446).
route(prodloc4,harbor11,tr0,6102,158652).
route(prodloc4,harbor11,tr13,6102,36612).
route(prodloc4,harbor12,tr0,8448,219648).
route(prodloc4,harbor12,tr13,8448,50688).
route(prodloc4,harbor13,tr0,22716,590616).
route(prodloc4,harbor13,tr13,22716,136296).
route(prodloc4,harbor14,tr0,7658,199108).
route(prodloc4,harbor14,tr13,7658,45948).
route(prodloc4,harbor15,tr0,8758,227708).
route(prodloc4,harbor15,tr13,8758,52548).
route(prodloc4,harbor16,tr0,12726,330876).
route(prodloc4,harbor16,tr13,12726,76356).
route(prodloc4,prodloc0,tr0,14075,365950).
route(prodloc4,prodloc0,tr13,14075,84450).
route(prodloc4,prodloc1,tr0,26857,698282).
route(prodloc4,prodloc1,tr13,26857,161142).
route(prodloc4,prodloc2,tr0,7916,205816).
route(prodloc4,prodloc2,tr13,7916,47496).
route(prodloc4,prodloc3,tr0,21327,554502).
route(prodloc4,prodloc3,tr13,21327,127962).
route(prodloc4,prodloc5,tr0,410,10660).
route(prodloc4,prodloc5,tr13,410,2460).
route(prodloc4,prodloc6,tr0,28840,749840).
route(prodloc4,prodloc6,tr13,28840,173040).
route(prodloc4,prodloc7,tr0,1345,34970).
route(prodloc4,prodloc7,tr13,1345,8070).
route(prodloc4,prodloc8,tr0,3593,93418).
route(prodloc4,prodloc8,tr13,3593,21558).
route(prodloc4,prodloc9,tr0,21525,559650).
route(prodloc4,prodloc9,tr13,21525,129150).
route(prodloc4,prodloc10,tr0,11699,304174).
route(prodloc4,prodloc10,tr13,11699,70194).
route(prodloc4,prodloc11,tr0,21499,558974).
route(prodloc4,prodloc11,tr13,21499,128994).
route(prodloc4,prodloc12,tr0,21392,556192).
route(prodloc4,prodloc12,tr13,21392,128352).
route(prodloc4,prodloc13,tr0,4174,108524).
route(prodloc4,prodloc13,tr13,4174,25044).
route(prodloc4,prodloc14,tr0,24639,640614).
route(prodloc4,prodloc14,tr13,24639,147834).
route(prodloc4,prodloc15,tr0,1031,26806).
route(prodloc4,prodloc15,tr13,1031,6186).
route(prodloc4,prodloc16,tr0,463,12038).
route(prodloc4,prodloc16,tr13,463,2778).
route(prodloc4,prodloc17,tr0,15818,411268).
route(prodloc4,prodloc17,tr13,15818,94908).
route(prodloc4,prodloc18,tr0,22828,593528).
route(prodloc4,prodloc18,tr13,22828,136968).
route(prodloc4,prodloc19,tr0,10079,262054).
route(prodloc4,prodloc19,tr13,10079,60474).
route(prodloc4,prodloc20,tr0,25093,652418).
route(prodloc4,prodloc20,tr13,25093,150558).
route(prodloc4,prodloc21,tr0,28653,744978).
route(prodloc4,prodloc21,tr13,28653,171918).
route(prodloc4,prodloc22,tr0,805,20930).
route(prodloc4,prodloc22,tr13,805,4830).
route(prodloc4,prodloc23,tr0,22676,589576).
route(prodloc4,prodloc23,tr13,22676,136056).
route(prodloc4,prodloc24,tr0,27123,705198).
route(prodloc4,prodloc24,tr13,27123,162738).
route(prodloc4,prodloc25,tr0,12507,325182).
route(prodloc4,prodloc25,tr13,12507,75042).
route(prodloc4,prodloc26,tr0,13474,350324).
route(prodloc4,prodloc26,tr13,13474,80844).
route(prodloc4,prodloc27,tr0,25758,669708).
route(prodloc4,prodloc27,tr13,25758,154548).
route(prodloc4,prodloc28,tr0,703,18278).
route(prodloc4,prodloc28,tr13,703,4218).
route(prodloc4,prodloc29,tr0,17267,448942).
route(prodloc4,prodloc29,tr13,17267,103602).
route(prodloc4,prodloc30,tr0,17307,449982).
route(prodloc4,prodloc30,tr13,17307,103842).
route(prodloc4,prodloc31,tr0,20511,533286).
route(prodloc4,prodloc31,tr13,20511,123066).
route(prodloc4,prodloc32,tr0,8968,233168).
route(prodloc4,prodloc32,tr13,8968,53808).
route(prodloc4,prodloc33,tr0,25817,671242).
route(prodloc4,prodloc33,tr13,25817,154902).
route(prodloc5,harbor0,tr0,9404,244504).
route(prodloc5,harbor0,tr13,9404,56424).
route(prodloc5,harbor1,tr0,25144,653744).
route(prodloc5,harbor1,tr13,25144,150864).
route(prodloc5,harbor2,tr0,18433,479258).
route(prodloc5,harbor2,tr13,18433,110598).
route(prodloc5,harbor3,tr0,5994,155844).
route(prodloc5,harbor3,tr13,5994,35964).
route(prodloc5,harbor4,tr0,22232,578032).
route(prodloc5,harbor4,tr13,22232,133392).
route(prodloc5,harbor5,tr0,28806,748956).
route(prodloc5,harbor5,tr13,28806,172836).
route(prodloc5,harbor6,tr0,3054,79404).
route(prodloc5,harbor6,tr13,3054,18324).
route(prodloc5,harbor7,tr0,16435,427310).
route(prodloc5,harbor7,tr13,16435,98610).
route(prodloc5,harbor8,tr0,16969,441194).
route(prodloc5,harbor8,tr13,16969,101814).
route(prodloc5,harbor9,tr0,6972,181272).
route(prodloc5,harbor9,tr13,6972,41832).
route(prodloc5,harbor10,tr0,15082,392132).
route(prodloc5,harbor10,tr13,15082,90492).
route(prodloc5,harbor11,tr0,22620,588120).
route(prodloc5,harbor11,tr13,22620,135720).
route(prodloc5,harbor12,tr0,27377,711802).
route(prodloc5,harbor12,tr13,27377,164262).
route(prodloc5,harbor13,tr0,28233,734058).
route(prodloc5,harbor13,tr13,28233,169398).
route(prodloc5,harbor14,tr0,22256,578656).
route(prodloc5,harbor14,tr13,22256,133536).
route(prodloc5,harbor15,tr0,17439,453414).
route(prodloc5,harbor15,tr13,17439,104634).
route(prodloc5,harbor16,tr0,2856,74256).
route(prodloc5,harbor16,tr13,2856,17136).
route(prodloc5,prodloc0,tr0,105,2730).
route(prodloc5,prodloc0,tr13,105,630).
route(prodloc5,prodloc1,tr0,9554,248404).
route(prodloc5,prodloc1,tr13,9554,57324).
route(prodloc5,prodloc2,tr0,24979,649454).
route(prodloc5,prodloc2,tr13,24979,149874).
route(prodloc5,prodloc3,tr0,22466,584116).
route(prodloc5,prodloc3,tr13,22466,134796).
route(prodloc5,prodloc4,tr0,3060,79560).
route(prodloc5,prodloc4,tr13,3060,18360).
route(prodloc5,prodloc6,tr0,22802,592852).
route(prodloc5,prodloc6,tr13,22802,136812).
route(prodloc5,prodloc7,tr0,15125,393250).
route(prodloc5,prodloc7,tr13,15125,90750).
route(prodloc5,prodloc8,tr0,6794,176644).
route(prodloc5,prodloc8,tr13,6794,40764).
route(prodloc5,prodloc9,tr0,4690,121940).
route(prodloc5,prodloc9,tr13,4690,28140).
route(prodloc5,prodloc10,tr0,23757,617682).
route(prodloc5,prodloc10,tr13,23757,142542).
route(prodloc5,prodloc11,tr0,15733,409058).
route(prodloc5,prodloc11,tr13,15733,94398).
route(prodloc5,prodloc12,tr0,14572,378872).
route(prodloc5,prodloc12,tr13,14572,87432).
route(prodloc5,prodloc13,tr13,19807,118842).
route(prodloc5,prodloc13,tr15,19807,633824).
route(prodloc5,prodloc14,tr0,21181,550706).
route(prodloc5,prodloc14,tr13,21181,127086).
route(prodloc5,prodloc15,tr0,10650,276900).
route(prodloc5,prodloc15,tr13,10650,63900).
route(prodloc5,prodloc16,tr0,10018,260468).
route(prodloc5,prodloc16,tr13,10018,60108).
route(prodloc5,prodloc17,tr0,18637,484562).
route(prodloc5,prodloc17,tr13,18637,111822).
route(prodloc5,prodloc18,tr0,8848,230048).
route(prodloc5,prodloc18,tr13,8848,53088).
route(prodloc5,prodloc19,tr0,8203,213278).
route(prodloc5,prodloc19,tr13,8203,49218).
route(prodloc5,prodloc20,tr0,23535,611910).
route(prodloc5,prodloc20,tr13,23535,141210).
route(prodloc5,prodloc21,tr0,18507,481182).
route(prodloc5,prodloc21,tr13,18507,111042).
route(prodloc5,prodloc22,tr0,24277,631202).
route(prodloc5,prodloc22,tr13,24277,145662).
route(prodloc5,prodloc23,tr0,12017,312442).
route(prodloc5,prodloc23,tr13,12017,72102).
route(prodloc5,prodloc24,tr0,16633,432458).
route(prodloc5,prodloc24,tr13,16633,99798).
route(prodloc5,prodloc25,tr0,11139,289614).
route(prodloc5,prodloc25,tr13,11139,66834).
route(prodloc5,prodloc26,tr0,9321,242346).
route(prodloc5,prodloc26,tr13,9321,55926).
route(prodloc5,prodloc27,tr0,24384,633984).
route(prodloc5,prodloc27,tr13,24384,146304).
route(prodloc5,prodloc28,tr0,7032,182832).
route(prodloc5,prodloc28,tr13,7032,42192).
route(prodloc5,prodloc29,tr0,5013,130338).
route(prodloc5,prodloc29,tr13,5013,30078).
route(prodloc5,prodloc30,tr0,25267,656942).
route(prodloc5,prodloc30,tr13,25267,151602).
route(prodloc5,prodloc31,tr0,26586,691236).
route(prodloc5,prodloc31,tr13,26586,159516).
route(prodloc5,prodloc32,tr0,10709,278434).
route(prodloc5,prodloc32,tr13,10709,64254).
route(prodloc5,prodloc33,tr0,11351,295126).
route(prodloc5,prodloc33,tr13,11351,68106).
route(prodloc6,harbor0,tr0,27218,707668).
route(prodloc6,harbor0,tr13,27218,163308).
route(prodloc6,harbor1,tr0,6915,179790).
route(prodloc6,harbor1,tr13,6915,41490).
route(prodloc6,harbor2,tr0,22615,587990).
route(prodloc6,harbor2,tr13,22615,135690).
route(prodloc6,harbor3,tr0,17613,457938).
route(prodloc6,harbor3,tr13,17613,105678).
route(prodloc6,harbor4,tr0,27932,726232).
route(prodloc6,harbor4,tr13,27932,167592).
route(prodloc6,harbor5,tr0,16228,421928).
route(prodloc6,harbor5,tr13,16228,97368).
route(prodloc6,harbor6,tr0,23952,622752).
route(prodloc6,harbor6,tr13,23952,143712).
route(prodloc6,harbor7,tr0,21783,566358).
route(prodloc6,harbor7,tr13,21783,130698).
route(prodloc6,harbor8,tr0,20002,520052).
route(prodloc6,harbor8,tr13,20002,120012).
route(prodloc6,harbor9,tr0,10548,274248).
route(prodloc6,harbor9,tr13,10548,63288).
route(prodloc6,harbor10,tr0,20085,522210).
route(prodloc6,harbor10,tr13,20085,120510).
route(prodloc6,harbor11,tr0,4267,110942).
route(prodloc6,harbor11,tr13,4267,25602).
route(prodloc6,harbor12,tr0,17525,455650).
route(prodloc6,harbor12,tr13,17525,105150).
route(prodloc6,harbor13,tr0,10018,260468).
route(prodloc6,harbor13,tr13,10018,60108).
route(prodloc6,harbor14,tr0,24922,647972).
route(prodloc6,harbor14,tr13,24922,149532).
route(prodloc6,harbor15,tr0,2082,54132).
route(prodloc6,harbor15,tr13,2082,12492).
route(prodloc6,harbor16,tr0,23472,610272).
route(prodloc6,harbor16,tr13,23472,140832).
route(prodloc6,prodloc0,tr0,20960,544960).
route(prodloc6,prodloc0,tr13,20960,125760).
route(prodloc6,prodloc1,tr0,14199,369174).
route(prodloc6,prodloc1,tr13,14199,85194).
route(prodloc6,prodloc2,tr0,2121,55146).
route(prodloc6,prodloc2,tr13,2121,12726).
route(prodloc6,prodloc3,tr0,15122,393172).
route(prodloc6,prodloc3,tr13,15122,90732).
route(prodloc6,prodloc4,tr0,14128,367328).
route(prodloc6,prodloc4,tr13,14128,84768).
route(prodloc6,prodloc5,tr0,12222,317772).
route(prodloc6,prodloc5,tr13,12222,73332).
route(prodloc6,prodloc7,tr0,6649,172874).
route(prodloc6,prodloc7,tr13,6649,39894).
route(prodloc6,prodloc8,tr0,25672,667472).
route(prodloc6,prodloc8,tr13,25672,154032).
route(prodloc6,prodloc9,tr0,2687,69862).
route(prodloc6,prodloc9,tr13,2687,16122).
route(prodloc6,prodloc10,tr0,22227,577902).
route(prodloc6,prodloc10,tr13,22227,133362).
route(prodloc6,prodloc11,tr0,9264,240864).
route(prodloc6,prodloc11,tr13,9264,55584).
route(prodloc6,prodloc12,tr0,28675,745550).
route(prodloc6,prodloc12,tr13,28675,172050).
route(prodloc6,prodloc13,tr0,19741,513266).
route(prodloc6,prodloc13,tr13,19741,118446).
route(prodloc6,prodloc14,tr0,23395,608270).
route(prodloc6,prodloc14,tr13,23395,140370).
route(prodloc6,prodloc15,tr0,16674,433524).
route(prodloc6,prodloc15,tr13,16674,100044).
route(prodloc6,prodloc16,tr0,24388,634088).
route(prodloc6,prodloc16,tr13,24388,146328).
route(prodloc6,prodloc17,tr0,8012,208312).
route(prodloc6,prodloc17,tr13,8012,48072).
route(prodloc6,prodloc18,tr0,8837,229762).
route(prodloc6,prodloc18,tr13,8837,53022).
route(prodloc6,prodloc19,tr0,9516,247416).
route(prodloc6,prodloc19,tr13,9516,57096).
route(prodloc6,prodloc20,tr0,27911,725686).
route(prodloc6,prodloc20,tr13,27911,167466).
route(prodloc6,prodloc21,tr0,13452,349752).
route(prodloc6,prodloc21,tr13,13452,80712).
route(prodloc6,prodloc22,tr0,3220,83720).
route(prodloc6,prodloc22,tr13,3220,19320).
route(prodloc6,prodloc23,tr0,17283,449358).
route(prodloc6,prodloc23,tr13,17283,103698).
route(prodloc6,prodloc24,tr0,10969,285194).
route(prodloc6,prodloc24,tr13,10969,65814).
route(prodloc6,prodloc25,tr0,15299,397774).
route(prodloc6,prodloc25,tr13,15299,91794).
route(prodloc6,prodloc26,tr0,13052,339352).
route(prodloc6,prodloc26,tr13,13052,78312).
route(prodloc6,prodloc27,tr0,6150,159900).
route(prodloc6,prodloc27,tr13,6150,36900).
route(prodloc6,prodloc28,tr0,20631,536406).
route(prodloc6,prodloc28,tr13,20631,123786).
route(prodloc6,prodloc29,tr0,8428,219128).
route(prodloc6,prodloc29,tr13,8428,50568).
route(prodloc6,prodloc30,tr0,26621,692146).
route(prodloc6,prodloc30,tr13,26621,159726).
route(prodloc6,prodloc31,tr0,27736,721136).
route(prodloc6,prodloc31,tr13,27736,166416).
route(prodloc6,prodloc32,tr0,5860,152360).
route(prodloc6,prodloc32,tr13,5860,35160).
route(prodloc6,prodloc33,tr0,20114,522964).
route(prodloc6,prodloc33,tr13,20114,120684).
route(prodloc7,harbor0,tr0,17982,467532).
route(prodloc7,harbor0,tr13,17982,107892).
route(prodloc7,harbor1,tr0,6600,171600).
route(prodloc7,harbor1,tr13,6600,39600).
route(prodloc7,harbor2,tr0,15312,398112).
route(prodloc7,harbor2,tr13,15312,91872).
route(prodloc7,harbor3,tr0,9708,252408).
route(prodloc7,harbor3,tr13,9708,58248).
route(prodloc7,harbor4,tr0,885,23010).
route(prodloc7,harbor4,tr13,885,5310).
route(prodloc7,harbor5,tr0,10606,275756).
route(prodloc7,harbor5,tr13,10606,63636).
route(prodloc7,harbor6,tr0,9494,246844).
route(prodloc7,harbor6,tr13,9494,56964).
route(prodloc7,harbor7,tr0,2800,72800).
route(prodloc7,harbor7,tr13,2800,16800).
route(prodloc7,harbor8,tr0,18901,491426).
route(prodloc7,harbor8,tr13,18901,113406).
route(prodloc7,harbor9,tr0,22156,576056).
route(prodloc7,harbor9,tr13,22156,132936).
route(prodloc7,harbor10,tr0,1176,30576).
route(prodloc7,harbor10,tr13,1176,7056).
route(prodloc7,harbor11,tr0,16689,433914).
route(prodloc7,harbor11,tr13,16689,100134).
route(prodloc7,harbor12,tr0,9246,240396).
route(prodloc7,harbor12,tr13,9246,55476).
route(prodloc7,harbor13,tr0,14034,364884).
route(prodloc7,harbor13,tr13,14034,84204).
route(prodloc7,harbor14,tr0,3402,88452).
route(prodloc7,harbor14,tr13,3402,20412).
route(prodloc7,harbor15,tr0,25728,668928).
route(prodloc7,harbor15,tr13,25728,154368).
route(prodloc7,harbor16,tr0,14077,366002).
route(prodloc7,harbor16,tr13,14077,84462).
route(prodloc7,prodloc0,tr0,21236,552136).
route(prodloc7,prodloc0,tr13,21236,127416).
route(prodloc7,prodloc1,tr0,27032,702832).
route(prodloc7,prodloc1,tr13,27032,162192).
route(prodloc7,prodloc2,tr0,21761,565786).
route(prodloc7,prodloc2,tr13,21761,130566).
route(prodloc7,prodloc3,tr0,6667,173342).
route(prodloc7,prodloc3,tr13,6667,40002).
route(prodloc7,prodloc4,tr0,28184,732784).
route(prodloc7,prodloc4,tr13,28184,169104).
route(prodloc7,prodloc5,tr0,18675,485550).
route(prodloc7,prodloc5,tr13,18675,112050).
route(prodloc7,prodloc6,tr0,22215,577590).
route(prodloc7,prodloc6,tr13,22215,133290).
route(prodloc7,prodloc8,tr0,4179,108654).
route(prodloc7,prodloc8,tr13,4179,25074).
route(prodloc7,prodloc9,tr0,3027,78702).
route(prodloc7,prodloc9,tr13,3027,18162).
route(prodloc7,prodloc10,tr0,19102,496652).
route(prodloc7,prodloc10,tr13,19102,114612).
route(prodloc7,prodloc11,tr0,28381,737906).
route(prodloc7,prodloc11,tr13,28381,170286).
route(prodloc7,prodloc12,tr0,6867,178542).
route(prodloc7,prodloc12,tr13,6867,41202).
route(prodloc7,prodloc13,tr0,3596,93496).
route(prodloc7,prodloc13,tr13,3596,21576).
route(prodloc7,prodloc14,tr0,26926,700076).
route(prodloc7,prodloc14,tr13,26926,161556).
route(prodloc7,prodloc15,tr0,12651,328926).
route(prodloc7,prodloc15,tr13,12651,75906).
route(prodloc7,prodloc16,tr0,2530,65780).
route(prodloc7,prodloc16,tr13,2530,15180).
route(prodloc7,prodloc17,tr0,3188,82888).
route(prodloc7,prodloc17,tr13,3188,19128).
route(prodloc7,prodloc18,tr0,28174,732524).
route(prodloc7,prodloc18,tr13,28174,169044).
route(prodloc7,prodloc19,tr0,3627,94302).
route(prodloc7,prodloc19,tr13,3627,21762).
route(prodloc7,prodloc20,tr0,22835,593710).
route(prodloc7,prodloc20,tr13,22835,137010).
route(prodloc7,prodloc21,tr0,4152,107952).
route(prodloc7,prodloc21,tr13,4152,24912).
route(prodloc7,prodloc22,tr0,14034,364884).
route(prodloc7,prodloc22,tr13,14034,84204).
route(prodloc7,prodloc23,tr0,7321,190346).
route(prodloc7,prodloc23,tr13,7321,43926).
route(prodloc7,prodloc24,tr0,22665,589290).
route(prodloc7,prodloc24,tr13,22665,135990).
route(prodloc7,prodloc25,tr0,23932,622232).
route(prodloc7,prodloc25,tr13,23932,143592).
route(prodloc7,prodloc26,tr0,16929,440154).
route(prodloc7,prodloc26,tr13,16929,101574).
route(prodloc7,prodloc27,tr0,20015,520390).
route(prodloc7,prodloc27,tr13,20015,120090).
route(prodloc7,prodloc28,tr0,27854,724204).
route(prodloc7,prodloc28,tr13,27854,167124).
route(prodloc7,prodloc29,tr0,11806,306956).
route(prodloc7,prodloc29,tr13,11806,70836).
route(prodloc7,prodloc30,tr0,22279,579254).
route(prodloc7,prodloc30,tr13,22279,133674).
route(prodloc7,prodloc31,tr0,24752,643552).
route(prodloc7,prodloc31,tr13,24752,148512).
route(prodloc7,prodloc32,tr0,20257,526682).
route(prodloc7,prodloc32,tr13,20257,121542).
route(prodloc7,prodloc33,tr0,24264,630864).
route(prodloc7,prodloc33,tr13,24264,145584).
route(prodloc8,harbor0,tr0,26473,688298).
route(prodloc8,harbor0,tr13,26473,158838).
route(prodloc8,harbor1,tr0,14859,386334).
route(prodloc8,harbor1,tr13,14859,89154).
route(prodloc8,harbor2,tr0,26396,686296).
route(prodloc8,harbor2,tr13,26396,158376).
route(prodloc8,harbor3,tr0,82,2132).
route(prodloc8,harbor3,tr13,82,492).
route(prodloc8,harbor4,tr0,12958,336908).
route(prodloc8,harbor4,tr13,12958,77748).
route(prodloc8,harbor5,tr0,18756,487656).
route(prodloc8,harbor5,tr13,18756,112536).
route(prodloc8,harbor6,tr0,3553,92378).
route(prodloc8,harbor6,tr13,3553,21318).
route(prodloc8,harbor7,tr0,16015,416390).
route(prodloc8,harbor7,tr13,16015,96090).
route(prodloc8,harbor8,tr0,25116,653016).
route(prodloc8,harbor8,tr13,25116,150696).
route(prodloc8,harbor9,tr0,20165,524290).
route(prodloc8,harbor9,tr13,20165,120990).
route(prodloc8,harbor10,tr0,19379,503854).
route(prodloc8,harbor10,tr13,19379,116274).
route(prodloc8,harbor11,tr0,25248,656448).
route(prodloc8,harbor11,tr13,25248,151488).
route(prodloc8,harbor12,tr0,7150,185900).
route(prodloc8,harbor12,tr13,7150,42900).
route(prodloc8,harbor13,tr0,22350,581100).
route(prodloc8,harbor13,tr13,22350,134100).
route(prodloc8,harbor14,tr0,2908,75608).
route(prodloc8,harbor14,tr13,2908,17448).
route(prodloc8,harbor15,tr0,5514,143364).
route(prodloc8,harbor15,tr13,5514,33084).
route(prodloc8,harbor16,tr0,8929,232154).
route(prodloc8,harbor16,tr13,8929,53574).
route(prodloc8,prodloc0,tr0,14987,389662).
route(prodloc8,prodloc0,tr13,14987,89922).
route(prodloc8,prodloc1,tr0,4421,114946).
route(prodloc8,prodloc1,tr13,4421,26526).
route(prodloc8,prodloc2,tr0,25847,672022).
route(prodloc8,prodloc2,tr13,25847,155082).
route(prodloc8,prodloc3,tr0,4381,113906).
route(prodloc8,prodloc3,tr13,4381,26286).
route(prodloc8,prodloc4,tr0,3723,96798).
route(prodloc8,prodloc4,tr13,3723,22338).
route(prodloc8,prodloc5,tr0,3579,93054).
route(prodloc8,prodloc5,tr13,3579,21474).
route(prodloc8,prodloc6,tr0,5307,137982).
route(prodloc8,prodloc6,tr13,5307,31842).
route(prodloc8,prodloc7,tr0,863,22438).
route(prodloc8,prodloc7,tr13,863,5178).
route(prodloc8,prodloc9,tr0,20981,545506).
route(prodloc8,prodloc9,tr13,20981,125886).
route(prodloc8,prodloc10,tr0,6847,178022).
route(prodloc8,prodloc10,tr13,6847,41082).
route(prodloc8,prodloc11,tr0,23624,614224).
route(prodloc8,prodloc11,tr13,23624,141744).
route(prodloc8,prodloc12,tr0,10536,273936).
route(prodloc8,prodloc12,tr13,10536,63216).
route(prodloc8,prodloc13,tr0,1042,27092).
route(prodloc8,prodloc13,tr13,1042,6252).
route(prodloc8,prodloc14,tr0,675,17550).
route(prodloc8,prodloc14,tr13,675,4050).
route(prodloc8,prodloc15,tr0,18076,469976).
route(prodloc8,prodloc15,tr13,18076,108456).
route(prodloc8,prodloc16,tr0,26306,683956).
route(prodloc8,prodloc16,tr13,26306,157836).
route(prodloc8,prodloc17,tr0,11497,298922).
route(prodloc8,prodloc17,tr13,11497,68982).
route(prodloc8,prodloc18,tr0,28754,747604).
route(prodloc8,prodloc18,tr13,28754,172524).
route(prodloc8,prodloc19,tr0,26943,700518).
route(prodloc8,prodloc19,tr13,26943,161658).
route(prodloc8,prodloc20,tr0,21859,568334).
route(prodloc8,prodloc20,tr13,21859,131154).
route(prodloc8,prodloc21,tr0,3012,78312).
route(prodloc8,prodloc21,tr13,3012,18072).
route(prodloc8,prodloc22,tr0,17690,459940).
route(prodloc8,prodloc22,tr13,17690,106140).
route(prodloc8,prodloc23,tr0,4766,123916).
route(prodloc8,prodloc23,tr13,4766,28596).
route(prodloc8,prodloc24,tr0,22946,596596).
route(prodloc8,prodloc24,tr13,22946,137676).
route(prodloc8,prodloc25,tr0,4144,107744).
route(prodloc8,prodloc25,tr13,4144,24864).
route(prodloc8,prodloc26,tr0,26220,681720).
route(prodloc8,prodloc26,tr13,26220,157320).
route(prodloc8,prodloc27,tr0,24900,647400).
route(prodloc8,prodloc27,tr13,24900,149400).
route(prodloc8,prodloc28,tr0,24163,628238).
route(prodloc8,prodloc28,tr13,24163,144978).
route(prodloc8,prodloc29,tr0,9524,247624).
route(prodloc8,prodloc29,tr13,9524,57144).
route(prodloc8,prodloc30,tr0,9810,255060).
route(prodloc8,prodloc30,tr13,9810,58860).
route(prodloc8,prodloc31,tr0,14156,368056).
route(prodloc8,prodloc31,tr13,14156,84936).
route(prodloc8,prodloc32,tr0,24941,648466).
route(prodloc8,prodloc32,tr13,24941,149646).
route(prodloc8,prodloc33,tr0,11269,292994).
route(prodloc8,prodloc33,tr13,11269,67614).
route(prodloc9,harbor0,tr0,19880,516880).
route(prodloc9,harbor0,tr13,19880,119280).
route(prodloc9,harbor1,tr0,15862,412412).
route(prodloc9,harbor1,tr13,15862,95172).
route(prodloc9,harbor2,tr0,9916,257816).
route(prodloc9,harbor2,tr13,9916,59496).
route(prodloc9,harbor3,tr0,13796,358696).
route(prodloc9,harbor3,tr13,13796,82776).
route(prodloc9,harbor4,tr0,19833,515658).
route(prodloc9,harbor4,tr13,19833,118998).
route(prodloc9,harbor5,tr0,24004,624104).
route(prodloc9,harbor5,tr13,24004,144024).
route(prodloc9,harbor6,tr0,25034,650884).
route(prodloc9,harbor6,tr13,25034,150204).
route(prodloc9,harbor7,tr0,27518,715468).
route(prodloc9,harbor7,tr13,27518,165108).
route(prodloc9,harbor8,tr0,13173,342498).
route(prodloc9,harbor8,tr13,13173,79038).
route(prodloc9,harbor9,tr0,19912,517712).
route(prodloc9,harbor9,tr13,19912,119472).
route(prodloc9,harbor10,tr0,18811,489086).
route(prodloc9,harbor10,tr13,18811,112866).
route(prodloc9,harbor11,tr0,11701,304226).
route(prodloc9,harbor11,tr13,11701,70206).
route(prodloc9,harbor12,tr0,19762,513812).
route(prodloc9,harbor12,tr13,19762,118572).
route(prodloc9,harbor13,tr0,9841,255866).
route(prodloc9,harbor13,tr13,9841,59046).
route(prodloc9,harbor14,tr0,13466,350116).
route(prodloc9,harbor14,tr13,13466,80796).
route(prodloc9,harbor15,tr0,24817,645242).
route(prodloc9,harbor15,tr13,24817,148902).
route(prodloc9,harbor16,tr0,5073,131898).
route(prodloc9,harbor16,tr13,5073,30438).
route(prodloc9,prodloc0,tr0,23848,620048).
route(prodloc9,prodloc0,tr13,23848,143088).
route(prodloc9,prodloc1,tr0,10470,272220).
route(prodloc9,prodloc1,tr13,10470,62820).
route(prodloc9,prodloc2,tr0,25840,671840).
route(prodloc9,prodloc2,tr13,25840,155040).
route(prodloc9,prodloc3,tr0,27311,710086).
route(prodloc9,prodloc3,tr13,27311,163866).
route(prodloc9,prodloc4,tr0,15177,394602).
route(prodloc9,prodloc4,tr13,15177,91062).
route(prodloc9,prodloc5,tr13,14424,86544).
route(prodloc9,prodloc5,tr15,14424,461568).
route(prodloc9,prodloc6,tr0,17574,456924).
route(prodloc9,prodloc6,tr13,17574,105444).
route(prodloc9,prodloc7,tr0,2732,71032).
route(prodloc9,prodloc7,tr13,2732,16392).
route(prodloc9,prodloc8,tr0,5220,135720).
route(prodloc9,prodloc8,tr13,5220,31320).
route(prodloc9,prodloc10,tr0,65,1690).
route(prodloc9,prodloc10,tr13,65,390).
route(prodloc9,prodloc11,tr0,15450,401700).
route(prodloc9,prodloc11,tr13,15450,92700).
route(prodloc9,prodloc12,tr0,7088,184288).
route(prodloc9,prodloc12,tr13,7088,42528).
route(prodloc9,prodloc13,tr0,10583,275158).
route(prodloc9,prodloc13,tr13,10583,63498).
route(prodloc9,prodloc14,tr0,11849,308074).
route(prodloc9,prodloc14,tr13,11849,71094).
route(prodloc9,prodloc15,tr0,1190,30940).
route(prodloc9,prodloc15,tr13,1190,7140).
route(prodloc9,prodloc16,tr0,22311,580086).
route(prodloc9,prodloc16,tr13,22311,133866).
route(prodloc9,prodloc17,tr0,19073,495898).
route(prodloc9,prodloc17,tr13,19073,114438).
route(prodloc9,prodloc18,tr0,14790,384540).
route(prodloc9,prodloc18,tr13,14790,88740).
route(prodloc9,prodloc19,tr0,22307,579982).
route(prodloc9,prodloc19,tr13,22307,133842).
route(prodloc9,prodloc20,tr0,10975,285350).
route(prodloc9,prodloc20,tr13,10975,65850).
route(prodloc9,prodloc21,tr0,3312,86112).
route(prodloc9,prodloc21,tr13,3312,19872).
route(prodloc9,prodloc22,tr0,2141,55666).
route(prodloc9,prodloc22,tr13,2141,12846).
route(prodloc9,prodloc23,tr0,23267,604942).
route(prodloc9,prodloc23,tr13,23267,139602).
route(prodloc9,prodloc24,tr0,4993,129818).
route(prodloc9,prodloc24,tr13,4993,29958).
route(prodloc9,prodloc25,tr0,3062,79612).
route(prodloc9,prodloc25,tr13,3062,18372).
route(prodloc9,prodloc26,tr0,4951,128726).
route(prodloc9,prodloc26,tr13,4951,29706).
route(prodloc9,prodloc27,tr0,27456,713856).
route(prodloc9,prodloc27,tr13,27456,164736).
route(prodloc9,prodloc28,tr0,7713,200538).
route(prodloc9,prodloc28,tr13,7713,46278).
route(prodloc9,prodloc29,tr0,19391,504166).
route(prodloc9,prodloc29,tr13,19391,116346).
route(prodloc9,prodloc30,tr0,19971,519246).
route(prodloc9,prodloc30,tr15,19971,639072).
route(prodloc9,prodloc31,tr0,9700,252200).
route(prodloc9,prodloc31,tr13,9700,58200).
route(prodloc9,prodloc32,tr0,12771,332046).
route(prodloc9,prodloc32,tr13,12771,76626).
route(prodloc9,prodloc33,tr0,550,14300).
route(prodloc9,prodloc33,tr13,550,3300).
route(prodloc10,harbor0,tr0,7431,193206).
route(prodloc10,harbor0,tr13,7431,44586).
route(prodloc10,harbor1,tr0,21742,565292).
route(prodloc10,harbor1,tr13,21742,130452).
route(prodloc10,harbor2,tr0,18072,469872).
route(prodloc10,harbor2,tr13,18072,108432).
route(prodloc10,harbor3,tr0,10062,261612).
route(prodloc10,harbor3,tr13,10062,60372).
route(prodloc10,harbor4,tr0,24931,648206).
route(prodloc10,harbor4,tr13,24931,149586).
route(prodloc10,harbor5,tr0,19579,509054).
route(prodloc10,harbor5,tr13,19579,117474).
route(prodloc10,harbor6,tr0,23736,617136).
route(prodloc10,harbor6,tr13,23736,142416).
route(prodloc10,harbor7,tr0,22329,580554).
route(prodloc10,harbor7,tr13,22329,133974).
route(prodloc10,harbor8,tr0,27056,703456).
route(prodloc10,harbor8,tr13,27056,162336).
route(prodloc10,harbor9,tr0,23887,621062).
route(prodloc10,harbor9,tr13,23887,143322).
route(prodloc10,harbor10,tr0,20474,532324).
route(prodloc10,harbor10,tr13,20474,122844).
route(prodloc10,harbor11,tr0,14333,372658).
route(prodloc10,harbor11,tr13,14333,85998).
route(prodloc10,harbor12,tr0,14573,378898).
route(prodloc10,harbor12,tr13,14573,87438).
route(prodloc10,harbor13,tr0,10258,266708).
route(prodloc10,harbor13,tr13,10258,61548).
route(prodloc10,harbor14,tr0,20287,527462).
route(prodloc10,harbor14,tr13,20287,121722).
route(prodloc10,harbor15,tr0,6241,162266).
route(prodloc10,harbor15,tr13,6241,37446).
route(prodloc10,harbor16,tr0,8694,226044).
route(prodloc10,harbor16,tr13,8694,52164).
route(prodloc10,prodloc0,tr0,3690,95940).
route(prodloc10,prodloc0,tr13,3690,22140).
route(prodloc10,prodloc1,tr0,27835,723710).
route(prodloc10,prodloc1,tr13,27835,167010).
route(prodloc10,prodloc2,tr0,13872,360672).
route(prodloc10,prodloc2,tr13,13872,83232).
route(prodloc10,prodloc3,tr0,817,21242).
route(prodloc10,prodloc3,tr13,817,4902).
route(prodloc10,prodloc4,tr0,19296,501696).
route(prodloc10,prodloc4,tr13,19296,115776).
route(prodloc10,prodloc5,tr0,24822,645372).
route(prodloc10,prodloc5,tr13,24822,148932).
route(prodloc10,prodloc6,tr0,25317,658242).
route(prodloc10,prodloc6,tr13,25317,151902).
route(prodloc10,prodloc7,tr0,6845,177970).
route(prodloc10,prodloc7,tr13,6845,41070).
route(prodloc10,prodloc8,tr0,4939,128414).
route(prodloc10,prodloc8,tr13,4939,29634).
route(prodloc10,prodloc9,tr0,26439,687414).
route(prodloc10,prodloc9,tr13,26439,158634).
route(prodloc10,prodloc11,tr0,9709,252434).
route(prodloc10,prodloc11,tr13,9709,58254).
route(prodloc10,prodloc12,tr0,26696,694096).
route(prodloc10,prodloc12,tr13,26696,160176).
route(prodloc10,prodloc13,tr13,20528,123168).
route(prodloc10,prodloc13,tr15,20528,656896).
route(prodloc10,prodloc14,tr0,1289,33514).
route(prodloc10,prodloc14,tr13,1289,7734).
route(prodloc10,prodloc15,tr0,22538,585988).
route(prodloc10,prodloc15,tr13,22538,135228).
route(prodloc10,prodloc16,tr0,14266,370916).
route(prodloc10,prodloc16,tr13,14266,85596).
route(prodloc10,prodloc17,tr0,25482,662532).
route(prodloc10,prodloc17,tr13,25482,152892).
route(prodloc10,prodloc18,tr0,12236,318136).
route(prodloc10,prodloc18,tr13,12236,73416).
route(prodloc10,prodloc19,tr0,16666,433316).
route(prodloc10,prodloc19,tr13,16666,99996).
route(prodloc10,prodloc20,tr0,9214,239564).
route(prodloc10,prodloc20,tr13,9214,55284).
route(prodloc10,prodloc21,tr0,11086,288236).
route(prodloc10,prodloc21,tr13,11086,66516).
route(prodloc10,prodloc22,tr0,8026,208676).
route(prodloc10,prodloc22,tr13,8026,48156).
route(prodloc10,prodloc23,tr0,12065,313690).
route(prodloc10,prodloc23,tr13,12065,72390).
route(prodloc10,prodloc24,tr0,15212,395512).
route(prodloc10,prodloc24,tr13,15212,91272).
route(prodloc10,prodloc25,tr0,15794,410644).
route(prodloc10,prodloc25,tr13,15794,94764).
route(prodloc10,prodloc26,tr0,25678,667628).
route(prodloc10,prodloc26,tr13,25678,154068).
route(prodloc10,prodloc27,tr0,14471,376246).
route(prodloc10,prodloc27,tr13,14471,86826).
route(prodloc10,prodloc28,tr0,10527,273702).
route(prodloc10,prodloc28,tr13,10527,63162).
route(prodloc10,prodloc29,tr0,8665,225290).
route(prodloc10,prodloc29,tr13,8665,51990).
route(prodloc10,prodloc30,tr0,6009,156234).
route(prodloc10,prodloc30,tr13,6009,36054).
route(prodloc10,prodloc31,tr0,21194,551044).
route(prodloc10,prodloc31,tr13,21194,127164).
route(prodloc10,prodloc32,tr0,10689,277914).
route(prodloc10,prodloc32,tr13,10689,64134).
route(prodloc10,prodloc33,tr0,17996,467896).
route(prodloc10,prodloc33,tr13,17996,107976).
route(prodloc11,harbor0,tr0,19834,515684).
route(prodloc11,harbor0,tr13,19834,119004).
route(prodloc11,harbor1,tr0,4773,124098).
route(prodloc11,harbor1,tr13,4773,28638).
route(prodloc11,harbor2,tr0,14467,376142).
route(prodloc11,harbor2,tr13,14467,86802).
route(prodloc11,harbor3,tr0,3570,92820).
route(prodloc11,harbor3,tr13,3570,21420).
route(prodloc11,harbor4,tr0,883,22958).
route(prodloc11,harbor4,tr13,883,5298).
route(prodloc11,harbor5,tr0,2819,73294).
route(prodloc11,harbor5,tr13,2819,16914).
route(prodloc11,harbor6,tr0,24209,629434).
route(prodloc11,harbor6,tr13,24209,145254).
route(prodloc11,harbor7,tr0,11522,299572).
route(prodloc11,harbor7,tr13,11522,69132).
route(prodloc11,harbor8,tr0,17471,454246).
route(prodloc11,harbor8,tr13,17471,104826).
route(prodloc11,harbor9,tr0,14746,383396).
route(prodloc11,harbor9,tr13,14746,88476).
route(prodloc11,harbor10,tr0,12782,332332).
route(prodloc11,harbor10,tr13,12782,76692).
route(prodloc11,harbor11,tr0,9481,246506).
route(prodloc11,harbor11,tr13,9481,56886).
route(prodloc11,harbor12,tr0,6951,180726).
route(prodloc11,harbor12,tr13,6951,41706).
route(prodloc11,harbor13,tr0,26615,691990).
route(prodloc11,harbor13,tr13,26615,159690).
route(prodloc11,harbor14,tr0,20924,544024).
route(prodloc11,harbor14,tr13,20924,125544).
route(prodloc11,harbor15,tr0,995,25870).
route(prodloc11,harbor15,tr13,995,5970).
route(prodloc11,harbor16,tr0,3618,94068).
route(prodloc11,harbor16,tr13,3618,21708).
route(prodloc11,prodloc0,tr0,2203,57278).
route(prodloc11,prodloc0,tr13,2203,13218).
route(prodloc11,prodloc1,tr0,489,12714).
route(prodloc11,prodloc1,tr13,489,2934).
route(prodloc11,prodloc2,tr0,8041,209066).
route(prodloc11,prodloc2,tr13,8041,48246).
route(prodloc11,prodloc3,tr0,4795,124670).
route(prodloc11,prodloc3,tr13,4795,28770).
route(prodloc11,prodloc4,tr0,2793,72618).
route(prodloc11,prodloc4,tr13,2793,16758).
route(prodloc11,prodloc5,tr0,16984,441584).
route(prodloc11,prodloc5,tr13,16984,101904).
route(prodloc11,prodloc6,tr0,13508,351208).
route(prodloc11,prodloc6,tr13,13508,81048).
route(prodloc11,prodloc7,tr0,1399,36374).
route(prodloc11,prodloc7,tr13,1399,8394).
route(prodloc11,prodloc8,tr0,1125,29250).
route(prodloc11,prodloc8,tr13,1125,6750).
route(prodloc11,prodloc9,tr0,1901,49426).
route(prodloc11,prodloc9,tr13,1901,11406).
route(prodloc11,prodloc10,tr0,28010,728260).
route(prodloc11,prodloc10,tr13,28010,168060).
route(prodloc11,prodloc12,tr0,26822,697372).
route(prodloc11,prodloc12,tr13,26822,160932).
route(prodloc11,prodloc13,tr0,8817,229242).
route(prodloc11,prodloc13,tr13,8817,52902).
route(prodloc11,prodloc14,tr0,27938,726388).
route(prodloc11,prodloc14,tr13,27938,167628).
route(prodloc11,prodloc15,tr0,10056,261456).
route(prodloc11,prodloc15,tr13,10056,60336).
route(prodloc11,prodloc16,tr0,7316,190216).
route(prodloc11,prodloc16,tr13,7316,43896).
route(prodloc11,prodloc17,tr0,27549,716274).
route(prodloc11,prodloc17,tr13,27549,165294).
route(prodloc11,prodloc18,tr0,13990,363740).
route(prodloc11,prodloc18,tr13,13990,83940).
route(prodloc11,prodloc19,tr0,9346,242996).
route(prodloc11,prodloc19,tr13,9346,56076).
route(prodloc11,prodloc20,tr0,16385,426010).
route(prodloc11,prodloc20,tr13,16385,98310).
route(prodloc11,prodloc21,tr0,2,52).
route(prodloc11,prodloc21,tr13,2,12).
route(prodloc11,prodloc22,tr0,10173,264498).
route(prodloc11,prodloc22,tr13,10173,61038).
route(prodloc11,prodloc23,tr13,1200,7200).
route(prodloc11,prodloc23,tr15,1200,38400).
route(prodloc11,prodloc24,tr0,4203,109278).
route(prodloc11,prodloc24,tr13,4203,25218).
route(prodloc11,prodloc25,tr0,8451,219726).
route(prodloc11,prodloc25,tr13,8451,50706).
route(prodloc11,prodloc26,tr0,3807,98982).
route(prodloc11,prodloc26,tr13,3807,22842).
route(prodloc11,prodloc27,tr0,23206,603356).
route(prodloc11,prodloc27,tr13,23206,139236).
route(prodloc11,prodloc28,tr0,24305,631930).
route(prodloc11,prodloc28,tr15,24305,777760).
route(prodloc11,prodloc29,tr0,18927,492102).
route(prodloc11,prodloc29,tr13,18927,113562).
route(prodloc11,prodloc30,tr0,5317,138242).
route(prodloc11,prodloc30,tr13,5317,31902).
route(prodloc11,prodloc31,tr0,20867,542542).
route(prodloc11,prodloc31,tr13,20867,125202).
route(prodloc11,prodloc32,tr0,1779,46254).
route(prodloc11,prodloc32,tr13,1779,10674).
route(prodloc11,prodloc33,tr0,18108,470808).
route(prodloc11,prodloc33,tr13,18108,108648).
route(prodloc12,harbor0,tr0,14079,366054).
route(prodloc12,harbor0,tr13,14079,84474).
route(prodloc12,harbor1,tr0,376,9776).
route(prodloc12,harbor1,tr13,376,2256).
route(prodloc12,harbor2,tr0,22644,588744).
route(prodloc12,harbor2,tr13,22644,135864).
route(prodloc12,harbor3,tr0,6221,161746).
route(prodloc12,harbor3,tr13,6221,37326).
route(prodloc12,harbor4,tr0,22621,588146).
route(prodloc12,harbor4,tr13,22621,135726).
route(prodloc12,harbor5,tr0,16361,425386).
route(prodloc12,harbor5,tr13,16361,98166).
route(prodloc12,harbor6,tr0,12175,316550).
route(prodloc12,harbor6,tr13,12175,73050).
route(prodloc12,harbor7,tr0,11482,298532).
route(prodloc12,harbor7,tr13,11482,68892).
route(prodloc12,harbor8,tr0,14460,375960).
route(prodloc12,harbor8,tr13,14460,86760).
route(prodloc12,harbor9,tr0,1493,38818).
route(prodloc12,harbor9,tr13,1493,8958).
route(prodloc12,harbor10,tr0,8695,226070).
route(prodloc12,harbor10,tr13,8695,52170).
route(prodloc12,harbor11,tr0,1594,41444).
route(prodloc12,harbor11,tr13,1594,9564).
route(prodloc12,harbor12,tr0,24353,633178).
route(prodloc12,harbor12,tr13,24353,146118).
route(prodloc12,harbor13,tr0,6700,174200).
route(prodloc12,harbor13,tr13,6700,40200).
route(prodloc12,harbor14,tr0,21470,558220).
route(prodloc12,harbor14,tr13,21470,128820).
route(prodloc12,harbor15,tr0,17578,457028).
route(prodloc12,harbor15,tr13,17578,105468).
route(prodloc12,harbor16,tr0,3997,103922).
route(prodloc12,harbor16,tr13,3997,23982).
route(prodloc12,prodloc0,tr0,12297,319722).
route(prodloc12,prodloc0,tr13,12297,73782).
route(prodloc12,prodloc1,tr0,5455,141830).
route(prodloc12,prodloc1,tr13,5455,32730).
route(prodloc12,prodloc2,tr0,17989,467714).
route(prodloc12,prodloc2,tr13,17989,107934).
route(prodloc12,prodloc3,tr0,6963,181038).
route(prodloc12,prodloc3,tr13,6963,41778).
route(prodloc12,prodloc4,tr0,20038,520988).
route(prodloc12,prodloc4,tr13,20038,120228).
route(prodloc12,prodloc5,tr0,20392,530192).
route(prodloc12,prodloc5,tr13,20392,122352).
route(prodloc12,prodloc6,tr0,11648,302848).
route(prodloc12,prodloc6,tr13,11648,69888).
route(prodloc12,prodloc7,tr0,10159,264134).
route(prodloc12,prodloc7,tr13,10159,60954).
route(prodloc12,prodloc8,tr0,21019,546494).
route(prodloc12,prodloc8,tr15,21019,672608).
route(prodloc12,prodloc9,tr0,13059,339534).
route(prodloc12,prodloc9,tr13,13059,78354).
route(prodloc12,prodloc10,tr0,17369,451594).
route(prodloc12,prodloc10,tr13,17369,104214).
route(prodloc12,prodloc11,tr0,719,18694).
route(prodloc12,prodloc11,tr13,719,4314).
route(prodloc12,prodloc13,tr0,9794,254644).
route(prodloc12,prodloc13,tr13,9794,58764).
route(prodloc12,prodloc14,tr0,12552,326352).
route(prodloc12,prodloc14,tr13,12552,75312).
route(prodloc12,prodloc15,tr0,441,11466).
route(prodloc12,prodloc15,tr13,441,2646).
route(prodloc12,prodloc16,tr0,9272,241072).
route(prodloc12,prodloc16,tr13,9272,55632).
route(prodloc12,prodloc17,tr0,12243,318318).
route(prodloc12,prodloc17,tr13,12243,73458).
route(prodloc12,prodloc18,tr0,16670,433420).
route(prodloc12,prodloc18,tr13,16670,100020).
route(prodloc12,prodloc19,tr0,10607,275782).
route(prodloc12,prodloc19,tr13,10607,63642).
route(prodloc12,prodloc20,tr0,16856,438256).
route(prodloc12,prodloc20,tr15,16856,539392).
route(prodloc12,prodloc21,tr0,16486,428636).
route(prodloc12,prodloc21,tr13,16486,98916).
route(prodloc12,prodloc22,tr0,22970,597220).
route(prodloc12,prodloc22,tr13,22970,137820).
route(prodloc12,prodloc23,tr0,3713,96538).
route(prodloc12,prodloc23,tr13,3713,22278).
route(prodloc12,prodloc24,tr0,11271,293046).
route(prodloc12,prodloc24,tr13,11271,67626).
route(prodloc12,prodloc25,tr0,16493,428818).
route(prodloc12,prodloc25,tr13,16493,98958).
route(prodloc12,prodloc26,tr0,16490,428740).
route(prodloc12,prodloc26,tr13,16490,98940).
route(prodloc12,prodloc27,tr0,2515,65390).
route(prodloc12,prodloc27,tr13,2515,15090).
route(prodloc12,prodloc28,tr0,17580,457080).
route(prodloc12,prodloc28,tr13,17580,105480).
route(prodloc12,prodloc29,tr0,9465,246090).
route(prodloc12,prodloc29,tr13,9465,56790).
route(prodloc12,prodloc30,tr0,2695,70070).
route(prodloc12,prodloc30,tr13,2695,16170).
route(prodloc12,prodloc31,tr0,11100,288600).
route(prodloc12,prodloc31,tr13,11100,66600).
route(prodloc12,prodloc32,tr0,18909,491634).
route(prodloc12,prodloc32,tr13,18909,113454).
route(prodloc12,prodloc33,tr0,13015,338390).
route(prodloc12,prodloc33,tr13,13015,78090).
route(prodloc13,harbor0,tr0,20664,537264).
route(prodloc13,harbor0,tr13,20664,123984).
route(prodloc13,harbor1,tr0,21555,560430).
route(prodloc13,harbor1,tr13,21555,129330).
route(prodloc13,harbor2,tr0,6263,162838).
route(prodloc13,harbor2,tr13,6263,37578).
route(prodloc13,harbor3,tr0,18540,482040).
route(prodloc13,harbor3,tr13,18540,111240).
route(prodloc13,harbor4,tr0,21206,551356).
route(prodloc13,harbor4,tr13,21206,127236).
route(prodloc13,harbor5,tr0,17226,447876).
route(prodloc13,harbor5,tr13,17226,103356).
route(prodloc13,harbor6,tr0,8454,219804).
route(prodloc13,harbor6,tr13,8454,50724).
route(prodloc13,harbor7,tr0,22450,583700).
route(prodloc13,harbor7,tr13,22450,134700).
route(prodloc13,harbor8,tr0,1768,45968).
route(prodloc13,harbor8,tr13,1768,10608).
route(prodloc13,harbor9,tr0,4734,123084).
route(prodloc13,harbor9,tr13,4734,28404).
route(prodloc13,harbor10,tr0,22778,592228).
route(prodloc13,harbor10,tr13,22778,136668).
route(prodloc13,harbor11,tr0,16534,429884).
route(prodloc13,harbor11,tr13,16534,99204).
route(prodloc13,harbor12,tr0,22526,585676).
route(prodloc13,harbor12,tr13,22526,135156).
route(prodloc13,harbor13,tr0,24046,625196).
route(prodloc13,harbor13,tr13,24046,144276).
route(prodloc13,harbor14,tr0,14404,374504).
route(prodloc13,harbor14,tr13,14404,86424).
route(prodloc13,harbor15,tr0,14905,387530).
route(prodloc13,harbor15,tr13,14905,89430).
route(prodloc13,harbor16,tr0,13097,340522).
route(prodloc13,harbor16,tr13,13097,78582).
route(prodloc13,prodloc0,tr0,11131,289406).
route(prodloc13,prodloc0,tr13,11131,66786).
route(prodloc13,prodloc1,tr0,23863,620438).
route(prodloc13,prodloc1,tr13,23863,143178).
route(prodloc13,prodloc2,tr0,18879,490854).
route(prodloc13,prodloc2,tr13,18879,113274).
route(prodloc13,prodloc3,tr0,22553,586378).
route(prodloc13,prodloc3,tr13,22553,135318).
route(prodloc13,prodloc4,tr0,10265,266890).
route(prodloc13,prodloc4,tr13,10265,61590).
route(prodloc13,prodloc5,tr0,2506,65156).
route(prodloc13,prodloc5,tr13,2506,15036).
route(prodloc13,prodloc6,tr0,24871,646646).
route(prodloc13,prodloc6,tr13,24871,149226).
route(prodloc13,prodloc7,tr0,26802,696852).
route(prodloc13,prodloc7,tr13,26802,160812).
route(prodloc13,prodloc8,tr0,12019,312494).
route(prodloc13,prodloc8,tr13,12019,72114).
route(prodloc13,prodloc9,tr0,10993,285818).
route(prodloc13,prodloc9,tr13,10993,65958).
route(prodloc13,prodloc10,tr0,13067,339742).
route(prodloc13,prodloc10,tr13,13067,78402).
route(prodloc13,prodloc11,tr0,16714,434564).
route(prodloc13,prodloc11,tr13,16714,100284).
route(prodloc13,prodloc12,tr0,22375,581750).
route(prodloc13,prodloc12,tr13,22375,134250).
route(prodloc13,prodloc14,tr0,14746,383396).
route(prodloc13,prodloc14,tr13,14746,88476).
route(prodloc13,prodloc15,tr0,8988,233688).
route(prodloc13,prodloc15,tr13,8988,53928).
route(prodloc13,prodloc16,tr0,14862,386412).
route(prodloc13,prodloc16,tr13,14862,89172).
route(prodloc13,prodloc17,tr0,27066,703716).
route(prodloc13,prodloc17,tr13,27066,162396).
route(prodloc13,prodloc18,tr0,16423,426998).
route(prodloc13,prodloc18,tr13,16423,98538).
route(prodloc13,prodloc19,tr0,9469,246194).
route(prodloc13,prodloc19,tr13,9469,56814).
route(prodloc13,prodloc20,tr0,2412,62712).
route(prodloc13,prodloc20,tr13,2412,14472).
route(prodloc13,prodloc21,tr0,13721,356746).
route(prodloc13,prodloc21,tr13,13721,82326).
route(prodloc13,prodloc22,tr0,7141,185666).
route(prodloc13,prodloc22,tr13,7141,42846).
route(prodloc13,prodloc23,tr0,5625,146250).
route(prodloc13,prodloc23,tr13,5625,33750).
route(prodloc13,prodloc24,tr0,17065,443690).
route(prodloc13,prodloc24,tr13,17065,102390).
route(prodloc13,prodloc25,tr0,6998,181948).
route(prodloc13,prodloc25,tr13,6998,41988).
route(prodloc13,prodloc26,tr0,1749,45474).
route(prodloc13,prodloc26,tr13,1749,10494).
route(prodloc13,prodloc27,tr0,24541,638066).
route(prodloc13,prodloc27,tr13,24541,147246).
route(prodloc13,prodloc28,tr0,23068,599768).
route(prodloc13,prodloc28,tr13,23068,138408).
route(prodloc13,prodloc29,tr0,7564,196664).
route(prodloc13,prodloc29,tr13,7564,45384).
route(prodloc13,prodloc30,tr0,3661,95186).
route(prodloc13,prodloc30,tr13,3661,21966).
route(prodloc13,prodloc31,tr0,18668,485368).
route(prodloc13,prodloc31,tr13,18668,112008).
route(prodloc13,prodloc32,tr0,21424,557024).
route(prodloc13,prodloc32,tr13,21424,128544).
route(prodloc13,prodloc33,tr0,28583,743158).
route(prodloc13,prodloc33,tr13,28583,171498).
route(prodloc14,harbor0,tr0,8506,221156).
route(prodloc14,harbor0,tr13,8506,51036).
route(prodloc14,harbor1,tr0,24859,646334).
route(prodloc14,harbor1,tr13,24859,149154).
route(prodloc14,harbor2,tr0,7692,199992).
route(prodloc14,harbor2,tr13,7692,46152).
route(prodloc14,harbor3,tr0,17851,464126).
route(prodloc14,harbor3,tr13,17851,107106).
route(prodloc14,harbor4,tr0,6603,171678).
route(prodloc14,harbor4,tr13,6603,39618).
route(prodloc14,harbor5,tr0,442,11492).
route(prodloc14,harbor5,tr13,442,2652).
route(prodloc14,harbor6,tr0,7780,202280).
route(prodloc14,harbor6,tr13,7780,46680).
route(prodloc14,harbor7,tr0,15715,408590).
route(prodloc14,harbor7,tr13,15715,94290).
route(prodloc14,harbor8,tr0,6106,158756).
route(prodloc14,harbor8,tr13,6106,36636).
route(prodloc14,harbor9,tr0,26761,695786).
route(prodloc14,harbor9,tr13,26761,160566).
route(prodloc14,harbor10,tr0,10380,269880).
route(prodloc14,harbor10,tr13,10380,62280).
route(prodloc14,harbor11,tr0,13244,344344).
route(prodloc14,harbor11,tr13,13244,79464).
route(prodloc14,harbor12,tr0,3385,88010).
route(prodloc14,harbor12,tr13,3385,20310).
route(prodloc14,harbor13,tr0,7150,185900).
route(prodloc14,harbor13,tr13,7150,42900).
route(prodloc14,harbor14,tr0,20695,538070).
route(prodloc14,harbor14,tr13,20695,124170).
route(prodloc14,harbor15,tr0,8817,229242).
route(prodloc14,harbor15,tr13,8817,52902).
route(prodloc14,harbor16,tr0,9864,256464).
route(prodloc14,harbor16,tr13,9864,59184).
route(prodloc14,prodloc0,tr0,11079,288054).
route(prodloc14,prodloc0,tr13,11079,66474).
route(prodloc14,prodloc1,tr0,27378,711828).
route(prodloc14,prodloc1,tr13,27378,164268).
route(prodloc14,prodloc2,tr0,9872,256672).
route(prodloc14,prodloc2,tr13,9872,59232).
route(prodloc14,prodloc3,tr0,25566,664716).
route(prodloc14,prodloc3,tr13,25566,153396).
route(prodloc14,prodloc4,tr0,16841,437866).
route(prodloc14,prodloc4,tr13,16841,101046).
route(prodloc14,prodloc5,tr0,342,8892).
route(prodloc14,prodloc5,tr13,342,2052).
route(prodloc14,prodloc6,tr0,837,21762).
route(prodloc14,prodloc6,tr13,837,5022).
route(prodloc14,prodloc7,tr0,12740,331240).
route(prodloc14,prodloc7,tr13,12740,76440).
route(prodloc14,prodloc8,tr0,18894,491244).
route(prodloc14,prodloc8,tr13,18894,113364).
route(prodloc14,prodloc9,tr0,23362,607412).
route(prodloc14,prodloc9,tr13,23362,140172).
route(prodloc14,prodloc10,tr0,21463,558038).
route(prodloc14,prodloc10,tr13,21463,128778).
route(prodloc14,prodloc11,tr0,8074,209924).
route(prodloc14,prodloc11,tr13,8074,48444).
route(prodloc14,prodloc12,tr0,1446,37596).
route(prodloc14,prodloc12,tr13,1446,8676).
route(prodloc14,prodloc13,tr0,7098,184548).
route(prodloc14,prodloc13,tr13,7098,42588).
route(prodloc14,prodloc15,tr0,4748,123448).
route(prodloc14,prodloc15,tr13,4748,28488).
route(prodloc14,prodloc16,tr0,8833,229658).
route(prodloc14,prodloc16,tr13,8833,52998).
route(prodloc14,prodloc17,tr0,1087,28262).
route(prodloc14,prodloc17,tr13,1087,6522).
route(prodloc14,prodloc18,tr0,26272,683072).
route(prodloc14,prodloc18,tr13,26272,157632).
route(prodloc14,prodloc19,tr0,4613,119938).
route(prodloc14,prodloc19,tr13,4613,27678).
route(prodloc14,prodloc20,tr0,23327,606502).
route(prodloc14,prodloc20,tr13,23327,139962).
route(prodloc14,prodloc21,tr0,26949,700674).
route(prodloc14,prodloc21,tr13,26949,161694).
route(prodloc14,prodloc22,tr0,7658,199108).
route(prodloc14,prodloc22,tr13,7658,45948).
route(prodloc14,prodloc23,tr0,17997,467922).
route(prodloc14,prodloc23,tr13,17997,107982).
route(prodloc14,prodloc24,tr0,15230,395980).
route(prodloc14,prodloc24,tr13,15230,91380).
route(prodloc14,prodloc25,tr0,22848,594048).
route(prodloc14,prodloc25,tr15,22848,731136).
route(prodloc14,prodloc26,tr0,14839,385814).
route(prodloc14,prodloc26,tr13,14839,89034).
route(prodloc14,prodloc27,tr0,19928,518128).
route(prodloc14,prodloc27,tr13,19928,119568).
route(prodloc14,prodloc28,tr0,4080,106080).
route(prodloc14,prodloc28,tr13,4080,24480).
route(prodloc14,prodloc29,tr0,5048,131248).
route(prodloc14,prodloc29,tr13,5048,30288).
route(prodloc14,prodloc30,tr0,19984,519584).
route(prodloc14,prodloc30,tr13,19984,119904).
route(prodloc14,prodloc31,tr0,24144,627744).
route(prodloc14,prodloc31,tr13,24144,144864).
route(prodloc14,prodloc32,tr0,3978,103428).
route(prodloc14,prodloc32,tr13,3978,23868).
route(prodloc14,prodloc33,tr0,8759,227734).
route(prodloc14,prodloc33,tr13,8759,52554).
route(prodloc15,harbor0,tr0,26642,692692).
route(prodloc15,harbor0,tr13,26642,159852).
route(prodloc15,harbor1,tr0,11653,302978).
route(prodloc15,harbor1,tr13,11653,69918).
route(prodloc15,harbor2,tr0,12591,327366).
route(prodloc15,harbor2,tr13,12591,75546).
route(prodloc15,harbor3,tr0,2378,61828).
route(prodloc15,harbor3,tr13,2378,14268).
route(prodloc15,harbor4,tr0,15387,400062).
route(prodloc15,harbor4,tr13,15387,92322).
route(prodloc15,harbor5,tr0,8248,214448).
route(prodloc15,harbor5,tr13,8248,49488).
route(prodloc15,harbor6,tr0,14802,384852).
route(prodloc15,harbor6,tr13,14802,88812).
route(prodloc15,harbor7,tr0,23909,621634).
route(prodloc15,harbor7,tr13,23909,143454).
route(prodloc15,harbor8,tr0,23237,604162).
route(prodloc15,harbor8,tr13,23237,139422).
route(prodloc15,harbor9,tr0,17024,442624).
route(prodloc15,harbor9,tr13,17024,102144).
route(prodloc15,harbor10,tr0,25320,658320).
route(prodloc15,harbor10,tr13,25320,151920).
route(prodloc15,harbor11,tr0,1173,30498).
route(prodloc15,harbor11,tr13,1173,7038).
route(prodloc15,harbor12,tr0,19260,500760).
route(prodloc15,harbor12,tr13,19260,115560).
route(prodloc15,harbor13,tr0,27671,719446).
route(prodloc15,harbor13,tr13,27671,166026).
route(prodloc15,harbor14,tr0,21254,552604).
route(prodloc15,harbor14,tr13,21254,127524).
route(prodloc15,harbor15,tr0,20705,538330).
route(prodloc15,harbor15,tr13,20705,124230).
route(prodloc15,harbor16,tr0,16123,419198).
route(prodloc15,harbor16,tr13,16123,96738).
route(prodloc15,prodloc0,tr0,17555,456430).
route(prodloc15,prodloc0,tr13,17555,105330).
route(prodloc15,prodloc1,tr0,16732,435032).
route(prodloc15,prodloc1,tr13,16732,100392).
route(prodloc15,prodloc2,tr0,23680,615680).
route(prodloc15,prodloc2,tr13,23680,142080).
route(prodloc15,prodloc3,tr0,18201,473226).
route(prodloc15,prodloc3,tr13,18201,109206).
route(prodloc15,prodloc4,tr0,8952,232752).
route(prodloc15,prodloc4,tr13,8952,53712).
route(prodloc15,prodloc5,tr0,28897,751322).
route(prodloc15,prodloc5,tr13,28897,173382).
route(prodloc15,prodloc6,tr0,1628,42328).
route(prodloc15,prodloc6,tr13,1628,9768).
route(prodloc15,prodloc7,tr0,1534,39884).
route(prodloc15,prodloc7,tr13,1534,9204).
route(prodloc15,prodloc8,tr0,6671,173446).
route(prodloc15,prodloc8,tr13,6671,40026).
route(prodloc15,prodloc9,tr0,7777,202202).
route(prodloc15,prodloc9,tr13,7777,46662).
route(prodloc15,prodloc10,tr0,12319,320294).
route(prodloc15,prodloc10,tr13,12319,73914).
route(prodloc15,prodloc11,tr0,24580,639080).
route(prodloc15,prodloc11,tr13,24580,147480).
route(prodloc15,prodloc12,tr13,8194,49164).
route(prodloc15,prodloc12,tr15,8194,262208).
route(prodloc15,prodloc13,tr0,1573,40898).
route(prodloc15,prodloc13,tr13,1573,9438).
route(prodloc15,prodloc14,tr0,7212,187512).
route(prodloc15,prodloc14,tr13,7212,43272).
route(prodloc15,prodloc16,tr0,19993,519818).
route(prodloc15,prodloc16,tr13,19993,119958).
route(prodloc15,prodloc17,tr0,13400,348400).
route(prodloc15,prodloc17,tr13,13400,80400).
route(prodloc15,prodloc18,tr0,15530,403780).
route(prodloc15,prodloc18,tr13,15530,93180).
route(prodloc15,prodloc19,tr0,19303,501878).
route(prodloc15,prodloc19,tr13,19303,115818).
route(prodloc15,prodloc20,tr0,11717,304642).
route(prodloc15,prodloc20,tr13,11717,70302).
route(prodloc15,prodloc21,tr0,19781,514306).
route(prodloc15,prodloc21,tr13,19781,118686).
route(prodloc15,prodloc22,tr0,23035,598910).
route(prodloc15,prodloc22,tr13,23035,138210).
route(prodloc15,prodloc23,tr0,19488,506688).
route(prodloc15,prodloc23,tr13,19488,116928).
route(prodloc15,prodloc24,tr0,13424,349024).
route(prodloc15,prodloc24,tr13,13424,80544).
route(prodloc15,prodloc25,tr0,1518,39468).
route(prodloc15,prodloc25,tr13,1518,9108).
route(prodloc15,prodloc26,tr0,7784,202384).
route(prodloc15,prodloc26,tr13,7784,46704).
route(prodloc15,prodloc27,tr0,14165,368290).
route(prodloc15,prodloc27,tr13,14165,84990).
route(prodloc15,prodloc28,tr0,1848,48048).
route(prodloc15,prodloc28,tr13,1848,11088).
route(prodloc15,prodloc29,tr0,23732,617032).
route(prodloc15,prodloc29,tr13,23732,142392).
route(prodloc15,prodloc30,tr0,28689,745914).
route(prodloc15,prodloc30,tr13,28689,172134).
route(prodloc15,prodloc31,tr13,10043,60258).
route(prodloc15,prodloc31,tr15,10043,321376).
route(prodloc15,prodloc32,tr0,26915,699790).
route(prodloc15,prodloc32,tr13,26915,161490).
route(prodloc15,prodloc33,tr0,10707,278382).
route(prodloc15,prodloc33,tr13,10707,64242).
route(prodloc16,harbor0,tr0,25171,654446).
route(prodloc16,harbor0,tr13,25171,151026).
route(prodloc16,harbor1,tr0,25607,665782).
route(prodloc16,harbor1,tr13,25607,153642).
route(prodloc16,harbor2,tr0,23373,607698).
route(prodloc16,harbor2,tr13,23373,140238).
route(prodloc16,harbor3,tr0,18803,488878).
route(prodloc16,harbor3,tr13,18803,112818).
route(prodloc16,harbor4,tr0,9916,257816).
route(prodloc16,harbor4,tr13,9916,59496).
route(prodloc16,harbor5,tr0,8131,211406).
route(prodloc16,harbor5,tr13,8131,48786).
route(prodloc16,harbor6,tr0,6819,177294).
route(prodloc16,harbor6,tr13,6819,40914).
route(prodloc16,harbor7,tr0,17067,443742).
route(prodloc16,harbor7,tr13,17067,102402).
route(prodloc16,harbor8,tr0,27556,716456).
route(prodloc16,harbor8,tr13,27556,165336).
route(prodloc16,harbor9,tr0,23465,610090).
route(prodloc16,harbor9,tr13,23465,140790).
route(prodloc16,harbor10,tr0,22638,588588).
route(prodloc16,harbor10,tr13,22638,135828).
route(prodloc16,harbor11,tr0,12757,331682).
route(prodloc16,harbor11,tr13,12757,76542).
route(prodloc16,harbor12,tr0,22782,592332).
route(prodloc16,harbor12,tr13,22782,136692).
route(prodloc16,harbor13,tr0,12310,320060).
route(prodloc16,harbor13,tr13,12310,73860).
route(prodloc16,harbor14,tr0,20971,545246).
route(prodloc16,harbor14,tr13,20971,125826).
route(prodloc16,harbor15,tr0,3652,94952).
route(prodloc16,harbor15,tr13,3652,21912).
route(prodloc16,harbor16,tr0,26446,687596).
route(prodloc16,harbor16,tr13,26446,158676).
route(prodloc16,prodloc0,tr0,1623,42198).
route(prodloc16,prodloc0,tr13,1623,9738).
route(prodloc16,prodloc1,tr0,27146,705796).
route(prodloc16,prodloc1,tr13,27146,162876).
route(prodloc16,prodloc2,tr0,16208,421408).
route(prodloc16,prodloc2,tr13,16208,97248).
route(prodloc16,prodloc3,tr0,17635,458510).
route(prodloc16,prodloc3,tr13,17635,105810).
route(prodloc16,prodloc4,tr0,28195,733070).
route(prodloc16,prodloc4,tr13,28195,169170).
route(prodloc16,prodloc5,tr0,3615,93990).
route(prodloc16,prodloc5,tr13,3615,21690).
route(prodloc16,prodloc6,tr0,7206,187356).
route(prodloc16,prodloc6,tr13,7206,43236).
route(prodloc16,prodloc7,tr0,19831,515606).
route(prodloc16,prodloc7,tr13,19831,118986).
route(prodloc16,prodloc8,tr0,20660,537160).
route(prodloc16,prodloc8,tr13,20660,123960).
route(prodloc16,prodloc9,tr0,21573,560898).
route(prodloc16,prodloc9,tr13,21573,129438).
route(prodloc16,prodloc10,tr0,8443,219518).
route(prodloc16,prodloc10,tr13,8443,50658).
route(prodloc16,prodloc11,tr0,1914,49764).
route(prodloc16,prodloc11,tr13,1914,11484).
route(prodloc16,prodloc12,tr0,14824,385424).
route(prodloc16,prodloc12,tr13,14824,88944).
route(prodloc16,prodloc13,tr0,5198,135148).
route(prodloc16,prodloc13,tr13,5198,31188).
route(prodloc16,prodloc14,tr0,21860,568360).
route(prodloc16,prodloc14,tr13,21860,131160).
route(prodloc16,prodloc15,tr0,20724,538824).
route(prodloc16,prodloc15,tr13,20724,124344).
route(prodloc16,prodloc17,tr13,22900,137400).
route(prodloc16,prodloc17,tr15,22900,732800).
route(prodloc16,prodloc18,tr0,21135,549510).
route(prodloc16,prodloc18,tr13,21135,126810).
route(prodloc16,prodloc19,tr0,27610,717860).
route(prodloc16,prodloc19,tr13,27610,165660).
route(prodloc16,prodloc20,tr0,5003,130078).
route(prodloc16,prodloc20,tr13,5003,30018).
route(prodloc16,prodloc21,tr13,16343,98058).
route(prodloc16,prodloc21,tr15,16343,522976).
route(prodloc16,prodloc22,tr0,22782,592332).
route(prodloc16,prodloc22,tr13,22782,136692).
route(prodloc16,prodloc23,tr0,5126,133276).
route(prodloc16,prodloc23,tr13,5126,30756).
route(prodloc16,prodloc24,tr0,20447,531622).
route(prodloc16,prodloc24,tr13,20447,122682).
route(prodloc16,prodloc25,tr0,16777,436202).
route(prodloc16,prodloc25,tr13,16777,100662).
route(prodloc16,prodloc26,tr0,5034,130884).
route(prodloc16,prodloc26,tr13,5034,30204).
route(prodloc16,prodloc27,tr0,14579,379054).
route(prodloc16,prodloc27,tr13,14579,87474).
route(prodloc16,prodloc28,tr0,15889,413114).
route(prodloc16,prodloc28,tr13,15889,95334).
route(prodloc16,prodloc29,tr0,5645,146770).
route(prodloc16,prodloc29,tr13,5645,33870).
route(prodloc16,prodloc30,tr0,8536,221936).
route(prodloc16,prodloc30,tr13,8536,51216).
route(prodloc16,prodloc31,tr0,918,23868).
route(prodloc16,prodloc31,tr13,918,5508).
route(prodloc16,prodloc32,tr0,24747,643422).
route(prodloc16,prodloc32,tr13,24747,148482).
route(prodloc16,prodloc33,tr0,26218,681668).
route(prodloc16,prodloc33,tr13,26218,157308).
route(prodloc17,harbor0,tr0,19364,503464).
route(prodloc17,harbor0,tr13,19364,116184).
route(prodloc17,harbor1,tr0,17163,446238).
route(prodloc17,harbor1,tr13,17163,102978).
route(prodloc17,harbor2,tr0,10060,261560).
route(prodloc17,harbor2,tr13,10060,60360).
route(prodloc17,harbor3,tr0,23883,620958).
route(prodloc17,harbor3,tr13,23883,143298).
route(prodloc17,harbor4,tr0,18544,482144).
route(prodloc17,harbor4,tr13,18544,111264).
route(prodloc17,harbor5,tr0,22621,588146).
route(prodloc17,harbor5,tr13,22621,135726).
route(prodloc17,harbor6,tr0,19922,517972).
route(prodloc17,harbor6,tr13,19922,119532).
route(prodloc17,harbor7,tr0,716,18616).
route(prodloc17,harbor7,tr13,716,4296).
route(prodloc17,harbor8,tr0,15917,413842).
route(prodloc17,harbor8,tr13,15917,95502).
route(prodloc17,harbor9,tr0,2042,53092).
route(prodloc17,harbor9,tr13,2042,12252).
route(prodloc17,harbor10,tr0,24227,629902).
route(prodloc17,harbor10,tr13,24227,145362).
route(prodloc17,harbor11,tr0,19999,519974).
route(prodloc17,harbor11,tr13,19999,119994).
route(prodloc17,harbor12,tr0,19186,498836).
route(prodloc17,harbor12,tr13,19186,115116).
route(prodloc17,harbor13,tr0,9319,242294).
route(prodloc17,harbor13,tr13,9319,55914).
route(prodloc17,harbor14,tr0,24843,645918).
route(prodloc17,harbor14,tr13,24843,149058).
route(prodloc17,harbor15,tr0,16516,429416).
route(prodloc17,harbor15,tr13,16516,99096).
route(prodloc17,harbor16,tr0,6388,166088).
route(prodloc17,harbor16,tr13,6388,38328).
route(prodloc17,prodloc0,tr0,11258,292708).
route(prodloc17,prodloc0,tr13,11258,67548).
route(prodloc17,prodloc1,tr0,11339,294814).
route(prodloc17,prodloc1,tr13,11339,68034).
route(prodloc17,prodloc2,tr0,11622,302172).
route(prodloc17,prodloc2,tr13,11622,69732).
route(prodloc17,prodloc3,tr0,28573,742898).
route(prodloc17,prodloc3,tr13,28573,171438).
route(prodloc17,prodloc4,tr0,2744,71344).
route(prodloc17,prodloc4,tr13,2744,16464).
route(prodloc17,prodloc5,tr0,28176,732576).
route(prodloc17,prodloc5,tr13,28176,169056).
route(prodloc17,prodloc6,tr0,15410,400660).
route(prodloc17,prodloc6,tr13,15410,92460).
route(prodloc17,prodloc7,tr0,19928,518128).
route(prodloc17,prodloc7,tr13,19928,119568).
route(prodloc17,prodloc8,tr0,26474,688324).
route(prodloc17,prodloc8,tr13,26474,158844).
route(prodloc17,prodloc9,tr0,4776,124176).
route(prodloc17,prodloc9,tr13,4776,28656).
route(prodloc17,prodloc10,tr0,12292,319592).
route(prodloc17,prodloc10,tr13,12292,73752).
route(prodloc17,prodloc11,tr0,8445,219570).
route(prodloc17,prodloc11,tr13,8445,50670).
route(prodloc17,prodloc12,tr0,19290,501540).
route(prodloc17,prodloc12,tr13,19290,115740).
route(prodloc17,prodloc13,tr0,6608,171808).
route(prodloc17,prodloc13,tr13,6608,39648).
route(prodloc17,prodloc14,tr0,12673,329498).
route(prodloc17,prodloc14,tr13,12673,76038).
route(prodloc17,prodloc15,tr0,9520,247520).
route(prodloc17,prodloc15,tr13,9520,57120).
route(prodloc17,prodloc16,tr0,3275,85150).
route(prodloc17,prodloc16,tr13,3275,19650).
route(prodloc17,prodloc18,tr0,23796,618696).
route(prodloc17,prodloc18,tr13,23796,142776).
route(prodloc17,prodloc19,tr0,28142,731692).
route(prodloc17,prodloc19,tr13,28142,168852).
route(prodloc17,prodloc20,tr0,21220,551720).
route(prodloc17,prodloc20,tr13,21220,127320).
route(prodloc17,prodloc21,tr0,10879,282854).
route(prodloc17,prodloc21,tr13,10879,65274).
route(prodloc17,prodloc22,tr0,10190,264940).
route(prodloc17,prodloc22,tr13,10190,61140).
route(prodloc17,prodloc23,tr0,12477,324402).
route(prodloc17,prodloc23,tr13,12477,74862).
route(prodloc17,prodloc24,tr0,5173,134498).
route(prodloc17,prodloc24,tr13,5173,31038).
route(prodloc17,prodloc25,tr0,3866,100516).
route(prodloc17,prodloc25,tr13,3866,23196).
route(prodloc17,prodloc26,tr0,13287,345462).
route(prodloc17,prodloc26,tr13,13287,79722).
route(prodloc17,prodloc27,tr0,6372,165672).
route(prodloc17,prodloc27,tr13,6372,38232).
route(prodloc17,prodloc28,tr0,23471,610246).
route(prodloc17,prodloc28,tr13,23471,140826).
route(prodloc17,prodloc29,tr0,14390,374140).
route(prodloc17,prodloc29,tr13,14390,86340).
route(prodloc17,prodloc30,tr0,17836,463736).
route(prodloc17,prodloc30,tr13,17836,107016).
route(prodloc17,prodloc31,tr0,6469,168194).
route(prodloc17,prodloc31,tr13,6469,38814).
route(prodloc17,prodloc32,tr0,9881,256906).
route(prodloc17,prodloc32,tr13,9881,59286).
route(prodloc17,prodloc33,tr0,26300,683800).
route(prodloc17,prodloc33,tr13,26300,157800).
route(prodloc18,harbor0,tr0,17239,448214).
route(prodloc18,harbor0,tr13,17239,103434).
route(prodloc18,harbor1,tr0,10763,279838).
route(prodloc18,harbor1,tr13,10763,64578).
route(prodloc18,harbor2,tr0,11093,288418).
route(prodloc18,harbor2,tr13,11093,66558).
route(prodloc18,harbor3,tr0,1875,48750).
route(prodloc18,harbor3,tr13,1875,11250).
route(prodloc18,harbor4,tr0,27603,717678).
route(prodloc18,harbor4,tr13,27603,165618).
route(prodloc18,harbor5,tr0,1478,38428).
route(prodloc18,harbor5,tr13,1478,8868).
route(prodloc18,harbor6,tr0,21320,554320).
route(prodloc18,harbor6,tr13,21320,127920).
route(prodloc18,harbor7,tr0,7820,203320).
route(prodloc18,harbor7,tr13,7820,46920).
route(prodloc18,harbor8,tr0,13195,343070).
route(prodloc18,harbor8,tr13,13195,79170).
route(prodloc18,harbor9,tr0,17351,451126).
route(prodloc18,harbor9,tr13,17351,104106).
route(prodloc18,harbor10,tr0,22199,577174).
route(prodloc18,harbor10,tr13,22199,133194).
route(prodloc18,harbor11,tr0,19195,499070).
route(prodloc18,harbor11,tr13,19195,115170).
route(prodloc18,harbor12,tr0,3252,84552).
route(prodloc18,harbor12,tr13,3252,19512).
route(prodloc18,harbor13,tr0,26199,681174).
route(prodloc18,harbor13,tr13,26199,157194).
route(prodloc18,harbor14,tr0,19988,519688).
route(prodloc18,harbor14,tr13,19988,119928).
route(prodloc18,harbor15,tr0,13103,340678).
route(prodloc18,harbor15,tr13,13103,78618).
route(prodloc18,harbor16,tr0,4934,128284).
route(prodloc18,harbor16,tr13,4934,29604).
route(prodloc18,prodloc0,tr0,1710,44460).
route(prodloc18,prodloc0,tr13,1710,10260).
route(prodloc18,prodloc1,tr0,9293,241618).
route(prodloc18,prodloc1,tr13,9293,55758).
route(prodloc18,prodloc2,tr0,8694,226044).
route(prodloc18,prodloc2,tr13,8694,52164).
route(prodloc18,prodloc3,tr0,15547,404222).
route(prodloc18,prodloc3,tr13,15547,93282).
route(prodloc18,prodloc4,tr0,18474,480324).
route(prodloc18,prodloc4,tr13,18474,110844).
route(prodloc18,prodloc5,tr0,24353,633178).
route(prodloc18,prodloc5,tr13,24353,146118).
route(prodloc18,prodloc6,tr0,2401,62426).
route(prodloc18,prodloc6,tr13,2401,14406).
route(prodloc18,prodloc7,tr0,10967,285142).
route(prodloc18,prodloc7,tr13,10967,65802).
route(prodloc18,prodloc8,tr0,14718,382668).
route(prodloc18,prodloc8,tr13,14718,88308).
route(prodloc18,prodloc9,tr0,6052,157352).
route(prodloc18,prodloc9,tr13,6052,36312).
route(prodloc18,prodloc10,tr0,23763,617838).
route(prodloc18,prodloc10,tr13,23763,142578).
route(prodloc18,prodloc11,tr0,16529,429754).
route(prodloc18,prodloc11,tr13,16529,99174).
route(prodloc18,prodloc12,tr0,20216,525616).
route(prodloc18,prodloc12,tr13,20216,121296).
route(prodloc18,prodloc13,tr0,23884,620984).
route(prodloc18,prodloc13,tr13,23884,143304).
route(prodloc18,prodloc14,tr0,13872,360672).
route(prodloc18,prodloc14,tr13,13872,83232).
route(prodloc18,prodloc15,tr0,27364,711464).
route(prodloc18,prodloc15,tr13,27364,164184).
route(prodloc18,prodloc16,tr0,28508,741208).
route(prodloc18,prodloc16,tr13,28508,171048).
route(prodloc18,prodloc17,tr0,21271,553046).
route(prodloc18,prodloc17,tr13,21271,127626).
route(prodloc18,prodloc19,tr0,205,5330).
route(prodloc18,prodloc19,tr13,205,1230).
route(prodloc18,prodloc20,tr0,10934,284284).
route(prodloc18,prodloc20,tr13,10934,65604).
route(prodloc18,prodloc21,tr0,16639,432614).
route(prodloc18,prodloc21,tr13,16639,99834).
route(prodloc18,prodloc22,tr0,25182,654732).
route(prodloc18,prodloc22,tr13,25182,151092).
route(prodloc18,prodloc23,tr0,2191,56966).
route(prodloc18,prodloc23,tr13,2191,13146).
route(prodloc18,prodloc24,tr0,19823,515398).
route(prodloc18,prodloc24,tr13,19823,118938).
route(prodloc18,prodloc25,tr0,20179,524654).
route(prodloc18,prodloc25,tr13,20179,121074).
route(prodloc18,prodloc26,tr0,13124,341224).
route(prodloc18,prodloc26,tr13,13124,78744).
route(prodloc18,prodloc27,tr0,15031,390806).
route(prodloc18,prodloc27,tr13,15031,90186).
route(prodloc18,prodloc28,tr0,26866,698516).
route(prodloc18,prodloc28,tr13,26866,161196).
route(prodloc18,prodloc29,tr0,3766,97916).
route(prodloc18,prodloc29,tr13,3766,22596).
route(prodloc18,prodloc30,tr0,24978,649428).
route(prodloc18,prodloc30,tr13,24978,149868).
route(prodloc18,prodloc31,tr0,1007,26182).
route(prodloc18,prodloc31,tr13,1007,6042).
route(prodloc18,prodloc32,tr0,4376,113776).
route(prodloc18,prodloc32,tr13,4376,26256).
route(prodloc18,prodloc33,tr0,11927,310102).
route(prodloc18,prodloc33,tr13,11927,71562).
route(prodloc19,harbor0,tr0,22137,575562).
route(prodloc19,harbor0,tr13,22137,132822).
route(prodloc19,harbor1,tr0,2983,77558).
route(prodloc19,harbor1,tr13,2983,17898).
route(prodloc19,harbor2,tr0,6787,176462).
route(prodloc19,harbor2,tr13,6787,40722).
route(prodloc19,harbor3,tr0,9188,238888).
route(prodloc19,harbor3,tr13,9188,55128).
route(prodloc19,harbor4,tr0,19029,494754).
route(prodloc19,harbor4,tr13,19029,114174).
route(prodloc19,harbor5,tr0,5610,145860).
route(prodloc19,harbor5,tr13,5610,33660).
route(prodloc19,harbor6,tr0,26588,691288).
route(prodloc19,harbor6,tr13,26588,159528).
route(prodloc19,harbor7,tr0,26472,688272).
route(prodloc19,harbor7,tr13,26472,158832).
route(prodloc19,harbor8,tr0,21422,556972).
route(prodloc19,harbor8,tr13,21422,128532).
route(prodloc19,harbor9,tr0,27460,713960).
route(prodloc19,harbor9,tr13,27460,164760).
route(prodloc19,harbor10,tr0,18339,476814).
route(prodloc19,harbor10,tr13,18339,110034).
route(prodloc19,harbor11,tr0,6814,177164).
route(prodloc19,harbor11,tr13,6814,40884).
route(prodloc19,harbor12,tr0,6970,181220).
route(prodloc19,harbor12,tr13,6970,41820).
route(prodloc19,harbor13,tr0,10159,264134).
route(prodloc19,harbor13,tr13,10159,60954).
route(prodloc19,harbor14,tr0,25250,656500).
route(prodloc19,harbor14,tr13,25250,151500).
route(prodloc19,harbor15,tr0,9949,258674).
route(prodloc19,harbor15,tr13,9949,59694).
route(prodloc19,harbor16,tr0,28046,729196).
route(prodloc19,harbor16,tr13,28046,168276).
route(prodloc19,prodloc0,tr0,19229,499954).
route(prodloc19,prodloc0,tr13,19229,115374).
route(prodloc19,prodloc1,tr0,12524,325624).
route(prodloc19,prodloc1,tr13,12524,75144).
route(prodloc19,prodloc2,tr0,20575,534950).
route(prodloc19,prodloc2,tr13,20575,123450).
route(prodloc19,prodloc3,tr0,17883,464958).
route(prodloc19,prodloc3,tr13,17883,107298).
route(prodloc19,prodloc4,tr0,2474,64324).
route(prodloc19,prodloc4,tr13,2474,14844).
route(prodloc19,prodloc5,tr0,13566,352716).
route(prodloc19,prodloc5,tr13,13566,81396).
route(prodloc19,prodloc6,tr0,19134,497484).
route(prodloc19,prodloc6,tr13,19134,114804).
route(prodloc19,prodloc7,tr0,930,24180).
route(prodloc19,prodloc7,tr13,930,5580).
route(prodloc19,prodloc8,tr0,331,8606).
route(prodloc19,prodloc8,tr13,331,1986).
route(prodloc19,prodloc9,tr0,22245,578370).
route(prodloc19,prodloc9,tr13,22245,133470).
route(prodloc19,prodloc10,tr0,16655,433030).
route(prodloc19,prodloc10,tr13,16655,99930).
route(prodloc19,prodloc11,tr0,10577,275002).
route(prodloc19,prodloc11,tr13,10577,63462).
route(prodloc19,prodloc12,tr0,26061,677586).
route(prodloc19,prodloc12,tr13,26061,156366).
route(prodloc19,prodloc13,tr0,26089,678314).
route(prodloc19,prodloc13,tr13,26089,156534).
route(prodloc19,prodloc14,tr0,4937,128362).
route(prodloc19,prodloc14,tr13,4937,29622).
route(prodloc19,prodloc15,tr0,23953,622778).
route(prodloc19,prodloc15,tr13,23953,143718).
route(prodloc19,prodloc16,tr0,27503,715078).
route(prodloc19,prodloc16,tr13,27503,165018).
route(prodloc19,prodloc17,tr0,24386,634036).
route(prodloc19,prodloc17,tr13,24386,146316).
route(prodloc19,prodloc18,tr0,407,10582).
route(prodloc19,prodloc18,tr13,407,2442).
route(prodloc19,prodloc20,tr0,11608,301808).
route(prodloc19,prodloc20,tr13,11608,69648).
route(prodloc19,prodloc21,tr0,21016,546416).
route(prodloc19,prodloc21,tr13,21016,126096).
route(prodloc19,prodloc22,tr0,12466,324116).
route(prodloc19,prodloc22,tr13,12466,74796).
route(prodloc19,prodloc23,tr0,17010,442260).
route(prodloc19,prodloc23,tr13,17010,102060).
route(prodloc19,prodloc24,tr0,15338,398788).
route(prodloc19,prodloc24,tr13,15338,92028).
route(prodloc19,prodloc25,tr0,17076,443976).
route(prodloc19,prodloc25,tr13,17076,102456).
route(prodloc19,prodloc26,tr0,21829,567554).
route(prodloc19,prodloc26,tr13,21829,130974).
route(prodloc19,prodloc27,tr0,25195,655070).
route(prodloc19,prodloc27,tr13,25195,151170).
route(prodloc19,prodloc28,tr0,12984,337584).
route(prodloc19,prodloc28,tr13,12984,77904).
route(prodloc19,prodloc29,tr0,11190,290940).
route(prodloc19,prodloc29,tr13,11190,67140).
route(prodloc19,prodloc30,tr0,3733,97058).
route(prodloc19,prodloc30,tr13,3733,22398).
route(prodloc19,prodloc31,tr0,27392,712192).
route(prodloc19,prodloc31,tr13,27392,164352).
route(prodloc19,prodloc32,tr0,26958,700908).
route(prodloc19,prodloc32,tr13,26958,161748).
route(prodloc19,prodloc33,tr0,1776,46176).
route(prodloc19,prodloc33,tr13,1776,10656).
route(prodloc20,harbor0,tr0,20443,531518).
route(prodloc20,harbor0,tr13,20443,122658).
route(prodloc20,harbor1,tr0,19630,510380).
route(prodloc20,harbor1,tr13,19630,117780).
route(prodloc20,harbor2,tr0,27645,718770).
route(prodloc20,harbor2,tr13,27645,165870).
route(prodloc20,harbor3,tr0,4145,107770).
route(prodloc20,harbor3,tr13,4145,24870).
route(prodloc20,harbor4,tr0,18037,468962).
route(prodloc20,harbor4,tr13,18037,108222).
route(prodloc20,harbor5,tr0,23570,612820).
route(prodloc20,harbor5,tr13,23570,141420).
route(prodloc20,harbor6,tr0,17324,450424).
route(prodloc20,harbor6,tr13,17324,103944).
route(prodloc20,harbor7,tr0,20907,543582).
route(prodloc20,harbor7,tr13,20907,125442).
route(prodloc20,harbor8,tr0,23359,607334).
route(prodloc20,harbor8,tr13,23359,140154).
route(prodloc20,harbor9,tr0,25507,663182).
route(prodloc20,harbor9,tr13,25507,153042).
route(prodloc20,harbor10,tr0,23205,603330).
route(prodloc20,harbor10,tr13,23205,139230).
route(prodloc20,harbor11,tr0,20146,523796).
route(prodloc20,harbor11,tr13,20146,120876).
route(prodloc20,harbor12,tr0,16486,428636).
route(prodloc20,harbor12,tr13,16486,98916).
route(prodloc20,harbor13,tr0,3204,83304).
route(prodloc20,harbor13,tr13,3204,19224).
route(prodloc20,harbor14,tr0,24536,637936).
route(prodloc20,harbor14,tr13,24536,147216).
route(prodloc20,harbor15,tr0,14040,365040).
route(prodloc20,harbor15,tr13,14040,84240).
route(prodloc20,harbor16,tr0,16200,421200).
route(prodloc20,harbor16,tr13,16200,97200).
route(prodloc20,prodloc0,tr0,26157,680082).
route(prodloc20,prodloc0,tr13,26157,156942).
route(prodloc20,prodloc1,tr0,27539,716014).
route(prodloc20,prodloc1,tr13,27539,165234).
route(prodloc20,prodloc2,tr0,1417,36842).
route(prodloc20,prodloc2,tr13,1417,8502).
route(prodloc20,prodloc3,tr0,19301,501826).
route(prodloc20,prodloc3,tr13,19301,115806).
route(prodloc20,prodloc4,tr0,28868,750568).
route(prodloc20,prodloc4,tr13,28868,173208).
route(prodloc20,prodloc5,tr0,24915,647790).
route(prodloc20,prodloc5,tr13,24915,149490).
route(prodloc20,prodloc6,tr0,28286,735436).
route(prodloc20,prodloc6,tr13,28286,169716).
route(prodloc20,prodloc7,tr0,15840,411840).
route(prodloc20,prodloc7,tr13,15840,95040).
route(prodloc20,prodloc8,tr0,10565,274690).
route(prodloc20,prodloc8,tr13,10565,63390).
route(prodloc20,prodloc9,tr0,4409,114634).
route(prodloc20,prodloc9,tr13,4409,26454).
route(prodloc20,prodloc10,tr0,24906,647556).
route(prodloc20,prodloc10,tr13,24906,149436).
route(prodloc20,prodloc11,tr0,18982,493532).
route(prodloc20,prodloc11,tr13,18982,113892).
route(prodloc20,prodloc12,tr0,6967,181142).
route(prodloc20,prodloc12,tr13,6967,41802).
route(prodloc20,prodloc13,tr0,24271,631046).
route(prodloc20,prodloc13,tr13,24271,145626).
route(prodloc20,prodloc14,tr0,10243,266318).
route(prodloc20,prodloc14,tr13,10243,61458).
route(prodloc20,prodloc15,tr0,4799,124774).
route(prodloc20,prodloc15,tr13,4799,28794).
route(prodloc20,prodloc16,tr0,9087,236262).
route(prodloc20,prodloc16,tr13,9087,54522).
route(prodloc20,prodloc17,tr0,16388,426088).
route(prodloc20,prodloc17,tr13,16388,98328).
route(prodloc20,prodloc18,tr0,17585,457210).
route(prodloc20,prodloc18,tr13,17585,105510).
route(prodloc20,prodloc19,tr0,17278,449228).
route(prodloc20,prodloc19,tr13,17278,103668).
route(prodloc20,prodloc21,tr0,6023,156598).
route(prodloc20,prodloc21,tr13,6023,36138).
route(prodloc20,prodloc22,tr0,11952,310752).
route(prodloc20,prodloc22,tr13,11952,71712).
route(prodloc20,prodloc23,tr0,28907,751582).
route(prodloc20,prodloc23,tr13,28907,173442).
route(prodloc20,prodloc24,tr0,11719,304694).
route(prodloc20,prodloc24,tr13,11719,70314).
route(prodloc20,prodloc25,tr0,16231,422006).
route(prodloc20,prodloc25,tr13,16231,97386).
route(prodloc20,prodloc26,tr0,1693,44018).
route(prodloc20,prodloc26,tr13,1693,10158).
route(prodloc20,prodloc27,tr0,28599,743574).
route(prodloc20,prodloc27,tr13,28599,171594).
route(prodloc20,prodloc28,tr0,6668,173368).
route(prodloc20,prodloc28,tr13,6668,40008).
route(prodloc20,prodloc29,tr0,6678,173628).
route(prodloc20,prodloc29,tr13,6678,40068).
route(prodloc20,prodloc30,tr0,9428,245128).
route(prodloc20,prodloc30,tr13,9428,56568).
route(prodloc20,prodloc31,tr0,17727,460902).
route(prodloc20,prodloc31,tr13,17727,106362).
route(prodloc20,prodloc32,tr0,15031,390806).
route(prodloc20,prodloc32,tr13,15031,90186).
route(prodloc20,prodloc33,tr0,11276,293176).
route(prodloc20,prodloc33,tr13,11276,67656).
route(prodloc21,harbor0,tr0,4536,117936).
route(prodloc21,harbor0,tr13,4536,27216).
route(prodloc21,harbor1,tr0,8160,212160).
route(prodloc21,harbor1,tr13,8160,48960).
route(prodloc21,harbor2,tr0,11282,293332).
route(prodloc21,harbor2,tr13,11282,67692).
route(prodloc21,harbor3,tr0,27356,711256).
route(prodloc21,harbor3,tr13,27356,164136).
route(prodloc21,harbor4,tr0,12691,329966).
route(prodloc21,harbor4,tr13,12691,76146).
route(prodloc21,harbor5,tr0,11759,305734).
route(prodloc21,harbor5,tr13,11759,70554).
route(prodloc21,harbor6,tr0,27184,706784).
route(prodloc21,harbor6,tr13,27184,163104).
route(prodloc21,harbor7,tr0,2628,68328).
route(prodloc21,harbor7,tr13,2628,15768).
route(prodloc21,harbor8,tr0,24271,631046).
route(prodloc21,harbor8,tr13,24271,145626).
route(prodloc21,harbor9,tr0,19318,502268).
route(prodloc21,harbor9,tr13,19318,115908).
route(prodloc21,harbor10,tr0,23816,619216).
route(prodloc21,harbor10,tr13,23816,142896).
route(prodloc21,harbor11,tr0,12625,328250).
route(prodloc21,harbor11,tr13,12625,75750).
route(prodloc21,harbor12,tr0,5410,140660).
route(prodloc21,harbor12,tr13,5410,32460).
route(prodloc21,harbor13,tr0,23075,599950).
route(prodloc21,harbor13,tr13,23075,138450).
route(prodloc21,harbor14,tr0,19459,505934).
route(prodloc21,harbor14,tr13,19459,116754).
route(prodloc21,harbor15,tr0,21792,566592).
route(prodloc21,harbor15,tr13,21792,130752).
route(prodloc21,harbor16,tr0,2797,72722).
route(prodloc21,harbor16,tr13,2797,16782).
route(prodloc21,prodloc0,tr0,14479,376454).
route(prodloc21,prodloc0,tr13,14479,86874).
route(prodloc21,prodloc1,tr0,18070,469820).
route(prodloc21,prodloc1,tr13,18070,108420).
route(prodloc21,prodloc2,tr0,14059,365534).
route(prodloc21,prodloc2,tr13,14059,84354).
route(prodloc21,prodloc3,tr0,9130,237380).
route(prodloc21,prodloc3,tr13,9130,54780).
route(prodloc21,prodloc4,tr0,7668,199368).
route(prodloc21,prodloc4,tr13,7668,46008).
route(prodloc21,prodloc5,tr0,13557,352482).
route(prodloc21,prodloc5,tr13,13557,81342).
route(prodloc21,prodloc6,tr0,6616,172016).
route(prodloc21,prodloc6,tr13,6616,39696).
route(prodloc21,prodloc7,tr0,9197,239122).
route(prodloc21,prodloc7,tr13,9197,55182).
route(prodloc21,prodloc8,tr0,28190,732940).
route(prodloc21,prodloc8,tr13,28190,169140).
route(prodloc21,prodloc9,tr0,447,11622).
route(prodloc21,prodloc9,tr13,447,2682).
route(prodloc21,prodloc10,tr0,22008,572208).
route(prodloc21,prodloc10,tr13,22008,132048).
route(prodloc21,prodloc11,tr0,2761,71786).
route(prodloc21,prodloc11,tr13,2761,16566).
route(prodloc21,prodloc12,tr0,19262,500812).
route(prodloc21,prodloc12,tr13,19262,115572).
route(prodloc21,prodloc13,tr0,3289,85514).
route(prodloc21,prodloc13,tr13,3289,19734).
route(prodloc21,prodloc14,tr0,23418,608868).
route(prodloc21,prodloc14,tr13,23418,140508).
route(prodloc21,prodloc15,tr0,22749,591474).
route(prodloc21,prodloc15,tr13,22749,136494).
route(prodloc21,prodloc16,tr0,9803,254878).
route(prodloc21,prodloc16,tr13,9803,58818).
route(prodloc21,prodloc17,tr0,1789,46514).
route(prodloc21,prodloc17,tr13,1789,10734).
route(prodloc21,prodloc18,tr0,15260,396760).
route(prodloc21,prodloc18,tr13,15260,91560).
route(prodloc21,prodloc19,tr0,1693,44018).
route(prodloc21,prodloc19,tr13,1693,10158).
route(prodloc21,prodloc20,tr0,15,390).
route(prodloc21,prodloc20,tr13,15,90).
route(prodloc21,prodloc22,tr0,11933,310258).
route(prodloc21,prodloc22,tr13,11933,71598).
route(prodloc21,prodloc23,tr0,2265,58890).
route(prodloc21,prodloc23,tr13,2265,13590).
route(prodloc21,prodloc24,tr0,6747,175422).
route(prodloc21,prodloc24,tr13,6747,40482).
route(prodloc21,prodloc25,tr0,11500,299000).
route(prodloc21,prodloc25,tr13,11500,69000).
route(prodloc21,prodloc26,tr0,23122,601172).
route(prodloc21,prodloc26,tr13,23122,138732).
route(prodloc21,prodloc27,tr0,23574,612924).
route(prodloc21,prodloc27,tr13,23574,141444).
route(prodloc21,prodloc28,tr0,7960,206960).
route(prodloc21,prodloc28,tr13,7960,47760).
route(prodloc21,prodloc29,tr0,7259,188734).
route(prodloc21,prodloc29,tr13,7259,43554).
route(prodloc21,prodloc30,tr0,9357,243282).
route(prodloc21,prodloc30,tr13,9357,56142).
route(prodloc21,prodloc31,tr0,23697,616122).
route(prodloc21,prodloc31,tr13,23697,142182).
route(prodloc21,prodloc32,tr0,17027,442702).
route(prodloc21,prodloc32,tr13,17027,102162).
route(prodloc21,prodloc33,tr0,16298,423748).
route(prodloc21,prodloc33,tr13,16298,97788).
route(prodloc22,harbor0,tr0,19265,500890).
route(prodloc22,harbor0,tr13,19265,115590).
route(prodloc22,harbor1,tr0,15034,390884).
route(prodloc22,harbor1,tr13,15034,90204).
route(prodloc22,harbor2,tr0,14069,365794).
route(prodloc22,harbor2,tr13,14069,84414).
route(prodloc22,harbor3,tr0,21380,555880).
route(prodloc22,harbor3,tr13,21380,128280).
route(prodloc22,harbor4,tr0,20873,542698).
route(prodloc22,harbor4,tr13,20873,125238).
route(prodloc22,harbor5,tr0,27865,724490).
route(prodloc22,harbor5,tr13,27865,167190).
route(prodloc22,harbor6,tr0,28520,741520).
route(prodloc22,harbor6,tr13,28520,171120).
route(prodloc22,harbor7,tr0,26998,701948).
route(prodloc22,harbor7,tr13,26998,161988).
route(prodloc22,harbor8,tr0,15944,414544).
route(prodloc22,harbor8,tr13,15944,95664).
route(prodloc22,harbor9,tr0,14494,376844).
route(prodloc22,harbor9,tr13,14494,86964).
route(prodloc22,harbor10,tr0,1370,35620).
route(prodloc22,harbor10,tr13,1370,8220).
route(prodloc22,harbor11,tr0,13641,354666).
route(prodloc22,harbor11,tr13,13641,81846).
route(prodloc22,harbor12,tr0,21393,556218).
route(prodloc22,harbor12,tr13,21393,128358).
route(prodloc22,harbor13,tr0,21085,548210).
route(prodloc22,harbor13,tr13,21085,126510).
route(prodloc22,harbor14,tr0,15079,392054).
route(prodloc22,harbor14,tr13,15079,90474).
route(prodloc22,harbor15,tr0,11911,309686).
route(prodloc22,harbor15,tr13,11911,71466).
route(prodloc22,harbor16,tr0,14182,368732).
route(prodloc22,harbor16,tr13,14182,85092).
route(prodloc22,prodloc0,tr0,17039,443014).
route(prodloc22,prodloc0,tr13,17039,102234).
route(prodloc22,prodloc1,tr0,11949,310674).
route(prodloc22,prodloc1,tr13,11949,71694).
route(prodloc22,prodloc2,tr0,20278,527228).
route(prodloc22,prodloc2,tr13,20278,121668).
route(prodloc22,prodloc3,tr0,24911,647686).
route(prodloc22,prodloc3,tr13,24911,149466).
route(prodloc22,prodloc4,tr0,6893,179218).
route(prodloc22,prodloc4,tr13,6893,41358).
route(prodloc22,prodloc5,tr0,11215,291590).
route(prodloc22,prodloc5,tr13,11215,67290).
route(prodloc22,prodloc6,tr0,23503,611078).
route(prodloc22,prodloc6,tr13,23503,141018).
route(prodloc22,prodloc7,tr0,18545,482170).
route(prodloc22,prodloc7,tr13,18545,111270).
route(prodloc22,prodloc8,tr0,23617,614042).
route(prodloc22,prodloc8,tr13,23617,141702).
route(prodloc22,prodloc9,tr0,21128,549328).
route(prodloc22,prodloc9,tr13,21128,126768).
route(prodloc22,prodloc10,tr0,9227,239902).
route(prodloc22,prodloc10,tr13,9227,55362).
route(prodloc22,prodloc11,tr0,5752,149552).
route(prodloc22,prodloc11,tr13,5752,34512).
route(prodloc22,prodloc12,tr0,22653,588978).
route(prodloc22,prodloc12,tr13,22653,135918).
route(prodloc22,prodloc13,tr0,26575,690950).
route(prodloc22,prodloc13,tr13,26575,159450).
route(prodloc22,prodloc14,tr0,8910,231660).
route(prodloc22,prodloc14,tr13,8910,53460).
route(prodloc22,prodloc15,tr0,10705,278330).
route(prodloc22,prodloc15,tr13,10705,64230).
route(prodloc22,prodloc16,tr0,23990,623740).
route(prodloc22,prodloc16,tr13,23990,143940).
route(prodloc22,prodloc17,tr0,3904,101504).
route(prodloc22,prodloc17,tr15,3904,124928).
route(prodloc22,prodloc18,tr0,2535,65910).
route(prodloc22,prodloc18,tr13,2535,15210).
route(prodloc22,prodloc19,tr0,24464,636064).
route(prodloc22,prodloc19,tr13,24464,146784).
route(prodloc22,prodloc20,tr0,23254,604604).
route(prodloc22,prodloc20,tr13,23254,139524).
route(prodloc22,prodloc21,tr0,16646,432796).
route(prodloc22,prodloc21,tr13,16646,99876).
route(prodloc22,prodloc23,tr0,7238,188188).
route(prodloc22,prodloc23,tr13,7238,43428).
route(prodloc22,prodloc24,tr0,22859,594334).
route(prodloc22,prodloc24,tr13,22859,137154).
route(prodloc22,prodloc25,tr0,4567,118742).
route(prodloc22,prodloc25,tr15,4567,146144).
route(prodloc22,prodloc26,tr0,168,4368).
route(prodloc22,prodloc26,tr13,168,1008).
route(prodloc22,prodloc27,tr0,21444,557544).
route(prodloc22,prodloc27,tr13,21444,128664).
route(prodloc22,prodloc28,tr0,11525,299650).
route(prodloc22,prodloc28,tr13,11525,69150).
route(prodloc22,prodloc29,tr0,1864,48464).
route(prodloc22,prodloc29,tr13,1864,11184).
route(prodloc22,prodloc30,tr0,16424,427024).
route(prodloc22,prodloc30,tr13,16424,98544).
route(prodloc22,prodloc31,tr0,16089,418314).
route(prodloc22,prodloc31,tr13,16089,96534).
route(prodloc22,prodloc32,tr0,15238,396188).
route(prodloc22,prodloc32,tr13,15238,91428).
route(prodloc22,prodloc33,tr0,16910,439660).
route(prodloc22,prodloc33,tr13,16910,101460).
route(prodloc23,harbor0,tr0,13164,342264).
route(prodloc23,harbor0,tr13,13164,78984).
route(prodloc23,harbor1,tr0,955,24830).
route(prodloc23,harbor1,tr13,955,5730).
route(prodloc23,harbor2,tr0,22067,573742).
route(prodloc23,harbor2,tr13,22067,132402).
route(prodloc23,harbor3,tr0,13079,340054).
route(prodloc23,harbor3,tr13,13079,78474).
route(prodloc23,harbor4,tr0,28895,751270).
route(prodloc23,harbor4,tr13,28895,173370).
route(prodloc23,harbor5,tr0,1381,35906).
route(prodloc23,harbor5,tr13,1381,8286).
route(prodloc23,harbor6,tr0,2166,56316).
route(prodloc23,harbor6,tr13,2166,12996).
route(prodloc23,harbor7,tr0,20070,521820).
route(prodloc23,harbor7,tr13,20070,120420).
route(prodloc23,harbor8,tr0,9434,245284).
route(prodloc23,harbor8,tr13,9434,56604).
route(prodloc23,harbor9,tr0,19022,494572).
route(prodloc23,harbor9,tr13,19022,114132).
route(prodloc23,harbor10,tr0,19948,518648).
route(prodloc23,harbor10,tr13,19948,119688).
route(prodloc23,harbor11,tr0,4632,120432).
route(prodloc23,harbor11,tr13,4632,27792).
route(prodloc23,harbor12,tr0,23892,621192).
route(prodloc23,harbor12,tr13,23892,143352).
route(prodloc23,harbor13,tr0,14733,383058).
route(prodloc23,harbor13,tr13,14733,88398).
route(prodloc23,harbor14,tr0,25595,665470).
route(prodloc23,harbor14,tr13,25595,153570).
route(prodloc23,harbor15,tr0,11233,292058).
route(prodloc23,harbor15,tr13,11233,67398).
route(prodloc23,harbor16,tr0,2384,61984).
route(prodloc23,harbor16,tr13,2384,14304).
route(prodloc23,prodloc0,tr0,14336,372736).
route(prodloc23,prodloc0,tr13,14336,86016).
route(prodloc23,prodloc1,tr0,18024,468624).
route(prodloc23,prodloc1,tr13,18024,108144).
route(prodloc23,prodloc2,tr0,25717,668642).
route(prodloc23,prodloc2,tr13,25717,154302).
route(prodloc23,prodloc3,tr0,2549,66274).
route(prodloc23,prodloc3,tr13,2549,15294).
route(prodloc23,prodloc4,tr0,23345,606970).
route(prodloc23,prodloc4,tr13,23345,140070).
route(prodloc23,prodloc5,tr0,12465,324090).
route(prodloc23,prodloc5,tr13,12465,74790).
route(prodloc23,prodloc6,tr0,23078,600028).
route(prodloc23,prodloc6,tr13,23078,138468).
route(prodloc23,prodloc7,tr0,25365,659490).
route(prodloc23,prodloc7,tr13,25365,152190).
route(prodloc23,prodloc8,tr0,4782,124332).
route(prodloc23,prodloc8,tr13,4782,28692).
route(prodloc23,prodloc9,tr0,11646,302796).
route(prodloc23,prodloc9,tr15,11646,372672).
route(prodloc23,prodloc10,tr0,12484,324584).
route(prodloc23,prodloc10,tr13,12484,74904).
route(prodloc23,prodloc11,tr0,8358,217308).
route(prodloc23,prodloc11,tr13,8358,50148).
route(prodloc23,prodloc12,tr0,27699,720174).
route(prodloc23,prodloc12,tr13,27699,166194).
route(prodloc23,prodloc13,tr0,4226,109876).
route(prodloc23,prodloc13,tr13,4226,25356).
route(prodloc23,prodloc14,tr0,473,12298).
route(prodloc23,prodloc14,tr13,473,2838).
route(prodloc23,prodloc15,tr0,7020,182520).
route(prodloc23,prodloc15,tr13,7020,42120).
route(prodloc23,prodloc16,tr0,24409,634634).
route(prodloc23,prodloc16,tr13,24409,146454).
route(prodloc23,prodloc17,tr0,674,17524).
route(prodloc23,prodloc17,tr13,674,4044).
route(prodloc23,prodloc18,tr0,12439,323414).
route(prodloc23,prodloc18,tr13,12439,74634).
route(prodloc23,prodloc19,tr0,23317,606242).
route(prodloc23,prodloc19,tr13,23317,139902).
route(prodloc23,prodloc20,tr0,2394,62244).
route(prodloc23,prodloc20,tr13,2394,14364).
route(prodloc23,prodloc21,tr0,16642,432692).
route(prodloc23,prodloc21,tr13,16642,99852).
route(prodloc23,prodloc22,tr0,15,390).
route(prodloc23,prodloc22,tr13,15,90).
route(prodloc23,prodloc24,tr0,8895,231270).
route(prodloc23,prodloc24,tr13,8895,53370).
route(prodloc23,prodloc25,tr0,8821,229346).
route(prodloc23,prodloc25,tr13,8821,52926).
route(prodloc23,prodloc26,tr0,15125,393250).
route(prodloc23,prodloc26,tr13,15125,90750).
route(prodloc23,prodloc27,tr0,4653,120978).
route(prodloc23,prodloc27,tr13,4653,27918).
route(prodloc23,prodloc28,tr0,16429,427154).
route(prodloc23,prodloc28,tr13,16429,98574).
route(prodloc23,prodloc29,tr0,7314,190164).
route(prodloc23,prodloc29,tr13,7314,43884).
route(prodloc23,prodloc30,tr0,27850,724100).
route(prodloc23,prodloc30,tr13,27850,167100).
route(prodloc23,prodloc31,tr0,11465,298090).
route(prodloc23,prodloc31,tr13,11465,68790).
route(prodloc23,prodloc32,tr0,6339,164814).
route(prodloc23,prodloc32,tr13,6339,38034).
route(prodloc23,prodloc33,tr0,15932,414232).
route(prodloc23,prodloc33,tr13,15932,95592).
route(prodloc24,harbor0,tr0,14147,367822).
route(prodloc24,harbor0,tr13,14147,84882).
route(prodloc24,harbor1,tr0,18494,480844).
route(prodloc24,harbor1,tr13,18494,110964).
route(prodloc24,harbor2,tr0,26982,701532).
route(prodloc24,harbor2,tr13,26982,161892).
route(prodloc24,harbor3,tr0,10536,273936).
route(prodloc24,harbor3,tr13,10536,63216).
route(prodloc24,harbor4,tr0,10565,274690).
route(prodloc24,harbor4,tr13,10565,63390).
route(prodloc24,harbor5,tr0,13321,346346).
route(prodloc24,harbor5,tr13,13321,79926).
route(prodloc24,harbor6,tr0,11328,294528).
route(prodloc24,harbor6,tr13,11328,67968).
route(prodloc24,harbor7,tr0,9750,253500).
route(prodloc24,harbor7,tr13,9750,58500).
route(prodloc24,harbor8,tr0,7798,202748).
route(prodloc24,harbor8,tr13,7798,46788).
route(prodloc24,harbor9,tr0,26021,676546).
route(prodloc24,harbor9,tr13,26021,156126).
route(prodloc24,harbor10,tr0,3971,103246).
route(prodloc24,harbor10,tr13,3971,23826).
route(prodloc24,harbor11,tr0,28616,744016).
route(prodloc24,harbor11,tr13,28616,171696).
route(prodloc24,harbor12,tr0,7211,187486).
route(prodloc24,harbor12,tr13,7211,43266).
route(prodloc24,harbor13,tr0,11887,309062).
route(prodloc24,harbor13,tr13,11887,71322).
route(prodloc24,harbor14,tr0,6239,162214).
route(prodloc24,harbor14,tr13,6239,37434).
route(prodloc24,harbor15,tr0,23842,619892).
route(prodloc24,harbor15,tr13,23842,143052).
route(prodloc24,harbor16,tr0,118,3068).
route(prodloc24,harbor16,tr13,118,708).
route(prodloc24,prodloc0,tr0,2447,63622).
route(prodloc24,prodloc0,tr13,2447,14682).
route(prodloc24,prodloc1,tr0,21752,565552).
route(prodloc24,prodloc1,tr13,21752,130512).
route(prodloc24,prodloc2,tr0,17963,467038).
route(prodloc24,prodloc2,tr13,17963,107778).
route(prodloc24,prodloc3,tr0,25845,671970).
route(prodloc24,prodloc3,tr13,25845,155070).
route(prodloc24,prodloc4,tr0,9768,253968).
route(prodloc24,prodloc4,tr13,9768,58608).
route(prodloc24,prodloc5,tr0,3768,97968).
route(prodloc24,prodloc5,tr13,3768,22608).
route(prodloc24,prodloc6,tr0,20735,539110).
route(prodloc24,prodloc6,tr13,20735,124410).
route(prodloc24,prodloc7,tr0,16189,420914).
route(prodloc24,prodloc7,tr13,16189,97134).
route(prodloc24,prodloc8,tr0,20153,523978).
route(prodloc24,prodloc8,tr15,20153,644896).
route(prodloc24,prodloc9,tr0,9574,248924).
route(prodloc24,prodloc9,tr13,9574,57444).
route(prodloc24,prodloc10,tr0,11740,305240).
route(prodloc24,prodloc10,tr13,11740,70440).
route(prodloc24,prodloc11,tr0,10778,280228).
route(prodloc24,prodloc11,tr13,10778,64668).
route(prodloc24,prodloc12,tr0,10171,264446).
route(prodloc24,prodloc12,tr13,10171,61026).
route(prodloc24,prodloc13,tr0,6687,173862).
route(prodloc24,prodloc13,tr13,6687,40122).
route(prodloc24,prodloc14,tr0,16900,439400).
route(prodloc24,prodloc14,tr13,16900,101400).
route(prodloc24,prodloc15,tr0,889,23114).
route(prodloc24,prodloc15,tr13,889,5334).
route(prodloc24,prodloc16,tr0,12983,337558).
route(prodloc24,prodloc16,tr13,12983,77898).
route(prodloc24,prodloc17,tr13,28078,168468).
route(prodloc24,prodloc17,tr15,28078,898496).
route(prodloc24,prodloc18,tr0,21580,561080).
route(prodloc24,prodloc18,tr13,21580,129480).
route(prodloc24,prodloc19,tr0,5398,140348).
route(prodloc24,prodloc19,tr13,5398,32388).
route(prodloc24,prodloc20,tr0,25688,667888).
route(prodloc24,prodloc20,tr13,25688,154128).
route(prodloc24,prodloc21,tr0,23433,609258).
route(prodloc24,prodloc21,tr13,23433,140598).
route(prodloc24,prodloc22,tr0,24008,624208).
route(prodloc24,prodloc22,tr13,24008,144048).
route(prodloc24,prodloc23,tr0,11332,294632).
route(prodloc24,prodloc23,tr13,11332,67992).
route(prodloc24,prodloc25,tr0,13452,349752).
route(prodloc24,prodloc25,tr13,13452,80712).
route(prodloc24,prodloc26,tr0,16944,440544).
route(prodloc24,prodloc26,tr13,16944,101664).
route(prodloc24,prodloc27,tr0,15976,415376).
route(prodloc24,prodloc27,tr13,15976,95856).
route(prodloc24,prodloc28,tr0,15813,411138).
route(prodloc24,prodloc28,tr13,15813,94878).
route(prodloc24,prodloc29,tr0,16171,420446).
route(prodloc24,prodloc29,tr13,16171,97026).
route(prodloc24,prodloc30,tr0,15870,412620).
route(prodloc24,prodloc30,tr13,15870,95220).
route(prodloc24,prodloc31,tr0,25126,653276).
route(prodloc24,prodloc31,tr13,25126,150756).
route(prodloc24,prodloc32,tr0,14297,371722).
route(prodloc24,prodloc32,tr13,14297,85782).
route(prodloc24,prodloc33,tr0,16816,437216).
route(prodloc24,prodloc33,tr13,16816,100896).
route(prodloc25,harbor0,tr0,5020,130520).
route(prodloc25,harbor0,tr13,5020,30120).
route(prodloc25,harbor1,tr0,7408,192608).
route(prodloc25,harbor1,tr13,7408,44448).
route(prodloc25,harbor2,tr0,19296,501696).
route(prodloc25,harbor2,tr13,19296,115776).
route(prodloc25,harbor3,tr0,18703,486278).
route(prodloc25,harbor3,tr13,18703,112218).
route(prodloc25,harbor4,tr0,20202,525252).
route(prodloc25,harbor4,tr13,20202,121212).
route(prodloc25,harbor5,tr0,24678,641628).
route(prodloc25,harbor5,tr13,24678,148068).
route(prodloc25,harbor6,tr0,11779,306254).
route(prodloc25,harbor6,tr13,11779,70674).
route(prodloc25,harbor7,tr0,4570,118820).
route(prodloc25,harbor7,tr13,4570,27420).
route(prodloc25,harbor8,tr0,8443,219518).
route(prodloc25,harbor8,tr13,8443,50658).
route(prodloc25,harbor9,tr0,5913,153738).
route(prodloc25,harbor9,tr13,5913,35478).
route(prodloc25,harbor10,tr0,13605,353730).
route(prodloc25,harbor10,tr13,13605,81630).
route(prodloc25,harbor11,tr0,11599,301574).
route(prodloc25,harbor11,tr13,11599,69594).
route(prodloc25,harbor12,tr0,28577,743002).
route(prodloc25,harbor12,tr13,28577,171462).
route(prodloc25,harbor13,tr0,28274,735124).
route(prodloc25,harbor13,tr13,28274,169644).
route(prodloc25,harbor14,tr0,7510,195260).
route(prodloc25,harbor14,tr13,7510,45060).
route(prodloc25,harbor15,tr0,3065,79690).
route(prodloc25,harbor15,tr13,3065,18390).
route(prodloc25,harbor16,tr0,25443,661518).
route(prodloc25,harbor16,tr13,25443,152658).
route(prodloc25,prodloc0,tr0,16453,427778).
route(prodloc25,prodloc0,tr13,16453,98718).
route(prodloc25,prodloc1,tr0,16091,418366).
route(prodloc25,prodloc1,tr13,16091,96546).
route(prodloc25,prodloc2,tr0,3315,86190).
route(prodloc25,prodloc2,tr13,3315,19890).
route(prodloc25,prodloc3,tr0,6033,156858).
route(prodloc25,prodloc3,tr13,6033,36198).
route(prodloc25,prodloc4,tr0,26929,700154).
route(prodloc25,prodloc4,tr13,26929,161574).
route(prodloc25,prodloc5,tr0,3474,90324).
route(prodloc25,prodloc5,tr13,3474,20844).
route(prodloc25,prodloc6,tr0,18211,473486).
route(prodloc25,prodloc6,tr13,18211,109266).
route(prodloc25,prodloc7,tr0,726,18876).
route(prodloc25,prodloc7,tr13,726,4356).
route(prodloc25,prodloc8,tr0,19942,518492).
route(prodloc25,prodloc8,tr13,19942,119652).
route(prodloc25,prodloc9,tr13,26692,160152).
route(prodloc25,prodloc9,tr15,26692,854144).
route(prodloc25,prodloc10,tr0,4331,112606).
route(prodloc25,prodloc10,tr13,4331,25986).
route(prodloc25,prodloc11,tr0,4103,106678).
route(prodloc25,prodloc11,tr13,4103,24618).
route(prodloc25,prodloc12,tr0,23234,604084).
route(prodloc25,prodloc12,tr13,23234,139404).
route(prodloc25,prodloc13,tr0,24944,648544).
route(prodloc25,prodloc13,tr13,24944,149664).
route(prodloc25,prodloc14,tr0,27346,710996).
route(prodloc25,prodloc14,tr13,27346,164076).
route(prodloc25,prodloc15,tr0,4500,117000).
route(prodloc25,prodloc15,tr13,4500,27000).
route(prodloc25,prodloc16,tr0,26919,699894).
route(prodloc25,prodloc16,tr13,26919,161514).
route(prodloc25,prodloc17,tr0,21550,560300).
route(prodloc25,prodloc17,tr13,21550,129300).
route(prodloc25,prodloc18,tr0,19344,502944).
route(prodloc25,prodloc18,tr13,19344,116064).
route(prodloc25,prodloc19,tr0,27271,709046).
route(prodloc25,prodloc19,tr13,27271,163626).
route(prodloc25,prodloc20,tr0,22928,596128).
route(prodloc25,prodloc20,tr13,22928,137568).
route(prodloc25,prodloc21,tr0,11465,298090).
route(prodloc25,prodloc21,tr13,11465,68790).
route(prodloc25,prodloc22,tr0,417,10842).
route(prodloc25,prodloc22,tr13,417,2502).
route(prodloc25,prodloc23,tr0,14029,364754).
route(prodloc25,prodloc23,tr13,14029,84174).
route(prodloc25,prodloc24,tr0,20284,527384).
route(prodloc25,prodloc24,tr13,20284,121704).
route(prodloc25,prodloc26,tr0,2900,75400).
route(prodloc25,prodloc26,tr13,2900,17400).
route(prodloc25,prodloc27,tr0,10660,277160).
route(prodloc25,prodloc27,tr13,10660,63960).
route(prodloc25,prodloc28,tr0,16650,432900).
route(prodloc25,prodloc28,tr13,16650,99900).
route(prodloc25,prodloc29,tr0,7263,188838).
route(prodloc25,prodloc29,tr13,7263,43578).
route(prodloc25,prodloc30,tr0,28875,750750).
route(prodloc25,prodloc30,tr13,28875,173250).
route(prodloc25,prodloc31,tr0,10609,275834).
route(prodloc25,prodloc31,tr13,10609,63654).
route(prodloc25,prodloc32,tr0,25527,663702).
route(prodloc25,prodloc32,tr13,25527,153162).
route(prodloc25,prodloc33,tr0,15691,407966).
route(prodloc25,prodloc33,tr13,15691,94146).
route(prodloc26,harbor0,tr0,14955,388830).
route(prodloc26,harbor0,tr13,14955,89730).
route(prodloc26,harbor1,tr0,22716,590616).
route(prodloc26,harbor1,tr13,22716,136296).
route(prodloc26,harbor2,tr0,19326,502476).
route(prodloc26,harbor2,tr13,19326,115956).
route(prodloc26,harbor3,tr0,23561,612586).
route(prodloc26,harbor3,tr13,23561,141366).
route(prodloc26,harbor4,tr0,27387,712062).
route(prodloc26,harbor4,tr13,27387,164322).
route(prodloc26,harbor5,tr0,22347,581022).
route(prodloc26,harbor5,tr13,22347,134082).
route(prodloc26,harbor6,tr0,8201,213226).
route(prodloc26,harbor6,tr13,8201,49206).
route(prodloc26,harbor7,tr0,10609,275834).
route(prodloc26,harbor7,tr13,10609,63654).
route(prodloc26,harbor8,tr0,26231,682006).
route(prodloc26,harbor8,tr13,26231,157386).
route(prodloc26,harbor9,tr0,1429,37154).
route(prodloc26,harbor9,tr13,1429,8574).
route(prodloc26,harbor10,tr0,20693,538018).
route(prodloc26,harbor10,tr13,20693,124158).
route(prodloc26,harbor11,tr0,5634,146484).
route(prodloc26,harbor11,tr13,5634,33804).
route(prodloc26,harbor12,tr0,17364,451464).
route(prodloc26,harbor12,tr13,17364,104184).
route(prodloc26,harbor13,tr0,16395,426270).
route(prodloc26,harbor13,tr13,16395,98370).
route(prodloc26,harbor14,tr0,4988,129688).
route(prodloc26,harbor14,tr13,4988,29928).
route(prodloc26,harbor15,tr0,12642,328692).
route(prodloc26,harbor15,tr13,12642,75852).
route(prodloc26,harbor16,tr0,7775,202150).
route(prodloc26,harbor16,tr13,7775,46650).
route(prodloc26,prodloc0,tr0,12960,336960).
route(prodloc26,prodloc0,tr13,12960,77760).
route(prodloc26,prodloc1,tr0,23483,610558).
route(prodloc26,prodloc1,tr13,23483,140898).
route(prodloc26,prodloc2,tr0,11759,305734).
route(prodloc26,prodloc2,tr13,11759,70554).
route(prodloc26,prodloc3,tr0,2184,56784).
route(prodloc26,prodloc3,tr13,2184,13104).
route(prodloc26,prodloc4,tr0,7045,183170).
route(prodloc26,prodloc4,tr13,7045,42270).
route(prodloc26,prodloc5,tr0,22083,574158).
route(prodloc26,prodloc5,tr13,22083,132498).
route(prodloc26,prodloc6,tr0,2351,61126).
route(prodloc26,prodloc6,tr13,2351,14106).
route(prodloc26,prodloc7,tr0,2563,66638).
route(prodloc26,prodloc7,tr13,2563,15378).
route(prodloc26,prodloc8,tr0,27977,727402).
route(prodloc26,prodloc8,tr15,27977,895264).
route(prodloc26,prodloc9,tr0,27114,704964).
route(prodloc26,prodloc9,tr13,27114,162684).
route(prodloc26,prodloc10,tr0,9732,253032).
route(prodloc26,prodloc10,tr13,9732,58392).
route(prodloc26,prodloc11,tr0,6684,173784).
route(prodloc26,prodloc11,tr13,6684,40104).
route(prodloc26,prodloc12,tr0,7596,197496).
route(prodloc26,prodloc12,tr13,7596,45576).
route(prodloc26,prodloc13,tr0,18314,476164).
route(prodloc26,prodloc13,tr13,18314,109884).
route(prodloc26,prodloc14,tr0,19054,495404).
route(prodloc26,prodloc14,tr15,19054,609728).
route(prodloc26,prodloc15,tr0,24758,643708).
route(prodloc26,prodloc15,tr13,24758,148548).
route(prodloc26,prodloc16,tr0,26272,683072).
route(prodloc26,prodloc16,tr13,26272,157632).
route(prodloc26,prodloc17,tr0,249,6474).
route(prodloc26,prodloc17,tr13,249,1494).
route(prodloc26,prodloc18,tr0,19551,508326).
route(prodloc26,prodloc18,tr13,19551,117306).
route(prodloc26,prodloc19,tr0,7064,183664).
route(prodloc26,prodloc19,tr13,7064,42384).
route(prodloc26,prodloc20,tr0,1073,27898).
route(prodloc26,prodloc20,tr13,1073,6438).
route(prodloc26,prodloc21,tr0,26697,694122).
route(prodloc26,prodloc21,tr13,26697,160182).
route(prodloc26,prodloc22,tr0,15609,405834).
route(prodloc26,prodloc22,tr13,15609,93654).
route(prodloc26,prodloc23,tr0,3608,93808).
route(prodloc26,prodloc23,tr13,3608,21648).
route(prodloc26,prodloc24,tr0,22796,592696).
route(prodloc26,prodloc24,tr13,22796,136776).
route(prodloc26,prodloc25,tr0,27020,702520).
route(prodloc26,prodloc25,tr13,27020,162120).
route(prodloc26,prodloc27,tr0,28817,749242).
route(prodloc26,prodloc27,tr13,28817,172902).
route(prodloc26,prodloc28,tr0,13253,344578).
route(prodloc26,prodloc28,tr13,13253,79518).
route(prodloc26,prodloc29,tr0,27788,722488).
route(prodloc26,prodloc29,tr13,27788,166728).
route(prodloc26,prodloc30,tr0,3332,86632).
route(prodloc26,prodloc30,tr13,3332,19992).
route(prodloc26,prodloc31,tr0,2320,60320).
route(prodloc26,prodloc31,tr13,2320,13920).
route(prodloc26,prodloc32,tr0,22594,587444).
route(prodloc26,prodloc32,tr13,22594,135564).
route(prodloc26,prodloc33,tr0,5772,150072).
route(prodloc26,prodloc33,tr13,5772,34632).
route(prodloc27,harbor0,tr0,19616,510016).
route(prodloc27,harbor0,tr13,19616,117696).
route(prodloc27,harbor1,tr0,20903,543478).
route(prodloc27,harbor1,tr13,20903,125418).
route(prodloc27,harbor2,tr0,3249,84474).
route(prodloc27,harbor2,tr13,3249,19494).
route(prodloc27,harbor3,tr0,23641,614666).
route(prodloc27,harbor3,tr13,23641,141846).
route(prodloc27,harbor4,tr0,13547,352222).
route(prodloc27,harbor4,tr13,13547,81282).
route(prodloc27,harbor5,tr0,5196,135096).
route(prodloc27,harbor5,tr13,5196,31176).
route(prodloc27,harbor6,tr0,28184,732784).
route(prodloc27,harbor6,tr13,28184,169104).
route(prodloc27,harbor7,tr0,20059,521534).
route(prodloc27,harbor7,tr13,20059,120354).
route(prodloc27,harbor8,tr0,11421,296946).
route(prodloc27,harbor8,tr13,11421,68526).
route(prodloc27,harbor9,tr0,3460,89960).
route(prodloc27,harbor9,tr13,3460,20760).
route(prodloc27,harbor10,tr0,27870,724620).
route(prodloc27,harbor10,tr13,27870,167220).
route(prodloc27,harbor11,tr0,6994,181844).
route(prodloc27,harbor11,tr13,6994,41964).
route(prodloc27,harbor12,tr0,25522,663572).
route(prodloc27,harbor12,tr13,25522,153132).
route(prodloc27,harbor13,tr0,16112,418912).
route(prodloc27,harbor13,tr13,16112,96672).
route(prodloc27,harbor14,tr0,4591,119366).
route(prodloc27,harbor14,tr13,4591,27546).
route(prodloc27,harbor15,tr0,16291,423566).
route(prodloc27,harbor15,tr13,16291,97746).
route(prodloc27,harbor16,tr0,23034,598884).
route(prodloc27,harbor16,tr13,23034,138204).
route(prodloc27,prodloc0,tr0,9731,253006).
route(prodloc27,prodloc0,tr13,9731,58386).
route(prodloc27,prodloc1,tr0,26054,677404).
route(prodloc27,prodloc1,tr13,26054,156324).
route(prodloc27,prodloc2,tr0,10207,265382).
route(prodloc27,prodloc2,tr13,10207,61242).
route(prodloc27,prodloc3,tr0,10833,281658).
route(prodloc27,prodloc3,tr13,10833,64998).
route(prodloc27,prodloc4,tr0,11740,305240).
route(prodloc27,prodloc4,tr13,11740,70440).
route(prodloc27,prodloc5,tr0,21817,567242).
route(prodloc27,prodloc5,tr13,21817,130902).
route(prodloc27,prodloc6,tr0,22609,587834).
route(prodloc27,prodloc6,tr13,22609,135654).
route(prodloc27,prodloc7,tr0,16389,426114).
route(prodloc27,prodloc7,tr13,16389,98334).
route(prodloc27,prodloc8,tr0,17194,447044).
route(prodloc27,prodloc8,tr13,17194,103164).
route(prodloc27,prodloc9,tr0,12914,335764).
route(prodloc27,prodloc9,tr15,12914,413248).
route(prodloc27,prodloc10,tr0,19276,501176).
route(prodloc27,prodloc10,tr13,19276,115656).
route(prodloc27,prodloc11,tr0,8897,231322).
route(prodloc27,prodloc11,tr13,8897,53382).
route(prodloc27,prodloc12,tr0,26206,681356).
route(prodloc27,prodloc12,tr13,26206,157236).
route(prodloc27,prodloc13,tr0,6814,177164).
route(prodloc27,prodloc13,tr13,6814,40884).
route(prodloc27,prodloc14,tr0,12203,317278).
route(prodloc27,prodloc14,tr13,12203,73218).
route(prodloc27,prodloc15,tr0,27208,707408).
route(prodloc27,prodloc15,tr15,27208,870656).
route(prodloc27,prodloc16,tr0,9376,243776).
route(prodloc27,prodloc16,tr13,9376,56256).
route(prodloc27,prodloc17,tr0,22385,582010).
route(prodloc27,prodloc17,tr13,22385,134310).
route(prodloc27,prodloc18,tr0,20546,534196).
route(prodloc27,prodloc18,tr13,20546,123276).
route(prodloc27,prodloc19,tr0,24323,632398).
route(prodloc27,prodloc19,tr15,24323,778336).
route(prodloc27,prodloc20,tr0,16153,419978).
route(prodloc27,prodloc20,tr13,16153,96918).
route(prodloc27,prodloc21,tr0,5898,153348).
route(prodloc27,prodloc21,tr13,5898,35388).
route(prodloc27,prodloc22,tr0,7817,203242).
route(prodloc27,prodloc22,tr13,7817,46902).
route(prodloc27,prodloc23,tr0,1355,35230).
route(prodloc27,prodloc23,tr13,1355,8130).
route(prodloc27,prodloc24,tr0,25270,657020).
route(prodloc27,prodloc24,tr13,25270,151620).
route(prodloc27,prodloc25,tr13,18566,111396).
route(prodloc27,prodloc25,tr15,18566,594112).
route(prodloc27,prodloc26,tr0,19836,515736).
route(prodloc27,prodloc26,tr13,19836,119016).
route(prodloc27,prodloc28,tr0,5491,142766).
route(prodloc27,prodloc28,tr13,5491,32946).
route(prodloc27,prodloc29,tr0,15776,410176).
route(prodloc27,prodloc29,tr13,15776,94656).
route(prodloc27,prodloc30,tr0,14380,373880).
route(prodloc27,prodloc30,tr13,14380,86280).
route(prodloc27,prodloc31,tr0,2293,59618).
route(prodloc27,prodloc31,tr13,2293,13758).
route(prodloc27,prodloc32,tr0,15708,408408).
route(prodloc27,prodloc32,tr13,15708,94248).
route(prodloc27,prodloc33,tr0,3379,87854).
route(prodloc27,prodloc33,tr13,3379,20274).
route(prodloc28,harbor0,tr0,2270,59020).
route(prodloc28,harbor0,tr13,2270,13620).
route(prodloc28,harbor1,tr0,22326,580476).
route(prodloc28,harbor1,tr13,22326,133956).
route(prodloc28,harbor2,tr0,1059,27534).
route(prodloc28,harbor2,tr13,1059,6354).
route(prodloc28,harbor3,tr0,22526,585676).
route(prodloc28,harbor3,tr13,22526,135156).
route(prodloc28,harbor4,tr0,19005,494130).
route(prodloc28,harbor4,tr13,19005,114030).
route(prodloc28,harbor5,tr0,24981,649506).
route(prodloc28,harbor5,tr13,24981,149886).
route(prodloc28,harbor6,tr0,6784,176384).
route(prodloc28,harbor6,tr13,6784,40704).
route(prodloc28,harbor7,tr0,13495,350870).
route(prodloc28,harbor7,tr13,13495,80970).
route(prodloc28,harbor8,tr0,14279,371254).
route(prodloc28,harbor8,tr13,14279,85674).
route(prodloc28,harbor9,tr0,8091,210366).
route(prodloc28,harbor9,tr13,8091,48546).
route(prodloc28,harbor10,tr0,16098,418548).
route(prodloc28,harbor10,tr13,16098,96588).
route(prodloc28,harbor11,tr0,5659,147134).
route(prodloc28,harbor11,tr13,5659,33954).
route(prodloc28,harbor12,tr0,6791,176566).
route(prodloc28,harbor12,tr13,6791,40746).
route(prodloc28,harbor13,tr0,27958,726908).
route(prodloc28,harbor13,tr13,27958,167748).
route(prodloc28,harbor14,tr0,8361,217386).
route(prodloc28,harbor14,tr13,8361,50166).
route(prodloc28,harbor15,tr0,11701,304226).
route(prodloc28,harbor15,tr13,11701,70206).
route(prodloc28,harbor16,tr0,6343,164918).
route(prodloc28,harbor16,tr13,6343,38058).
route(prodloc28,prodloc0,tr0,16245,422370).
route(prodloc28,prodloc0,tr13,16245,97470).
route(prodloc28,prodloc1,tr0,1037,26962).
route(prodloc28,prodloc1,tr13,1037,6222).
route(prodloc28,prodloc2,tr0,17760,461760).
route(prodloc28,prodloc2,tr13,17760,106560).
route(prodloc28,prodloc3,tr0,2678,69628).
route(prodloc28,prodloc3,tr13,2678,16068).
route(prodloc28,prodloc4,tr0,3147,81822).
route(prodloc28,prodloc4,tr13,3147,18882).
route(prodloc28,prodloc5,tr0,8409,218634).
route(prodloc28,prodloc5,tr13,8409,50454).
route(prodloc28,prodloc6,tr0,26792,696592).
route(prodloc28,prodloc6,tr13,26792,160752).
route(prodloc28,prodloc7,tr0,8310,216060).
route(prodloc28,prodloc7,tr13,8310,49860).
route(prodloc28,prodloc8,tr0,10343,268918).
route(prodloc28,prodloc8,tr13,10343,62058).
route(prodloc28,prodloc9,tr0,5387,140062).
route(prodloc28,prodloc9,tr13,5387,32322).
route(prodloc28,prodloc10,tr0,11548,300248).
route(prodloc28,prodloc10,tr13,11548,69288).
route(prodloc28,prodloc11,tr0,28304,735904).
route(prodloc28,prodloc11,tr13,28304,169824).
route(prodloc28,prodloc12,tr0,5020,130520).
route(prodloc28,prodloc12,tr13,5020,30120).
route(prodloc28,prodloc13,tr0,25876,672776).
route(prodloc28,prodloc13,tr13,25876,155256).
route(prodloc28,prodloc14,tr0,12703,330278).
route(prodloc28,prodloc14,tr13,12703,76218).
route(prodloc28,prodloc15,tr0,2417,62842).
route(prodloc28,prodloc15,tr13,2417,14502).
route(prodloc28,prodloc16,tr0,20848,542048).
route(prodloc28,prodloc16,tr13,20848,125088).
route(prodloc28,prodloc17,tr0,23550,612300).
route(prodloc28,prodloc17,tr13,23550,141300).
route(prodloc28,prodloc18,tr0,19959,518934).
route(prodloc28,prodloc18,tr13,19959,119754).
route(prodloc28,prodloc19,tr0,18648,484848).
route(prodloc28,prodloc19,tr13,18648,111888).
route(prodloc28,prodloc20,tr0,8238,214188).
route(prodloc28,prodloc20,tr13,8238,49428).
route(prodloc28,prodloc21,tr0,6405,166530).
route(prodloc28,prodloc21,tr13,6405,38430).
route(prodloc28,prodloc22,tr0,4972,129272).
route(prodloc28,prodloc22,tr13,4972,29832).
route(prodloc28,prodloc23,tr0,18320,476320).
route(prodloc28,prodloc23,tr13,18320,109920).
route(prodloc28,prodloc24,tr0,10964,285064).
route(prodloc28,prodloc24,tr13,10964,65784).
route(prodloc28,prodloc25,tr0,14215,369590).
route(prodloc28,prodloc25,tr13,14215,85290).
route(prodloc28,prodloc26,tr0,28779,748254).
route(prodloc28,prodloc26,tr13,28779,172674).
route(prodloc28,prodloc27,tr0,2759,71734).
route(prodloc28,prodloc27,tr13,2759,16554).
route(prodloc28,prodloc29,tr0,27655,719030).
route(prodloc28,prodloc29,tr13,27655,165930).
route(prodloc28,prodloc30,tr0,21223,551798).
route(prodloc28,prodloc30,tr13,21223,127338).
route(prodloc28,prodloc31,tr0,8503,221078).
route(prodloc28,prodloc31,tr13,8503,51018).
route(prodloc28,prodloc32,tr0,9328,242528).
route(prodloc28,prodloc32,tr13,9328,55968).
route(prodloc28,prodloc33,tr0,9971,259246).
route(prodloc28,prodloc33,tr13,9971,59826).
route(prodloc29,harbor0,tr0,28638,744588).
route(prodloc29,harbor0,tr13,28638,171828).
route(prodloc29,harbor1,tr0,14880,386880).
route(prodloc29,harbor1,tr13,14880,89280).
route(prodloc29,harbor2,tr0,1801,46826).
route(prodloc29,harbor2,tr13,1801,10806).
route(prodloc29,harbor3,tr0,19576,508976).
route(prodloc29,harbor3,tr13,19576,117456).
route(prodloc29,harbor4,tr0,21373,555698).
route(prodloc29,harbor4,tr13,21373,128238).
route(prodloc29,harbor5,tr0,6583,171158).
route(prodloc29,harbor5,tr13,6583,39498).
route(prodloc29,harbor6,tr0,3325,86450).
route(prodloc29,harbor6,tr13,3325,19950).
route(prodloc29,harbor7,tr0,10962,285012).
route(prodloc29,harbor7,tr13,10962,65772).
route(prodloc29,harbor8,tr0,11705,304330).
route(prodloc29,harbor8,tr13,11705,70230).
route(prodloc29,harbor9,tr0,17764,461864).
route(prodloc29,harbor9,tr13,17764,106584).
route(prodloc29,harbor10,tr0,26579,691054).
route(prodloc29,harbor10,tr13,26579,159474).
route(prodloc29,harbor11,tr0,14829,385554).
route(prodloc29,harbor11,tr13,14829,88974).
route(prodloc29,harbor12,tr0,24562,638612).
route(prodloc29,harbor12,tr13,24562,147372).
route(prodloc29,harbor13,tr0,1038,26988).
route(prodloc29,harbor13,tr13,1038,6228).
route(prodloc29,harbor14,tr0,4159,108134).
route(prodloc29,harbor14,tr13,4159,24954).
route(prodloc29,harbor15,tr0,14761,383786).
route(prodloc29,harbor15,tr13,14761,88566).
route(prodloc29,harbor16,tr0,24884,646984).
route(prodloc29,harbor16,tr13,24884,149304).
route(prodloc29,prodloc0,tr0,28611,743886).
route(prodloc29,prodloc0,tr13,28611,171666).
route(prodloc29,prodloc1,tr0,8341,216866).
route(prodloc29,prodloc1,tr13,8341,50046).
route(prodloc29,prodloc2,tr0,21464,558064).
route(prodloc29,prodloc2,tr13,21464,128784).
route(prodloc29,prodloc3,tr0,20438,531388).
route(prodloc29,prodloc3,tr13,20438,122628).
route(prodloc29,prodloc4,tr0,27040,703040).
route(prodloc29,prodloc4,tr13,27040,162240).
route(prodloc29,prodloc5,tr0,23338,606788).
route(prodloc29,prodloc5,tr13,23338,140028).
route(prodloc29,prodloc6,tr0,13182,342732).
route(prodloc29,prodloc6,tr13,13182,79092).
route(prodloc29,prodloc7,tr0,22235,578110).
route(prodloc29,prodloc7,tr13,22235,133410).
route(prodloc29,prodloc8,tr0,23490,610740).
route(prodloc29,prodloc8,tr13,23490,140940).
route(prodloc29,prodloc9,tr0,12157,316082).
route(prodloc29,prodloc9,tr13,12157,72942).
route(prodloc29,prodloc10,tr0,27224,707824).
route(prodloc29,prodloc10,tr13,27224,163344).
route(prodloc29,prodloc11,tr0,25592,665392).
route(prodloc29,prodloc11,tr13,25592,153552).
route(prodloc29,prodloc12,tr0,3993,103818).
route(prodloc29,prodloc12,tr13,3993,23958).
route(prodloc29,prodloc13,tr0,14948,388648).
route(prodloc29,prodloc13,tr13,14948,89688).
route(prodloc29,prodloc14,tr0,14494,376844).
route(prodloc29,prodloc14,tr13,14494,86964).
route(prodloc29,prodloc15,tr0,18919,491894).
route(prodloc29,prodloc15,tr13,18919,113514).
route(prodloc29,prodloc16,tr0,19368,503568).
route(prodloc29,prodloc16,tr13,19368,116208).
route(prodloc29,prodloc17,tr0,15424,401024).
route(prodloc29,prodloc17,tr13,15424,92544).
route(prodloc29,prodloc18,tr0,7828,203528).
route(prodloc29,prodloc18,tr13,7828,46968).
route(prodloc29,prodloc19,tr0,16349,425074).
route(prodloc29,prodloc19,tr13,16349,98094).
route(prodloc29,prodloc20,tr0,10152,263952).
route(prodloc29,prodloc20,tr13,10152,60912).
route(prodloc29,prodloc21,tr0,27452,713752).
route(prodloc29,prodloc21,tr13,27452,164712).
route(prodloc29,prodloc22,tr0,25689,667914).
route(prodloc29,prodloc22,tr13,25689,154134).
route(prodloc29,prodloc23,tr0,20745,539370).
route(prodloc29,prodloc23,tr13,20745,124470).
route(prodloc29,prodloc24,tr0,20792,540592).
route(prodloc29,prodloc24,tr13,20792,124752).
route(prodloc29,prodloc25,tr0,5373,139698).
route(prodloc29,prodloc25,tr13,5373,32238).
route(prodloc29,prodloc26,tr0,14547,378222).
route(prodloc29,prodloc26,tr13,14547,87282).
route(prodloc29,prodloc27,tr0,10952,284752).
route(prodloc29,prodloc27,tr13,10952,65712).
route(prodloc29,prodloc28,tr0,24794,644644).
route(prodloc29,prodloc28,tr13,24794,148764).
route(prodloc29,prodloc30,tr0,12025,312650).
route(prodloc29,prodloc30,tr13,12025,72150).
route(prodloc29,prodloc31,tr0,12094,314444).
route(prodloc29,prodloc31,tr13,12094,72564).
route(prodloc29,prodloc32,tr0,23800,618800).
route(prodloc29,prodloc32,tr13,23800,142800).
route(prodloc29,prodloc33,tr0,14335,372710).
route(prodloc29,prodloc33,tr13,14335,86010).
route(prodloc30,harbor0,tr0,18856,490256).
route(prodloc30,harbor0,tr13,18856,113136).
route(prodloc30,harbor1,tr0,5971,155246).
route(prodloc30,harbor1,tr13,5971,35826).
route(prodloc30,harbor2,tr0,13505,351130).
route(prodloc30,harbor2,tr13,13505,81030).
route(prodloc30,harbor3,tr0,22775,592150).
route(prodloc30,harbor3,tr13,22775,136650).
route(prodloc30,harbor4,tr0,10690,277940).
route(prodloc30,harbor4,tr13,10690,64140).
route(prodloc30,harbor5,tr0,3919,101894).
route(prodloc30,harbor5,tr13,3919,23514).
route(prodloc30,harbor6,tr0,28454,739804).
route(prodloc30,harbor6,tr13,28454,170724).
route(prodloc30,harbor7,tr0,23749,617474).
route(prodloc30,harbor7,tr13,23749,142494).
route(prodloc30,harbor8,tr0,2421,62946).
route(prodloc30,harbor8,tr13,2421,14526).
route(prodloc30,harbor9,tr0,25985,675610).
route(prodloc30,harbor9,tr13,25985,155910).
route(prodloc30,harbor10,tr0,9299,241774).
route(prodloc30,harbor10,tr13,9299,55794).
route(prodloc30,harbor11,tr0,8019,208494).
route(prodloc30,harbor11,tr13,8019,48114).
route(prodloc30,harbor12,tr0,353,9178).
route(prodloc30,harbor12,tr13,353,2118).
route(prodloc30,harbor13,tr0,2056,53456).
route(prodloc30,harbor13,tr13,2056,12336).
route(prodloc30,harbor14,tr0,27596,717496).
route(prodloc30,harbor14,tr13,27596,165576).
route(prodloc30,harbor15,tr0,557,14482).
route(prodloc30,harbor15,tr13,557,3342).
route(prodloc30,harbor16,tr0,11267,292942).
route(prodloc30,harbor16,tr13,11267,67602).
route(prodloc30,prodloc0,tr0,7870,204620).
route(prodloc30,prodloc0,tr13,7870,47220).
route(prodloc30,prodloc1,tr0,10287,267462).
route(prodloc30,prodloc1,tr13,10287,61722).
route(prodloc30,prodloc2,tr0,3839,99814).
route(prodloc30,prodloc2,tr13,3839,23034).
route(prodloc30,prodloc3,tr0,6209,161434).
route(prodloc30,prodloc3,tr13,6209,37254).
route(prodloc30,prodloc4,tr0,17636,458536).
route(prodloc30,prodloc4,tr13,17636,105816).
route(prodloc30,prodloc5,tr0,21570,560820).
route(prodloc30,prodloc5,tr15,21570,690240).
route(prodloc30,prodloc6,tr0,12051,313326).
route(prodloc30,prodloc6,tr13,12051,72306).
route(prodloc30,prodloc7,tr0,3510,91260).
route(prodloc30,prodloc7,tr13,3510,21060).
route(prodloc30,prodloc8,tr0,13590,353340).
route(prodloc30,prodloc8,tr13,13590,81540).
route(prodloc30,prodloc9,tr0,11941,310466).
route(prodloc30,prodloc9,tr13,11941,71646).
route(prodloc30,prodloc10,tr0,14154,368004).
route(prodloc30,prodloc10,tr13,14154,84924).
route(prodloc30,prodloc11,tr0,5125,133250).
route(prodloc30,prodloc11,tr15,5125,164000).
route(prodloc30,prodloc12,tr0,11429,297154).
route(prodloc30,prodloc12,tr13,11429,68574).
route(prodloc30,prodloc13,tr0,21295,553670).
route(prodloc30,prodloc13,tr13,21295,127770).
route(prodloc30,prodloc14,tr13,6131,36786).
route(prodloc30,prodloc14,tr15,6131,196192).
route(prodloc30,prodloc15,tr0,9405,244530).
route(prodloc30,prodloc15,tr13,9405,56430).
route(prodloc30,prodloc17,tr0,21306,553956).
route(prodloc30,prodloc17,tr13,21306,127836).
route(prodloc30,prodloc18,tr0,8695,226070).
route(prodloc30,prodloc18,tr13,8695,52170).
route(prodloc30,prodloc19,tr0,4313,112138).
route(prodloc30,prodloc19,tr13,4313,25878).
route(prodloc30,prodloc20,tr0,23291,605566).
route(prodloc30,prodloc20,tr13,23291,139746).
route(prodloc30,prodloc21,tr0,21978,571428).
route(prodloc30,prodloc21,tr13,21978,131868).
route(prodloc30,prodloc22,tr0,26327,684502).
route(prodloc30,prodloc22,tr13,26327,157962).
route(prodloc30,prodloc23,tr0,26261,682786).
route(prodloc30,prodloc23,tr13,26261,157566).
route(prodloc30,prodloc24,tr0,13784,358384).
route(prodloc30,prodloc24,tr13,13784,82704).
route(prodloc30,prodloc25,tr0,14090,366340).
route(prodloc30,prodloc25,tr13,14090,84540).
route(prodloc30,prodloc26,tr0,19837,515762).
route(prodloc30,prodloc26,tr13,19837,119022).
route(prodloc30,prodloc27,tr0,17299,449774).
route(prodloc30,prodloc27,tr13,17299,103794).
route(prodloc30,prodloc28,tr0,13297,345722).
route(prodloc30,prodloc28,tr13,13297,79782).
route(prodloc30,prodloc29,tr13,28091,168546).
route(prodloc30,prodloc29,tr15,28091,898912).
route(prodloc30,prodloc32,tr0,7921,205946).
route(prodloc30,prodloc32,tr13,7921,47526).
route(prodloc30,prodloc33,tr0,12345,320970).
route(prodloc30,prodloc33,tr13,12345,74070).
route(prodloc31,harbor0,tr0,14415,374790).
route(prodloc31,harbor0,tr13,14415,86490).
route(prodloc31,harbor1,tr0,25078,652028).
route(prodloc31,harbor1,tr13,25078,150468).
route(prodloc31,harbor2,tr0,287,7462).
route(prodloc31,harbor2,tr13,287,1722).
route(prodloc31,harbor3,tr0,3164,82264).
route(prodloc31,harbor3,tr13,3164,18984).
route(prodloc31,harbor4,tr0,3769,97994).
route(prodloc31,harbor4,tr13,3769,22614).
route(prodloc31,harbor5,tr0,21618,562068).
route(prodloc31,harbor5,tr13,21618,129708).
route(prodloc31,harbor6,tr0,26624,692224).
route(prodloc31,harbor6,tr13,26624,159744).
route(prodloc31,harbor7,tr0,6447,167622).
route(prodloc31,harbor7,tr13,6447,38682).
route(prodloc31,harbor8,tr0,4105,106730).
route(prodloc31,harbor8,tr13,4105,24630).
route(prodloc31,harbor9,tr0,4685,121810).
route(prodloc31,harbor9,tr13,4685,28110).
route(prodloc31,harbor10,tr0,21334,554684).
route(prodloc31,harbor10,tr13,21334,128004).
route(prodloc31,harbor11,tr0,18399,478374).
route(prodloc31,harbor11,tr13,18399,110394).
route(prodloc31,harbor12,tr0,25193,655018).
route(prodloc31,harbor12,tr13,25193,151158).
route(prodloc31,harbor13,tr0,2742,71292).
route(prodloc31,harbor13,tr13,2742,16452).
route(prodloc31,harbor14,tr0,20473,532298).
route(prodloc31,harbor14,tr13,20473,122838).
route(prodloc31,harbor15,tr0,26731,695006).
route(prodloc31,harbor15,tr13,26731,160386).
route(prodloc31,harbor16,tr0,26419,686894).
route(prodloc31,harbor16,tr13,26419,158514).
route(prodloc31,prodloc0,tr0,16677,433602).
route(prodloc31,prodloc0,tr13,16677,100062).
route(prodloc31,prodloc1,tr0,19373,503698).
route(prodloc31,prodloc1,tr13,19373,116238).
route(prodloc31,prodloc2,tr0,21454,557804).
route(prodloc31,prodloc2,tr13,21454,128724).
route(prodloc31,prodloc3,tr0,252,6552).
route(prodloc31,prodloc3,tr13,252,1512).
route(prodloc31,prodloc4,tr0,8774,228124).
route(prodloc31,prodloc4,tr13,8774,52644).
route(prodloc31,prodloc5,tr0,6056,157456).
route(prodloc31,prodloc5,tr13,6056,36336).
route(prodloc31,prodloc6,tr0,11646,302796).
route(prodloc31,prodloc6,tr13,11646,69876).
route(prodloc31,prodloc7,tr0,24653,640978).
route(prodloc31,prodloc7,tr13,24653,147918).
route(prodloc31,prodloc8,tr0,6634,172484).
route(prodloc31,prodloc8,tr13,6634,39804).
route(prodloc31,prodloc9,tr0,9237,240162).
route(prodloc31,prodloc9,tr13,9237,55422).
route(prodloc31,prodloc10,tr0,18924,492024).
route(prodloc31,prodloc10,tr13,18924,113544).
route(prodloc31,prodloc11,tr0,10866,282516).
route(prodloc31,prodloc11,tr13,10866,65196).
route(prodloc31,prodloc12,tr0,12697,330122).
route(prodloc31,prodloc12,tr13,12697,76182).
route(prodloc31,prodloc13,tr0,22874,594724).
route(prodloc31,prodloc13,tr15,22874,731968).
route(prodloc31,prodloc14,tr0,20207,525382).
route(prodloc31,prodloc14,tr13,20207,121242).
route(prodloc31,prodloc15,tr0,4521,117546).
route(prodloc31,prodloc15,tr13,4521,27126).
route(prodloc31,prodloc16,tr0,17279,449254).
route(prodloc31,prodloc16,tr13,17279,103674).
route(prodloc31,prodloc17,tr0,15654,407004).
route(prodloc31,prodloc17,tr13,15654,93924).
route(prodloc31,prodloc18,tr0,19436,505336).
route(prodloc31,prodloc18,tr13,19436,116616).
route(prodloc31,prodloc19,tr0,28023,728598).
route(prodloc31,prodloc19,tr13,28023,168138).
route(prodloc31,prodloc20,tr0,19938,518388).
route(prodloc31,prodloc20,tr13,19938,119628).
route(prodloc31,prodloc21,tr0,17958,466908).
route(prodloc31,prodloc21,tr13,17958,107748).
route(prodloc31,prodloc22,tr0,21457,557882).
route(prodloc31,prodloc22,tr13,21457,128742).
route(prodloc31,prodloc23,tr0,19210,499460).
route(prodloc31,prodloc23,tr13,19210,115260).
route(prodloc31,prodloc24,tr0,23638,614588).
route(prodloc31,prodloc24,tr13,23638,141828).
route(prodloc31,prodloc25,tr0,15119,393094).
route(prodloc31,prodloc25,tr13,15119,90714).
route(prodloc31,prodloc26,tr0,24669,641394).
route(prodloc31,prodloc26,tr13,24669,148014).
route(prodloc31,prodloc27,tr0,14050,365300).
route(prodloc31,prodloc27,tr13,14050,84300).
route(prodloc31,prodloc28,tr0,16398,426348).
route(prodloc31,prodloc28,tr13,16398,98388).
route(prodloc31,prodloc29,tr0,25961,674986).
route(prodloc31,prodloc29,tr13,25961,155766).
route(prodloc31,prodloc30,tr0,12914,335764).
route(prodloc31,prodloc30,tr13,12914,77484).
route(prodloc31,prodloc32,tr0,8689,225914).
route(prodloc31,prodloc32,tr13,8689,52134).
route(prodloc31,prodloc33,tr0,22573,586898).
route(prodloc31,prodloc33,tr13,22573,135438).
route(prodloc32,harbor0,tr0,3763,97838).
route(prodloc32,harbor0,tr13,3763,22578).
route(prodloc32,harbor1,tr0,4349,113074).
route(prodloc32,harbor1,tr13,4349,26094).
route(prodloc32,harbor2,tr0,28330,736580).
route(prodloc32,harbor2,tr13,28330,169980).
route(prodloc32,harbor3,tr0,23198,603148).
route(prodloc32,harbor3,tr13,23198,139188).
route(prodloc32,harbor4,tr0,27972,727272).
route(prodloc32,harbor4,tr13,27972,167832).
route(prodloc32,harbor5,tr0,2169,56394).
route(prodloc32,harbor5,tr13,2169,13014).
route(prodloc32,harbor6,tr0,18452,479752).
route(prodloc32,harbor6,tr13,18452,110712).
route(prodloc32,harbor7,tr0,7881,204906).
route(prodloc32,harbor7,tr13,7881,47286).
route(prodloc32,harbor8,tr0,5813,151138).
route(prodloc32,harbor8,tr13,5813,34878).
route(prodloc32,harbor9,tr0,21024,546624).
route(prodloc32,harbor9,tr13,21024,126144).
route(prodloc32,harbor10,tr0,445,11570).
route(prodloc32,harbor10,tr13,445,2670).
route(prodloc32,harbor11,tr0,12214,317564).
route(prodloc32,harbor11,tr13,12214,73284).
route(prodloc32,harbor12,tr0,20018,520468).
route(prodloc32,harbor12,tr13,20018,120108).
route(prodloc32,harbor13,tr0,14523,377598).
route(prodloc32,harbor13,tr13,14523,87138).
route(prodloc32,harbor14,tr0,11104,288704).
route(prodloc32,harbor14,tr13,11104,66624).
route(prodloc32,harbor15,tr0,9906,257556).
route(prodloc32,harbor15,tr13,9906,59436).
route(prodloc32,harbor16,tr0,25065,651690).
route(prodloc32,harbor16,tr13,25065,150390).
route(prodloc32,prodloc0,tr0,25634,666484).
route(prodloc32,prodloc0,tr13,25634,153804).
route(prodloc32,prodloc1,tr0,26857,698282).
route(prodloc32,prodloc1,tr13,26857,161142).
route(prodloc32,prodloc2,tr0,3815,99190).
route(prodloc32,prodloc2,tr13,3815,22890).
route(prodloc32,prodloc3,tr0,13712,356512).
route(prodloc32,prodloc3,tr13,13712,82272).
route(prodloc32,prodloc4,tr0,5784,150384).
route(prodloc32,prodloc4,tr13,5784,34704).
route(prodloc32,prodloc5,tr0,1397,36322).
route(prodloc32,prodloc5,tr13,1397,8382).
route(prodloc32,prodloc6,tr0,17768,461968).
route(prodloc32,prodloc6,tr13,17768,106608).
route(prodloc32,prodloc7,tr0,10467,272142).
route(prodloc32,prodloc7,tr13,10467,62802).
route(prodloc32,prodloc8,tr0,35,910).
route(prodloc32,prodloc8,tr13,35,210).
route(prodloc32,prodloc9,tr0,12576,326976).
route(prodloc32,prodloc9,tr13,12576,75456).
route(prodloc32,prodloc10,tr0,13783,358358).
route(prodloc32,prodloc10,tr13,13783,82698).
route(prodloc32,prodloc11,tr0,27487,714662).
route(prodloc32,prodloc11,tr13,27487,164922).
route(prodloc32,prodloc12,tr0,27748,721448).
route(prodloc32,prodloc12,tr13,27748,166488).
route(prodloc32,prodloc13,tr0,3856,100256).
route(prodloc32,prodloc13,tr13,3856,23136).
route(prodloc32,prodloc14,tr0,23472,610272).
route(prodloc32,prodloc14,tr13,23472,140832).
route(prodloc32,prodloc15,tr0,13484,350584).
route(prodloc32,prodloc15,tr13,13484,80904).
route(prodloc32,prodloc16,tr0,27372,711672).
route(prodloc32,prodloc16,tr13,27372,164232).
route(prodloc32,prodloc17,tr0,15958,414908).
route(prodloc32,prodloc17,tr13,15958,95748).
route(prodloc32,prodloc18,tr0,9162,238212).
route(prodloc32,prodloc18,tr13,9162,54972).
route(prodloc32,prodloc19,tr0,2085,54210).
route(prodloc32,prodloc19,tr13,2085,12510).
route(prodloc32,prodloc20,tr0,7503,195078).
route(prodloc32,prodloc20,tr13,7503,45018).
route(prodloc32,prodloc21,tr0,9378,243828).
route(prodloc32,prodloc21,tr13,9378,56268).
route(prodloc32,prodloc22,tr0,24416,634816).
route(prodloc32,prodloc22,tr13,24416,146496).
route(prodloc32,prodloc23,tr0,10146,263796).
route(prodloc32,prodloc23,tr13,10146,60876).
route(prodloc32,prodloc24,tr0,10124,263224).
route(prodloc32,prodloc24,tr13,10124,60744).
route(prodloc32,prodloc25,tr0,3493,90818).
route(prodloc32,prodloc25,tr13,3493,20958).
route(prodloc32,prodloc26,tr0,3802,98852).
route(prodloc32,prodloc26,tr13,3802,22812).
route(prodloc32,prodloc27,tr0,19479,506454).
route(prodloc32,prodloc27,tr13,19479,116874).
route(prodloc32,prodloc28,tr0,19634,510484).
route(prodloc32,prodloc28,tr13,19634,117804).
route(prodloc32,prodloc29,tr0,25444,661544).
route(prodloc32,prodloc29,tr13,25444,152664).
route(prodloc32,prodloc30,tr0,11751,305526).
route(prodloc32,prodloc30,tr13,11751,70506).
route(prodloc32,prodloc31,tr0,23995,623870).
route(prodloc32,prodloc31,tr13,23995,143970).
route(prodloc32,prodloc33,tr0,6239,162214).
route(prodloc32,prodloc33,tr13,6239,37434).
route(prodloc33,harbor0,tr0,7173,186498).
route(prodloc33,harbor0,tr13,7173,43038).
route(prodloc33,harbor1,tr0,28587,743262).
route(prodloc33,harbor1,tr13,28587,171522).
route(prodloc33,harbor2,tr0,27548,716248).
route(prodloc33,harbor2,tr13,27548,165288).
route(prodloc33,harbor3,tr0,16652,432952).
route(prodloc33,harbor3,tr13,16652,99912).
route(prodloc33,harbor4,tr0,1336,34736).
route(prodloc33,harbor4,tr13,1336,8016).
route(prodloc33,harbor5,tr0,18773,488098).
route(prodloc33,harbor5,tr13,18773,112638).
route(prodloc33,harbor6,tr0,6686,173836).
route(prodloc33,harbor6,tr13,6686,40116).
route(prodloc33,harbor7,tr0,5946,154596).
route(prodloc33,harbor7,tr13,5946,35676).
route(prodloc33,harbor8,tr0,15309,398034).
route(prodloc33,harbor8,tr13,15309,91854).
route(prodloc33,harbor9,tr0,1822,47372).
route(prodloc33,harbor9,tr13,1822,10932).
route(prodloc33,harbor10,tr0,10031,260806).
route(prodloc33,harbor10,tr13,10031,60186).
route(prodloc33,harbor11,tr0,27268,708968).
route(prodloc33,harbor11,tr13,27268,163608).
route(prodloc33,harbor12,tr0,20784,540384).
route(prodloc33,harbor12,tr13,20784,124704).
route(prodloc33,harbor13,tr0,16082,418132).
route(prodloc33,harbor13,tr13,16082,96492).
route(prodloc33,harbor14,tr0,76,1976).
route(prodloc33,harbor14,tr13,76,456).
route(prodloc33,harbor15,tr0,28760,747760).
route(prodloc33,harbor15,tr13,28760,172560).
route(prodloc33,harbor16,tr0,23599,613574).
route(prodloc33,harbor16,tr13,23599,141594).
route(prodloc33,prodloc0,tr0,25837,671762).
route(prodloc33,prodloc0,tr13,25837,155022).
route(prodloc33,prodloc1,tr0,12011,312286).
route(prodloc33,prodloc1,tr13,12011,72066).
route(prodloc33,prodloc2,tr0,22371,581646).
route(prodloc33,prodloc2,tr13,22371,134226).
route(prodloc33,prodloc3,tr0,12094,314444).
route(prodloc33,prodloc3,tr13,12094,72564).
route(prodloc33,prodloc4,tr0,28789,748514).
route(prodloc33,prodloc4,tr13,28789,172734).
route(prodloc33,prodloc5,tr13,19366,116196).
route(prodloc33,prodloc5,tr15,19366,619712).
route(prodloc33,prodloc6,tr0,16772,436072).
route(prodloc33,prodloc6,tr13,16772,100632).
route(prodloc33,prodloc7,tr0,12354,321204).
route(prodloc33,prodloc7,tr13,12354,74124).
route(prodloc33,prodloc8,tr13,5339,32034).
route(prodloc33,prodloc8,tr15,5339,170848).
route(prodloc33,prodloc9,tr0,13832,359632).
route(prodloc33,prodloc9,tr13,13832,82992).
route(prodloc33,prodloc10,tr0,27929,726154).
route(prodloc33,prodloc10,tr13,27929,167574).
route(prodloc33,prodloc11,tr0,1245,32370).
route(prodloc33,prodloc11,tr13,1245,7470).
route(prodloc33,prodloc12,tr0,21110,548860).
route(prodloc33,prodloc12,tr13,21110,126660).
route(prodloc33,prodloc13,tr0,3681,95706).
route(prodloc33,prodloc13,tr13,3681,22086).
route(prodloc33,prodloc14,tr0,4202,109252).
route(prodloc33,prodloc14,tr13,4202,25212).
route(prodloc33,prodloc15,tr0,19402,504452).
route(prodloc33,prodloc15,tr13,19402,116412).
route(prodloc33,prodloc16,tr0,10125,263250).
route(prodloc33,prodloc16,tr13,10125,60750).
route(prodloc33,prodloc17,tr0,248,6448).
route(prodloc33,prodloc17,tr13,248,1488).
route(prodloc33,prodloc18,tr0,8948,232648).
route(prodloc33,prodloc18,tr13,8948,53688).
route(prodloc33,prodloc19,tr0,3267,84942).
route(prodloc33,prodloc19,tr13,3267,19602).
route(prodloc33,prodloc20,tr0,26832,697632).
route(prodloc33,prodloc20,tr13,26832,160992).
route(prodloc33,prodloc21,tr0,2078,54028).
route(prodloc33,prodloc21,tr13,2078,12468).
route(prodloc33,prodloc22,tr0,6764,175864).
route(prodloc33,prodloc22,tr13,6764,40584).
route(prodloc33,prodloc23,tr0,19145,497770).
route(prodloc33,prodloc23,tr13,19145,114870).
route(prodloc33,prodloc24,tr0,19819,515294).
route(prodloc33,prodloc24,tr13,19819,118914).
route(prodloc33,prodloc25,tr0,8365,217490).
route(prodloc33,prodloc25,tr13,8365,50190).
route(prodloc33,prodloc26,tr0,4239,110214).
route(prodloc33,prodloc26,tr13,4239,25434).
route(prodloc33,prodloc27,tr0,3080,80080).
route(prodloc33,prodloc27,tr13,3080,18480).
route(prodloc33,prodloc28,tr0,22353,581178).
route(prodloc33,prodloc28,tr13,22353,134118).
route(prodloc33,prodloc29,tr0,9396,244296).
route(prodloc33,prodloc29,tr13,9396,56376).
route(prodloc33,prodloc30,tr0,21586,561236).
route(prodloc33,prodloc30,tr13,21586,129516).
route(prodloc33,prodloc31,tr0,24223,629798).
route(prodloc33,prodloc31,tr13,24223,145338).
route(prodloc33,prodloc32,tr0,14122,367172).
route(prodloc33,prodloc32,tr13,14122,84732).
hub(harbor1).
hub(harbor4).
hub(harbor5).
hub(harbor10).
hub(harbor11).
hub(prodloc3).
hub(prodloc13).
hub(prodloc26).
hub(prodloc27).
hub(prodloc28).
