% Multibatching benchmark instance
% Source: instances.lp
% seed=13  harbors=17  prodlocs=34  hubs=10  disruptions=2

% ---- locations ----
location(harbor0).
location(harbor1).
location(harbor2).
location(harbor3).
location(harbor4).
location(harbor5).
location(harbor6).
location(harbor7).
location(harbor8).
location(harbor9).
location(harbor10).
location(harbor11).
location(harbor12).
location(harbor13).
location(harbor14).
location(harbor15).
location(harbor16).
location(prodloc0).
location(prodloc1).
location(prodloc2).
location(prodloc3).
location(prodloc4).
location(prodloc5).
location(prodloc6).
location(prodloc7).
location(prodloc8).
location(prodloc9).
location(prodloc10).
location(prodloc11).
location(prodloc12).
location(prodloc13).
location(prodloc14).
location(prodloc15).
location(prodloc16).
location(prodloc17).
location(prodloc18).
location(prodloc19).
location(prodloc20).
location(prodloc21).
location(prodloc22).
location(prodloc23).
location(prodloc24).
location(prodloc25).
location(prodloc26).
location(prodloc27).
location(prodloc28).
location(prodloc29).
location(prodloc30).
location(prodloc31).
location(prodloc32).
location(prodloc33).

% ---- transport resources ----
transportCapacity(tr0,1800).
transportCO2(tr0,1680).
transportCost(tr0,26).
transportSpeed(tr0,12).
transportCapacity(tr1,65).
transportCO2(tr1,90).
transportCost(tr1,1).
transportSpeed(tr1,35).
transportCapacity(tr10,1).
transportCO2(tr10,700).
transportCost(tr10,4).
transportSpeed(tr10,40).
transportCapacity(tr11,65).
transportCO2(tr11,62).
transportCost(tr11,1).
transportSpeed(tr11,25).
transportCapacity(tr12,65).
transportCO2(tr12,709).
transportCost(tr12,3).
transportSpeed(tr12,55).
transportCapacity(tr13,68).
transportCO2(tr13,160).
transportCost(tr13,6).
transportSpeed(tr13,25).
transportCapacity(tr14,146).
transportCO2(tr14,780).
transportCost(tr14,4).
transportSpeed(tr14,50).
transportCapacity(tr15,2217).
transportCO2(tr15,49470).
transportCost(tr15,32).
transportSpeed(tr15,625).
transportCapacity(tr2,96).
transportCO2(tr2,709).
transportCost(tr2,3).
transportSpeed(tr2,55).
transportCapacity(tr3,1).
transportCO2(tr3,6250).
transportCost(tr3,108).
transportSpeed(tr3,25).
transportCapacity(tr4,148).
transportCO2(tr4,780).
transportCost(tr4,4).
transportSpeed(tr4,50).
transportCapacity(tr5,65).
transportCO2(tr5,780).
transportCost(tr5,3).
transportSpeed(tr5,50).
transportCapacity(tr6,1).
transportCO2(tr6,100).
transportCost(tr6,40).
transportSpeed(tr6,25).
transportCapacity(tr7,1).
transportCO2(tr7,18000).
transportCost(tr7,278).
transportSpeed(tr7,10).
transportCapacity(tr8,1).
transportCO2(tr8,14400).
transportCost(tr8,107).
transportSpeed(tr8,25).
transportCapacity(tr9,65).
transportCO2(tr9,708).
transportCost(tr9,2).
transportSpeed(tr9,60).

% ---- parts ----
part(part0).
partSize(part0,21).
valid_transport(part0,tr0).
valid_transport(part0,tr15).
valid_transport(part0,tr14).
valid_transport(part0,tr13).
valid_transport(part0,tr4).
part(part1).
partSize(part1,1).
valid_transport(part1,tr0).
valid_transport(part1,tr2).
valid_transport(part1,tr15).
valid_transport(part1,tr9).
valid_transport(part1,tr12).
valid_transport(part1,tr13).
valid_transport(part1,tr11).
part(part10).
partSize(part10,1).
valid_transport(part10,tr0).
valid_transport(part10,tr2).
valid_transport(part10,tr15).
valid_transport(part10,tr9).
valid_transport(part10,tr12).
valid_transport(part10,tr13).
valid_transport(part10,tr11).
part(part11).
partSize(part11,83).
valid_transport(part11,tr0).
valid_transport(part11,tr7).
valid_transport(part11,tr8).
valid_transport(part11,tr15).
valid_transport(part11,tr3).
valid_transport(part11,tr13).
part(part12).
partSize(part12,273).
valid_transport(part12,tr0).
valid_transport(part12,tr7).
valid_transport(part12,tr8).
valid_transport(part12,tr15).
valid_transport(part12,tr3).
valid_transport(part12,tr13).
part(part13).
partSize(part13,1).
valid_transport(part13,tr0).
valid_transport(part13,tr2).
valid_transport(part13,tr15).
valid_transport(part13,tr9).
valid_transport(part13,tr12).
valid_transport(part13,tr13).
valid_transport(part13,tr11).
part(part14).
partSize(part14,68).
valid_transport(part14,tr0).
valid_transport(part14,tr15).
valid_transport(part14,tr13).
part(part15).
partSize(part15,4).
valid_transport(part15,tr0).
valid_transport(part15,tr2).
valid_transport(part15,tr15).
valid_transport(part15,tr9).
valid_transport(part15,tr12).
valid_transport(part15,tr13).
valid_transport(part15,tr11).
part(part16).
partSize(part16,4).
valid_transport(part16,tr0).
valid_transport(part16,tr2).
valid_transport(part16,tr15).
valid_transport(part16,tr9).
valid_transport(part16,tr12).
valid_transport(part16,tr13).
valid_transport(part16,tr11).
part(part17).
partSize(part17,8).
valid_transport(part17,tr0).
valid_transport(part17,tr15).
valid_transport(part17,tr14).
valid_transport(part17,tr13).
valid_transport(part17,tr4).
part(part18).
partSize(part18,24).
valid_transport(part18,tr0).
valid_transport(part18,tr15).
valid_transport(part18,tr14).
valid_transport(part18,tr13).
valid_transport(part18,tr4).
part(part19).
partSize(part19,6).
valid_transport(part19,tr0).
valid_transport(part19,tr2).
valid_transport(part19,tr15).
valid_transport(part19,tr9).
valid_transport(part19,tr12).
valid_transport(part19,tr13).
valid_transport(part19,tr11).
part(part2).
partSize(part2,19).
valid_transport(part2,tr0).
valid_transport(part2,tr15).
valid_transport(part2,tr14).
valid_transport(part2,tr13).
valid_transport(part2,tr4).
part(part20).
partSize(part20,128).
valid_transport(part20,tr0).
valid_transport(part20,tr7).
valid_transport(part20,tr8).
valid_transport(part20,tr15).
valid_transport(part20,tr3).
valid_transport(part20,tr13).
part(part21).
partSize(part21,25).
valid_transport(part21,tr0).
valid_transport(part21,tr15).
valid_transport(part21,tr14).
valid_transport(part21,tr13).
valid_transport(part21,tr4).
part(part22).
partSize(part22,7).
valid_transport(part22,tr0).
valid_transport(part22,tr2).
valid_transport(part22,tr15).
valid_transport(part22,tr9).
valid_transport(part22,tr12).
valid_transport(part22,tr13).
valid_transport(part22,tr11).
part(part23).
partSize(part23,5).
valid_transport(part23,tr0).
valid_transport(part23,tr15).
valid_transport(part23,tr14).
valid_transport(part23,tr13).
valid_transport(part23,tr4).
part(part24).
partSize(part24,55).
valid_transport(part24,tr0).
valid_transport(part24,tr7).
valid_transport(part24,tr8).
valid_transport(part24,tr15).
valid_transport(part24,tr3).
valid_transport(part24,tr13).
part(part25).
partSize(part25,5).
valid_transport(part25,tr0).
valid_transport(part25,tr4).
valid_transport(part25,tr2).
valid_transport(part25,tr15).
valid_transport(part25,tr13).
part(part26).
partSize(part26,32).
valid_transport(part26,tr0).
valid_transport(part26,tr7).
valid_transport(part26,tr8).
valid_transport(part26,tr15).
valid_transport(part26,tr3).
valid_transport(part26,tr13).
part(part27).
partSize(part27,5).
valid_transport(part27,tr0).
valid_transport(part27,tr2).
valid_transport(part27,tr15).
valid_transport(part27,tr9).
valid_transport(part27,tr12).
valid_transport(part27,tr13).
valid_transport(part27,tr11).
part(part28).
partSize(part28,3).
valid_transport(part28,tr0).
valid_transport(part28,tr4).
valid_transport(part28,tr2).
valid_transport(part28,tr15).
valid_transport(part28,tr14).
valid_transport(part28,tr13).
part(part29).
partSize(part29,627).
part(part3).
partSize(part3,48).
valid_transport(part3,tr0).
valid_transport(part3,tr7).
valid_transport(part3,tr8).
valid_transport(part3,tr15).
valid_transport(part3,tr3).
valid_transport(part3,tr13).
part(part30).
partSize(part30,2).
valid_transport(part30,tr0).
valid_transport(part30,tr2).
valid_transport(part30,tr15).
valid_transport(part30,tr9).
valid_transport(part30,tr12).
valid_transport(part30,tr13).
valid_transport(part30,tr11).
part(part31).
partSize(part31,144).
valid_transport(part31,tr0).
valid_transport(part31,tr7).
valid_transport(part31,tr8).
valid_transport(part31,tr15).
valid_transport(part31,tr3).
valid_transport(part31,tr13).
part(part32).
partSize(part32,16).
valid_transport(part32,tr0).
valid_transport(part32,tr4).
valid_transport(part32,tr2).
valid_transport(part32,tr15).
valid_transport(part32,tr14).
valid_transport(part32,tr13).
part(part33).
partSize(part33,7).
valid_transport(part33,tr0).
valid_transport(part33,tr2).
valid_transport(part33,tr15).
valid_transport(part33,tr9).
valid_transport(part33,tr12).
valid_transport(part33,tr13).
valid_transport(part33,tr11).
part(part3345).
partSize(part3345,353).
valid_transport(part3345,tr0).
valid_transport(part3345,tr7).
valid_transport(part3345,tr8).
valid_transport(part3345,tr15).
valid_transport(part3345,tr3).
valid_transport(part3345,tr13).
part(part34).
partSize(part34,2).
valid_transport(part34,tr0).
valid_transport(part34,tr2).
valid_transport(part34,tr15).
valid_transport(part34,tr9).
valid_transport(part34,tr12).
valid_transport(part34,tr13).
valid_transport(part34,tr11).
part(part4).
partSize(part4,2).
valid_transport(part4,tr0).
valid_transport(part4,tr2).
valid_transport(part4,tr15).
valid_transport(part4,tr9).
valid_transport(part4,tr12).
valid_transport(part4,tr13).
valid_transport(part4,tr11).
part(part5).
partSize(part5,2).
valid_transport(part5,tr0).
valid_transport(part5,tr2).
valid_transport(part5,tr15).
valid_transport(part5,tr9).
valid_transport(part5,tr12).
valid_transport(part5,tr14).
valid_transport(part5,tr13).
valid_transport(part5,tr11).
part(part6).
partSize(part6,111).
valid_transport(part6,tr0).
valid_transport(part6,tr7).
valid_transport(part6,tr8).
valid_transport(part6,tr15).
valid_transport(part6,tr3).
valid_transport(part6,tr13).
part(part8).
partSize(part8,163).
valid_transport(part8,tr0).
valid_transport(part8,tr7).
valid_transport(part8,tr8).
valid_transport(part8,tr15).
valid_transport(part8,tr3).
valid_transport(part8,tr13).
part(part9).
partSize(part9,2).
valid_transport(part9,tr0).
valid_transport(part9,tr2).
valid_transport(part9,tr15).
valid_transport(part9,tr9).
valid_transport(part9,tr12).
valid_transport(part9,tr13).
valid_transport(part9,tr11).

% ---- demand ----
demandOffer(part0,prodloc16,40).
demandOffer(part0,prodloc18,40).
demandOffer(part0,prodloc11,-27).
demandOffer(part0,prodloc14,-53).
demandOffer(part1,prodloc9,20).
demandOffer(part1,prodloc14,20).
demandOffer(part1,prodloc11,-20).
demandOffer(part1,prodloc8,-20).
demandOffer(part10,prodloc4,20).
demandOffer(part10,prodloc13,20).
demandOffer(part10,prodloc18,-20).
demandOffer(part10,prodloc1,-20).
demandOffer(part12,prodloc27,10).
demandOffer(part12,prodloc8,20).
demandOffer(part12,prodloc0,-10).
demandOffer(part12,prodloc17,-10).
demandOffer(part12,prodloc9,-10).
demandOffer(part13,prodloc5,20).
demandOffer(part13,prodloc16,20).
demandOffer(part13,prodloc28,-20).
demandOffer(part13,prodloc27,-20).
demandOffer(part14,prodloc8,26).
demandOffer(part14,prodloc16,-26).
demandOffer(part15,prodloc22,53).
demandOffer(part15,prodloc14,27).
demandOffer(part15,prodloc31,-53).
demandOffer(part15,prodloc27,-27).
demandOffer(part16,prodloc23,53).
demandOffer(part16,prodloc27,27).
demandOffer(part16,prodloc20,-53).
demandOffer(part16,prodloc7,-27).
demandOffer(part17,prodloc22,20).
demandOffer(part17,prodloc16,-20).
demandOffer(part18,prodloc28,40).
demandOffer(part18,prodloc8,40).
demandOffer(part18,prodloc11,-27).
demandOffer(part18,prodloc18,-53).
demandOffer(part19,prodloc12,26).
demandOffer(part19,prodloc11,-26).
demandOffer(part2,prodloc33,40).
demandOffer(part2,prodloc22,40).
demandOffer(part2,prodloc16,-27).
demandOffer(part2,prodloc23,-53).
demandOffer(part20,prodloc29,53).
demandOffer(part20,prodloc16,27).
demandOffer(part20,prodloc17,-14).
demandOffer(part20,prodloc25,-46).
demandOffer(part20,prodloc8,-20).
demandOffer(part21,prodloc31,26).
demandOffer(part21,prodloc15,-26).
demandOffer(part22,prodloc15,53).
demandOffer(part22,prodloc12,27).
demandOffer(part22,prodloc23,-53).
demandOffer(part22,prodloc8,-27).
demandOffer(part23,prodloc4,20).
demandOffer(part23,prodloc27,20).
demandOffer(part23,prodloc29,-20).
demandOffer(part23,prodloc24,-20).
demandOffer(part25,prodloc0,20).
demandOffer(part25,prodloc27,-20).
demandOffer(part26,prodloc2,20).
demandOffer(part26,prodloc14,20).
demandOffer(part26,prodloc9,-14).
demandOffer(part26,prodloc31,-26).
demandOffer(part27,prodloc28,53).
demandOffer(part27,prodloc16,27).
demandOffer(part27,prodloc10,-53).
demandOffer(part27,prodloc26,-27).
demandOffer(part28,prodloc16,20).
demandOffer(part28,prodloc22,20).
demandOffer(part28,prodloc12,-20).
demandOffer(part28,prodloc23,-20).
demandOffer(part3,prodloc33,40).
demandOffer(part3,prodloc8,-14).
demandOffer(part3,prodloc15,-26).
demandOffer(part30,prodloc31,40).
demandOffer(part30,prodloc13,40).
demandOffer(part30,prodloc2,-27).
demandOffer(part30,prodloc22,-53).
demandOffer(part31,prodloc21,7).
demandOffer(part31,prodloc11,7).
demandOffer(part31,prodloc18,-14).
demandOffer(part32,prodloc12,53).
demandOffer(part32,prodloc10,27).
demandOffer(part32,prodloc7,-53).
demandOffer(part32,prodloc14,-27).
demandOffer(part33,prodloc10,53).
demandOffer(part33,prodloc4,27).
demandOffer(part33,prodloc27,-53).
demandOffer(part33,prodloc2,-27).
demandOffer(part34,prodloc28,20).
demandOffer(part34,prodloc21,-20).
demandOffer(part4,prodloc5,26).
demandOffer(part4,prodloc33,-26).
demandOffer(part5,prodloc0,20).
demandOffer(part5,prodloc8,-20).
demandOffer(part6,prodloc19,27).
demandOffer(part6,prodloc7,53).
demandOffer(part6,prodloc26,-24).
demandOffer(part6,prodloc9,-36).
demandOffer(part6,prodloc29,-10).
demandOffer(part6,prodloc8,-10).
demandOffer(part8,prodloc4,3).
demandOffer(part8,prodloc30,17).
demandOffer(part8,prodloc33,-10).
demandOffer(part8,prodloc23,-10).
demandOffer(part9,prodloc2,20).
demandOffer(part9,prodloc0,-20).

% ---- network (ASP-generated) ----
route(harbor0,harbor1,tr13,10505,63030).
route(harbor0,harbor1,tr2,10505,31515).
route(harbor0,harbor2,tr13,10999,65994).
route(harbor0,harbor2,tr2,10999,32997).
route(harbor0,harbor3,tr13,5111,30666).
route(harbor0,harbor3,tr2,5111,15333).
route(harbor0,harbor4,tr13,16301,97806).
route(harbor0,harbor4,tr2,16301,48903).
route(harbor0,harbor5,tr13,18372,110232).
route(harbor0,harbor5,tr2,18372,55116).
route(harbor0,harbor6,tr13,17487,104922).
route(harbor0,harbor6,tr2,17487,52461).
route(harbor0,harbor7,tr13,16960,101760).
route(harbor0,harbor7,tr2,16960,50880).
route(harbor0,harbor8,tr13,27042,162252).
route(harbor0,harbor8,tr2,27042,81126).
route(harbor0,harbor9,tr13,15569,93414).
route(harbor0,harbor9,tr2,15569,46707).
route(harbor0,harbor10,tr13,7338,44028).
route(harbor0,harbor10,tr2,7338,22014).
route(harbor0,harbor11,tr13,21968,131808).
route(harbor0,harbor11,tr2,21968,65904).
route(harbor0,harbor12,tr13,6820,40920).
route(harbor0,harbor12,tr2,6820,20460).
route(harbor0,harbor13,tr13,9747,58482).
route(harbor0,harbor13,tr2,9747,29241).
route(harbor0,harbor14,tr13,26205,157230).
route(harbor0,harbor14,tr2,26205,78615).
route(harbor0,harbor15,tr13,1070,6420).
route(harbor0,harbor15,tr2,1070,3210).
route(harbor0,harbor16,tr13,12356,74136).
route(harbor0,harbor16,tr2,12356,37068).
route(harbor0,prodloc0,tr0,16431,427206).
route(harbor0,prodloc0,tr13,16431,98586).
route(harbor0,prodloc1,tr0,23405,608530).
route(harbor0,prodloc1,tr13,23405,140430).
route(harbor0,prodloc2,tr0,5149,133874).
route(harbor0,prodloc2,tr13,5149,30894).
route(harbor0,prodloc3,tr0,24197,629122).
route(harbor0,prodloc3,tr13,24197,145182).
route(harbor0,prodloc4,tr0,4798,124748).
route(harbor0,prodloc4,tr13,4798,28788).
route(harbor0,prodloc5,tr0,8466,220116).
route(harbor0,prodloc5,tr13,8466,50796).
route(harbor0,prodloc6,tr0,13940,362440).
route(harbor0,prodloc6,tr13,13940,83640).
route(harbor0,prodloc7,tr0,22416,582816).
route(harbor0,prodloc7,tr13,22416,134496).
route(harbor0,prodloc8,tr0,27009,702234).
route(harbor0,prodloc8,tr13,27009,162054).
route(harbor0,prodloc9,tr0,27825,723450).
route(harbor0,prodloc9,tr13,27825,166950).
route(harbor0,prodloc10,tr0,7052,183352).
route(harbor0,prodloc10,tr13,7052,42312).
route(harbor0,prodloc11,tr0,8474,220324).
route(harbor0,prodloc11,tr13,8474,50844).
route(harbor0,prodloc12,tr0,13923,361998).
route(harbor0,prodloc12,tr13,13923,83538).
route(harbor0,prodloc13,tr0,19269,500994).
route(harbor0,prodloc13,tr13,19269,115614).
route(harbor0,prodloc14,tr0,7727,200902).
route(harbor0,prodloc14,tr13,7727,46362).
route(harbor0,prodloc15,tr0,11653,302978).
route(harbor0,prodloc15,tr13,11653,69918).
route(harbor0,prodloc16,tr0,25328,658528).
route(harbor0,prodloc16,tr13,25328,151968).
route(harbor0,prodloc17,tr0,8005,208130).
route(harbor0,prodloc17,tr13,8005,48030).
route(harbor0,prodloc18,tr0,19403,504478).
route(harbor0,prodloc18,tr13,19403,116418).
route(harbor0,prodloc19,tr0,9418,244868).
route(harbor0,prodloc19,tr13,9418,56508).
route(harbor0,prodloc20,tr0,14023,364598).
route(harbor0,prodloc20,tr13,14023,84138).
route(harbor0,prodloc21,tr0,6681,173706).
route(harbor0,prodloc21,tr13,6681,40086).
route(harbor0,prodloc22,tr0,20996,545896).
route(harbor0,prodloc22,tr13,20996,125976).
route(harbor0,prodloc23,tr0,11497,298922).
route(harbor0,prodloc23,tr13,11497,68982).
route(harbor0,prodloc24,tr0,13942,362492).
route(harbor0,prodloc24,tr13,13942,83652).
route(harbor0,prodloc25,tr0,1250,32500).
route(harbor0,prodloc25,tr13,1250,7500).
route(harbor0,prodloc26,tr0,10387,270062).
route(harbor0,prodloc26,tr13,10387,62322).
route(harbor0,prodloc27,tr0,13031,338806).
route(harbor0,prodloc27,tr13,13031,78186).
route(harbor0,prodloc28,tr0,15097,392522).
route(harbor0,prodloc28,tr13,15097,90582).
route(harbor0,prodloc29,tr0,2844,73944).
route(harbor0,prodloc29,tr13,2844,17064).
route(harbor0,prodloc30,tr0,2249,58474).
route(harbor0,prodloc30,tr13,2249,13494).
route(harbor0,prodloc31,tr0,24844,645944).
route(harbor0,prodloc31,tr13,24844,149064).
route(harbor0,prodloc32,tr0,1496,38896).
route(harbor0,prodloc32,tr13,1496,8976).
route(harbor0,prodloc33,tr0,19656,511056).
route(harbor0,prodloc33,tr13,19656,117936).
route(harbor1,harbor0,tr13,164,984).
route(harbor1,harbor0,tr2,164,492).
route(harbor1,harbor2,tr13,21438,128628).
route(harbor1,harbor2,tr2,21438,64314).
route(harbor1,harbor3,tr13,25387,152322).
route(harbor1,harbor3,tr2,25387,76161).
route(harbor1,harbor4,tr13,10069,60414).
route(harbor1,harbor4,tr2,10069,30207).
route(harbor1,harbor5,tr13,6269,37614).
route(harbor1,harbor5,tr2,6269,18807).
route(harbor1,harbor6,tr13,14759,88554).
route(harbor1,harbor6,tr2,14759,44277).
route(harbor1,harbor7,tr13,15782,94692).
route(harbor1,harbor7,tr2,15782,47346).
route(harbor1,harbor8,tr13,18204,109224).
route(harbor1,harbor8,tr2,18204,54612).
route(harbor1,harbor9,tr13,12799,76794).
route(harbor1,harbor9,tr2,12799,38397).
route(harbor1,harbor10,tr13,10937,65622).
route(harbor1,harbor10,tr2,10937,32811).
route(harbor1,harbor11,tr13,2038,12228).
route(harbor1,harbor11,tr2,2038,6114).
route(harbor1,harbor12,tr13,9514,57084).
route(harbor1,harbor12,tr2,9514,28542).
route(harbor1,harbor13,tr13,17333,103998).
route(harbor1,harbor13,tr2,17333,51999).
route(harbor1,harbor14,tr13,14282,85692).
route(harbor1,harbor14,tr2,14282,42846).
route(harbor1,harbor15,tr13,4518,27108).
route(harbor1,harbor15,tr2,4518,13554).
route(harbor1,harbor16,tr13,4891,29346).
route(harbor1,harbor16,tr2,4891,14673).
route(harbor1,prodloc0,tr0,28299,735774).
route(harbor1,prodloc0,tr13,28299,169794).
route(harbor1,prodloc1,tr0,1725,44850).
route(harbor1,prodloc1,tr13,1725,10350).
route(harbor1,prodloc2,tr0,3669,95394).
route(harbor1,prodloc2,tr13,3669,22014).
route(harbor1,prodloc3,tr0,12078,314028).
route(harbor1,prodloc3,tr13,12078,72468).
route(harbor1,prodloc4,tr0,26986,701636).
route(harbor1,prodloc4,tr13,26986,161916).
route(harbor1,prodloc5,tr0,5122,133172).
route(harbor1,prodloc5,tr13,5122,30732).
route(harbor1,prodloc6,tr0,7154,186004).
route(harbor1,prodloc6,tr13,7154,42924).
route(harbor1,prodloc7,tr0,10093,262418).
route(harbor1,prodloc7,tr13,10093,60558).
route(harbor1,prodloc8,tr0,9942,258492).
route(harbor1,prodloc8,tr13,9942,59652).
route(harbor1,prodloc9,tr0,19768,513968).
route(harbor1,prodloc9,tr13,19768,118608).
route(harbor1,prodloc10,tr0,12727,330902).
route(harbor1,prodloc10,tr13,12727,76362).
route(harbor1,prodloc11,tr0,9535,247910).
route(harbor1,prodloc11,tr13,9535,57210).
route(harbor1,prodloc12,tr0,1095,28470).
route(harbor1,prodloc12,tr13,1095,6570).
route(harbor1,prodloc13,tr0,11392,296192).
route(harbor1,prodloc13,tr13,11392,68352).
route(harbor1,prodloc14,tr0,4205,109330).
route(harbor1,prodloc14,tr13,4205,25230).
route(harbor1,prodloc15,tr0,3267,84942).
route(harbor1,prodloc15,tr13,3267,19602).
route(harbor1,prodloc16,tr0,11832,307632).
route(harbor1,prodloc16,tr13,11832,70992).
route(harbor1,prodloc17,tr0,16087,418262).
route(harbor1,prodloc17,tr13,16087,96522).
route(harbor1,prodloc18,tr0,14481,376506).
route(harbor1,prodloc18,tr13,14481,86886).
route(harbor1,prodloc19,tr0,19179,498654).
route(harbor1,prodloc19,tr13,19179,115074).
route(harbor1,prodloc20,tr0,28721,746746).
route(harbor1,prodloc20,tr13,28721,172326).
route(harbor1,prodloc21,tr0,19115,496990).
route(harbor1,prodloc21,tr13,19115,114690).
route(harbor1,prodloc22,tr0,14231,370006).
route(harbor1,prodloc22,tr13,14231,85386).
route(harbor1,prodloc23,tr0,1429,37154).
route(harbor1,prodloc23,tr13,1429,8574).
route(harbor1,prodloc24,tr0,11504,299104).
route(harbor1,prodloc24,tr13,11504,69024).
route(harbor1,prodloc25,tr0,17534,455884).
route(harbor1,prodloc25,tr13,17534,105204).
route(harbor1,prodloc26,tr0,9684,251784).
route(harbor1,prodloc26,tr13,9684,58104).
route(harbor1,prodloc27,tr0,4240,110240).
route(harbor1,prodloc27,tr13,4240,25440).
route(harbor1,prodloc28,tr0,26336,684736).
route(harbor1,prodloc28,tr13,26336,158016).
route(harbor1,prodloc29,tr0,1613,41938).
route(harbor1,prodloc29,tr13,1613,9678).
route(harbor1,prodloc30,tr0,10576,274976).
route(harbor1,prodloc30,tr13,10576,63456).
route(harbor1,prodloc31,tr0,5462,142012).
route(harbor1,prodloc31,tr13,5462,32772).
route(harbor1,prodloc32,tr0,17873,464698).
route(harbor1,prodloc32,tr13,17873,107238).
route(harbor1,prodloc33,tr0,24239,630214).
route(harbor1,prodloc33,tr13,24239,145434).
route(harbor2,harbor0,tr13,4146,24876).
route(harbor2,harbor0,tr2,4146,12438).
route(harbor2,harbor1,tr13,191,1146).
route(harbor2,harbor1,tr2,191,573).
route(harbor2,harbor3,tr13,8160,48960).
route(harbor2,harbor3,tr2,8160,24480).
route(harbor2,harbor4,tr13,28474,170844).
route(harbor2,harbor4,tr2,28474,85422).
route(harbor2,harbor5,tr13,22364,134184).
route(harbor2,harbor5,tr2,22364,67092).
route(harbor2,harbor6,tr13,4936,29616).
route(harbor2,harbor6,tr2,4936,14808).
route(harbor2,harbor7,tr13,2968,17808).
route(harbor2,harbor7,tr2,2968,8904).
route(harbor2,harbor8,tr13,15723,94338).
route(harbor2,harbor8,tr2,15723,47169).
route(harbor2,harbor9,tr13,12208,73248).
route(harbor2,harbor9,tr2,12208,36624).
route(harbor2,harbor10,tr13,2335,14010).
route(harbor2,harbor10,tr2,2335,7005).
route(harbor2,harbor11,tr13,11334,68004).
route(harbor2,harbor11,tr2,11334,34002).
route(harbor2,harbor12,tr13,8682,52092).
route(harbor2,harbor12,tr2,8682,26046).
route(harbor2,harbor13,tr13,26302,157812).
route(harbor2,harbor13,tr2,26302,78906).
route(harbor2,harbor14,tr13,26949,161694).
route(harbor2,harbor14,tr2,26949,80847).
route(harbor2,harbor15,tr13,7034,42204).
route(harbor2,harbor15,tr2,7034,21102).
route(harbor2,harbor16,tr13,1568,9408).
route(harbor2,harbor16,tr2,1568,4704).
route(harbor2,prodloc0,tr0,23541,612066).
route(harbor2,prodloc0,tr13,23541,141246).
route(harbor2,prodloc1,tr0,7794,202644).
route(harbor2,prodloc1,tr13,7794,46764).
route(harbor2,prodloc2,tr0,21844,567944).
route(harbor2,prodloc2,tr13,21844,131064).
route(harbor2,prodloc3,tr0,27130,705380).
route(harbor2,prodloc3,tr13,27130,162780).
route(harbor2,prodloc4,tr0,7824,203424).
route(harbor2,prodloc4,tr13,7824,46944).
route(harbor2,prodloc5,tr0,17037,442962).
route(harbor2,prodloc5,tr13,17037,102222).
route(harbor2,prodloc6,tr0,25763,669838).
route(harbor2,prodloc6,tr13,25763,154578).
route(harbor2,prodloc7,tr0,25019,650494).
route(harbor2,prodloc7,tr13,25019,150114).
route(harbor2,prodloc8,tr0,14437,375362).
route(harbor2,prodloc8,tr13,14437,86622).
route(harbor2,prodloc9,tr0,6393,166218).
route(harbor2,prodloc9,tr13,6393,38358).
route(harbor2,prodloc10,tr0,18787,488462).
route(harbor2,prodloc10,tr13,18787,112722).
route(harbor2,prodloc11,tr0,12882,334932).
route(harbor2,prodloc11,tr13,12882,77292).
route(harbor2,prodloc12,tr0,20337,528762).
route(harbor2,prodloc12,tr13,20337,122022).
route(harbor2,prodloc13,tr0,1778,46228).
route(harbor2,prodloc13,tr13,1778,10668).
route(harbor2,prodloc14,tr0,27515,715390).
route(harbor2,prodloc14,tr13,27515,165090).
route(harbor2,prodloc15,tr0,17929,466154).
route(harbor2,prodloc15,tr13,17929,107574).
route(harbor2,prodloc16,tr0,1704,44304).
route(harbor2,prodloc16,tr13,1704,10224).
route(harbor2,prodloc17,tr0,3782,98332).
route(harbor2,prodloc17,tr13,3782,22692).
route(harbor2,prodloc18,tr0,20099,522574).
route(harbor2,prodloc18,tr13,20099,120594).
route(harbor2,prodloc19,tr0,4496,116896).
route(harbor2,prodloc19,tr13,4496,26976).
route(harbor2,prodloc20,tr0,17495,454870).
route(harbor2,prodloc20,tr13,17495,104970).
route(harbor2,prodloc21,tr0,24905,647530).
route(harbor2,prodloc21,tr13,24905,149430).
route(harbor2,prodloc22,tr0,26623,692198).
route(harbor2,prodloc22,tr13,26623,159738).
route(harbor2,prodloc23,tr0,12150,315900).
route(harbor2,prodloc23,tr13,12150,72900).
route(harbor2,prodloc24,tr0,17486,454636).
route(harbor2,prodloc24,tr13,17486,104916).
route(harbor2,prodloc25,tr0,12996,337896).
route(harbor2,prodloc25,tr13,12996,77976).
route(harbor2,prodloc26,tr0,9816,255216).
route(harbor2,prodloc26,tr13,9816,58896).
route(harbor2,prodloc27,tr0,4884,126984).
route(harbor2,prodloc27,tr13,4884,29304).
route(harbor2,prodloc28,tr0,17876,464776).
route(harbor2,prodloc28,tr13,17876,107256).
route(harbor2,prodloc29,tr0,9762,253812).
route(harbor2,prodloc29,tr13,9762,58572).
route(harbor2,prodloc30,tr0,8546,222196).
route(harbor2,prodloc30,tr13,8546,51276).
route(harbor2,prodloc31,tr0,2849,74074).
route(harbor2,prodloc31,tr13,2849,17094).
route(harbor2,prodloc32,tr0,12213,317538).
route(harbor2,prodloc32,tr13,12213,73278).
route(harbor2,prodloc33,tr0,1708,44408).
route(harbor2,prodloc33,tr13,1708,10248).
route(harbor3,harbor0,tr13,1026,6156).
route(harbor3,harbor0,tr2,1026,3078).
route(harbor3,harbor1,tr13,5503,33018).
route(harbor3,harbor1,tr2,5503,16509).
route(harbor3,harbor2,tr13,23850,143100).
route(harbor3,harbor2,tr2,23850,71550).
route(harbor3,harbor4,tr13,540,3240).
route(harbor3,harbor4,tr2,540,1620).
route(harbor3,harbor5,tr13,3541,21246).
route(harbor3,harbor5,tr2,3541,10623).
route(harbor3,harbor6,tr13,17204,103224).
route(harbor3,harbor6,tr2,17204,51612).
route(harbor3,harbor7,tr13,23496,140976).
route(harbor3,harbor7,tr2,23496,70488).
route(harbor3,harbor8,tr13,8919,53514).
route(harbor3,harbor8,tr2,8919,26757).
route(harbor3,harbor9,tr13,28418,170508).
route(harbor3,harbor9,tr2,28418,85254).
route(harbor3,harbor10,tr13,3009,18054).
route(harbor3,harbor10,tr2,3009,9027).
route(harbor3,harbor11,tr13,10962,65772).
route(harbor3,harbor11,tr2,10962,32886).
route(harbor3,harbor12,tr13,26541,159246).
route(harbor3,harbor12,tr2,26541,79623).
route(harbor3,harbor13,tr13,20588,123528).
route(harbor3,harbor13,tr2,20588,61764).
route(harbor3,harbor14,tr13,13935,83610).
route(harbor3,harbor14,tr2,13935,41805).
route(harbor3,harbor15,tr13,5290,31740).
route(harbor3,harbor15,tr2,5290,15870).
route(harbor3,harbor16,tr13,20416,122496).
route(harbor3,harbor16,tr2,20416,61248).
route(harbor3,prodloc0,tr0,27303,709878).
route(harbor3,prodloc0,tr13,27303,163818).
route(harbor3,prodloc1,tr0,22096,574496).
route(harbor3,prodloc1,tr13,22096,132576).
route(harbor3,prodloc2,tr0,23464,610064).
route(harbor3,prodloc2,tr13,23464,140784).
route(harbor3,prodloc3,tr0,22966,597116).
route(harbor3,prodloc3,tr13,22966,137796).
route(harbor3,prodloc4,tr0,9518,247468).
route(harbor3,prodloc4,tr13,9518,57108).
route(harbor3,prodloc5,tr0,24971,649246).
route(harbor3,prodloc5,tr13,24971,149826).
route(harbor3,prodloc6,tr0,1338,34788).
route(harbor3,prodloc6,tr13,1338,8028).
route(harbor3,prodloc7,tr0,3587,93262).
route(harbor3,prodloc7,tr13,3587,21522).
route(harbor3,prodloc8,tr0,3104,80704).
route(harbor3,prodloc8,tr13,3104,18624).
route(harbor3,prodloc9,tr0,10109,262834).
route(harbor3,prodloc9,tr13,10109,60654).
route(harbor3,prodloc10,tr0,13297,345722).
route(harbor3,prodloc10,tr13,13297,79782).
route(harbor3,prodloc11,tr0,12705,330330).
route(harbor3,prodloc11,tr13,12705,76230).
route(harbor3,prodloc12,tr0,15443,401518).
route(harbor3,prodloc12,tr13,15443,92658).
route(harbor3,prodloc13,tr0,12784,332384).
route(harbor3,prodloc13,tr13,12784,76704).
route(harbor3,prodloc14,tr0,8775,228150).
route(harbor3,prodloc14,tr13,8775,52650).
route(harbor3,prodloc15,tr0,4945,128570).
route(harbor3,prodloc15,tr13,4945,29670).
route(harbor3,prodloc16,tr0,25719,668694).
route(harbor3,prodloc16,tr13,25719,154314).
route(harbor3,prodloc17,tr0,4900,127400).
route(harbor3,prodloc17,tr13,4900,29400).
route(harbor3,prodloc18,tr0,14753,383578).
route(harbor3,prodloc18,tr13,14753,88518).
route(harbor3,prodloc19,tr0,9862,256412).
route(harbor3,prodloc19,tr13,9862,59172).
route(harbor3,prodloc20,tr0,122,3172).
route(harbor3,prodloc20,tr13,122,732).
route(harbor3,prodloc21,tr0,17248,448448).
route(harbor3,prodloc21,tr13,17248,103488).
route(harbor3,prodloc22,tr0,960,24960).
route(harbor3,prodloc22,tr13,960,5760).
route(harbor3,prodloc23,tr0,17441,453466).
route(harbor3,prodloc23,tr13,17441,104646).
route(harbor3,prodloc24,tr0,8489,220714).
route(harbor3,prodloc24,tr13,8489,50934).
route(harbor3,prodloc25,tr0,9054,235404).
route(harbor3,prodloc25,tr13,9054,54324).
route(harbor3,prodloc26,tr0,10879,282854).
route(harbor3,prodloc26,tr13,10879,65274).
route(harbor3,prodloc27,tr0,7419,192894).
route(harbor3,prodloc27,tr13,7419,44514).
route(harbor3,prodloc28,tr0,8105,210730).
route(harbor3,prodloc28,tr13,8105,48630).
route(harbor3,prodloc29,tr0,27857,724282).
route(harbor3,prodloc29,tr13,27857,167142).
route(harbor3,prodloc30,tr0,27970,727220).
route(harbor3,prodloc30,tr13,27970,167820).
route(harbor3,prodloc31,tr0,12289,319514).
route(harbor3,prodloc31,tr13,12289,73734).
route(harbor3,prodloc32,tr0,13638,354588).
route(harbor3,prodloc32,tr13,13638,81828).
route(harbor3,prodloc33,tr0,5132,133432).
route(harbor3,prodloc33,tr13,5132,30792).
route(harbor4,harbor0,tr13,27423,164538).
route(harbor4,harbor0,tr2,27423,82269).
route(harbor4,harbor1,tr13,24994,149964).
route(harbor4,harbor1,tr2,24994,74982).
route(harbor4,harbor2,tr13,26274,157644).
route(harbor4,harbor2,tr2,26274,78822).
route(harbor4,harbor3,tr13,15891,95346).
route(harbor4,harbor3,tr2,15891,47673).
route(harbor4,harbor5,tr13,13438,80628).
route(harbor4,harbor5,tr2,13438,40314).
route(harbor4,harbor6,tr13,8597,51582).
route(harbor4,harbor6,tr2,8597,25791).
route(harbor4,harbor7,tr13,5111,30666).
route(harbor4,harbor7,tr2,5111,15333).
route(harbor4,harbor8,tr13,15138,90828).
route(harbor4,harbor8,tr2,15138,45414).
route(harbor4,harbor9,tr13,18976,113856).
route(harbor4,harbor9,tr2,18976,56928).
route(harbor4,harbor10,tr13,17616,105696).
route(harbor4,harbor10,tr2,17616,52848).
route(harbor4,harbor11,tr13,15206,91236).
route(harbor4,harbor11,tr2,15206,45618).
route(harbor4,harbor12,tr13,6383,38298).
route(harbor4,harbor12,tr2,6383,19149).
route(harbor4,harbor13,tr13,25139,150834).
route(harbor4,harbor13,tr2,25139,75417).
route(harbor4,harbor14,tr13,12336,74016).
route(harbor4,harbor14,tr2,12336,37008).
route(harbor4,harbor15,tr13,23429,140574).
route(harbor4,harbor15,tr2,23429,70287).
route(harbor4,harbor16,tr13,15630,93780).
route(harbor4,harbor16,tr2,15630,46890).
route(harbor4,prodloc0,tr0,27245,708370).
route(harbor4,prodloc0,tr13,27245,163470).
route(harbor4,prodloc1,tr0,6251,162526).
route(harbor4,prodloc1,tr13,6251,37506).
route(harbor4,prodloc2,tr0,954,24804).
route(harbor4,prodloc2,tr13,954,5724).
route(harbor4,prodloc3,tr0,18775,488150).
route(harbor4,prodloc3,tr13,18775,112650).
route(harbor4,prodloc4,tr0,1122,29172).
route(harbor4,prodloc4,tr13,1122,6732).
route(harbor4,prodloc5,tr0,15794,410644).
route(harbor4,prodloc5,tr13,15794,94764).
route(harbor4,prodloc6,tr0,26912,699712).
route(harbor4,prodloc6,tr13,26912,161472).
route(harbor4,prodloc7,tr0,16411,426686).
route(harbor4,prodloc7,tr13,16411,98466).
route(harbor4,prodloc8,tr0,5858,152308).
route(harbor4,prodloc8,tr13,5858,35148).
route(harbor4,prodloc9,tr0,4107,106782).
route(harbor4,prodloc9,tr13,4107,24642).
route(harbor4,prodloc10,tr0,3373,87698).
route(harbor4,prodloc10,tr13,3373,20238).
route(harbor4,prodloc11,tr0,182,4732).
route(harbor4,prodloc11,tr13,182,1092).
route(harbor4,prodloc12,tr0,19298,501748).
route(harbor4,prodloc12,tr13,19298,115788).
route(harbor4,prodloc13,tr0,4357,113282).
route(harbor4,prodloc13,tr13,4357,26142).
route(harbor4,prodloc14,tr0,10070,261820).
route(harbor4,prodloc14,tr13,10070,60420).
route(harbor4,prodloc15,tr0,2645,68770).
route(harbor4,prodloc15,tr13,2645,15870).
route(harbor4,prodloc16,tr0,16285,423410).
route(harbor4,prodloc16,tr13,16285,97710).
route(harbor4,prodloc17,tr0,18718,486668).
route(harbor4,prodloc17,tr13,18718,112308).
route(harbor4,prodloc18,tr0,17086,444236).
route(harbor4,prodloc18,tr13,17086,102516).
route(harbor4,prodloc19,tr0,23748,617448).
route(harbor4,prodloc19,tr13,23748,142488).
route(harbor4,prodloc20,tr0,27347,711022).
route(harbor4,prodloc20,tr13,27347,164082).
route(harbor4,prodloc21,tr0,1817,47242).
route(harbor4,prodloc21,tr13,1817,10902).
route(harbor4,prodloc22,tr0,7024,182624).
route(harbor4,prodloc22,tr13,7024,42144).
route(harbor4,prodloc23,tr0,23116,601016).
route(harbor4,prodloc23,tr13,23116,138696).
route(harbor4,prodloc24,tr0,24425,635050).
route(harbor4,prodloc24,tr13,24425,146550).
route(harbor4,prodloc25,tr0,21269,552994).
route(harbor4,prodloc25,tr13,21269,127614).
route(harbor4,prodloc26,tr0,22654,589004).
route(harbor4,prodloc26,tr13,22654,135924).
route(harbor4,prodloc27,tr0,14041,365066).
route(harbor4,prodloc27,tr13,14041,84246).
route(harbor4,prodloc28,tr0,887,23062).
route(harbor4,prodloc28,tr13,887,5322).
route(harbor4,prodloc29,tr0,17422,452972).
route(harbor4,prodloc29,tr13,17422,104532).
route(harbor4,prodloc30,tr0,723,18798).
route(harbor4,prodloc30,tr13,723,4338).
route(harbor4,prodloc31,tr0,25459,661934).
route(harbor4,prodloc31,tr13,25459,152754).
route(harbor4,prodloc32,tr0,28256,734656).
route(harbor4,prodloc32,tr13,28256,169536).
route(harbor4,prodloc33,tr0,22321,580346).
route(harbor4,prodloc33,tr13,22321,133926).
route(harbor5,harbor0,tr13,4729,28374).
route(harbor5,harbor0,tr2,4729,14187).
route(harbor5,harbor1,tr13,9799,58794).
route(harbor5,harbor1,tr2,9799,29397).
route(harbor5,harbor2,tr13,27546,165276).
route(harbor5,harbor2,tr2,27546,82638).
route(harbor5,harbor3,tr13,20327,121962).
route(harbor5,harbor3,tr2,20327,60981).
route(harbor5,harbor4,tr13,5067,30402).
route(harbor5,harbor4,tr2,5067,15201).
route(harbor5,harbor6,tr13,21340,128040).
route(harbor5,harbor6,tr2,21340,64020).
route(harbor5,harbor7,tr13,1785,10710).
route(harbor5,harbor7,tr2,1785,5355).
route(harbor5,harbor8,tr13,24015,144090).
route(harbor5,harbor8,tr2,24015,72045).
route(harbor5,harbor9,tr13,16436,98616).
route(harbor5,harbor9,tr2,16436,49308).
route(harbor5,harbor10,tr13,14053,84318).
route(harbor5,harbor10,tr2,14053,42159).
route(harbor5,harbor11,tr13,24633,147798).
route(harbor5,harbor11,tr2,24633,73899).
route(harbor5,harbor12,tr13,8464,50784).
route(harbor5,harbor12,tr2,8464,25392).
route(harbor5,harbor13,tr13,7426,44556).
route(harbor5,harbor13,tr2,7426,22278).
route(harbor5,harbor14,tr13,15971,95826).
route(harbor5,harbor14,tr2,15971,47913).
route(harbor5,harbor15,tr13,734,4404).
route(harbor5,harbor15,tr2,734,2202).
route(harbor5,harbor16,tr13,19954,119724).
route(harbor5,harbor16,tr2,19954,59862).
route(harbor5,prodloc0,tr0,3080,80080).
route(harbor5,prodloc0,tr13,3080,18480).
route(harbor5,prodloc1,tr0,7986,207636).
route(harbor5,prodloc1,tr13,7986,47916).
route(harbor5,prodloc2,tr0,10367,269542).
route(harbor5,prodloc2,tr13,10367,62202).
route(harbor5,prodloc3,tr0,17380,451880).
route(harbor5,prodloc3,tr13,17380,104280).
route(harbor5,prodloc4,tr0,16517,429442).
route(harbor5,prodloc4,tr13,16517,99102).
route(harbor5,prodloc5,tr0,316,8216).
route(harbor5,prodloc5,tr13,316,1896).
route(harbor5,prodloc6,tr0,18722,486772).
route(harbor5,prodloc6,tr13,18722,112332).
route(harbor5,prodloc7,tr0,14727,382902).
route(harbor5,prodloc7,tr13,14727,88362).
route(harbor5,prodloc8,tr0,24898,647348).
route(harbor5,prodloc8,tr13,24898,149388).
route(harbor5,prodloc9,tr0,11140,289640).
route(harbor5,prodloc9,tr13,11140,66840).
route(harbor5,prodloc10,tr0,21397,556322).
route(harbor5,prodloc10,tr13,21397,128382).
route(harbor5,prodloc11,tr0,7225,187850).
route(harbor5,prodloc11,tr13,7225,43350).
route(harbor5,prodloc12,tr0,19929,518154).
route(harbor5,prodloc12,tr13,19929,119574).
route(harbor5,prodloc13,tr0,1667,43342).
route(harbor5,prodloc13,tr13,1667,10002).
route(harbor5,prodloc14,tr0,17192,446992).
route(harbor5,prodloc14,tr13,17192,103152).
route(harbor5,prodloc15,tr0,22959,596934).
route(harbor5,prodloc15,tr13,22959,137754).
route(harbor5,prodloc16,tr0,14000,364000).
route(harbor5,prodloc16,tr13,14000,84000).
route(harbor5,prodloc17,tr0,7716,200616).
route(harbor5,prodloc17,tr13,7716,46296).
route(harbor5,prodloc18,tr0,16714,434564).
route(harbor5,prodloc18,tr13,16714,100284).
route(harbor5,prodloc19,tr0,24268,630968).
route(harbor5,prodloc19,tr13,24268,145608).
route(harbor5,prodloc20,tr0,418,10868).
route(harbor5,prodloc20,tr13,418,2508).
route(harbor5,prodloc21,tr0,3291,85566).
route(harbor5,prodloc21,tr13,3291,19746).
route(harbor5,prodloc22,tr0,12092,314392).
route(harbor5,prodloc22,tr13,12092,72552).
route(harbor5,prodloc23,tr0,4863,126438).
route(harbor5,prodloc23,tr13,4863,29178).
route(harbor5,prodloc24,tr0,15297,397722).
route(harbor5,prodloc24,tr13,15297,91782).
route(harbor5,prodloc25,tr0,26773,696098).
route(harbor5,prodloc25,tr13,26773,160638).
route(harbor5,prodloc26,tr0,11551,300326).
route(harbor5,prodloc26,tr13,11551,69306).
route(harbor5,prodloc27,tr0,27241,708266).
route(harbor5,prodloc27,tr13,27241,163446).
route(harbor5,prodloc28,tr0,4370,113620).
route(harbor5,prodloc28,tr13,4370,26220).
route(harbor5,prodloc29,tr0,22328,580528).
route(harbor5,prodloc29,tr13,22328,133968).
route(harbor5,prodloc30,tr0,11299,293774).
route(harbor5,prodloc30,tr13,11299,67794).
route(harbor5,prodloc31,tr0,23622,614172).
route(harbor5,prodloc31,tr13,23622,141732).
route(harbor5,prodloc32,tr0,7427,193102).
route(harbor5,prodloc32,tr13,7427,44562).
route(harbor5,prodloc33,tr0,21864,568464).
route(harbor5,prodloc33,tr13,21864,131184).
route(harbor6,harbor0,tr13,9319,55914).
route(harbor6,harbor0,tr2,9319,27957).
route(harbor6,harbor1,tr13,19386,116316).
route(harbor6,harbor1,tr2,19386,58158).
route(harbor6,harbor2,tr13,3072,18432).
route(harbor6,harbor2,tr2,3072,9216).
route(harbor6,harbor3,tr13,8457,50742).
route(harbor6,harbor3,tr2,8457,25371).
route(harbor6,harbor4,tr13,23388,140328).
route(harbor6,harbor4,tr2,23388,70164).
route(harbor6,harbor5,tr13,4405,26430).
route(harbor6,harbor5,tr2,4405,13215).
route(harbor6,harbor7,tr13,4137,24822).
route(harbor6,harbor7,tr2,4137,12411).
route(harbor6,harbor8,tr13,23826,142956).
route(harbor6,harbor8,tr2,23826,71478).
route(harbor6,harbor9,tr13,5876,35256).
route(harbor6,harbor9,tr2,5876,17628).
route(harbor6,harbor10,tr13,19576,117456).
route(harbor6,harbor10,tr2,19576,58728).
route(harbor6,harbor11,tr13,3453,20718).
route(harbor6,harbor11,tr2,3453,10359).
route(harbor6,harbor12,tr13,1880,11280).
route(harbor6,harbor12,tr2,1880,5640).
route(harbor6,harbor13,tr13,17946,107676).
route(harbor6,harbor13,tr2,17946,53838).
route(harbor6,harbor14,tr13,21057,126342).
route(harbor6,harbor14,tr2,21057,63171).
route(harbor6,harbor15,tr13,4673,28038).
route(harbor6,harbor15,tr2,4673,14019).
route(harbor6,harbor16,tr13,20020,120120).
route(harbor6,harbor16,tr2,20020,60060).
route(harbor6,prodloc0,tr0,24097,626522).
route(harbor6,prodloc0,tr13,24097,144582).
route(harbor6,prodloc1,tr0,16764,435864).
route(harbor6,prodloc1,tr13,16764,100584).
route(harbor6,prodloc2,tr0,855,22230).
route(harbor6,prodloc2,tr13,855,5130).
route(harbor6,prodloc3,tr0,25398,660348).
route(harbor6,prodloc3,tr13,25398,152388).
route(harbor6,prodloc4,tr0,15139,393614).
route(harbor6,prodloc4,tr13,15139,90834).
route(harbor6,prodloc5,tr0,28717,746642).
route(harbor6,prodloc5,tr13,28717,172302).
route(harbor6,prodloc6,tr0,11677,303602).
route(harbor6,prodloc6,tr13,11677,70062).
route(harbor6,prodloc7,tr0,12490,324740).
route(harbor6,prodloc7,tr13,12490,74940).
route(harbor6,prodloc8,tr0,18943,492518).
route(harbor6,prodloc8,tr13,18943,113658).
route(harbor6,prodloc9,tr0,26698,694148).
route(harbor6,prodloc9,tr13,26698,160188).
route(harbor6,prodloc10,tr0,18714,486564).
route(harbor6,prodloc10,tr13,18714,112284).
route(harbor6,prodloc11,tr0,16361,425386).
route(harbor6,prodloc11,tr13,16361,98166).
route(harbor6,prodloc12,tr0,26376,685776).
route(harbor6,prodloc12,tr13,26376,158256).
route(harbor6,prodloc13,tr0,18742,487292).
route(harbor6,prodloc13,tr13,18742,112452).
route(harbor6,prodloc14,tr0,16820,437320).
route(harbor6,prodloc14,tr13,16820,100920).
route(harbor6,prodloc15,tr0,13563,352638).
route(harbor6,prodloc15,tr13,13563,81378).
route(harbor6,prodloc16,tr0,2210,57460).
route(harbor6,prodloc16,tr13,2210,13260).
route(harbor6,prodloc17,tr0,28153,731978).
route(harbor6,prodloc17,tr13,28153,168918).
route(harbor6,prodloc18,tr0,14565,378690).
route(harbor6,prodloc18,tr13,14565,87390).
route(harbor6,prodloc19,tr0,17279,449254).
route(harbor6,prodloc19,tr13,17279,103674).
route(harbor6,prodloc20,tr0,9192,238992).
route(harbor6,prodloc20,tr13,9192,55152).
route(harbor6,prodloc21,tr0,11085,288210).
route(harbor6,prodloc21,tr13,11085,66510).
route(harbor6,prodloc22,tr0,12439,323414).
route(harbor6,prodloc22,tr13,12439,74634).
route(harbor6,prodloc23,tr0,22032,572832).
route(harbor6,prodloc23,tr13,22032,132192).
route(harbor6,prodloc24,tr0,4084,106184).
route(harbor6,prodloc24,tr13,4084,24504).
route(harbor6,prodloc25,tr0,6741,175266).
route(harbor6,prodloc25,tr13,6741,40446).
route(harbor6,prodloc26,tr0,22403,582478).
route(harbor6,prodloc26,tr13,22403,134418).
route(harbor6,prodloc27,tr0,10728,278928).
route(harbor6,prodloc27,tr13,10728,64368).
route(harbor6,prodloc28,tr0,12299,319774).
route(harbor6,prodloc28,tr13,12299,73794).
route(harbor6,prodloc29,tr0,19005,494130).
route(harbor6,prodloc29,tr13,19005,114030).
route(harbor6,prodloc30,tr0,2548,66248).
route(harbor6,prodloc30,tr13,2548,15288).
route(harbor6,prodloc31,tr0,25093,652418).
route(harbor6,prodloc31,tr13,25093,150558).
route(harbor6,prodloc32,tr0,15677,407602).
route(harbor6,prodloc32,tr13,15677,94062).
route(harbor6,prodloc33,tr0,13577,353002).
route(harbor6,prodloc33,tr13,13577,81462).
route(harbor7,harbor0,tr13,9865,59190).
route(harbor7,harbor0,tr2,9865,29595).
route(harbor7,harbor1,tr13,26704,160224).
route(harbor7,harbor1,tr2,26704,80112).
route(harbor7,harbor2,tr13,25731,154386).
route(harbor7,harbor2,tr2,25731,77193).
route(harbor7,harbor3,tr13,889,5334).
route(harbor7,harbor3,tr2,889,2667).
route(harbor7,harbor4,tr13,23396,140376).
route(harbor7,harbor4,tr2,23396,70188).
route(harbor7,harbor5,tr13,14700,88200).
route(harbor7,harbor5,tr2,14700,44100).
route(harbor7,harbor6,tr13,12794,76764).
route(harbor7,harbor6,tr2,12794,38382).
route(harbor7,harbor8,tr13,13481,80886).
route(harbor7,harbor8,tr2,13481,40443).
route(harbor7,harbor9,tr13,15806,94836).
route(harbor7,harbor9,tr2,15806,47418).
route(harbor7,harbor10,tr13,18517,111102).
route(harbor7,harbor10,tr2,18517,55551).
route(harbor7,harbor11,tr13,24596,147576).
route(harbor7,harbor11,tr2,24596,73788).
route(harbor7,harbor12,tr13,2026,12156).
route(harbor7,harbor12,tr2,2026,6078).
route(harbor7,harbor13,tr13,2648,15888).
route(harbor7,harbor13,tr2,2648,7944).
route(harbor7,harbor14,tr13,8235,49410).
route(harbor7,harbor14,tr2,8235,24705).
route(harbor7,harbor15,tr13,7091,42546).
route(harbor7,harbor15,tr2,7091,21273).
route(harbor7,harbor16,tr13,135,810).
route(harbor7,harbor16,tr2,135,405).
route(harbor7,prodloc0,tr0,4779,124254).
route(harbor7,prodloc0,tr13,4779,28674).
route(harbor7,prodloc1,tr0,17447,453622).
route(harbor7,prodloc1,tr13,17447,104682).
route(harbor7,prodloc2,tr0,10638,276588).
route(harbor7,prodloc2,tr13,10638,63828).
route(harbor7,prodloc3,tr0,9829,255554).
route(harbor7,prodloc3,tr13,9829,58974).
route(harbor7,prodloc4,tr0,27531,715806).
route(harbor7,prodloc4,tr13,27531,165186).
route(harbor7,prodloc5,tr0,17399,452374).
route(harbor7,prodloc5,tr13,17399,104394).
route(harbor7,prodloc6,tr0,6809,177034).
route(harbor7,prodloc6,tr13,6809,40854).
route(harbor7,prodloc7,tr0,14139,367614).
route(harbor7,prodloc7,tr13,14139,84834).
route(harbor7,prodloc8,tr0,18401,478426).
route(harbor7,prodloc8,tr13,18401,110406).
route(harbor7,prodloc9,tr0,9655,251030).
route(harbor7,prodloc9,tr13,9655,57930).
route(harbor7,prodloc10,tr0,371,9646).
route(harbor7,prodloc10,tr13,371,2226).
route(harbor7,prodloc11,tr0,6681,173706).
route(harbor7,prodloc11,tr13,6681,40086).
route(harbor7,prodloc12,tr0,20611,535886).
route(harbor7,prodloc12,tr13,20611,123666).
route(harbor7,prodloc13,tr0,28716,746616).
route(harbor7,prodloc13,tr13,28716,172296).
route(harbor7,prodloc14,tr0,2921,75946).
route(harbor7,prodloc14,tr13,2921,17526).
route(harbor7,prodloc15,tr0,24565,638690).
route(harbor7,prodloc15,tr13,24565,147390).
route(harbor7,prodloc16,tr0,3700,96200).
route(harbor7,prodloc16,tr13,3700,22200).
route(harbor7,prodloc17,tr0,21500,559000).
route(harbor7,prodloc17,tr13,21500,129000).
route(harbor7,prodloc18,tr0,4215,109590).
route(harbor7,prodloc18,tr13,4215,25290).
route(harbor7,prodloc19,tr0,2194,57044).
route(harbor7,prodloc19,tr13,2194,13164).
route(harbor7,prodloc20,tr0,18174,472524).
route(harbor7,prodloc20,tr13,18174,109044).
route(harbor7,prodloc21,tr0,12671,329446).
route(harbor7,prodloc21,tr13,12671,76026).
route(harbor7,prodloc22,tr0,20578,535028).
route(harbor7,prodloc22,tr13,20578,123468).
route(harbor7,prodloc23,tr0,6961,180986).
route(harbor7,prodloc23,tr13,6961,41766).
route(harbor7,prodloc24,tr0,10271,267046).
route(harbor7,prodloc24,tr13,10271,61626).
route(harbor7,prodloc25,tr0,5215,135590).
route(harbor7,prodloc25,tr13,5215,31290).
route(harbor7,prodloc26,tr0,515,13390).
route(harbor7,prodloc26,tr13,515,3090).
route(harbor7,prodloc27,tr0,5244,136344).
route(harbor7,prodloc27,tr13,5244,31464).
route(harbor7,prodloc28,tr0,22881,594906).
route(harbor7,prodloc28,tr13,22881,137286).
route(harbor7,prodloc29,tr0,6071,157846).
route(harbor7,prodloc29,tr13,6071,36426).
route(harbor7,prodloc30,tr0,1616,42016).
route(harbor7,prodloc30,tr13,1616,9696).
route(harbor7,prodloc31,tr0,1822,47372).
route(harbor7,prodloc31,tr13,1822,10932).
route(harbor7,prodloc32,tr0,7585,197210).
route(harbor7,prodloc32,tr13,7585,45510).
route(harbor7,prodloc33,tr0,14336,372736).
route(harbor7,prodloc33,tr13,14336,86016).
route(harbor8,harbor0,tr13,18558,111348).
route(harbor8,harbor0,tr2,18558,55674).
route(harbor8,harbor1,tr13,28980,173880).
route(harbor8,harbor1,tr2,28980,86940).
route(harbor8,harbor2,tr13,5868,35208).
route(harbor8,harbor2,tr2,5868,17604).
route(harbor8,harbor3,tr13,21638,129828).
route(harbor8,harbor3,tr2,21638,64914).
route(harbor8,harbor4,tr13,25255,151530).
route(harbor8,harbor4,tr2,25255,75765).
route(harbor8,harbor5,tr13,23256,139536).
route(harbor8,harbor5,tr2,23256,69768).
route(harbor8,harbor6,tr13,13445,80670).
route(harbor8,harbor6,tr2,13445,40335).
route(harbor8,harbor7,tr13,22985,137910).
route(harbor8,harbor7,tr2,22985,68955).
route(harbor8,harbor9,tr13,2673,16038).
route(harbor8,harbor9,tr2,2673,8019).
route(harbor8,harbor10,tr13,26150,156900).
route(harbor8,harbor10,tr2,26150,78450).
route(harbor8,harbor11,tr13,15985,95910).
route(harbor8,harbor11,tr2,15985,47955).
route(harbor8,harbor12,tr13,27982,167892).
route(harbor8,harbor12,tr2,27982,83946).
route(harbor8,harbor13,tr13,16848,101088).
route(harbor8,harbor13,tr2,16848,50544).
route(harbor8,harbor14,tr13,5110,30660).
route(harbor8,harbor14,tr2,5110,15330).
route(harbor8,harbor15,tr13,3678,22068).
route(harbor8,harbor15,tr2,3678,11034).
route(harbor8,harbor16,tr13,1800,10800).
route(harbor8,harbor16,tr2,1800,5400).
route(harbor8,prodloc0,tr0,11427,297102).
route(harbor8,prodloc0,tr13,11427,68562).
route(harbor8,prodloc1,tr0,20348,529048).
route(harbor8,prodloc1,tr13,20348,122088).
route(harbor8,prodloc2,tr0,1699,44174).
route(harbor8,prodloc2,tr13,1699,10194).
route(harbor8,prodloc3,tr0,17002,442052).
route(harbor8,prodloc3,tr13,17002,102012).
route(harbor8,prodloc4,tr0,26879,698854).
route(harbor8,prodloc4,tr13,26879,161274).
route(harbor8,prodloc5,tr0,17073,443898).
route(harbor8,prodloc5,tr13,17073,102438).
route(harbor8,prodloc6,tr0,25516,663416).
route(harbor8,prodloc6,tr13,25516,153096).
route(harbor8,prodloc7,tr0,25621,666146).
route(harbor8,prodloc7,tr13,25621,153726).
route(harbor8,prodloc8,tr0,24575,638950).
route(harbor8,prodloc8,tr13,24575,147450).
route(harbor8,prodloc9,tr0,5711,148486).
route(harbor8,prodloc9,tr13,5711,34266).
route(harbor8,prodloc10,tr0,3001,78026).
route(harbor8,prodloc10,tr13,3001,18006).
route(harbor8,prodloc11,tr0,23139,601614).
route(harbor8,prodloc11,tr13,23139,138834).
route(harbor8,prodloc12,tr0,25410,660660).
route(harbor8,prodloc12,tr13,25410,152460).
route(harbor8,prodloc13,tr0,13976,363376).
route(harbor8,prodloc13,tr13,13976,83856).
route(harbor8,prodloc14,tr0,9991,259766).
route(harbor8,prodloc14,tr13,9991,59946).
route(harbor8,prodloc15,tr0,13817,359242).
route(harbor8,prodloc15,tr13,13817,82902).
route(harbor8,prodloc16,tr0,9748,253448).
route(harbor8,prodloc16,tr13,9748,58488).
route(harbor8,prodloc17,tr0,8020,208520).
route(harbor8,prodloc17,tr13,8020,48120).
route(harbor8,prodloc18,tr0,8594,223444).
route(harbor8,prodloc18,tr13,8594,51564).
route(harbor8,prodloc19,tr0,9228,239928).
route(harbor8,prodloc19,tr13,9228,55368).
route(harbor8,prodloc20,tr0,26413,686738).
route(harbor8,prodloc20,tr13,26413,158478).
route(harbor8,prodloc21,tr0,18973,493298).
route(harbor8,prodloc21,tr13,18973,113838).
route(harbor8,prodloc22,tr0,23441,609466).
route(harbor8,prodloc22,tr13,23441,140646).
route(harbor8,prodloc23,tr0,18154,472004).
route(harbor8,prodloc23,tr13,18154,108924).
route(harbor8,prodloc24,tr0,13688,355888).
route(harbor8,prodloc24,tr13,13688,82128).
route(harbor8,prodloc25,tr0,9272,241072).
route(harbor8,prodloc25,tr13,9272,55632).
route(harbor8,prodloc26,tr0,9182,238732).
route(harbor8,prodloc26,tr13,9182,55092).
route(harbor8,prodloc27,tr0,24355,633230).
route(harbor8,prodloc27,tr13,24355,146130).
route(harbor8,prodloc28,tr0,23451,609726).
route(harbor8,prodloc28,tr13,23451,140706).
route(harbor8,prodloc29,tr0,6941,180466).
route(harbor8,prodloc29,tr13,6941,41646).
route(harbor8,prodloc30,tr0,3179,82654).
route(harbor8,prodloc30,tr13,3179,19074).
route(harbor8,prodloc31,tr0,27505,715130).
route(harbor8,prodloc31,tr13,27505,165030).
route(harbor8,prodloc32,tr0,21366,555516).
route(harbor8,prodloc32,tr13,21366,128196).
route(harbor8,prodloc33,tr0,2770,72020).
route(harbor8,prodloc33,tr13,2770,16620).
route(harbor9,harbor0,tr13,5295,31770).
route(harbor9,harbor0,tr2,5295,15885).
route(harbor9,harbor1,tr13,1571,9426).
route(harbor9,harbor1,tr2,1571,4713).
route(harbor9,harbor2,tr13,28131,168786).
route(harbor9,harbor2,tr2,28131,84393).
route(harbor9,harbor3,tr13,3942,23652).
route(harbor9,harbor3,tr2,3942,11826).
route(harbor9,harbor4,tr13,24690,148140).
route(harbor9,harbor4,tr2,24690,74070).
route(harbor9,harbor5,tr13,8366,50196).
route(harbor9,harbor5,tr2,8366,25098).
route(harbor9,harbor6,tr13,4930,29580).
route(harbor9,harbor6,tr2,4930,14790).
route(harbor9,harbor7,tr13,26513,159078).
route(harbor9,harbor7,tr2,26513,79539).
route(harbor9,harbor8,tr13,7227,43362).
route(harbor9,harbor8,tr2,7227,21681).
route(harbor9,harbor10,tr13,20495,122970).
route(harbor9,harbor10,tr2,20495,61485).
route(harbor9,harbor11,tr13,10037,60222).
route(harbor9,harbor11,tr2,10037,30111).
route(harbor9,harbor12,tr13,3312,19872).
route(harbor9,harbor12,tr2,3312,9936).
route(harbor9,harbor13,tr13,3411,20466).
route(harbor9,harbor13,tr2,3411,10233).
route(harbor9,harbor14,tr13,16185,97110).
route(harbor9,harbor14,tr2,16185,48555).
route(harbor9,harbor15,tr13,14497,86982).
route(harbor9,harbor15,tr2,14497,43491).
route(harbor9,harbor16,tr13,19650,117900).
route(harbor9,harbor16,tr2,19650,58950).
route(harbor9,prodloc0,tr0,3420,88920).
route(harbor9,prodloc0,tr13,3420,20520).
route(harbor9,prodloc1,tr0,1506,39156).
route(harbor9,prodloc1,tr13,1506,9036).
route(harbor9,prodloc2,tr0,23083,600158).
route(harbor9,prodloc2,tr13,23083,138498).
route(harbor9,prodloc3,tr0,18860,490360).
route(harbor9,prodloc3,tr13,18860,113160).
route(harbor9,prodloc4,tr0,17862,464412).
route(harbor9,prodloc4,tr13,17862,107172).
route(harbor9,prodloc5,tr0,13767,357942).
route(harbor9,prodloc5,tr13,13767,82602).
route(harbor9,prodloc6,tr0,4485,116610).
route(harbor9,prodloc6,tr13,4485,26910).
route(harbor9,prodloc7,tr0,23263,604838).
route(harbor9,prodloc7,tr13,23263,139578).
route(harbor9,prodloc8,tr0,15652,406952).
route(harbor9,prodloc8,tr13,15652,93912).
route(harbor9,prodloc9,tr0,7648,198848).
route(harbor9,prodloc9,tr13,7648,45888).
route(harbor9,prodloc10,tr0,15669,407394).
route(harbor9,prodloc10,tr13,15669,94014).
route(harbor9,prodloc11,tr0,10870,282620).
route(harbor9,prodloc11,tr13,10870,65220).
route(harbor9,prodloc12,tr0,27565,716690).
route(harbor9,prodloc12,tr13,27565,165390).
route(harbor9,prodloc13,tr0,11914,309764).
route(harbor9,prodloc13,tr13,11914,71484).
route(harbor9,prodloc14,tr0,4094,106444).
route(harbor9,prodloc14,tr13,4094,24564).
route(harbor9,prodloc15,tr0,68,1768).
route(harbor9,prodloc15,tr13,68,408).
route(harbor9,prodloc16,tr0,23349,607074).
route(harbor9,prodloc16,tr13,23349,140094).
route(harbor9,prodloc17,tr0,16057,417482).
route(harbor9,prodloc17,tr13,16057,96342).
route(harbor9,prodloc18,tr0,2893,75218).
route(harbor9,prodloc18,tr13,2893,17358).
route(harbor9,prodloc19,tr0,22820,593320).
route(harbor9,prodloc19,tr13,22820,136920).
route(harbor9,prodloc20,tr0,3315,86190).
route(harbor9,prodloc20,tr13,3315,19890).
route(harbor9,prodloc21,tr0,25213,655538).
route(harbor9,prodloc21,tr13,25213,151278).
route(harbor9,prodloc22,tr0,26146,679796).
route(harbor9,prodloc22,tr13,26146,156876).
route(harbor9,prodloc23,tr0,28039,729014).
route(harbor9,prodloc23,tr13,28039,168234).
route(harbor9,prodloc24,tr0,26819,697294).
route(harbor9,prodloc24,tr13,26819,160914).
route(harbor9,prodloc25,tr0,8811,229086).
route(harbor9,prodloc25,tr13,8811,52866).
route(harbor9,prodloc26,tr0,14666,381316).
route(harbor9,prodloc26,tr13,14666,87996).
route(harbor9,prodloc27,tr0,503,13078).
route(harbor9,prodloc27,tr13,503,3018).
route(harbor9,prodloc28,tr0,13810,359060).
route(harbor9,prodloc28,tr13,13810,82860).
route(harbor9,prodloc29,tr0,4563,118638).
route(harbor9,prodloc29,tr13,4563,27378).
route(harbor9,prodloc30,tr0,23142,601692).
route(harbor9,prodloc30,tr13,23142,138852).
route(harbor9,prodloc31,tr0,41,1066).
route(harbor9,prodloc31,tr13,41,246).
route(harbor9,prodloc32,tr0,20714,538564).
route(harbor9,prodloc32,tr13,20714,124284).
route(harbor9,prodloc33,tr0,17057,443482).
route(harbor9,prodloc33,tr13,17057,102342).
route(harbor10,harbor0,tr13,4626,27756).
route(harbor10,harbor0,tr2,4626,13878).
route(harbor10,harbor1,tr13,8019,48114).
route(harbor10,harbor1,tr2,8019,24057).
route(harbor10,harbor2,tr13,11428,68568).
route(harbor10,harbor2,tr2,11428,34284).
route(harbor10,harbor3,tr13,4978,29868).
route(harbor10,harbor3,tr2,4978,14934).
route(harbor10,harbor4,tr13,14073,84438).
route(harbor10,harbor4,tr2,14073,42219).
route(harbor10,harbor5,tr13,14326,85956).
route(harbor10,harbor5,tr2,14326,42978).
route(harbor10,harbor6,tr13,661,3966).
route(harbor10,harbor6,tr2,661,1983).
route(harbor10,harbor7,tr13,11724,70344).
route(harbor10,harbor7,tr2,11724,35172).
route(harbor10,harbor8,tr13,11901,71406).
route(harbor10,harbor8,tr2,11901,35703).
route(harbor10,harbor9,tr13,10792,64752).
route(harbor10,harbor9,tr2,10792,32376).
route(harbor10,harbor11,tr13,24657,147942).
route(harbor10,harbor11,tr2,24657,73971).
route(harbor10,harbor12,tr13,11465,68790).
route(harbor10,harbor12,tr2,11465,34395).
route(harbor10,harbor13,tr13,24498,146988).
route(harbor10,harbor13,tr2,24498,73494).
route(harbor10,harbor14,tr13,6350,38100).
route(harbor10,harbor14,tr2,6350,19050).
route(harbor10,harbor15,tr13,3534,21204).
route(harbor10,harbor15,tr2,3534,10602).
route(harbor10,harbor16,tr13,4878,29268).
route(harbor10,harbor16,tr2,4878,14634).
route(harbor10,prodloc0,tr0,24319,632294).
route(harbor10,prodloc0,tr13,24319,145914).
route(harbor10,prodloc1,tr0,5243,136318).
route(harbor10,prodloc1,tr13,5243,31458).
route(harbor10,prodloc2,tr0,18464,480064).
route(harbor10,prodloc2,tr13,18464,110784).
route(harbor10,prodloc3,tr0,5550,144300).
route(harbor10,prodloc3,tr13,5550,33300).
route(harbor10,prodloc4,tr0,20644,536744).
route(harbor10,prodloc4,tr13,20644,123864).
route(harbor10,prodloc5,tr0,14004,364104).
route(harbor10,prodloc5,tr13,14004,84024).
route(harbor10,prodloc6,tr0,1859,48334).
route(harbor10,prodloc6,tr13,1859,11154).
route(harbor10,prodloc7,tr0,26171,680446).
route(harbor10,prodloc7,tr13,26171,157026).
route(harbor10,prodloc8,tr0,19639,510614).
route(harbor10,prodloc8,tr13,19639,117834).
route(harbor10,prodloc9,tr0,14165,368290).
route(harbor10,prodloc9,tr13,14165,84990).
route(harbor10,prodloc10,tr0,25229,655954).
route(harbor10,prodloc10,tr13,25229,151374).
route(harbor10,prodloc11,tr0,4038,104988).
route(harbor10,prodloc11,tr13,4038,24228).
route(harbor10,prodloc12,tr0,16117,419042).
route(harbor10,prodloc12,tr13,16117,96702).
route(harbor10,prodloc13,tr0,13445,349570).
route(harbor10,prodloc13,tr13,13445,80670).
route(harbor10,prodloc14,tr0,18078,470028).
route(harbor10,prodloc14,tr13,18078,108468).
route(harbor10,prodloc15,tr0,6829,177554).
route(harbor10,prodloc15,tr13,6829,40974).
route(harbor10,prodloc16,tr0,26787,696462).
route(harbor10,prodloc16,tr13,26787,160722).
route(harbor10,prodloc17,tr0,5054,131404).
route(harbor10,prodloc17,tr13,5054,30324).
route(harbor10,prodloc18,tr0,20299,527774).
route(harbor10,prodloc18,tr13,20299,121794).
route(harbor10,prodloc19,tr0,12338,320788).
route(harbor10,prodloc19,tr13,12338,74028).
route(harbor10,prodloc20,tr0,26205,681330).
route(harbor10,prodloc20,tr13,26205,157230).
route(harbor10,prodloc21,tr0,670,17420).
route(harbor10,prodloc21,tr13,670,4020).
route(harbor10,prodloc22,tr0,13047,339222).
route(harbor10,prodloc22,tr13,13047,78282).
route(harbor10,prodloc23,tr0,25877,672802).
route(harbor10,prodloc23,tr13,25877,155262).
route(harbor10,prodloc24,tr0,12905,335530).
route(harbor10,prodloc24,tr13,12905,77430).
route(harbor10,prodloc25,tr0,11149,289874).
route(harbor10,prodloc25,tr13,11149,66894).
route(harbor10,prodloc26,tr0,14060,365560).
route(harbor10,prodloc26,tr13,14060,84360).
route(harbor10,prodloc27,tr0,13115,340990).
route(harbor10,prodloc27,tr13,13115,78690).
route(harbor10,prodloc28,tr0,9424,245024).
route(harbor10,prodloc28,tr13,9424,56544).
route(harbor10,prodloc29,tr0,2636,68536).
route(harbor10,prodloc29,tr13,2636,15816).
route(harbor10,prodloc30,tr0,18199,473174).
route(harbor10,prodloc30,tr13,18199,109194).
route(harbor10,prodloc31,tr0,7943,206518).
route(harbor10,prodloc31,tr13,7943,47658).
route(harbor10,prodloc32,tr0,13140,341640).
route(harbor10,prodloc32,tr13,13140,78840).
route(harbor10,prodloc33,tr0,5522,143572).
route(harbor10,prodloc33,tr13,5522,33132).
route(harbor11,harbor0,tr13,27358,164148).
route(harbor11,harbor0,tr2,27358,82074).
route(harbor11,harbor1,tr13,19497,116982).
route(harbor11,harbor1,tr2,19497,58491).
route(harbor11,harbor2,tr13,24641,147846).
route(harbor11,harbor2,tr2,24641,73923).
route(harbor11,harbor3,tr13,18326,109956).
route(harbor11,harbor3,tr2,18326,54978).
route(harbor11,harbor4,tr13,1642,9852).
route(harbor11,harbor4,tr2,1642,4926).
route(harbor11,harbor5,tr13,25687,154122).
route(harbor11,harbor5,tr2,25687,77061).
route(harbor11,harbor6,tr13,15147,90882).
route(harbor11,harbor6,tr2,15147,45441).
route(harbor11,harbor7,tr13,14463,86778).
route(harbor11,harbor7,tr2,14463,43389).
route(harbor11,harbor8,tr13,3403,20418).
route(harbor11,harbor8,tr2,3403,10209).
route(harbor11,harbor9,tr13,17606,105636).
route(harbor11,harbor9,tr2,17606,52818).
route(harbor11,harbor10,tr13,27961,167766).
route(harbor11,harbor10,tr2,27961,83883).
route(harbor11,harbor12,tr13,24616,147696).
route(harbor11,harbor12,tr2,24616,73848).
route(harbor11,harbor13,tr13,16820,100920).
route(harbor11,harbor13,tr2,16820,50460).
route(harbor11,harbor14,tr13,23705,142230).
route(harbor11,harbor14,tr2,23705,71115).
route(harbor11,harbor15,tr13,14852,89112).
route(harbor11,harbor15,tr2,14852,44556).
route(harbor11,harbor16,tr13,24397,146382).
route(harbor11,harbor16,tr2,24397,73191).
route(harbor11,prodloc0,tr0,4686,121836).
route(harbor11,prodloc0,tr13,4686,28116).
route(harbor11,prodloc1,tr0,25536,663936).
route(harbor11,prodloc1,tr13,25536,153216).
route(harbor11,prodloc2,tr0,18286,475436).
route(harbor11,prodloc2,tr13,18286,109716).
route(harbor11,prodloc3,tr0,1423,36998).
route(harbor11,prodloc3,tr13,1423,8538).
route(harbor11,prodloc4,tr0,18193,473018).
route(harbor11,prodloc4,tr13,18193,109158).
route(harbor11,prodloc5,tr0,23683,615758).
route(harbor11,prodloc5,tr13,23683,142098).
route(harbor11,prodloc6,tr0,6176,160576).
route(harbor11,prodloc6,tr13,6176,37056).
route(harbor11,prodloc7,tr0,882,22932).
route(harbor11,prodloc7,tr13,882,5292).
route(harbor11,prodloc8,tr0,7905,205530).
route(harbor11,prodloc8,tr13,7905,47430).
route(harbor11,prodloc9,tr0,14239,370214).
route(harbor11,prodloc9,tr13,14239,85434).
route(harbor11,prodloc10,tr0,1467,38142).
route(harbor11,prodloc10,tr13,1467,8802).
route(harbor11,prodloc11,tr0,16346,424996).
route(harbor11,prodloc11,tr13,16346,98076).
route(harbor11,prodloc12,tr0,8945,232570).
route(harbor11,prodloc12,tr13,8945,53670).
route(harbor11,prodloc13,tr0,13914,361764).
route(harbor11,prodloc13,tr13,13914,83484).
route(harbor11,prodloc14,tr0,1398,36348).
route(harbor11,prodloc14,tr13,1398,8388).
route(harbor11,prodloc15,tr0,25390,660140).
route(harbor11,prodloc15,tr13,25390,152340).
route(harbor11,prodloc16,tr0,11458,297908).
route(harbor11,prodloc16,tr13,11458,68748).
route(harbor11,prodloc17,tr0,6250,162500).
route(harbor11,prodloc17,tr13,6250,37500).
route(harbor11,prodloc18,tr0,24255,630630).
route(harbor11,prodloc18,tr13,24255,145530).
route(harbor11,prodloc19,tr0,15041,391066).
route(harbor11,prodloc19,tr13,15041,90246).
route(harbor11,prodloc20,tr0,13118,341068).
route(harbor11,prodloc20,tr13,13118,78708).
route(harbor11,prodloc21,tr0,27801,722826).
route(harbor11,prodloc21,tr13,27801,166806).
route(harbor11,prodloc22,tr0,20182,524732).
route(harbor11,prodloc22,tr13,20182,121092).
route(harbor11,prodloc23,tr0,5239,136214).
route(harbor11,prodloc23,tr13,5239,31434).
route(harbor11,prodloc24,tr0,14413,374738).
route(harbor11,prodloc24,tr13,14413,86478).
route(harbor11,prodloc25,tr0,25269,656994).
route(harbor11,prodloc25,tr13,25269,151614).
route(harbor11,prodloc26,tr0,6753,175578).
route(harbor11,prodloc26,tr13,6753,40518).
route(harbor11,prodloc27,tr0,14133,367458).
route(harbor11,prodloc27,tr13,14133,84798).
route(harbor11,prodloc28,tr0,24711,642486).
route(harbor11,prodloc28,tr13,24711,148266).
route(harbor11,prodloc29,tr0,18599,483574).
route(harbor11,prodloc29,tr13,18599,111594).
route(harbor11,prodloc30,tr0,12888,335088).
route(harbor11,prodloc30,tr13,12888,77328).
route(harbor11,prodloc31,tr0,1868,48568).
route(harbor11,prodloc31,tr13,1868,11208).
route(harbor11,prodloc32,tr0,12806,332956).
route(harbor11,prodloc32,tr13,12806,76836).
route(harbor11,prodloc33,tr0,13202,343252).
route(harbor11,prodloc33,tr13,13202,79212).
route(harbor12,harbor0,tr13,7296,43776).
route(harbor12,harbor0,tr2,7296,21888).
route(harbor12,harbor1,tr13,26336,158016).
route(harbor12,harbor1,tr2,26336,79008).
route(harbor12,harbor2,tr13,21732,130392).
route(harbor12,harbor2,tr2,21732,65196).
route(harbor12,harbor3,tr13,24119,144714).
route(harbor12,harbor3,tr2,24119,72357).
route(harbor12,harbor4,tr13,6298,37788).
route(harbor12,harbor4,tr2,6298,18894).
route(harbor12,harbor5,tr13,18510,111060).
route(harbor12,harbor5,tr2,18510,55530).
route(harbor12,harbor6,tr13,28837,173022).
route(harbor12,harbor6,tr2,28837,86511).
route(harbor12,harbor7,tr13,13888,83328).
route(harbor12,harbor7,tr2,13888,41664).
route(harbor12,harbor8,tr13,6734,40404).
route(harbor12,harbor8,tr2,6734,20202).
route(harbor12,harbor9,tr13,1308,7848).
route(harbor12,harbor9,tr2,1308,3924).
route(harbor12,harbor10,tr13,1244,7464).
route(harbor12,harbor10,tr2,1244,3732).
route(harbor12,harbor11,tr13,22941,137646).
route(harbor12,harbor11,tr2,22941,68823).
route(harbor12,harbor13,tr13,574,3444).
route(harbor12,harbor13,tr2,574,1722).
route(harbor12,harbor14,tr13,14656,87936).
route(harbor12,harbor14,tr2,14656,43968).
route(harbor12,harbor15,tr13,17223,103338).
route(harbor12,harbor15,tr2,17223,51669).
route(harbor12,harbor16,tr13,23755,142530).
route(harbor12,harbor16,tr2,23755,71265).
route(harbor12,prodloc0,tr0,22454,583804).
route(harbor12,prodloc0,tr13,22454,134724).
route(harbor12,prodloc1,tr0,20054,521404).
route(harbor12,prodloc1,tr13,20054,120324).
route(harbor12,prodloc2,tr0,12883,334958).
route(harbor12,prodloc2,tr13,12883,77298).
route(harbor12,prodloc3,tr0,13177,342602).
route(harbor12,prodloc3,tr13,13177,79062).
route(harbor12,prodloc4,tr0,28660,745160).
route(harbor12,prodloc4,tr13,28660,171960).
route(harbor12,prodloc5,tr0,16534,429884).
route(harbor12,prodloc5,tr13,16534,99204).
route(harbor12,prodloc6,tr0,4331,112606).
route(harbor12,prodloc6,tr13,4331,25986).
route(harbor12,prodloc7,tr0,28363,737438).
route(harbor12,prodloc7,tr13,28363,170178).
route(harbor12,prodloc8,tr0,14857,386282).
route(harbor12,prodloc8,tr13,14857,89142).
route(harbor12,prodloc9,tr0,2821,73346).
route(harbor12,prodloc9,tr13,2821,16926).
route(harbor12,prodloc10,tr0,16134,419484).
route(harbor12,prodloc10,tr13,16134,96804).
route(harbor12,prodloc11,tr0,16045,417170).
route(harbor12,prodloc11,tr13,16045,96270).
route(harbor12,prodloc12,tr0,19231,500006).
route(harbor12,prodloc12,tr13,19231,115386).
route(harbor12,prodloc13,tr0,20607,535782).
route(harbor12,prodloc13,tr13,20607,123642).
route(harbor12,prodloc14,tr0,14673,381498).
route(harbor12,prodloc14,tr13,14673,88038).
route(harbor12,prodloc15,tr0,2668,69368).
route(harbor12,prodloc15,tr13,2668,16008).
route(harbor12,prodloc16,tr0,17523,455598).
route(harbor12,prodloc16,tr13,17523,105138).
route(harbor12,prodloc17,tr0,16788,436488).
route(harbor12,prodloc17,tr13,16788,100728).
route(harbor12,prodloc18,tr0,22594,587444).
route(harbor12,prodloc18,tr13,22594,135564).
route(harbor12,prodloc19,tr0,16662,433212).
route(harbor12,prodloc19,tr13,16662,99972).
route(harbor12,prodloc20,tr0,438,11388).
route(harbor12,prodloc20,tr13,438,2628).
route(harbor12,prodloc21,tr0,1965,51090).
route(harbor12,prodloc21,tr13,1965,11790).
route(harbor12,prodloc22,tr0,23297,605722).
route(harbor12,prodloc22,tr13,23297,139782).
route(harbor12,prodloc23,tr0,26138,679588).
route(harbor12,prodloc23,tr13,26138,156828).
route(harbor12,prodloc24,tr0,16031,416806).
route(harbor12,prodloc24,tr13,16031,96186).
route(harbor12,prodloc25,tr0,20947,544622).
route(harbor12,prodloc25,tr13,20947,125682).
route(harbor12,prodloc26,tr0,5807,150982).
route(harbor12,prodloc26,tr13,5807,34842).
route(harbor12,prodloc27,tr0,7853,204178).
route(harbor12,prodloc27,tr13,7853,47118).
route(harbor12,prodloc28,tr0,23711,616486).
route(harbor12,prodloc28,tr13,23711,142266).
route(harbor12,prodloc29,tr0,3726,96876).
route(harbor12,prodloc29,tr13,3726,22356).
route(harbor12,prodloc30,tr0,899,23374).
route(harbor12,prodloc30,tr13,899,5394).
route(harbor12,prodloc31,tr0,13766,357916).
route(harbor12,prodloc31,tr13,13766,82596).
route(harbor12,prodloc32,tr0,22999,597974).
route(harbor12,prodloc32,tr13,22999,137994).
route(harbor12,prodloc33,tr0,18356,477256).
route(harbor12,prodloc33,tr13,18356,110136).
route(harbor13,harbor0,tr13,28555,171330).
route(harbor13,harbor0,tr2,28555,85665).
route(harbor13,harbor1,tr13,6699,40194).
route(harbor13,harbor1,tr2,6699,20097).
route(harbor13,harbor2,tr13,15281,91686).
route(harbor13,harbor2,tr2,15281,45843).
route(harbor13,harbor3,tr13,15766,94596).
route(harbor13,harbor3,tr2,15766,47298).
route(harbor13,harbor4,tr13,1202,7212).
route(harbor13,harbor4,tr2,1202,3606).
route(harbor13,harbor5,tr13,13613,81678).
route(harbor13,harbor5,tr2,13613,40839).
route(harbor13,harbor6,tr13,27192,163152).
route(harbor13,harbor6,tr2,27192,81576).
route(harbor13,harbor7,tr13,1395,8370).
route(harbor13,harbor7,tr2,1395,4185).
route(harbor13,harbor8,tr13,6653,39918).
route(harbor13,harbor8,tr2,6653,19959).
route(harbor13,harbor9,tr13,9108,54648).
route(harbor13,harbor9,tr2,9108,27324).
route(harbor13,harbor10,tr13,23981,143886).
route(harbor13,harbor10,tr2,23981,71943).
route(harbor13,harbor11,tr13,26300,157800).
route(harbor13,harbor11,tr2,26300,78900).
route(harbor13,harbor12,tr13,16395,98370).
route(harbor13,harbor12,tr2,16395,49185).
route(harbor13,harbor14,tr13,17264,103584).
route(harbor13,harbor14,tr2,17264,51792).
route(harbor13,harbor15,tr13,4894,29364).
route(harbor13,harbor15,tr2,4894,14682).
route(harbor13,harbor16,tr13,4868,29208).
route(harbor13,harbor16,tr2,4868,14604).
route(harbor13,prodloc0,tr0,5087,132262).
route(harbor13,prodloc0,tr13,5087,30522).
route(harbor13,prodloc1,tr0,26009,676234).
route(harbor13,prodloc1,tr13,26009,156054).
route(harbor13,prodloc2,tr0,27008,702208).
route(harbor13,prodloc2,tr13,27008,162048).
route(harbor13,prodloc3,tr0,23603,613678).
route(harbor13,prodloc3,tr13,23603,141618).
route(harbor13,prodloc4,tr0,567,14742).
route(harbor13,prodloc4,tr13,567,3402).
route(harbor13,prodloc5,tr0,5821,151346).
route(harbor13,prodloc5,tr13,5821,34926).
route(harbor13,prodloc6,tr0,18528,481728).
route(harbor13,prodloc6,tr13,18528,111168).
route(harbor13,prodloc7,tr0,2187,56862).
route(harbor13,prodloc7,tr13,2187,13122).
route(harbor13,prodloc8,tr0,9662,251212).
route(harbor13,prodloc8,tr13,9662,57972).
route(harbor13,prodloc9,tr0,5536,143936).
route(harbor13,prodloc9,tr13,5536,33216).
route(harbor13,prodloc10,tr0,22786,592436).
route(harbor13,prodloc10,tr13,22786,136716).
route(harbor13,prodloc11,tr0,15598,405548).
route(harbor13,prodloc11,tr13,15598,93588).
route(harbor13,prodloc12,tr0,6362,165412).
route(harbor13,prodloc12,tr13,6362,38172).
route(harbor13,prodloc13,tr0,21829,567554).
route(harbor13,prodloc13,tr13,21829,130974).
route(harbor13,prodloc14,tr0,16189,420914).
route(harbor13,prodloc14,tr13,16189,97134).
route(harbor13,prodloc15,tr0,65,1690).
route(harbor13,prodloc15,tr13,65,390).
route(harbor13,prodloc16,tr0,19785,514410).
route(harbor13,prodloc16,tr13,19785,118710).
route(harbor13,prodloc17,tr0,23501,611026).
route(harbor13,prodloc17,tr13,23501,141006).
route(harbor13,prodloc18,tr0,8147,211822).
route(harbor13,prodloc18,tr13,8147,48882).
route(harbor13,prodloc19,tr0,2227,57902).
route(harbor13,prodloc19,tr13,2227,13362).
route(harbor13,prodloc20,tr0,15325,398450).
route(harbor13,prodloc20,tr13,15325,91950).
route(harbor13,prodloc21,tr0,25582,665132).
route(harbor13,prodloc21,tr13,25582,153492).
route(harbor13,prodloc22,tr0,3817,99242).
route(harbor13,prodloc22,tr13,3817,22902).
route(harbor13,prodloc23,tr0,2118,55068).
route(harbor13,prodloc23,tr13,2118,12708).
route(harbor13,prodloc24,tr0,23614,613964).
route(harbor13,prodloc24,tr13,23614,141684).
route(harbor13,prodloc25,tr0,19504,507104).
route(harbor13,prodloc25,tr13,19504,117024).
route(harbor13,prodloc26,tr0,2156,56056).
route(harbor13,prodloc26,tr13,2156,12936).
route(harbor13,prodloc27,tr0,12705,330330).
route(harbor13,prodloc27,tr13,12705,76230).
route(harbor13,prodloc28,tr0,17270,449020).
route(harbor13,prodloc28,tr13,17270,103620).
route(harbor13,prodloc29,tr0,22848,594048).
route(harbor13,prodloc29,tr13,22848,137088).
route(harbor13,prodloc30,tr0,5884,152984).
route(harbor13,prodloc30,tr13,5884,35304).
route(harbor13,prodloc31,tr0,6293,163618).
route(harbor13,prodloc31,tr13,6293,37758).
route(harbor13,prodloc32,tr0,18456,479856).
route(harbor13,prodloc32,tr13,18456,110736).
route(harbor13,prodloc33,tr0,1856,48256).
route(harbor13,prodloc33,tr13,1856,11136).
route(harbor14,harbor0,tr13,24016,144096).
route(harbor14,harbor0,tr2,24016,72048).
route(harbor14,harbor1,tr13,929,5574).
route(harbor14,harbor1,tr2,929,2787).
route(harbor14,harbor2,tr13,12541,75246).
route(harbor14,harbor2,tr2,12541,37623).
route(harbor14,harbor3,tr13,20506,123036).
route(harbor14,harbor3,tr2,20506,61518).
route(harbor14,harbor4,tr13,6760,40560).
route(harbor14,harbor4,tr2,6760,20280).
route(harbor14,harbor5,tr13,23606,141636).
route(harbor14,harbor5,tr2,23606,70818).
route(harbor14,harbor6,tr13,29136,174816).
route(harbor14,harbor6,tr2,29136,87408).
route(harbor14,harbor7,tr13,14805,88830).
route(harbor14,harbor7,tr2,14805,44415).
route(harbor14,harbor8,tr13,22223,133338).
route(harbor14,harbor8,tr2,22223,66669).
route(harbor14,harbor9,tr13,26386,158316).
route(harbor14,harbor9,tr2,26386,79158).
route(harbor14,harbor10,tr13,10792,64752).
route(harbor14,harbor10,tr2,10792,32376).
route(harbor14,harbor11,tr13,4705,28230).
route(harbor14,harbor11,tr2,4705,14115).
route(harbor14,harbor12,tr13,14714,88284).
route(harbor14,harbor12,tr2,14714,44142).
route(harbor14,harbor13,tr13,20636,123816).
route(harbor14,harbor13,tr2,20636,61908).
route(harbor14,harbor15,tr13,19698,118188).
route(harbor14,harbor15,tr2,19698,59094).
route(harbor14,harbor16,tr13,20880,125280).
route(harbor14,harbor16,tr2,20880,62640).
route(harbor14,prodloc0,tr0,25145,653770).
route(harbor14,prodloc0,tr13,25145,150870).
route(harbor14,prodloc1,tr0,5748,149448).
route(harbor14,prodloc1,tr13,5748,34488).
route(harbor14,prodloc2,tr0,28925,752050).
route(harbor14,prodloc2,tr13,28925,173550).
route(harbor14,prodloc3,tr0,4585,119210).
route(harbor14,prodloc3,tr13,4585,27510).
route(harbor14,prodloc4,tr0,27500,715000).
route(harbor14,prodloc4,tr13,27500,165000).
route(harbor14,prodloc5,tr0,7880,204880).
route(harbor14,prodloc5,tr13,7880,47280).
route(harbor14,prodloc6,tr0,18988,493688).
route(harbor14,prodloc6,tr13,18988,113928).
route(harbor14,prodloc7,tr0,17150,445900).
route(harbor14,prodloc7,tr13,17150,102900).
route(harbor14,prodloc8,tr0,25796,670696).
route(harbor14,prodloc8,tr13,25796,154776).
route(harbor14,prodloc9,tr0,23014,598364).
route(harbor14,prodloc9,tr13,23014,138084).
route(harbor14,prodloc10,tr0,23299,605774).
route(harbor14,prodloc10,tr13,23299,139794).
route(harbor14,prodloc11,tr0,25946,674596).
route(harbor14,prodloc11,tr13,25946,155676).
route(harbor14,prodloc12,tr0,18740,487240).
route(harbor14,prodloc12,tr13,18740,112440).
route(harbor14,prodloc13,tr0,22863,594438).
route(harbor14,prodloc13,tr13,22863,137178).
route(harbor14,prodloc14,tr0,2541,66066).
route(harbor14,prodloc14,tr13,2541,15246).
route(harbor14,prodloc15,tr0,16512,429312).
route(harbor14,prodloc15,tr13,16512,99072).
route(harbor14,prodloc16,tr0,23655,615030).
route(harbor14,prodloc16,tr13,23655,141930).
route(harbor14,prodloc17,tr0,14081,366106).
route(harbor14,prodloc17,tr13,14081,84486).
route(harbor14,prodloc18,tr0,16792,436592).
route(harbor14,prodloc18,tr13,16792,100752).
route(harbor14,prodloc19,tr0,26620,692120).
route(harbor14,prodloc19,tr13,26620,159720).
route(harbor14,prodloc20,tr0,5558,144508).
route(harbor14,prodloc20,tr13,5558,33348).
route(harbor14,prodloc21,tr0,13095,340470).
route(harbor14,prodloc21,tr13,13095,78570).
route(harbor14,prodloc22,tr0,20260,526760).
route(harbor14,prodloc22,tr13,20260,121560).
route(harbor14,prodloc23,tr0,13557,352482).
route(harbor14,prodloc23,tr13,13557,81342).
route(harbor14,prodloc24,tr0,8051,209326).
route(harbor14,prodloc24,tr13,8051,48306).
route(harbor14,prodloc25,tr0,25498,662948).
route(harbor14,prodloc25,tr13,25498,152988).
route(harbor14,prodloc26,tr0,10121,263146).
route(harbor14,prodloc26,tr13,10121,60726).
route(harbor14,prodloc27,tr0,9396,244296).
route(harbor14,prodloc27,tr13,9396,56376).
route(harbor14,prodloc28,tr0,14789,384514).
route(harbor14,prodloc28,tr13,14789,88734).
route(harbor14,prodloc29,tr0,25281,657306).
route(harbor14,prodloc29,tr13,25281,151686).
route(harbor14,prodloc30,tr0,24619,640094).
route(harbor14,prodloc30,tr13,24619,147714).
route(harbor14,prodloc31,tr0,214,5564).
route(harbor14,prodloc31,tr13,214,1284).
route(harbor14,prodloc32,tr0,3502,91052).
route(harbor14,prodloc32,tr13,3502,21012).
route(harbor14,prodloc33,tr0,25044,651144).
route(harbor14,prodloc33,tr13,25044,150264).
route(harbor15,harbor0,tr13,14527,87162).
route(harbor15,harbor0,tr2,14527,43581).
route(harbor15,harbor1,tr13,15019,90114).
route(harbor15,harbor1,tr2,15019,45057).
route(harbor15,harbor2,tr13,7734,46404).
route(harbor15,harbor2,tr2,7734,23202).
route(harbor15,harbor3,tr13,23395,140370).
route(harbor15,harbor3,tr2,23395,70185).
route(harbor15,harbor4,tr13,22017,132102).
route(harbor15,harbor4,tr2,22017,66051).
route(harbor15,harbor5,tr13,26442,158652).
route(harbor15,harbor5,tr2,26442,79326).
route(harbor15,harbor6,tr13,26761,160566).
route(harbor15,harbor6,tr2,26761,80283).
route(harbor15,harbor7,tr13,6104,36624).
route(harbor15,harbor7,tr2,6104,18312).
route(harbor15,harbor8,tr13,8684,52104).
route(harbor15,harbor8,tr2,8684,26052).
route(harbor15,harbor9,tr13,696,4176).
route(harbor15,harbor9,tr2,696,2088).
route(harbor15,harbor10,tr13,23614,141684).
route(harbor15,harbor10,tr2,23614,70842).
route(harbor15,harbor11,tr13,25276,151656).
route(harbor15,harbor11,tr2,25276,75828).
route(harbor15,harbor12,tr13,15234,91404).
route(harbor15,harbor12,tr2,15234,45702).
route(harbor15,harbor13,tr13,7161,42966).
route(harbor15,harbor13,tr2,7161,21483).
route(harbor15,harbor14,tr13,18383,110298).
route(harbor15,harbor14,tr2,18383,55149).
route(harbor15,harbor16,tr13,9061,54366).
route(harbor15,harbor16,tr2,9061,27183).
route(harbor15,prodloc0,tr0,19847,516022).
route(harbor15,prodloc0,tr13,19847,119082).
route(harbor15,prodloc1,tr0,17630,458380).
route(harbor15,prodloc1,tr13,17630,105780).
route(harbor15,prodloc2,tr0,26438,687388).
route(harbor15,prodloc2,tr13,26438,158628).
route(harbor15,prodloc3,tr0,23112,600912).
route(harbor15,prodloc3,tr13,23112,138672).
route(harbor15,prodloc4,tr0,19722,512772).
route(harbor15,prodloc4,tr13,19722,118332).
route(harbor15,prodloc5,tr0,19,494).
route(harbor15,prodloc5,tr13,19,114).
route(harbor15,prodloc6,tr0,21700,564200).
route(harbor15,prodloc6,tr13,21700,130200).
route(harbor15,prodloc7,tr0,25608,665808).
route(harbor15,prodloc7,tr13,25608,153648).
route(harbor15,prodloc8,tr0,19013,494338).
route(harbor15,prodloc8,tr13,19013,114078).
route(harbor15,prodloc9,tr0,4188,108888).
route(harbor15,prodloc9,tr13,4188,25128).
route(harbor15,prodloc10,tr0,13848,360048).
route(harbor15,prodloc10,tr13,13848,83088).
route(harbor15,prodloc11,tr0,10818,281268).
route(harbor15,prodloc11,tr13,10818,64908).
route(harbor15,prodloc12,tr0,7902,205452).
route(harbor15,prodloc12,tr13,7902,47412).
route(harbor15,prodloc13,tr0,14446,375596).
route(harbor15,prodloc13,tr13,14446,86676).
route(harbor15,prodloc14,tr0,590,15340).
route(harbor15,prodloc14,tr13,590,3540).
route(harbor15,prodloc15,tr0,22680,589680).
route(harbor15,prodloc15,tr13,22680,136080).
route(harbor15,prodloc16,tr0,13100,340600).
route(harbor15,prodloc16,tr13,13100,78600).
route(harbor15,prodloc17,tr0,8885,231010).
route(harbor15,prodloc17,tr13,8885,53310).
route(harbor15,prodloc18,tr0,3290,85540).
route(harbor15,prodloc18,tr13,3290,19740).
route(harbor15,prodloc19,tr0,4536,117936).
route(harbor15,prodloc19,tr13,4536,27216).
route(harbor15,prodloc20,tr0,1166,30316).
route(harbor15,prodloc20,tr13,1166,6996).
route(harbor15,prodloc21,tr0,28796,748696).
route(harbor15,prodloc21,tr13,28796,172776).
route(harbor15,prodloc22,tr0,10758,279708).
route(harbor15,prodloc22,tr13,10758,64548).
route(harbor15,prodloc23,tr0,14488,376688).
route(harbor15,prodloc23,tr13,14488,86928).
route(harbor15,prodloc24,tr0,929,24154).
route(harbor15,prodloc24,tr13,929,5574).
route(harbor15,prodloc25,tr0,2315,60190).
route(harbor15,prodloc25,tr13,2315,13890).
route(harbor15,prodloc26,tr0,27705,720330).
route(harbor15,prodloc26,tr13,27705,166230).
route(harbor15,prodloc27,tr0,2478,64428).
route(harbor15,prodloc27,tr13,2478,14868).
route(harbor15,prodloc28,tr0,3588,93288).
route(harbor15,prodloc28,tr13,3588,21528).
route(harbor15,prodloc29,tr0,11957,310882).
route(harbor15,prodloc29,tr13,11957,71742).
route(harbor15,prodloc30,tr0,2784,72384).
route(harbor15,prodloc30,tr13,2784,16704).
route(harbor15,prodloc31,tr0,20288,527488).
route(harbor15,prodloc31,tr13,20288,121728).
route(harbor15,prodloc32,tr0,25068,651768).
route(harbor15,prodloc32,tr13,25068,150408).
route(harbor15,prodloc33,tr0,21769,565994).
route(harbor15,prodloc33,tr13,21769,130614).
route(harbor16,harbor0,tr13,25283,151698).
route(harbor16,harbor0,tr2,25283,75849).
route(harbor16,harbor1,tr13,5795,34770).
route(harbor16,harbor1,tr2,5795,17385).
route(harbor16,harbor2,tr13,24485,146910).
route(harbor16,harbor2,tr2,24485,73455).
route(harbor16,harbor3,tr13,18689,112134).
route(harbor16,harbor3,tr2,18689,56067).
route(harbor16,harbor4,tr13,15954,95724).
route(harbor16,harbor4,tr2,15954,47862).
route(harbor16,harbor5,tr13,28845,173070).
route(harbor16,harbor5,tr2,28845,86535).
route(harbor16,harbor6,tr13,18761,112566).
route(harbor16,harbor6,tr2,18761,56283).
route(harbor16,harbor7,tr13,15347,92082).
route(harbor16,harbor7,tr2,15347,46041).
route(harbor16,harbor8,tr13,18882,113292).
route(harbor16,harbor8,tr2,18882,56646).
route(harbor16,harbor9,tr13,23446,140676).
route(harbor16,harbor9,tr2,23446,70338).
route(harbor16,harbor10,tr13,53,318).
route(harbor16,harbor10,tr2,53,159).
route(harbor16,harbor11,tr13,15318,91908).
route(harbor16,harbor11,tr2,15318,45954).
route(harbor16,harbor12,tr13,16793,100758).
route(harbor16,harbor12,tr2,16793,50379).
route(harbor16,harbor13,tr13,23506,141036).
route(harbor16,harbor13,tr2,23506,70518).
route(harbor16,harbor14,tr13,621,3726).
route(harbor16,harbor14,tr2,621,1863).
route(harbor16,harbor15,tr13,20299,121794).
route(harbor16,harbor15,tr2,20299,60897).
route(harbor16,prodloc0,tr0,11137,289562).
route(harbor16,prodloc0,tr13,11137,66822).
route(harbor16,prodloc1,tr0,18123,471198).
route(harbor16,prodloc1,tr13,18123,108738).
route(harbor16,prodloc2,tr0,24154,628004).
route(harbor16,prodloc2,tr13,24154,144924).
route(harbor16,prodloc3,tr0,11302,293852).
route(harbor16,prodloc3,tr13,11302,67812).
route(harbor16,prodloc4,tr0,2605,67730).
route(harbor16,prodloc4,tr13,2605,15630).
route(harbor16,prodloc5,tr0,13321,346346).
route(harbor16,prodloc5,tr13,13321,79926).
route(harbor16,prodloc6,tr0,25036,650936).
route(harbor16,prodloc6,tr13,25036,150216).
route(harbor16,prodloc7,tr0,13410,348660).
route(harbor16,prodloc7,tr13,13410,80460).
route(harbor16,prodloc8,tr0,28110,730860).
route(harbor16,prodloc8,tr13,28110,168660).
route(harbor16,prodloc9,tr0,28635,744510).
route(harbor16,prodloc9,tr13,28635,171810).
route(harbor16,prodloc10,tr0,2696,70096).
route(harbor16,prodloc10,tr13,2696,16176).
route(harbor16,prodloc11,tr0,19509,507234).
route(harbor16,prodloc11,tr13,19509,117054).
route(harbor16,prodloc12,tr0,6863,178438).
route(harbor16,prodloc12,tr13,6863,41178).
route(harbor16,prodloc13,tr0,11174,290524).
route(harbor16,prodloc13,tr13,11174,67044).
route(harbor16,prodloc14,tr0,5096,132496).
route(harbor16,prodloc14,tr13,5096,30576).
route(harbor16,prodloc15,tr0,3888,101088).
route(harbor16,prodloc15,tr13,3888,23328).
route(harbor16,prodloc16,tr0,18805,488930).
route(harbor16,prodloc16,tr13,18805,112830).
route(harbor16,prodloc17,tr0,5064,131664).
route(harbor16,prodloc17,tr13,5064,30384).
route(harbor16,prodloc18,tr0,2437,63362).
route(harbor16,prodloc18,tr13,2437,14622).
route(harbor16,prodloc19,tr0,12720,330720).
route(harbor16,prodloc19,tr13,12720,76320).
route(harbor16,prodloc20,tr0,19111,496886).
route(harbor16,prodloc20,tr13,19111,114666).
route(harbor16,prodloc21,tr0,9579,249054).
route(harbor16,prodloc21,tr13,9579,57474).
route(harbor16,prodloc22,tr0,22516,585416).
route(harbor16,prodloc22,tr13,22516,135096).
route(harbor16,prodloc23,tr0,16253,422578).
route(harbor16,prodloc23,tr13,16253,97518).
route(harbor16,prodloc24,tr0,9347,243022).
route(harbor16,prodloc24,tr13,9347,56082).
route(harbor16,prodloc25,tr0,24395,634270).
route(harbor16,prodloc25,tr13,24395,146370).
route(harbor16,prodloc26,tr0,26611,691886).
route(harbor16,prodloc26,tr13,26611,159666).
route(harbor16,prodloc27,tr0,21906,569556).
route(harbor16,prodloc27,tr13,21906,131436).
route(harbor16,prodloc28,tr0,13678,355628).
route(harbor16,prodloc28,tr13,13678,82068).
route(harbor16,prodloc29,tr0,26735,695110).
route(harbor16,prodloc29,tr13,26735,160410).
route(harbor16,prodloc30,tr0,6471,168246).
route(harbor16,prodloc30,tr13,6471,38826).
route(harbor16,prodloc31,tr0,16283,423358).
route(harbor16,prodloc31,tr13,16283,97698).
route(harbor16,prodloc32,tr0,6338,164788).
route(harbor16,prodloc32,tr13,6338,38028).
route(harbor16,prodloc33,tr0,3391,88166).
route(harbor16,prodloc33,tr13,3391,20346).
route(prodloc0,harbor0,tr0,18944,492544).
route(prodloc0,harbor0,tr13,18944,113664).
route(prodloc0,harbor1,tr0,17573,456898).
route(prodloc0,harbor1,tr13,17573,105438).
route(prodloc0,harbor2,tr0,12592,327392).
route(prodloc0,harbor2,tr13,12592,75552).
route(prodloc0,harbor3,tr0,9896,257296).
route(prodloc0,harbor3,tr13,9896,59376).
route(prodloc0,harbor4,tr0,1536,39936).
route(prodloc0,harbor4,tr13,1536,9216).
route(prodloc0,harbor5,tr0,2548,66248).
route(prodloc0,harbor5,tr13,2548,15288).
route(prodloc0,harbor6,tr0,10022,260572).
route(prodloc0,harbor6,tr13,10022,60132).
route(prodloc0,harbor7,tr0,14786,384436).
route(prodloc0,harbor7,tr13,14786,88716).
route(prodloc0,harbor8,tr0,6471,168246).
route(prodloc0,harbor8,tr13,6471,38826).
route(prodloc0,harbor9,tr0,15480,402480).
route(prodloc0,harbor9,tr13,15480,92880).
route(prodloc0,harbor10,tr0,265,6890).
route(prodloc0,harbor10,tr13,265,1590).
route(prodloc0,harbor11,tr0,22387,582062).
route(prodloc0,harbor11,tr13,22387,134322).
route(prodloc0,harbor12,tr0,1553,40378).
route(prodloc0,harbor12,tr13,1553,9318).
route(prodloc0,harbor13,tr0,13976,363376).
route(prodloc0,harbor13,tr13,13976,83856).
route(prodloc0,harbor14,tr0,17051,443326).
route(prodloc0,harbor14,tr13,17051,102306).
route(prodloc0,harbor15,tr0,2332,60632).
route(prodloc0,harbor15,tr13,2332,13992).
route(prodloc0,harbor16,tr0,15514,403364).
route(prodloc0,harbor16,tr13,15514,93084).
route(prodloc0,prodloc1,tr0,20061,521586).
route(prodloc0,prodloc1,tr13,20061,120366).
route(prodloc0,prodloc2,tr0,10021,260546).
route(prodloc0,prodloc2,tr13,10021,60126).
route(prodloc0,prodloc3,tr0,6887,179062).
route(prodloc0,prodloc3,tr13,6887,41322).
route(prodloc0,prodloc4,tr0,21015,546390).
route(prodloc0,prodloc4,tr13,21015,126090).
route(prodloc0,prodloc5,tr0,4004,104104).
route(prodloc0,prodloc5,tr13,4004,24024).
route(prodloc0,prodloc6,tr0,19731,513006).
route(prodloc0,prodloc6,tr13,19731,118386).
route(prodloc0,prodloc7,tr0,20221,525746).
route(prodloc0,prodloc7,tr13,20221,121326).
route(prodloc0,prodloc8,tr0,22599,587574).
route(prodloc0,prodloc8,tr13,22599,135594).
route(prodloc0,prodloc9,tr0,22140,575640).
route(prodloc0,prodloc9,tr13,22140,132840).
route(prodloc0,prodloc10,tr0,10588,275288).
route(prodloc0,prodloc10,tr13,10588,63528).
route(prodloc0,prodloc11,tr0,352,9152).
route(prodloc0,prodloc11,tr13,352,2112).
route(prodloc0,prodloc12,tr0,9873,256698).
route(prodloc0,prodloc12,tr13,9873,59238).
route(prodloc0,prodloc13,tr0,15437,401362).
route(prodloc0,prodloc13,tr13,15437,92622).
route(prodloc0,prodloc14,tr0,681,17706).
route(prodloc0,prodloc14,tr13,681,4086).
route(prodloc0,prodloc15,tr0,21265,552890).
route(prodloc0,prodloc15,tr13,21265,127590).
route(prodloc0,prodloc16,tr0,5441,141466).
route(prodloc0,prodloc16,tr13,5441,32646).
route(prodloc0,prodloc17,tr0,17272,449072).
route(prodloc0,prodloc17,tr13,17272,103632).
route(prodloc0,prodloc18,tr0,10773,280098).
route(prodloc0,prodloc18,tr13,10773,64638).
route(prodloc0,prodloc19,tr0,1248,32448).
route(prodloc0,prodloc19,tr13,1248,7488).
route(prodloc0,prodloc20,tr0,26130,679380).
route(prodloc0,prodloc20,tr13,26130,156780).
route(prodloc0,prodloc21,tr0,9565,248690).
route(prodloc0,prodloc21,tr13,9565,57390).
route(prodloc0,prodloc22,tr0,24334,632684).
route(prodloc0,prodloc22,tr13,24334,146004).
route(prodloc0,prodloc23,tr0,25681,667706).
route(prodloc0,prodloc23,tr13,25681,154086).
route(prodloc0,prodloc24,tr0,24356,633256).
route(prodloc0,prodloc24,tr13,24356,146136).
route(prodloc0,prodloc25,tr0,26454,687804).
route(prodloc0,prodloc25,tr13,26454,158724).
route(prodloc0,prodloc26,tr0,14084,366184).
route(prodloc0,prodloc26,tr13,14084,84504).
route(prodloc0,prodloc27,tr0,30,780).
route(prodloc0,prodloc27,tr13,30,180).
route(prodloc0,prodloc28,tr0,13868,360568).
route(prodloc0,prodloc28,tr13,13868,83208).
route(prodloc0,prodloc29,tr0,4378,113828).
route(prodloc0,prodloc29,tr13,4378,26268).
route(prodloc0,prodloc30,tr0,22399,582374).
route(prodloc0,prodloc30,tr13,22399,134394).
route(prodloc0,prodloc31,tr0,13832,359632).
route(prodloc0,prodloc31,tr13,13832,82992).
route(prodloc0,prodloc32,tr0,1647,42822).
route(prodloc0,prodloc32,tr13,1647,9882).
route(prodloc0,prodloc33,tr0,12121,315146).
route(prodloc0,prodloc33,tr13,12121,72726).
route(prodloc1,harbor0,tr0,5034,130884).
route(prodloc1,harbor0,tr13,5034,30204).
route(prodloc1,harbor1,tr0,5457,141882).
route(prodloc1,harbor1,tr13,5457,32742).
route(prodloc1,harbor2,tr0,24608,639808).
route(prodloc1,harbor2,tr13,24608,147648).
route(prodloc1,harbor3,tr0,11951,310726).
route(prodloc1,harbor3,tr13,11951,71706).
route(prodloc1,harbor4,tr0,25225,655850).
route(prodloc1,harbor4,tr13,25225,151350).
route(prodloc1,harbor5,tr0,22057,573482).
route(prodloc1,harbor5,tr13,22057,132342).
route(prodloc1,harbor6,tr0,12571,326846).
route(prodloc1,harbor6,tr13,12571,75426).
route(prodloc1,harbor7,tr0,8146,211796).
route(prodloc1,harbor7,tr13,8146,48876).
route(prodloc1,harbor8,tr0,9808,255008).
route(prodloc1,harbor8,tr13,9808,58848).
route(prodloc1,harbor9,tr0,28404,738504).
route(prodloc1,harbor9,tr13,28404,170424).
route(prodloc1,harbor10,tr0,23695,616070).
route(prodloc1,harbor10,tr13,23695,142170).
route(prodloc1,harbor11,tr0,16880,438880).
route(prodloc1,harbor11,tr13,16880,101280).
route(prodloc1,harbor12,tr0,15730,408980).
route(prodloc1,harbor12,tr13,15730,94380).
route(prodloc1,harbor13,tr0,6761,175786).
route(prodloc1,harbor13,tr13,6761,40566).
route(prodloc1,harbor14,tr0,755,19630).
route(prodloc1,harbor14,tr13,755,4530).
route(prodloc1,harbor15,tr0,3162,82212).
route(prodloc1,harbor15,tr13,3162,18972).
route(prodloc1,harbor16,tr0,10303,267878).
route(prodloc1,harbor16,tr13,10303,61818).
route(prodloc1,prodloc0,tr0,5536,143936).
route(prodloc1,prodloc0,tr13,5536,33216).
route(prodloc1,prodloc2,tr0,1830,47580).
route(prodloc1,prodloc2,tr13,1830,10980).
route(prodloc1,prodloc3,tr0,8073,209898).
route(prodloc1,prodloc3,tr13,8073,48438).
route(prodloc1,prodloc4,tr0,7202,187252).
route(prodloc1,prodloc4,tr13,7202,43212).
route(prodloc1,prodloc5,tr0,9222,239772).
route(prodloc1,prodloc5,tr13,9222,55332).
route(prodloc1,prodloc6,tr0,11678,303628).
route(prodloc1,prodloc6,tr13,11678,70068).
route(prodloc1,prodloc7,tr0,26004,676104).
route(prodloc1,prodloc7,tr13,26004,156024).
route(prodloc1,prodloc8,tr0,19461,505986).
route(prodloc1,prodloc8,tr13,19461,116766).
route(prodloc1,prodloc9,tr0,27223,707798).
route(prodloc1,prodloc9,tr13,27223,163338).
route(prodloc1,prodloc10,tr0,13085,340210).
route(prodloc1,prodloc10,tr13,13085,78510).
route(prodloc1,prodloc11,tr0,27582,717132).
route(prodloc1,prodloc11,tr13,27582,165492).
route(prodloc1,prodloc12,tr0,17017,442442).
route(prodloc1,prodloc12,tr13,17017,102102).
route(prodloc1,prodloc13,tr0,20676,537576).
route(prodloc1,prodloc13,tr13,20676,124056).
route(prodloc1,prodloc14,tr0,9395,244270).
route(prodloc1,prodloc14,tr13,9395,56370).
route(prodloc1,prodloc15,tr0,380,9880).
route(prodloc1,prodloc15,tr13,380,2280).
route(prodloc1,prodloc16,tr0,472,12272).
route(prodloc1,prodloc16,tr13,472,2832).
route(prodloc1,prodloc17,tr0,24186,628836).
route(prodloc1,prodloc17,tr13,24186,145116).
route(prodloc1,prodloc18,tr0,6243,162318).
route(prodloc1,prodloc18,tr13,6243,37458).
route(prodloc1,prodloc19,tr0,24767,643942).
route(prodloc1,prodloc19,tr13,24767,148602).
route(prodloc1,prodloc20,tr0,8469,220194).
route(prodloc1,prodloc20,tr13,8469,50814).
route(prodloc1,prodloc21,tr0,2162,56212).
route(prodloc1,prodloc21,tr13,2162,12972).
route(prodloc1,prodloc22,tr0,18030,468780).
route(prodloc1,prodloc22,tr13,18030,108180).
route(prodloc1,prodloc23,tr0,23963,623038).
route(prodloc1,prodloc23,tr13,23963,143778).
route(prodloc1,prodloc24,tr0,23980,623480).
route(prodloc1,prodloc24,tr13,23980,143880).
route(prodloc1,prodloc25,tr0,7921,205946).
route(prodloc1,prodloc25,tr13,7921,47526).
route(prodloc1,prodloc26,tr0,4534,117884).
route(prodloc1,prodloc26,tr13,4534,27204).
route(prodloc1,prodloc27,tr0,3424,89024).
route(prodloc1,prodloc27,tr13,3424,20544).
route(prodloc1,prodloc28,tr0,13657,355082).
route(prodloc1,prodloc28,tr13,13657,81942).
route(prodloc1,prodloc29,tr0,28669,745394).
route(prodloc1,prodloc29,tr13,28669,172014).
route(prodloc1,prodloc30,tr0,12905,335530).
route(prodloc1,prodloc30,tr13,12905,77430).
route(prodloc1,prodloc31,tr0,14499,376974).
route(prodloc1,prodloc31,tr13,14499,86994).
route(prodloc1,prodloc32,tr0,26713,694538).
route(prodloc1,prodloc32,tr13,26713,160278).
route(prodloc1,prodloc33,tr0,9654,251004).
route(prodloc1,prodloc33,tr13,9654,57924).
route(prodloc2,harbor0,tr0,10309,268034).
route(prodloc2,harbor0,tr13,10309,61854).
route(prodloc2,harbor1,tr0,18356,477256).
route(prodloc2,harbor1,tr13,18356,110136).
route(prodloc2,harbor2,tr0,8376,217776).
route(prodloc2,harbor2,tr13,8376,50256).
route(prodloc2,harbor3,tr0,2114,54964).
route(prodloc2,harbor3,tr13,2114,12684).
route(prodloc2,harbor4,tr0,22700,590200).
route(prodloc2,harbor4,tr13,22700,136200).
route(prodloc2,harbor5,tr0,13888,361088).
route(prodloc2,harbor5,tr13,13888,83328).
route(prodloc2,harbor6,tr0,9290,241540).
route(prodloc2,harbor6,tr13,9290,55740).
route(prodloc2,harbor7,tr0,21284,553384).
route(prodloc2,harbor7,tr13,21284,127704).
route(prodloc2,harbor8,tr0,7454,193804).
route(prodloc2,harbor8,tr13,7454,44724).
route(prodloc2,harbor9,tr0,28326,736476).
route(prodloc2,harbor9,tr13,28326,169956).
route(prodloc2,harbor10,tr0,14237,370162).
route(prodloc2,harbor10,tr13,14237,85422).
route(prodloc2,harbor11,tr0,4017,104442).
route(prodloc2,harbor11,tr13,4017,24102).
route(prodloc2,harbor12,tr0,15796,410696).
route(prodloc2,harbor12,tr13,15796,94776).
route(prodloc2,harbor13,tr0,8049,209274).
route(prodloc2,harbor13,tr13,8049,48294).
route(prodloc2,harbor14,tr0,3454,89804).
route(prodloc2,harbor14,tr13,3454,20724).
route(prodloc2,harbor15,tr0,2186,56836).
route(prodloc2,harbor15,tr13,2186,13116).
route(prodloc2,harbor16,tr0,6766,175916).
route(prodloc2,harbor16,tr13,6766,40596).
route(prodloc2,prodloc0,tr13,3839,23034).
route(prodloc2,prodloc0,tr15,3839,122848).
route(prodloc2,prodloc1,tr0,10936,284336).
route(prodloc2,prodloc1,tr13,10936,65616).
route(prodloc2,prodloc3,tr0,7155,186030).
route(prodloc2,prodloc3,tr13,7155,42930).
route(prodloc2,prodloc4,tr0,5536,143936).
route(prodloc2,prodloc4,tr13,5536,33216).
route(prodloc2,prodloc5,tr0,22210,577460).
route(prodloc2,prodloc5,tr13,22210,133260).
route(prodloc2,prodloc6,tr0,2985,77610).
route(prodloc2,prodloc6,tr13,2985,17910).
route(prodloc2,prodloc7,tr0,21478,558428).
route(prodloc2,prodloc7,tr13,21478,128868).
route(prodloc2,prodloc8,tr0,11347,295022).
route(prodloc2,prodloc8,tr13,11347,68082).
route(prodloc2,prodloc9,tr0,13068,339768).
route(prodloc2,prodloc9,tr13,13068,78408).
route(prodloc2,prodloc10,tr0,8124,211224).
route(prodloc2,prodloc10,tr13,8124,48744).
route(prodloc2,prodloc11,tr0,6218,161668).
route(prodloc2,prodloc11,tr13,6218,37308).
route(prodloc2,prodloc12,tr0,19410,504660).
route(prodloc2,prodloc12,tr13,19410,116460).
route(prodloc2,prodloc13,tr0,16867,438542).
route(prodloc2,prodloc13,tr13,16867,101202).
route(prodloc2,prodloc14,tr0,10457,271882).
route(prodloc2,prodloc14,tr13,10457,62742).
route(prodloc2,prodloc15,tr0,4062,105612).
route(prodloc2,prodloc15,tr13,4062,24372).
route(prodloc2,prodloc16,tr0,2590,67340).
route(prodloc2,prodloc16,tr13,2590,15540).
route(prodloc2,prodloc17,tr0,22326,580476).
route(prodloc2,prodloc17,tr13,22326,133956).
route(prodloc2,prodloc18,tr0,10736,279136).
route(prodloc2,prodloc18,tr13,10736,64416).
route(prodloc2,prodloc19,tr0,13499,350974).
route(prodloc2,prodloc19,tr13,13499,80994).
route(prodloc2,prodloc20,tr0,15308,398008).
route(prodloc2,prodloc20,tr13,15308,91848).
route(prodloc2,prodloc21,tr0,22539,586014).
route(prodloc2,prodloc21,tr13,22539,135234).
route(prodloc2,prodloc22,tr0,13819,359294).
route(prodloc2,prodloc22,tr13,13819,82914).
route(prodloc2,prodloc23,tr0,12698,330148).
route(prodloc2,prodloc23,tr13,12698,76188).
route(prodloc2,prodloc24,tr0,13064,339664).
route(prodloc2,prodloc24,tr13,13064,78384).
route(prodloc2,prodloc25,tr0,2474,64324).
route(prodloc2,prodloc25,tr13,2474,14844).
route(prodloc2,prodloc26,tr0,12014,312364).
route(prodloc2,prodloc26,tr13,12014,72084).
route(prodloc2,prodloc27,tr0,18598,483548).
route(prodloc2,prodloc27,tr13,18598,111588).
route(prodloc2,prodloc28,tr0,13552,352352).
route(prodloc2,prodloc28,tr13,13552,81312).
route(prodloc2,prodloc29,tr0,16643,432718).
route(prodloc2,prodloc29,tr13,16643,99858).
route(prodloc2,prodloc30,tr0,5847,152022).
route(prodloc2,prodloc30,tr13,5847,35082).
route(prodloc2,prodloc31,tr13,8573,51438).
route(prodloc2,prodloc31,tr15,8573,274336).
route(prodloc2,prodloc32,tr0,9708,252408).
route(prodloc2,prodloc32,tr13,9708,58248).
route(prodloc2,prodloc33,tr0,25618,666068).
route(prodloc2,prodloc33,tr13,25618,153708).
route(prodloc3,harbor0,tr0,22630,588380).
route(prodloc3,harbor0,tr13,22630,135780).
route(prodloc3,harbor1,tr0,12297,319722).
route(prodloc3,harbor1,tr13,12297,73782).
route(prodloc3,harbor2,tr0,15717,408642).
route(prodloc3,harbor2,tr13,15717,94302).
route(prodloc3,harbor3,tr0,17897,465322).
route(prodloc3,harbor3,tr13,17897,107382).
route(prodloc3,harbor4,tr0,2229,57954).
route(prodloc3,harbor4,tr13,2229,13374).
route(prodloc3,harbor5,tr0,17415,452790).
route(prodloc3,harbor5,tr13,17415,104490).
route(prodloc3,harbor6,tr0,4761,123786).
route(prodloc3,harbor6,tr13,4761,28566).
route(prodloc3,harbor7,tr0,27558,716508).
route(prodloc3,harbor7,tr13,27558,165348).
route(prodloc3,harbor8,tr0,2165,56290).
route(prodloc3,harbor8,tr13,2165,12990).
route(prodloc3,harbor9,tr0,11572,300872).
route(prodloc3,harbor9,tr13,11572,69432).
route(prodloc3,harbor10,tr0,21500,559000).
route(prodloc3,harbor10,tr13,21500,129000).
route(prodloc3,harbor11,tr0,27200,707200).
route(prodloc3,harbor11,tr13,27200,163200).
route(prodloc3,harbor12,tr0,23421,608946).
route(prodloc3,harbor12,tr13,23421,140526).
route(prodloc3,harbor13,tr0,20223,525798).
route(prodloc3,harbor13,tr13,20223,121338).
route(prodloc3,harbor14,tr0,427,11102).
route(prodloc3,harbor14,tr13,427,2562).
route(prodloc3,harbor15,tr0,20497,532922).
route(prodloc3,harbor15,tr13,20497,122982).
route(prodloc3,harbor16,tr0,10897,283322).
route(prodloc3,harbor16,tr13,10897,65382).
route(prodloc3,prodloc0,tr0,11656,303056).
route(prodloc3,prodloc0,tr13,11656,69936).
route(prodloc3,prodloc1,tr0,13687,355862).
route(prodloc3,prodloc1,tr13,13687,82122).
route(prodloc3,prodloc2,tr0,18997,493922).
route(prodloc3,prodloc2,tr13,18997,113982).
route(prodloc3,prodloc4,tr0,28944,752544).
route(prodloc3,prodloc4,tr13,28944,173664).
route(prodloc3,prodloc5,tr0,13597,353522).
route(prodloc3,prodloc5,tr13,13597,81582).
route(prodloc3,prodloc6,tr0,24441,635466).
route(prodloc3,prodloc6,tr13,24441,146646).
route(prodloc3,prodloc7,tr0,16928,440128).
route(prodloc3,prodloc7,tr13,16928,101568).
route(prodloc3,prodloc8,tr0,12687,329862).
route(prodloc3,prodloc8,tr13,12687,76122).
route(prodloc3,prodloc9,tr0,5153,133978).
route(prodloc3,prodloc9,tr13,5153,30918).
route(prodloc3,prodloc10,tr0,3522,91572).
route(prodloc3,prodloc10,tr13,3522,21132).
route(prodloc3,prodloc11,tr0,21430,557180).
route(prodloc3,prodloc11,tr13,21430,128580).
route(prodloc3,prodloc12,tr0,7001,182026).
route(prodloc3,prodloc12,tr13,7001,42006).
route(prodloc3,prodloc13,tr0,23609,613834).
route(prodloc3,prodloc13,tr13,23609,141654).
route(prodloc3,prodloc14,tr0,13046,339196).
route(prodloc3,prodloc14,tr13,13046,78276).
route(prodloc3,prodloc15,tr0,26635,692510).
route(prodloc3,prodloc15,tr13,26635,159810).
route(prodloc3,prodloc16,tr0,20701,538226).
route(prodloc3,prodloc16,tr13,20701,124206).
route(prodloc3,prodloc17,tr0,28198,733148).
route(prodloc3,prodloc17,tr13,28198,169188).
route(prodloc3,prodloc18,tr0,16511,429286).
route(prodloc3,prodloc18,tr13,16511,99066).
route(prodloc3,prodloc19,tr0,3402,88452).
route(prodloc3,prodloc19,tr13,3402,20412).
route(prodloc3,prodloc20,tr0,19886,517036).
route(prodloc3,prodloc20,tr13,19886,119316).
route(prodloc3,prodloc21,tr0,23544,612144).
route(prodloc3,prodloc21,tr13,23544,141264).
route(prodloc3,prodloc22,tr0,6762,175812).
route(prodloc3,prodloc22,tr13,6762,40572).
route(prodloc3,prodloc23,tr0,4076,105976).
route(prodloc3,prodloc23,tr13,4076,24456).
route(prodloc3,prodloc24,tr0,21895,569270).
route(prodloc3,prodloc24,tr13,21895,131370).
route(prodloc3,prodloc25,tr0,27787,722462).
route(prodloc3,prodloc25,tr13,27787,166722).
route(prodloc3,prodloc26,tr0,20729,538954).
route(prodloc3,prodloc26,tr13,20729,124374).
route(prodloc3,prodloc27,tr0,12977,337402).
route(prodloc3,prodloc27,tr13,12977,77862).
route(prodloc3,prodloc28,tr0,13434,349284).
route(prodloc3,prodloc28,tr13,13434,80604).
route(prodloc3,prodloc29,tr0,16031,416806).
route(prodloc3,prodloc29,tr13,16031,96186).
route(prodloc3,prodloc30,tr0,22046,573196).
route(prodloc3,prodloc30,tr13,22046,132276).
route(prodloc3,prodloc31,tr0,17041,443066).
route(prodloc3,prodloc31,tr13,17041,102246).
route(prodloc3,prodloc32,tr0,28399,738374).
route(prodloc3,prodloc32,tr13,28399,170394).
route(prodloc3,prodloc33,tr0,6745,175370).
route(prodloc3,prodloc33,tr13,6745,40470).
route(prodloc4,harbor0,tr0,13211,343486).
route(prodloc4,harbor0,tr13,13211,79266).
route(prodloc4,harbor1,tr0,18561,482586).
route(prodloc4,harbor1,tr13,18561,111366).
route(prodloc4,harbor2,tr0,2369,61594).
route(prodloc4,harbor2,tr13,2369,14214).
route(prodloc4,harbor3,tr0,28257,734682).
route(prodloc4,harbor3,tr13,28257,169542).
route(prodloc4,harbor4,tr0,8863,230438).
route(prodloc4,harbor4,tr13,8863,53178).
route(prodloc4,harbor5,tr0,14709,382434).
route(prodloc4,harbor5,tr13,14709,88254).
route(prodloc4,harbor6,tr0,22793,592618).
route(prodloc4,harbor6,tr13,22793,136758).
route(prodloc4,harbor7,tr0,14383,373958).
route(prodloc4,harbor7,tr13,14383,86298).
route(prodloc4,harbor8,tr0,237,6162).
route(prodloc4,harbor8,tr13,237,1422).
route(prodloc4,harbor9,tr0,12015,312390).
route(prodloc4,harbor9,tr13,12015,72090).
route(prodloc4,harbor10,tr0,27054,703404).
route(prodloc4,harbor10,tr13,27054,162324).
route(prodloc4,harbor11,tr0,6246,162396).
route(prodloc4,harbor11,tr13,6246,37476).
route(prodloc4,harbor12,tr0,26999,701974).
route(prodloc4,harbor12,tr13,26999,161994).
route(prodloc4,harbor13,tr0,9327,242502).
route(prodloc4,harbor13,tr13,9327,55962).
route(prodloc4,harbor14,tr0,16314,424164).
route(prodloc4,harbor14,tr13,16314,97884).
route(prodloc4,harbor15,tr0,27456,713856).
route(prodloc4,harbor15,tr13,27456,164736).
route(prodloc4,harbor16,tr0,9008,234208).
route(prodloc4,harbor16,tr13,9008,54048).
route(prodloc4,prodloc0,tr0,5949,154674).
route(prodloc4,prodloc0,tr13,5949,35694).
route(prodloc4,prodloc1,tr13,12278,73668).
route(prodloc4,prodloc1,tr15,12278,392896).
route(prodloc4,prodloc2,tr0,22345,580970).
route(prodloc4,prodloc2,tr13,22345,134070).
route(prodloc4,prodloc3,tr0,9416,244816).
route(prodloc4,prodloc3,tr13,9416,56496).
route(prodloc4,prodloc5,tr0,23683,615758).
route(prodloc4,prodloc5,tr13,23683,142098).
route(prodloc4,prodloc6,tr0,11049,287274).
route(prodloc4,prodloc6,tr13,11049,66294).
route(prodloc4,prodloc7,tr0,28458,739908).
route(prodloc4,prodloc7,tr13,28458,170748).
route(prodloc4,prodloc8,tr0,28304,735904).
route(prodloc4,prodloc8,tr13,28304,169824).
route(prodloc4,prodloc9,tr0,25253,656578).
route(prodloc4,prodloc9,tr13,25253,151518).
route(prodloc4,prodloc10,tr0,8600,223600).
route(prodloc4,prodloc10,tr13,8600,51600).
route(prodloc4,prodloc11,tr0,26951,700726).
route(prodloc4,prodloc11,tr13,26951,161706).
route(prodloc4,prodloc12,tr0,5983,155558).
route(prodloc4,prodloc12,tr13,5983,35898).
route(prodloc4,prodloc13,tr0,1438,37388).
route(prodloc4,prodloc13,tr13,1438,8628).
route(prodloc4,prodloc14,tr0,10334,268684).
route(prodloc4,prodloc14,tr13,10334,62004).
route(prodloc4,prodloc15,tr0,2836,73736).
route(prodloc4,prodloc15,tr13,2836,17016).
route(prodloc4,prodloc16,tr0,24873,646698).
route(prodloc4,prodloc16,tr13,24873,149238).
route(prodloc4,prodloc17,tr0,4817,125242).
route(prodloc4,prodloc17,tr13,4817,28902).
route(prodloc4,prodloc18,tr13,7605,45630).
route(prodloc4,prodloc18,tr15,7605,243360).
route(prodloc4,prodloc19,tr0,24738,643188).
route(prodloc4,prodloc19,tr13,24738,148428).
route(prodloc4,prodloc20,tr0,21344,554944).
route(prodloc4,prodloc20,tr13,21344,128064).
route(prodloc4,prodloc21,tr0,28359,737334).
route(prodloc4,prodloc21,tr13,28359,170154).
route(prodloc4,prodloc22,tr0,8482,220532).
route(prodloc4,prodloc22,tr13,8482,50892).
route(prodloc4,prodloc23,tr0,9606,249756).
route(prodloc4,prodloc23,tr13,9606,57636).
route(prodloc4,prodloc24,tr0,28258,734708).
route(prodloc4,prodloc24,tr13,28258,169548).
route(prodloc4,prodloc25,tr0,19234,500084).
route(prodloc4,prodloc25,tr13,19234,115404).
route(prodloc4,prodloc26,tr0,11979,311454).
route(prodloc4,prodloc26,tr13,11979,71874).
route(prodloc4,prodloc27,tr0,977,25402).
route(prodloc4,prodloc27,tr13,977,5862).
route(prodloc4,prodloc28,tr0,15660,407160).
route(prodloc4,prodloc28,tr13,15660,93960).
route(prodloc4,prodloc29,tr0,2920,75920).
route(prodloc4,prodloc29,tr13,2920,17520).
route(prodloc4,prodloc30,tr0,5806,150956).
route(prodloc4,prodloc30,tr13,5806,34836).
route(prodloc4,prodloc31,tr0,18797,488722).
route(prodloc4,prodloc31,tr13,18797,112782).
route(prodloc4,prodloc32,tr0,12450,323700).
route(prodloc4,prodloc32,tr13,12450,74700).
route(prodloc4,prodloc33,tr0,15229,395954).
route(prodloc4,prodloc33,tr13,15229,91374).
route(prodloc5,harbor0,tr0,13871,360646).
route(prodloc5,harbor0,tr13,13871,83226).
route(prodloc5,harbor1,tr0,11515,299390).
route(prodloc5,harbor1,tr13,11515,69090).
route(prodloc5,harbor2,tr0,13610,353860).
route(prodloc5,harbor2,tr13,13610,81660).
route(prodloc5,harbor3,tr0,3222,83772).
route(prodloc5,harbor3,tr13,3222,19332).
route(prodloc5,harbor4,tr0,645,16770).
route(prodloc5,harbor4,tr13,645,3870).
route(prodloc5,harbor5,tr0,8514,221364).
route(prodloc5,harbor5,tr13,8514,51084).
route(prodloc5,harbor6,tr0,5809,151034).
route(prodloc5,harbor6,tr13,5809,34854).
route(prodloc5,harbor7,tr0,7824,203424).
route(prodloc5,harbor7,tr13,7824,46944).
route(prodloc5,harbor8,tr0,25984,675584).
route(prodloc5,harbor8,tr13,25984,155904).
route(prodloc5,harbor9,tr0,2291,59566).
route(prodloc5,harbor9,tr13,2291,13746).
route(prodloc5,harbor10,tr0,27756,721656).
route(prodloc5,harbor10,tr13,27756,166536).
route(prodloc5,harbor11,tr0,26733,695058).
route(prodloc5,harbor11,tr13,26733,160398).
route(prodloc5,harbor12,tr0,298,7748).
route(prodloc5,harbor12,tr13,298,1788).
route(prodloc5,harbor13,tr0,534,13884).
route(prodloc5,harbor13,tr13,534,3204).
route(prodloc5,harbor14,tr0,3507,91182).
route(prodloc5,harbor14,tr13,3507,21042).
route(prodloc5,harbor15,tr0,13582,353132).
route(prodloc5,harbor15,tr13,13582,81492).
route(prodloc5,harbor16,tr0,7803,202878).
route(prodloc5,harbor16,tr13,7803,46818).
route(prodloc5,prodloc0,tr0,5635,146510).
route(prodloc5,prodloc0,tr13,5635,33810).
route(prodloc5,prodloc1,tr0,6668,173368).
route(prodloc5,prodloc1,tr13,6668,40008).
route(prodloc5,prodloc2,tr0,14872,386672).
route(prodloc5,prodloc2,tr13,14872,89232).
route(prodloc5,prodloc3,tr0,24890,647140).
route(prodloc5,prodloc3,tr13,24890,149340).
route(prodloc5,prodloc4,tr0,24306,631956).
route(prodloc5,prodloc4,tr13,24306,145836).
route(prodloc5,prodloc6,tr0,6135,159510).
route(prodloc5,prodloc6,tr13,6135,36810).
route(prodloc5,prodloc7,tr0,23042,599092).
route(prodloc5,prodloc7,tr13,23042,138252).
route(prodloc5,prodloc8,tr0,10852,282152).
route(prodloc5,prodloc8,tr13,10852,65112).
route(prodloc5,prodloc9,tr0,3504,91104).
route(prodloc5,prodloc9,tr13,3504,21024).
route(prodloc5,prodloc10,tr0,17750,461500).
route(prodloc5,prodloc10,tr13,17750,106500).
route(prodloc5,prodloc11,tr0,25933,674258).
route(prodloc5,prodloc11,tr13,25933,155598).
route(prodloc5,prodloc12,tr0,14148,367848).
route(prodloc5,prodloc12,tr13,14148,84888).
route(prodloc5,prodloc13,tr0,17212,447512).
route(prodloc5,prodloc13,tr13,17212,103272).
route(prodloc5,prodloc14,tr0,2624,68224).
route(prodloc5,prodloc14,tr13,2624,15744).
route(prodloc5,prodloc15,tr0,3931,102206).
route(prodloc5,prodloc15,tr13,3931,23586).
route(prodloc5,prodloc16,tr0,13860,360360).
route(prodloc5,prodloc16,tr13,13860,83160).
route(prodloc5,prodloc17,tr0,19099,496574).
route(prodloc5,prodloc17,tr13,19099,114594).
route(prodloc5,prodloc18,tr0,20035,520910).
route(prodloc5,prodloc18,tr13,20035,120210).
route(prodloc5,prodloc19,tr0,13069,339794).
route(prodloc5,prodloc19,tr13,13069,78414).
route(prodloc5,prodloc20,tr0,27241,708266).
route(prodloc5,prodloc20,tr13,27241,163446).
route(prodloc5,prodloc21,tr0,25721,668746).
route(prodloc5,prodloc21,tr13,25721,154326).
route(prodloc5,prodloc22,tr0,1776,46176).
route(prodloc5,prodloc22,tr13,1776,10656).
route(prodloc5,prodloc23,tr0,14626,380276).
route(prodloc5,prodloc23,tr13,14626,87756).
route(prodloc5,prodloc24,tr0,9632,250432).
route(prodloc5,prodloc24,tr13,9632,57792).
route(prodloc5,prodloc25,tr0,2079,54054).
route(prodloc5,prodloc25,tr13,2079,12474).
route(prodloc5,prodloc26,tr0,20605,535730).
route(prodloc5,prodloc26,tr13,20605,123630).
route(prodloc5,prodloc27,tr0,18687,485862).
route(prodloc5,prodloc27,tr13,18687,112122).
route(prodloc5,prodloc28,tr0,10202,265252).
route(prodloc5,prodloc28,tr13,10202,61212).
route(prodloc5,prodloc29,tr0,8365,217490).
route(prodloc5,prodloc29,tr13,8365,50190).
route(prodloc5,prodloc30,tr0,6703,174278).
route(prodloc5,prodloc30,tr13,6703,40218).
route(prodloc5,prodloc31,tr0,3688,95888).
route(prodloc5,prodloc31,tr13,3688,22128).
route(prodloc5,prodloc32,tr0,15722,408772).
route(prodloc5,prodloc32,tr13,15722,94332).
route(prodloc5,prodloc33,tr0,19761,513786).
route(prodloc5,prodloc33,tr15,19761,632352).
route(prodloc6,harbor0,tr0,2395,62270).
route(prodloc6,harbor0,tr13,2395,14370).
route(prodloc6,harbor1,tr0,15349,399074).
route(prodloc6,harbor1,tr13,15349,92094).
route(prodloc6,harbor2,tr0,1208,31408).
route(prodloc6,harbor2,tr13,1208,7248).
route(prodloc6,harbor3,tr0,28145,731770).
route(prodloc6,harbor3,tr13,28145,168870).
route(prodloc6,harbor4,tr0,9656,251056).
route(prodloc6,harbor4,tr13,9656,57936).
route(prodloc6,harbor5,tr0,23977,623402).
route(prodloc6,harbor5,tr13,23977,143862).
route(prodloc6,harbor6,tr0,20989,545714).
route(prodloc6,harbor6,tr13,20989,125934).
route(prodloc6,harbor7,tr0,14497,376922).
route(prodloc6,harbor7,tr13,14497,86982).
route(prodloc6,harbor8,tr0,5553,144378).
route(prodloc6,harbor8,tr13,5553,33318).
route(prodloc6,harbor9,tr0,11972,311272).
route(prodloc6,harbor9,tr13,11972,71832).
route(prodloc6,harbor10,tr0,16289,423514).
route(prodloc6,harbor10,tr13,16289,97734).
route(prodloc6,harbor11,tr0,25306,657956).
route(prodloc6,harbor11,tr13,25306,151836).
route(prodloc6,harbor12,tr0,27573,716898).
route(prodloc6,harbor12,tr13,27573,165438).
route(prodloc6,harbor13,tr0,27440,713440).
route(prodloc6,harbor13,tr13,27440,164640).
route(prodloc6,harbor14,tr0,6485,168610).
route(prodloc6,harbor14,tr13,6485,38910).
route(prodloc6,harbor15,tr0,19738,513188).
route(prodloc6,harbor15,tr13,19738,118428).
route(prodloc6,harbor16,tr0,8512,221312).
route(prodloc6,harbor16,tr13,8512,51072).
route(prodloc6,prodloc0,tr0,28603,743678).
route(prodloc6,prodloc0,tr13,28603,171618).
route(prodloc6,prodloc1,tr0,15351,399126).
route(prodloc6,prodloc1,tr13,15351,92106).
route(prodloc6,prodloc2,tr0,17295,449670).
route(prodloc6,prodloc2,tr13,17295,103770).
route(prodloc6,prodloc3,tr0,13601,353626).
route(prodloc6,prodloc3,tr13,13601,81606).
route(prodloc6,prodloc4,tr0,23976,623376).
route(prodloc6,prodloc4,tr13,23976,143856).
route(prodloc6,prodloc5,tr0,10382,269932).
route(prodloc6,prodloc5,tr13,10382,62292).
route(prodloc6,prodloc7,tr0,28064,729664).
route(prodloc6,prodloc7,tr13,28064,168384).
route(prodloc6,prodloc8,tr0,8822,229372).
route(prodloc6,prodloc8,tr13,8822,52932).
route(prodloc6,prodloc9,tr0,12290,319540).
route(prodloc6,prodloc9,tr13,12290,73740).
route(prodloc6,prodloc10,tr0,5018,130468).
route(prodloc6,prodloc10,tr13,5018,30108).
route(prodloc6,prodloc11,tr0,10563,274638).
route(prodloc6,prodloc11,tr13,10563,63378).
route(prodloc6,prodloc12,tr0,20710,538460).
route(prodloc6,prodloc12,tr13,20710,124260).
route(prodloc6,prodloc13,tr0,18107,470782).
route(prodloc6,prodloc13,tr13,18107,108642).
route(prodloc6,prodloc14,tr0,1078,28028).
route(prodloc6,prodloc14,tr13,1078,6468).
route(prodloc6,prodloc15,tr0,2737,71162).
route(prodloc6,prodloc15,tr13,2737,16422).
route(prodloc6,prodloc16,tr0,16063,417638).
route(prodloc6,prodloc16,tr13,16063,96378).
route(prodloc6,prodloc17,tr0,6841,177866).
route(prodloc6,prodloc17,tr13,6841,41046).
route(prodloc6,prodloc18,tr0,26982,701532).
route(prodloc6,prodloc18,tr13,26982,161892).
route(prodloc6,prodloc19,tr0,13899,361374).
route(prodloc6,prodloc19,tr13,13899,83394).
route(prodloc6,prodloc20,tr0,26817,697242).
route(prodloc6,prodloc20,tr13,26817,160902).
route(prodloc6,prodloc21,tr0,26415,686790).
route(prodloc6,prodloc21,tr13,26415,158490).
route(prodloc6,prodloc22,tr0,17623,458198).
route(prodloc6,prodloc22,tr13,17623,105738).
route(prodloc6,prodloc23,tr0,28052,729352).
route(prodloc6,prodloc23,tr13,28052,168312).
route(prodloc6,prodloc24,tr0,26931,700206).
route(prodloc6,prodloc24,tr13,26931,161586).
route(prodloc6,prodloc25,tr0,24889,647114).
route(prodloc6,prodloc25,tr13,24889,149334).
route(prodloc6,prodloc26,tr0,27234,708084).
route(prodloc6,prodloc26,tr13,27234,163404).
route(prodloc6,prodloc27,tr0,9594,249444).
route(prodloc6,prodloc27,tr13,9594,57564).
route(prodloc6,prodloc28,tr0,11309,294034).
route(prodloc6,prodloc28,tr13,11309,67854).
route(prodloc6,prodloc29,tr0,13996,363896).
route(prodloc6,prodloc29,tr13,13996,83976).
route(prodloc6,prodloc30,tr0,20140,523640).
route(prodloc6,prodloc30,tr13,20140,120840).
route(prodloc6,prodloc31,tr0,6671,173446).
route(prodloc6,prodloc31,tr13,6671,40026).
route(prodloc6,prodloc32,tr0,12703,330278).
route(prodloc6,prodloc32,tr13,12703,76218).
route(prodloc6,prodloc33,tr0,18605,483730).
route(prodloc6,prodloc33,tr13,18605,111630).
route(prodloc7,harbor0,tr0,21286,553436).
route(prodloc7,harbor0,tr13,21286,127716).
route(prodloc7,harbor1,tr0,1650,42900).
route(prodloc7,harbor1,tr13,1650,9900).
route(prodloc7,harbor2,tr0,24958,648908).
route(prodloc7,harbor2,tr13,24958,149748).
route(prodloc7,harbor3,tr0,15726,408876).
route(prodloc7,harbor3,tr13,15726,94356).
route(prodloc7,harbor4,tr0,13337,346762).
route(prodloc7,harbor4,tr13,13337,80022).
route(prodloc7,harbor5,tr0,16596,431496).
route(prodloc7,harbor5,tr13,16596,99576).
route(prodloc7,harbor6,tr0,18580,483080).
route(prodloc7,harbor6,tr13,18580,111480).
route(prodloc7,harbor7,tr0,328,8528).
route(prodloc7,harbor7,tr13,328,1968).
route(prodloc7,harbor8,tr0,24656,641056).
route(prodloc7,harbor8,tr13,24656,147936).
route(prodloc7,harbor9,tr0,23193,603018).
route(prodloc7,harbor9,tr13,23193,139158).
route(prodloc7,harbor10,tr0,10878,282828).
route(prodloc7,harbor10,tr13,10878,65268).
route(prodloc7,harbor11,tr0,9125,237250).
route(prodloc7,harbor11,tr13,9125,54750).
route(prodloc7,harbor12,tr0,28585,743210).
route(prodloc7,harbor12,tr13,28585,171510).
route(prodloc7,harbor13,tr0,10002,260052).
route(prodloc7,harbor13,tr13,10002,60012).
route(prodloc7,harbor14,tr0,2500,65000).
route(prodloc7,harbor14,tr13,2500,15000).
route(prodloc7,harbor15,tr0,20254,526604).
route(prodloc7,harbor15,tr13,20254,121524).
route(prodloc7,harbor16,tr0,13919,361894).
route(prodloc7,harbor16,tr13,13919,83514).
route(prodloc7,prodloc0,tr0,2643,68718).
route(prodloc7,prodloc0,tr13,2643,15858).
route(prodloc7,prodloc1,tr0,18062,469612).
route(prodloc7,prodloc1,tr13,18062,108372).
route(prodloc7,prodloc2,tr0,1742,45292).
route(prodloc7,prodloc2,tr13,1742,10452).
route(prodloc7,prodloc3,tr0,9997,259922).
route(prodloc7,prodloc3,tr13,9997,59982).
route(prodloc7,prodloc4,tr0,24116,627016).
route(prodloc7,prodloc4,tr13,24116,144696).
route(prodloc7,prodloc5,tr0,7889,205114).
route(prodloc7,prodloc5,tr13,7889,47334).
route(prodloc7,prodloc6,tr0,21897,569322).
route(prodloc7,prodloc6,tr13,21897,131382).
route(prodloc7,prodloc8,tr0,25720,668720).
route(prodloc7,prodloc8,tr13,25720,154320).
route(prodloc7,prodloc9,tr0,22313,580138).
route(prodloc7,prodloc9,tr13,22313,133878).
route(prodloc7,prodloc10,tr0,6865,178490).
route(prodloc7,prodloc10,tr13,6865,41190).
route(prodloc7,prodloc11,tr0,2427,63102).
route(prodloc7,prodloc11,tr13,2427,14562).
route(prodloc7,prodloc12,tr0,18139,471614).
route(prodloc7,prodloc12,tr13,18139,108834).
route(prodloc7,prodloc13,tr0,14410,374660).
route(prodloc7,prodloc13,tr13,14410,86460).
route(prodloc7,prodloc14,tr0,655,17030).
route(prodloc7,prodloc14,tr13,655,3930).
route(prodloc7,prodloc15,tr0,4199,109174).
route(prodloc7,prodloc15,tr13,4199,25194).
route(prodloc7,prodloc16,tr0,15133,393458).
route(prodloc7,prodloc16,tr13,15133,90798).
route(prodloc7,prodloc17,tr0,15980,415480).
route(prodloc7,prodloc17,tr13,15980,95880).
route(prodloc7,prodloc18,tr0,6868,178568).
route(prodloc7,prodloc18,tr13,6868,41208).
route(prodloc7,prodloc19,tr0,124,3224).
route(prodloc7,prodloc19,tr13,124,744).
route(prodloc7,prodloc20,tr0,393,10218).
route(prodloc7,prodloc20,tr13,393,2358).
route(prodloc7,prodloc21,tr0,3528,91728).
route(prodloc7,prodloc21,tr13,3528,21168).
route(prodloc7,prodloc22,tr0,5988,155688).
route(prodloc7,prodloc22,tr13,5988,35928).
route(prodloc7,prodloc23,tr0,1232,32032).
route(prodloc7,prodloc23,tr13,1232,7392).
route(prodloc7,prodloc24,tr0,16580,431080).
route(prodloc7,prodloc24,tr13,16580,99480).
route(prodloc7,prodloc25,tr0,4116,107016).
route(prodloc7,prodloc25,tr13,4116,24696).
route(prodloc7,prodloc26,tr0,9669,251394).
route(prodloc7,prodloc26,tr13,9669,58014).
route(prodloc7,prodloc27,tr0,28030,728780).
route(prodloc7,prodloc27,tr13,28030,168180).
route(prodloc7,prodloc28,tr0,9771,254046).
route(prodloc7,prodloc28,tr13,9771,58626).
route(prodloc7,prodloc29,tr13,1232,7392).
route(prodloc7,prodloc29,tr15,1232,39424).
route(prodloc7,prodloc30,tr0,24040,625040).
route(prodloc7,prodloc30,tr13,24040,144240).
route(prodloc7,prodloc31,tr0,26467,688142).
route(prodloc7,prodloc31,tr13,26467,158802).
route(prodloc7,prodloc32,tr0,19021,494546).
route(prodloc7,prodloc32,tr13,19021,114126).
route(prodloc7,prodloc33,tr0,22369,581594).
route(prodloc7,prodloc33,tr13,22369,134214).
route(prodloc8,harbor0,tr0,14631,380406).
route(prodloc8,harbor0,tr13,14631,87786).
route(prodloc8,harbor1,tr0,22649,588874).
route(prodloc8,harbor1,tr13,22649,135894).
route(prodloc8,harbor2,tr0,14568,378768).
route(prodloc8,harbor2,tr13,14568,87408).
route(prodloc8,harbor3,tr0,3253,84578).
route(prodloc8,harbor3,tr13,3253,19518).
route(prodloc8,harbor4,tr0,9713,252538).
route(prodloc8,harbor4,tr13,9713,58278).
route(prodloc8,harbor5,tr0,12748,331448).
route(prodloc8,harbor5,tr13,12748,76488).
route(prodloc8,harbor6,tr0,7632,198432).
route(prodloc8,harbor6,tr13,7632,45792).
route(prodloc8,harbor7,tr0,28782,748332).
route(prodloc8,harbor7,tr13,28782,172692).
route(prodloc8,harbor8,tr0,1185,30810).
route(prodloc8,harbor8,tr13,1185,7110).
route(prodloc8,harbor9,tr0,406,10556).
route(prodloc8,harbor9,tr13,406,2436).
route(prodloc8,harbor10,tr0,15920,413920).
route(prodloc8,harbor10,tr13,15920,95520).
route(prodloc8,harbor11,tr0,8995,233870).
route(prodloc8,harbor11,tr13,8995,53970).
route(prodloc8,harbor12,tr0,25635,666510).
route(prodloc8,harbor12,tr13,25635,153810).
route(prodloc8,harbor13,tr0,20763,539838).
route(prodloc8,harbor13,tr13,20763,124578).
route(prodloc8,harbor14,tr0,15636,406536).
route(prodloc8,harbor14,tr13,15636,93816).
route(prodloc8,harbor15,tr0,17091,444366).
route(prodloc8,harbor15,tr13,17091,102546).
route(prodloc8,harbor16,tr0,6036,156936).
route(prodloc8,harbor16,tr13,6036,36216).
route(prodloc8,prodloc0,tr0,4683,121758).
route(prodloc8,prodloc0,tr13,4683,28098).
route(prodloc8,prodloc1,tr0,6031,156806).
route(prodloc8,prodloc1,tr13,6031,36186).
route(prodloc8,prodloc2,tr0,3416,88816).
route(prodloc8,prodloc2,tr13,3416,20496).
route(prodloc8,prodloc3,tr0,1004,26104).
route(prodloc8,prodloc3,tr13,1004,6024).
route(prodloc8,prodloc4,tr0,21994,571844).
route(prodloc8,prodloc4,tr13,21994,131964).
route(prodloc8,prodloc5,tr0,11187,290862).
route(prodloc8,prodloc5,tr13,11187,67122).
route(prodloc8,prodloc6,tr0,17875,464750).
route(prodloc8,prodloc6,tr13,17875,107250).
route(prodloc8,prodloc7,tr0,17253,448578).
route(prodloc8,prodloc7,tr13,17253,103518).
route(prodloc8,prodloc9,tr0,893,23218).
route(prodloc8,prodloc9,tr15,893,28576).
route(prodloc8,prodloc10,tr0,1385,36010).
route(prodloc8,prodloc10,tr13,1385,8310).
route(prodloc8,prodloc11,tr13,8851,53106).
route(prodloc8,prodloc11,tr15,8851,283232).
route(prodloc8,prodloc12,tr0,5367,139542).
route(prodloc8,prodloc12,tr13,5367,32202).
route(prodloc8,prodloc13,tr0,9104,236704).
route(prodloc8,prodloc13,tr13,9104,54624).
route(prodloc8,prodloc14,tr0,10495,272870).
route(prodloc8,prodloc14,tr13,10495,62970).
route(prodloc8,prodloc15,tr0,20784,540384).
route(prodloc8,prodloc15,tr13,20784,124704).
route(prodloc8,prodloc16,tr0,20851,542126).
route(prodloc8,prodloc16,tr13,20851,125106).
route(prodloc8,prodloc17,tr13,20398,122388).
route(prodloc8,prodloc17,tr15,20398,652736).
route(prodloc8,prodloc18,tr0,12573,326898).
route(prodloc8,prodloc18,tr15,12573,402336).
route(prodloc8,prodloc19,tr0,11665,303290).
route(prodloc8,prodloc19,tr13,11665,69990).
route(prodloc8,prodloc20,tr0,7440,193440).
route(prodloc8,prodloc20,tr13,7440,44640).
route(prodloc8,prodloc21,tr0,6858,178308).
route(prodloc8,prodloc21,tr13,6858,41148).
route(prodloc8,prodloc22,tr0,9278,241228).
route(prodloc8,prodloc22,tr13,9278,55668).
route(prodloc8,prodloc23,tr0,18414,478764).
route(prodloc8,prodloc23,tr13,18414,110484).
route(prodloc8,prodloc24,tr0,7380,191880).
route(prodloc8,prodloc24,tr13,7380,44280).
route(prodloc8,prodloc25,tr0,10707,278382).
route(prodloc8,prodloc25,tr13,10707,64242).
route(prodloc8,prodloc26,tr0,10626,276276).
route(prodloc8,prodloc26,tr13,10626,63756).
route(prodloc8,prodloc27,tr0,2519,65494).
route(prodloc8,prodloc27,tr13,2519,15114).
route(prodloc8,prodloc28,tr0,12521,325546).
route(prodloc8,prodloc28,tr13,12521,75126).
route(prodloc8,prodloc29,tr0,5770,150020).
route(prodloc8,prodloc29,tr13,5770,34620).
route(prodloc8,prodloc30,tr0,28451,739726).
route(prodloc8,prodloc30,tr13,28451,170706).
route(prodloc8,prodloc31,tr0,1285,33410).
route(prodloc8,prodloc31,tr13,1285,7710).
route(prodloc8,prodloc32,tr0,4348,113048).
route(prodloc8,prodloc32,tr13,4348,26088).
route(prodloc8,prodloc33,tr0,17462,454012).
route(prodloc8,prodloc33,tr13,17462,104772).
route(prodloc9,harbor0,tr0,6644,172744).
route(prodloc9,harbor0,tr13,6644,39864).
route(prodloc9,harbor1,tr0,21899,569374).
route(prodloc9,harbor1,tr13,21899,131394).
route(prodloc9,harbor2,tr0,20277,527202).
route(prodloc9,harbor2,tr13,20277,121662).
route(prodloc9,harbor3,tr0,15333,398658).
route(prodloc9,harbor3,tr13,15333,91998).
route(prodloc9,harbor4,tr0,15389,400114).
route(prodloc9,harbor4,tr13,15389,92334).
route(prodloc9,harbor5,tr0,22077,574002).
route(prodloc9,harbor5,tr13,22077,132462).
route(prodloc9,harbor6,tr0,8361,217386).
route(prodloc9,harbor6,tr13,8361,50166).
route(prodloc9,harbor7,tr0,1479,38454).
route(prodloc9,harbor7,tr13,1479,8874).
route(prodloc9,harbor8,tr0,2766,71916).
route(prodloc9,harbor8,tr13,2766,16596).
route(prodloc9,harbor9,tr0,1877,48802).
route(prodloc9,harbor9,tr13,1877,11262).
route(prodloc9,harbor10,tr0,20361,529386).
route(prodloc9,harbor10,tr13,20361,122166).
route(prodloc9,harbor11,tr0,22215,577590).
route(prodloc9,harbor11,tr13,22215,133290).
route(prodloc9,harbor12,tr0,22781,592306).
route(prodloc9,harbor12,tr13,22781,136686).
route(prodloc9,harbor13,tr0,2367,61542).
route(prodloc9,harbor13,tr13,2367,14202).
route(prodloc9,harbor14,tr0,22259,578734).
route(prodloc9,harbor14,tr13,22259,133554).
route(prodloc9,harbor15,tr0,8750,227500).
route(prodloc9,harbor15,tr13,8750,52500).
route(prodloc9,harbor16,tr0,15518,403468).
route(prodloc9,harbor16,tr13,15518,93108).
route(prodloc9,prodloc0,tr0,3228,83928).
route(prodloc9,prodloc0,tr13,3228,19368).
route(prodloc9,prodloc1,tr0,15473,402298).
route(prodloc9,prodloc1,tr13,15473,92838).
route(prodloc9,prodloc2,tr0,21148,549848).
route(prodloc9,prodloc2,tr13,21148,126888).
route(prodloc9,prodloc3,tr0,23056,599456).
route(prodloc9,prodloc3,tr13,23056,138336).
route(prodloc9,prodloc4,tr0,20179,524654).
route(prodloc9,prodloc4,tr13,20179,121074).
route(prodloc9,prodloc5,tr0,11326,294476).
route(prodloc9,prodloc5,tr13,11326,67956).
route(prodloc9,prodloc6,tr0,8213,213538).
route(prodloc9,prodloc6,tr13,8213,49278).
route(prodloc9,prodloc7,tr0,15501,403026).
route(prodloc9,prodloc7,tr13,15501,93006).
route(prodloc9,prodloc8,tr13,19348,116088).
route(prodloc9,prodloc8,tr15,19348,619136).
route(prodloc9,prodloc10,tr0,842,21892).
route(prodloc9,prodloc10,tr13,842,5052).
route(prodloc9,prodloc11,tr0,25527,663702).
route(prodloc9,prodloc11,tr13,25527,153162).
route(prodloc9,prodloc12,tr0,19302,501852).
route(prodloc9,prodloc12,tr13,19302,115812).
route(prodloc9,prodloc13,tr0,4168,108368).
route(prodloc9,prodloc13,tr13,4168,25008).
route(prodloc9,prodloc14,tr0,10752,279552).
route(prodloc9,prodloc14,tr13,10752,64512).
route(prodloc9,prodloc15,tr0,17001,442026).
route(prodloc9,prodloc15,tr13,17001,102006).
route(prodloc9,prodloc16,tr0,9515,247390).
route(prodloc9,prodloc16,tr13,9515,57090).
route(prodloc9,prodloc17,tr0,5710,148460).
route(prodloc9,prodloc17,tr13,5710,34260).
route(prodloc9,prodloc18,tr0,9495,246870).
route(prodloc9,prodloc18,tr13,9495,56970).
route(prodloc9,prodloc19,tr0,12606,327756).
route(prodloc9,prodloc19,tr13,12606,75636).
route(prodloc9,prodloc20,tr0,8317,216242).
route(prodloc9,prodloc20,tr13,8317,49902).
route(prodloc9,prodloc21,tr0,11433,297258).
route(prodloc9,prodloc21,tr13,11433,68598).
route(prodloc9,prodloc22,tr0,13719,356694).
route(prodloc9,prodloc22,tr13,13719,82314).
route(prodloc9,prodloc23,tr0,15190,394940).
route(prodloc9,prodloc23,tr13,15190,91140).
route(prodloc9,prodloc24,tr0,17472,454272).
route(prodloc9,prodloc24,tr13,17472,104832).
route(prodloc9,prodloc25,tr0,13289,345514).
route(prodloc9,prodloc25,tr13,13289,79734).
route(prodloc9,prodloc26,tr0,5544,144144).
route(prodloc9,prodloc26,tr13,5544,33264).
route(prodloc9,prodloc27,tr0,7155,186030).
route(prodloc9,prodloc27,tr13,7155,42930).
route(prodloc9,prodloc28,tr0,2076,53976).
route(prodloc9,prodloc28,tr13,2076,12456).
route(prodloc9,prodloc29,tr0,5529,143754).
route(prodloc9,prodloc29,tr13,5529,33174).
route(prodloc9,prodloc30,tr0,25360,659360).
route(prodloc9,prodloc30,tr13,25360,152160).
route(prodloc9,prodloc31,tr0,15323,398398).
route(prodloc9,prodloc31,tr13,15323,91938).
route(prodloc9,prodloc32,tr0,7883,204958).
route(prodloc9,prodloc32,tr13,7883,47298).
route(prodloc9,prodloc33,tr0,16957,440882).
route(prodloc9,prodloc33,tr13,16957,101742).
route(prodloc10,harbor0,tr0,27801,722826).
route(prodloc10,harbor0,tr13,27801,166806).
route(prodloc10,harbor1,tr0,13965,363090).
route(prodloc10,harbor1,tr13,13965,83790).
route(prodloc10,harbor2,tr0,4911,127686).
route(prodloc10,harbor2,tr13,4911,29466).
route(prodloc10,harbor3,tr0,27559,716534).
route(prodloc10,harbor3,tr13,27559,165354).
route(prodloc10,harbor4,tr0,20781,540306).
route(prodloc10,harbor4,tr13,20781,124686).
route(prodloc10,harbor5,tr0,20056,521456).
route(prodloc10,harbor5,tr13,20056,120336).
route(prodloc10,harbor6,tr0,4797,124722).
route(prodloc10,harbor6,tr13,4797,28782).
route(prodloc10,harbor7,tr0,1495,38870).
route(prodloc10,harbor7,tr13,1495,8970).
route(prodloc10,harbor8,tr0,10664,277264).
route(prodloc10,harbor8,tr13,10664,63984).
route(prodloc10,harbor9,tr0,4642,120692).
route(prodloc10,harbor9,tr13,4642,27852).
route(prodloc10,harbor10,tr0,21100,548600).
route(prodloc10,harbor10,tr13,21100,126600).
route(prodloc10,harbor11,tr0,11108,288808).
route(prodloc10,harbor11,tr13,11108,66648).
route(prodloc10,harbor12,tr0,26220,681720).
route(prodloc10,harbor12,tr13,26220,157320).
route(prodloc10,harbor13,tr0,3358,87308).
route(prodloc10,harbor13,tr13,3358,20148).
route(prodloc10,harbor14,tr0,22774,592124).
route(prodloc10,harbor14,tr13,22774,136644).
route(prodloc10,harbor15,tr0,18399,478374).
route(prodloc10,harbor15,tr13,18399,110394).
route(prodloc10,harbor16,tr0,19239,500214).
route(prodloc10,harbor16,tr13,19239,115434).
route(prodloc10,prodloc0,tr0,23286,605436).
route(prodloc10,prodloc0,tr13,23286,139716).
route(prodloc10,prodloc1,tr0,16735,435110).
route(prodloc10,prodloc1,tr13,16735,100410).
route(prodloc10,prodloc2,tr0,14738,383188).
route(prodloc10,prodloc2,tr13,14738,88428).
route(prodloc10,prodloc3,tr0,11097,288522).
route(prodloc10,prodloc3,tr13,11097,66582).
route(prodloc10,prodloc4,tr0,16802,436852).
route(prodloc10,prodloc4,tr13,16802,100812).
route(prodloc10,prodloc5,tr0,18518,481468).
route(prodloc10,prodloc5,tr13,18518,111108).
route(prodloc10,prodloc6,tr0,11934,310284).
route(prodloc10,prodloc6,tr13,11934,71604).
route(prodloc10,prodloc7,tr0,40,1040).
route(prodloc10,prodloc7,tr13,40,240).
route(prodloc10,prodloc8,tr0,6833,177658).
route(prodloc10,prodloc8,tr13,6833,40998).
route(prodloc10,prodloc9,tr0,302,7852).
route(prodloc10,prodloc9,tr13,302,1812).
route(prodloc10,prodloc11,tr0,19050,495300).
route(prodloc10,prodloc11,tr13,19050,114300).
route(prodloc10,prodloc12,tr0,16985,441610).
route(prodloc10,prodloc12,tr13,16985,101910).
route(prodloc10,prodloc13,tr0,24385,634010).
route(prodloc10,prodloc13,tr13,24385,146310).
route(prodloc10,prodloc14,tr0,13734,357084).
route(prodloc10,prodloc14,tr13,13734,82404).
route(prodloc10,prodloc15,tr0,16498,428948).
route(prodloc10,prodloc15,tr13,16498,98988).
route(prodloc10,prodloc16,tr0,9736,253136).
route(prodloc10,prodloc16,tr13,9736,58416).
route(prodloc10,prodloc17,tr0,12801,332826).
route(prodloc10,prodloc17,tr13,12801,76806).
route(prodloc10,prodloc18,tr0,5049,131274).
route(prodloc10,prodloc18,tr13,5049,30294).
route(prodloc10,prodloc19,tr0,8234,214084).
route(prodloc10,prodloc19,tr13,8234,49404).
route(prodloc10,prodloc20,tr0,16877,438802).
route(prodloc10,prodloc20,tr13,16877,101262).
route(prodloc10,prodloc21,tr0,27698,720148).
route(prodloc10,prodloc21,tr13,27698,166188).
route(prodloc10,prodloc22,tr0,1194,31044).
route(prodloc10,prodloc22,tr13,1194,7164).
route(prodloc10,prodloc23,tr0,1709,44434).
route(prodloc10,prodloc23,tr13,1709,10254).
route(prodloc10,prodloc24,tr0,19177,498602).
route(prodloc10,prodloc24,tr13,19177,115062).
route(prodloc10,prodloc25,tr0,13556,352456).
route(prodloc10,prodloc25,tr13,13556,81336).
route(prodloc10,prodloc26,tr0,23293,605618).
route(prodloc10,prodloc26,tr13,23293,139758).
route(prodloc10,prodloc27,tr0,7422,192972).
route(prodloc10,prodloc27,tr13,7422,44532).
route(prodloc10,prodloc28,tr0,10640,276640).
route(prodloc10,prodloc28,tr13,10640,63840).
route(prodloc10,prodloc29,tr0,27617,718042).
route(prodloc10,prodloc29,tr13,27617,165702).
route(prodloc10,prodloc30,tr0,5171,134446).
route(prodloc10,prodloc30,tr13,5171,31026).
route(prodloc10,prodloc31,tr0,3626,94276).
route(prodloc10,prodloc31,tr13,3626,21756).
route(prodloc10,prodloc32,tr0,1861,48386).
route(prodloc10,prodloc32,tr13,1861,11166).
route(prodloc10,prodloc33,tr0,3748,97448).
route(prodloc10,prodloc33,tr13,3748,22488).
route(prodloc11,harbor0,tr0,20222,525772).
route(prodloc11,harbor0,tr13,20222,121332).
route(prodloc11,harbor1,tr0,23737,617162).
route(prodloc11,harbor1,tr13,23737,142422).
route(prodloc11,harbor2,tr0,15603,405678).
route(prodloc11,harbor2,tr13,15603,93618).
route(prodloc11,harbor3,tr0,22626,588276).
route(prodloc11,harbor3,tr13,22626,135756).
route(prodloc11,harbor4,tr0,5745,149370).
route(prodloc11,harbor4,tr13,5745,34470).
route(prodloc11,harbor5,tr0,22053,573378).
route(prodloc11,harbor5,tr13,22053,132318).
route(prodloc11,harbor6,tr0,4125,107250).
route(prodloc11,harbor6,tr13,4125,24750).
route(prodloc11,harbor7,tr0,28160,732160).
route(prodloc11,harbor7,tr13,28160,168960).
route(prodloc11,harbor8,tr0,28667,745342).
route(prodloc11,harbor8,tr13,28667,172002).
route(prodloc11,harbor9,tr0,13508,351208).
route(prodloc11,harbor9,tr13,13508,81048).
route(prodloc11,harbor10,tr0,5171,134446).
route(prodloc11,harbor10,tr13,5171,31026).
route(prodloc11,harbor11,tr0,14049,365274).
route(prodloc11,harbor11,tr13,14049,84294).
route(prodloc11,harbor12,tr0,18936,492336).
route(prodloc11,harbor12,tr13,18936,113616).
route(prodloc11,harbor13,tr0,8535,221910).
route(prodloc11,harbor13,tr13,8535,51210).
route(prodloc11,harbor14,tr0,23264,604864).
route(prodloc11,harbor14,tr13,23264,139584).
route(prodloc11,harbor15,tr0,27237,708162).
route(prodloc11,harbor15,tr13,27237,163422).
route(prodloc11,harbor16,tr0,6979,181454).
route(prodloc11,harbor16,tr13,6979,41874).
route(prodloc11,prodloc0,tr0,22619,588094).
route(prodloc11,prodloc0,tr13,22619,135714).
route(prodloc11,prodloc1,tr0,24439,635414).
route(prodloc11,prodloc1,tr13,24439,146634).
route(prodloc11,prodloc2,tr0,17170,446420).
route(prodloc11,prodloc2,tr13,17170,103020).
route(prodloc11,prodloc3,tr0,16799,436774).
route(prodloc11,prodloc3,tr13,16799,100794).
route(prodloc11,prodloc4,tr0,25530,663780).
route(prodloc11,prodloc4,tr13,25530,153180).
route(prodloc11,prodloc5,tr0,21496,558896).
route(prodloc11,prodloc5,tr13,21496,128976).
route(prodloc11,prodloc6,tr0,190,4940).
route(prodloc11,prodloc6,tr13,190,1140).
route(prodloc11,prodloc7,tr0,1505,39130).
route(prodloc11,prodloc7,tr13,1505,9030).
route(prodloc11,prodloc8,tr0,13464,350064).
route(prodloc11,prodloc8,tr13,13464,80784).
route(prodloc11,prodloc9,tr0,7200,187200).
route(prodloc11,prodloc9,tr13,7200,43200).
route(prodloc11,prodloc10,tr0,22497,584922).
route(prodloc11,prodloc10,tr13,22497,134982).
route(prodloc11,prodloc12,tr0,15325,398450).
route(prodloc11,prodloc12,tr13,15325,91950).
route(prodloc11,prodloc13,tr0,23408,608608).
route(prodloc11,prodloc13,tr13,23408,140448).
route(prodloc11,prodloc14,tr0,23750,617500).
route(prodloc11,prodloc14,tr13,23750,142500).
route(prodloc11,prodloc15,tr0,7924,206024).
route(prodloc11,prodloc15,tr13,7924,47544).
route(prodloc11,prodloc16,tr0,24725,642850).
route(prodloc11,prodloc16,tr13,24725,148350).
route(prodloc11,prodloc17,tr0,14511,377286).
route(prodloc11,prodloc17,tr13,14511,87066).
route(prodloc11,prodloc18,tr0,9148,237848).
route(prodloc11,prodloc18,tr13,9148,54888).
route(prodloc11,prodloc19,tr0,21744,565344).
route(prodloc11,prodloc19,tr13,21744,130464).
route(prodloc11,prodloc20,tr0,17291,449566).
route(prodloc11,prodloc20,tr13,17291,103746).
route(prodloc11,prodloc21,tr0,9638,250588).
route(prodloc11,prodloc21,tr13,9638,57828).
route(prodloc11,prodloc22,tr0,6699,174174).
route(prodloc11,prodloc22,tr13,6699,40194).
route(prodloc11,prodloc23,tr0,21939,570414).
route(prodloc11,prodloc23,tr13,21939,131634).
route(prodloc11,prodloc24,tr0,16082,418132).
route(prodloc11,prodloc24,tr13,16082,96492).
route(prodloc11,prodloc25,tr0,1980,51480).
route(prodloc11,prodloc25,tr13,1980,11880).
route(prodloc11,prodloc26,tr0,26802,696852).
route(prodloc11,prodloc26,tr13,26802,160812).
route(prodloc11,prodloc27,tr0,13517,351442).
route(prodloc11,prodloc27,tr13,13517,81102).
route(prodloc11,prodloc28,tr0,20931,544206).
route(prodloc11,prodloc28,tr13,20931,125586).
route(prodloc11,prodloc29,tr0,23462,610012).
route(prodloc11,prodloc29,tr13,23462,140772).
route(prodloc11,prodloc30,tr0,28299,735774).
route(prodloc11,prodloc30,tr13,28299,169794).
route(prodloc11,prodloc31,tr0,8930,232180).
route(prodloc11,prodloc31,tr13,8930,53580).
route(prodloc11,prodloc32,tr0,16750,435500).
route(prodloc11,prodloc32,tr13,16750,100500).
route(prodloc11,prodloc33,tr0,3701,96226).
route(prodloc11,prodloc33,tr13,3701,22206).
route(prodloc12,harbor0,tr0,21788,566488).
route(prodloc12,harbor0,tr13,21788,130728).
route(prodloc12,harbor1,tr0,11670,303420).
route(prodloc12,harbor1,tr13,11670,70020).
route(prodloc12,harbor2,tr0,21752,565552).
route(prodloc12,harbor2,tr13,21752,130512).
route(prodloc12,harbor3,tr0,10539,274014).
route(prodloc12,harbor3,tr13,10539,63234).
route(prodloc12,harbor4,tr0,21225,551850).
route(prodloc12,harbor4,tr13,21225,127350).
route(prodloc12,harbor5,tr0,14767,383942).
route(prodloc12,harbor5,tr13,14767,88602).
route(prodloc12,harbor6,tr0,14793,384618).
route(prodloc12,harbor6,tr13,14793,88758).
route(prodloc12,harbor7,tr0,7718,200668).
route(prodloc12,harbor7,tr13,7718,46308).
route(prodloc12,harbor8,tr0,10385,270010).
route(prodloc12,harbor8,tr13,10385,62310).
route(prodloc12,harbor9,tr0,27426,713076).
route(prodloc12,harbor9,tr13,27426,164556).
route(prodloc12,harbor10,tr0,4188,108888).
route(prodloc12,harbor10,tr13,4188,25128).
route(prodloc12,harbor11,tr0,10855,282230).
route(prodloc12,harbor11,tr13,10855,65130).
route(prodloc12,harbor12,tr0,22804,592904).
route(prodloc12,harbor12,tr13,22804,136824).
route(prodloc12,harbor13,tr0,25406,660556).
route(prodloc12,harbor13,tr13,25406,152436).
route(prodloc12,harbor14,tr0,7477,194402).
route(prodloc12,harbor14,tr13,7477,44862).
route(prodloc12,harbor15,tr0,21342,554892).
route(prodloc12,harbor15,tr13,21342,128052).
route(prodloc12,harbor16,tr0,8634,224484).
route(prodloc12,harbor16,tr13,8634,51804).
route(prodloc12,prodloc0,tr0,24678,641628).
route(prodloc12,prodloc0,tr13,24678,148068).
route(prodloc12,prodloc1,tr0,6383,165958).
route(prodloc12,prodloc1,tr13,6383,38298).
route(prodloc12,prodloc2,tr0,10305,267930).
route(prodloc12,prodloc2,tr13,10305,61830).
route(prodloc12,prodloc3,tr0,12553,326378).
route(prodloc12,prodloc3,tr13,12553,75318).
route(prodloc12,prodloc4,tr0,5792,150592).
route(prodloc12,prodloc4,tr13,5792,34752).
route(prodloc12,prodloc5,tr0,11222,291772).
route(prodloc12,prodloc5,tr13,11222,67332).
route(prodloc12,prodloc6,tr0,17444,453544).
route(prodloc12,prodloc6,tr13,17444,104664).
route(prodloc12,prodloc7,tr0,11183,290758).
route(prodloc12,prodloc7,tr13,11183,67098).
route(prodloc12,prodloc8,tr0,15322,398372).
route(prodloc12,prodloc8,tr15,15322,490304).
route(prodloc12,prodloc9,tr0,28750,747500).
route(prodloc12,prodloc9,tr13,28750,172500).
route(prodloc12,prodloc10,tr0,21260,552760).
route(prodloc12,prodloc10,tr13,21260,127560).
route(prodloc12,prodloc11,tr0,1220,31720).
route(prodloc12,prodloc11,tr15,1220,39040).
route(prodloc12,prodloc13,tr0,28616,744016).
route(prodloc12,prodloc13,tr13,28616,171696).
route(prodloc12,prodloc14,tr0,15180,394680).
route(prodloc12,prodloc14,tr15,15180,485760).
route(prodloc12,prodloc15,tr0,12858,334308).
route(prodloc12,prodloc15,tr13,12858,77148).
route(prodloc12,prodloc16,tr0,26288,683488).
route(prodloc12,prodloc16,tr13,26288,157728).
route(prodloc12,prodloc17,tr0,12246,318396).
route(prodloc12,prodloc17,tr13,12246,73476).
route(prodloc12,prodloc18,tr0,23095,600470).
route(prodloc12,prodloc18,tr13,23095,138570).
route(prodloc12,prodloc19,tr0,28000,728000).
route(prodloc12,prodloc19,tr13,28000,168000).
route(prodloc12,prodloc20,tr0,28930,752180).
route(prodloc12,prodloc20,tr13,28930,173580).
route(prodloc12,prodloc21,tr0,12827,333502).
route(prodloc12,prodloc21,tr13,12827,76962).
route(prodloc12,prodloc22,tr0,18553,482378).
route(prodloc12,prodloc22,tr13,18553,111318).
route(prodloc12,prodloc23,tr0,3936,102336).
route(prodloc12,prodloc23,tr13,3936,23616).
route(prodloc12,prodloc24,tr0,19468,506168).
route(prodloc12,prodloc24,tr13,19468,116808).
route(prodloc12,prodloc25,tr0,16037,416962).
route(prodloc12,prodloc25,tr13,16037,96222).
route(prodloc12,prodloc26,tr0,1473,38298).
route(prodloc12,prodloc26,tr13,1473,8838).
route(prodloc12,prodloc27,tr0,3915,101790).
route(prodloc12,prodloc27,tr13,3915,23490).
route(prodloc12,prodloc28,tr0,3115,80990).
route(prodloc12,prodloc28,tr13,3115,18690).
route(prodloc12,prodloc29,tr0,17165,446290).
route(prodloc12,prodloc29,tr13,17165,102990).
route(prodloc12,prodloc30,tr0,18075,469950).
route(prodloc12,prodloc30,tr13,18075,108450).
route(prodloc12,prodloc31,tr0,22908,595608).
route(prodloc12,prodloc31,tr13,22908,137448).
route(prodloc12,prodloc32,tr0,16384,425984).
route(prodloc12,prodloc32,tr13,16384,98304).
route(prodloc12,prodloc33,tr0,28656,745056).
route(prodloc12,prodloc33,tr13,28656,171936).
route(prodloc13,harbor0,tr0,3183,82758).
route(prodloc13,harbor0,tr13,3183,19098).
route(prodloc13,harbor1,tr0,7655,199030).
route(prodloc13,harbor1,tr13,7655,45930).
route(prodloc13,harbor2,tr0,28070,729820).
route(prodloc13,harbor2,tr13,28070,168420).
route(prodloc13,harbor3,tr0,1452,37752).
route(prodloc13,harbor3,tr13,1452,8712).
route(prodloc13,harbor4,tr0,2975,77350).
route(prodloc13,harbor4,tr13,2975,17850).
route(prodloc13,harbor5,tr0,20663,537238).
route(prodloc13,harbor5,tr13,20663,123978).
route(prodloc13,harbor6,tr0,14973,389298).
route(prodloc13,harbor6,tr13,14973,89838).
route(prodloc13,harbor7,tr0,2839,73814).
route(prodloc13,harbor7,tr13,2839,17034).
route(prodloc13,harbor8,tr0,15018,390468).
route(prodloc13,harbor8,tr13,15018,90108).
route(prodloc13,harbor9,tr0,13988,363688).
route(prodloc13,harbor9,tr13,13988,83928).
route(prodloc13,harbor10,tr0,17775,462150).
route(prodloc13,harbor10,tr13,17775,106650).
route(prodloc13,harbor11,tr0,9085,236210).
route(prodloc13,harbor11,tr13,9085,54510).
route(prodloc13,harbor12,tr0,3979,103454).
route(prodloc13,harbor12,tr13,3979,23874).
route(prodloc13,harbor13,tr0,963,25038).
route(prodloc13,harbor13,tr13,963,5778).
route(prodloc13,harbor14,tr0,28032,728832).
route(prodloc13,harbor14,tr13,28032,168192).
route(prodloc13,harbor15,tr0,18235,474110).
route(prodloc13,harbor15,tr13,18235,109410).
route(prodloc13,harbor16,tr0,7082,184132).
route(prodloc13,harbor16,tr13,7082,42492).
route(prodloc13,prodloc0,tr0,11197,291122).
route(prodloc13,prodloc0,tr13,11197,67182).
route(prodloc13,prodloc1,tr0,16367,425542).
route(prodloc13,prodloc1,tr13,16367,98202).
route(prodloc13,prodloc2,tr0,20562,534612).
route(prodloc13,prodloc2,tr13,20562,123372).
route(prodloc13,prodloc3,tr0,1336,34736).
route(prodloc13,prodloc3,tr13,1336,8016).
route(prodloc13,prodloc4,tr0,17911,465686).
route(prodloc13,prodloc4,tr13,17911,107466).
route(prodloc13,prodloc5,tr0,10104,262704).
route(prodloc13,prodloc5,tr13,10104,60624).
route(prodloc13,prodloc6,tr0,22854,594204).
route(prodloc13,prodloc6,tr13,22854,137124).
route(prodloc13,prodloc7,tr0,10959,284934).
route(prodloc13,prodloc7,tr13,10959,65754).
route(prodloc13,prodloc8,tr0,4002,104052).
route(prodloc13,prodloc8,tr13,4002,24012).
route(prodloc13,prodloc9,tr0,26551,690326).
route(prodloc13,prodloc9,tr13,26551,159306).
route(prodloc13,prodloc10,tr0,19905,517530).
route(prodloc13,prodloc10,tr13,19905,119430).
route(prodloc13,prodloc11,tr0,8867,230542).
route(prodloc13,prodloc11,tr13,8867,53202).
route(prodloc13,prodloc12,tr0,5877,152802).
route(prodloc13,prodloc12,tr13,5877,35262).
route(prodloc13,prodloc14,tr0,19307,501982).
route(prodloc13,prodloc14,tr13,19307,115842).
route(prodloc13,prodloc15,tr0,4141,107666).
route(prodloc13,prodloc15,tr13,4141,24846).
route(prodloc13,prodloc16,tr0,27376,711776).
route(prodloc13,prodloc16,tr13,27376,164256).
route(prodloc13,prodloc17,tr0,17853,464178).
route(prodloc13,prodloc17,tr13,17853,107118).
route(prodloc13,prodloc18,tr0,18308,476008).
route(prodloc13,prodloc18,tr13,18308,109848).
route(prodloc13,prodloc19,tr0,26695,694070).
route(prodloc13,prodloc19,tr13,26695,160170).
route(prodloc13,prodloc20,tr0,13153,341978).
route(prodloc13,prodloc20,tr13,13153,78918).
route(prodloc13,prodloc21,tr0,7038,182988).
route(prodloc13,prodloc21,tr13,7038,42228).
route(prodloc13,prodloc22,tr0,4218,109668).
route(prodloc13,prodloc22,tr13,4218,25308).
route(prodloc13,prodloc23,tr0,5791,150566).
route(prodloc13,prodloc23,tr13,5791,34746).
route(prodloc13,prodloc24,tr0,18936,492336).
route(prodloc13,prodloc24,tr13,18936,113616).
route(prodloc13,prodloc25,tr0,23934,622284).
route(prodloc13,prodloc25,tr13,23934,143604).
route(prodloc13,prodloc26,tr0,22663,589238).
route(prodloc13,prodloc26,tr13,22663,135978).
route(prodloc13,prodloc27,tr0,5843,151918).
route(prodloc13,prodloc27,tr13,5843,35058).
route(prodloc13,prodloc28,tr0,8299,215774).
route(prodloc13,prodloc28,tr13,8299,49794).
route(prodloc13,prodloc29,tr0,16455,427830).
route(prodloc13,prodloc29,tr13,16455,98730).
route(prodloc13,prodloc30,tr0,19122,497172).
route(prodloc13,prodloc30,tr13,19122,114732).
route(prodloc13,prodloc31,tr0,18415,478790).
route(prodloc13,prodloc31,tr13,18415,110490).
route(prodloc13,prodloc32,tr0,16931,440206).
route(prodloc13,prodloc32,tr13,16931,101586).
route(prodloc13,prodloc33,tr0,16369,425594).
route(prodloc13,prodloc33,tr13,16369,98214).
route(prodloc14,harbor0,tr0,6552,170352).
route(prodloc14,harbor0,tr13,6552,39312).
route(prodloc14,harbor1,tr0,10298,267748).
route(prodloc14,harbor1,tr13,10298,61788).
route(prodloc14,harbor2,tr0,8558,222508).
route(prodloc14,harbor2,tr13,8558,51348).
route(prodloc14,harbor3,tr0,14639,380614).
route(prodloc14,harbor3,tr13,14639,87834).
route(prodloc14,harbor4,tr0,20251,526526).
route(prodloc14,harbor4,tr13,20251,121506).
route(prodloc14,harbor5,tr0,3614,93964).
route(prodloc14,harbor5,tr13,3614,21684).
route(prodloc14,harbor6,tr0,11747,305422).
route(prodloc14,harbor6,tr13,11747,70482).
route(prodloc14,harbor7,tr0,3225,83850).
route(prodloc14,harbor7,tr13,3225,19350).
route(prodloc14,harbor8,tr0,11871,308646).
route(prodloc14,harbor8,tr13,11871,71226).
route(prodloc14,harbor9,tr0,1934,50284).
route(prodloc14,harbor9,tr13,1934,11604).
route(prodloc14,harbor10,tr0,7930,206180).
route(prodloc14,harbor10,tr13,7930,47580).
route(prodloc14,harbor11,tr0,27319,710294).
route(prodloc14,harbor11,tr13,27319,163914).
route(prodloc14,harbor12,tr0,10841,281866).
route(prodloc14,harbor12,tr13,10841,65046).
route(prodloc14,harbor13,tr0,8175,212550).
route(prodloc14,harbor13,tr13,8175,49050).
route(prodloc14,harbor14,tr0,938,24388).
route(prodloc14,harbor14,tr13,938,5628).
route(prodloc14,harbor15,tr0,22104,574704).
route(prodloc14,harbor15,tr13,22104,132624).
route(prodloc14,harbor16,tr0,18953,492778).
route(prodloc14,harbor16,tr13,18953,113718).
route(prodloc14,prodloc0,tr0,3769,97994).
route(prodloc14,prodloc0,tr13,3769,22614).
route(prodloc14,prodloc1,tr0,11167,290342).
route(prodloc14,prodloc1,tr13,11167,67002).
route(prodloc14,prodloc2,tr0,6900,179400).
route(prodloc14,prodloc2,tr13,6900,41400).
route(prodloc14,prodloc3,tr0,935,24310).
route(prodloc14,prodloc3,tr13,935,5610).
route(prodloc14,prodloc4,tr0,17266,448916).
route(prodloc14,prodloc4,tr13,17266,103596).
route(prodloc14,prodloc5,tr0,26398,686348).
route(prodloc14,prodloc5,tr13,26398,158388).
route(prodloc14,prodloc6,tr0,27250,708500).
route(prodloc14,prodloc6,tr13,27250,163500).
route(prodloc14,prodloc7,tr0,17417,452842).
route(prodloc14,prodloc7,tr13,17417,104502).
route(prodloc14,prodloc8,tr0,21228,551928).
route(prodloc14,prodloc8,tr15,21228,679296).
route(prodloc14,prodloc9,tr0,26104,678704).
route(prodloc14,prodloc9,tr13,26104,156624).
route(prodloc14,prodloc10,tr0,405,10530).
route(prodloc14,prodloc10,tr13,405,2430).
route(prodloc14,prodloc11,tr0,9334,242684).
route(prodloc14,prodloc11,tr13,9334,56004).
route(prodloc14,prodloc12,tr0,1664,43264).
route(prodloc14,prodloc12,tr13,1664,9984).
route(prodloc14,prodloc13,tr0,3839,99814).
route(prodloc14,prodloc13,tr13,3839,23034).
route(prodloc14,prodloc15,tr0,8167,212342).
route(prodloc14,prodloc15,tr13,8167,49002).
route(prodloc14,prodloc16,tr0,5681,147706).
route(prodloc14,prodloc16,tr13,5681,34086).
route(prodloc14,prodloc17,tr0,1446,37596).
route(prodloc14,prodloc17,tr13,1446,8676).
route(prodloc14,prodloc18,tr0,26824,697424).
route(prodloc14,prodloc18,tr13,26824,160944).
route(prodloc14,prodloc19,tr0,28347,737022).
route(prodloc14,prodloc19,tr13,28347,170082).
route(prodloc14,prodloc20,tr0,14576,378976).
route(prodloc14,prodloc20,tr13,14576,87456).
route(prodloc14,prodloc21,tr0,4722,122772).
route(prodloc14,prodloc21,tr13,4722,28332).
route(prodloc14,prodloc22,tr0,10967,285142).
route(prodloc14,prodloc22,tr13,10967,65802).
route(prodloc14,prodloc23,tr0,22156,576056).
route(prodloc14,prodloc23,tr13,22156,132936).
route(prodloc14,prodloc24,tr0,2169,56394).
route(prodloc14,prodloc24,tr13,2169,13014).
route(prodloc14,prodloc25,tr0,17490,454740).
route(prodloc14,prodloc25,tr13,17490,104940).
route(prodloc14,prodloc26,tr0,23007,598182).
route(prodloc14,prodloc26,tr13,23007,138042).
route(prodloc14,prodloc27,tr13,2969,17814).
route(prodloc14,prodloc27,tr15,2969,95008).
route(prodloc14,prodloc28,tr0,23612,613912).
route(prodloc14,prodloc28,tr13,23612,141672).
route(prodloc14,prodloc29,tr0,21238,552188).
route(prodloc14,prodloc29,tr13,21238,127428).
route(prodloc14,prodloc30,tr0,26352,685152).
route(prodloc14,prodloc30,tr13,26352,158112).
route(prodloc14,prodloc31,tr13,12736,76416).
route(prodloc14,prodloc31,tr15,12736,407552).
route(prodloc14,prodloc32,tr0,11099,288574).
route(prodloc14,prodloc32,tr13,11099,66594).
route(prodloc14,prodloc33,tr0,18827,489502).
route(prodloc14,prodloc33,tr13,18827,112962).
route(prodloc15,harbor0,tr0,7105,184730).
route(prodloc15,harbor0,tr13,7105,42630).
route(prodloc15,harbor1,tr0,27783,722358).
route(prodloc15,harbor1,tr13,27783,166698).
route(prodloc15,harbor2,tr0,18163,472238).
route(prodloc15,harbor2,tr13,18163,108978).
route(prodloc15,harbor3,tr0,11153,289978).
route(prodloc15,harbor3,tr13,11153,66918).
route(prodloc15,harbor4,tr0,13595,353470).
route(prodloc15,harbor4,tr13,13595,81570).
route(prodloc15,harbor5,tr0,5303,137878).
route(prodloc15,harbor5,tr13,5303,31818).
route(prodloc15,harbor6,tr0,17863,464438).
route(prodloc15,harbor6,tr13,17863,107178).
route(prodloc15,harbor7,tr0,1586,41236).
route(prodloc15,harbor7,tr13,1586,9516).
route(prodloc15,harbor8,tr0,9763,253838).
route(prodloc15,harbor8,tr13,9763,58578).
route(prodloc15,harbor9,tr0,11529,299754).
route(prodloc15,harbor9,tr13,11529,69174).
route(prodloc15,harbor10,tr0,28097,730522).
route(prodloc15,harbor10,tr13,28097,168582).
route(prodloc15,harbor11,tr0,22896,595296).
route(prodloc15,harbor11,tr13,22896,137376).
route(prodloc15,harbor12,tr0,7225,187850).
route(prodloc15,harbor12,tr13,7225,43350).
route(prodloc15,harbor13,tr0,16289,423514).
route(prodloc15,harbor13,tr13,16289,97734).
route(prodloc15,harbor14,tr0,38,988).
route(prodloc15,harbor14,tr13,38,228).
route(prodloc15,harbor15,tr0,18991,493766).
route(prodloc15,harbor15,tr13,18991,113946).
route(prodloc15,harbor16,tr0,1591,41366).
route(prodloc15,harbor16,tr13,1591,9546).
route(prodloc15,prodloc0,tr0,4281,111306).
route(prodloc15,prodloc0,tr13,4281,25686).
route(prodloc15,prodloc1,tr0,14663,381238).
route(prodloc15,prodloc1,tr13,14663,87978).
route(prodloc15,prodloc2,tr0,3548,92248).
route(prodloc15,prodloc2,tr13,3548,21288).
route(prodloc15,prodloc3,tr0,21330,554580).
route(prodloc15,prodloc3,tr13,21330,127980).
route(prodloc15,prodloc4,tr0,3059,79534).
route(prodloc15,prodloc4,tr13,3059,18354).
route(prodloc15,prodloc5,tr0,2466,64116).
route(prodloc15,prodloc5,tr13,2466,14796).
route(prodloc15,prodloc6,tr0,8292,215592).
route(prodloc15,prodloc6,tr13,8292,49752).
route(prodloc15,prodloc7,tr0,6880,178880).
route(prodloc15,prodloc7,tr13,6880,41280).
route(prodloc15,prodloc8,tr0,12154,316004).
route(prodloc15,prodloc8,tr13,12154,72924).
route(prodloc15,prodloc9,tr0,22187,576862).
route(prodloc15,prodloc9,tr13,22187,133122).
route(prodloc15,prodloc10,tr0,15870,412620).
route(prodloc15,prodloc10,tr13,15870,95220).
route(prodloc15,prodloc11,tr0,15496,402896).
route(prodloc15,prodloc11,tr13,15496,92976).
route(prodloc15,prodloc12,tr0,9909,257634).
route(prodloc15,prodloc12,tr13,9909,59454).
route(prodloc15,prodloc13,tr0,4894,127244).
route(prodloc15,prodloc13,tr13,4894,29364).
route(prodloc15,prodloc14,tr0,11139,289614).
route(prodloc15,prodloc14,tr13,11139,66834).
route(prodloc15,prodloc16,tr0,21190,550940).
route(prodloc15,prodloc16,tr13,21190,127140).
route(prodloc15,prodloc17,tr0,28697,746122).
route(prodloc15,prodloc17,tr13,28697,172182).
route(prodloc15,prodloc18,tr0,16498,428948).
route(prodloc15,prodloc18,tr13,16498,98988).
route(prodloc15,prodloc19,tr0,26244,682344).
route(prodloc15,prodloc19,tr13,26244,157464).
route(prodloc15,prodloc20,tr0,4131,107406).
route(prodloc15,prodloc20,tr13,4131,24786).
route(prodloc15,prodloc21,tr0,25054,651404).
route(prodloc15,prodloc21,tr13,25054,150324).
route(prodloc15,prodloc22,tr0,21769,565994).
route(prodloc15,prodloc22,tr13,21769,130614).
route(prodloc15,prodloc23,tr13,20994,125964).
route(prodloc15,prodloc23,tr15,20994,671808).
route(prodloc15,prodloc24,tr0,11334,294684).
route(prodloc15,prodloc24,tr13,11334,68004).
route(prodloc15,prodloc25,tr0,17550,456300).
route(prodloc15,prodloc25,tr13,17550,105300).
route(prodloc15,prodloc26,tr0,28521,741546).
route(prodloc15,prodloc26,tr13,28521,171126).
route(prodloc15,prodloc27,tr0,3190,82940).
route(prodloc15,prodloc27,tr13,3190,19140).
route(prodloc15,prodloc28,tr0,14775,384150).
route(prodloc15,prodloc28,tr13,14775,88650).
route(prodloc15,prodloc29,tr0,22069,573794).
route(prodloc15,prodloc29,tr13,22069,132414).
route(prodloc15,prodloc30,tr0,3575,92950).
route(prodloc15,prodloc30,tr13,3575,21450).
route(prodloc15,prodloc31,tr0,14868,386568).
route(prodloc15,prodloc31,tr13,14868,89208).
route(prodloc15,prodloc32,tr0,20945,544570).
route(prodloc15,prodloc32,tr13,20945,125670).
route(prodloc15,prodloc33,tr0,3734,97084).
route(prodloc15,prodloc33,tr13,3734,22404).
route(prodloc16,harbor0,tr0,11834,307684).
route(prodloc16,harbor0,tr13,11834,71004).
route(prodloc16,harbor1,tr0,17538,455988).
route(prodloc16,harbor1,tr13,17538,105228).
route(prodloc16,harbor2,tr0,1721,44746).
route(prodloc16,harbor2,tr13,1721,10326).
route(prodloc16,harbor3,tr0,15285,397410).
route(prodloc16,harbor3,tr13,15285,91710).
route(prodloc16,harbor4,tr0,18960,492960).
route(prodloc16,harbor4,tr13,18960,113760).
route(prodloc16,harbor5,tr0,15875,412750).
route(prodloc16,harbor5,tr13,15875,95250).
route(prodloc16,harbor6,tr0,8939,232414).
route(prodloc16,harbor6,tr13,8939,53634).
route(prodloc16,harbor7,tr0,24496,636896).
route(prodloc16,harbor7,tr13,24496,146976).
route(prodloc16,harbor8,tr0,18894,491244).
route(prodloc16,harbor8,tr13,18894,113364).
route(prodloc16,harbor9,tr0,21657,563082).
route(prodloc16,harbor9,tr13,21657,129942).
route(prodloc16,harbor10,tr0,528,13728).
route(prodloc16,harbor10,tr13,528,3168).
route(prodloc16,harbor11,tr0,8027,208702).
route(prodloc16,harbor11,tr13,8027,48162).
route(prodloc16,harbor12,tr0,8285,215410).
route(prodloc16,harbor12,tr13,8285,49710).
route(prodloc16,harbor13,tr0,1682,43732).
route(prodloc16,harbor13,tr13,1682,10092).
route(prodloc16,harbor14,tr0,15779,410254).
route(prodloc16,harbor14,tr13,15779,94674).
route(prodloc16,harbor15,tr0,23862,620412).
route(prodloc16,harbor15,tr13,23862,143172).
route(prodloc16,harbor16,tr0,15797,410722).
route(prodloc16,harbor16,tr13,15797,94782).
route(prodloc16,prodloc0,tr0,15172,394472).
route(prodloc16,prodloc0,tr13,15172,91032).
route(prodloc16,prodloc1,tr0,23137,601562).
route(prodloc16,prodloc1,tr13,23137,138822).
route(prodloc16,prodloc2,tr0,9732,253032).
route(prodloc16,prodloc2,tr13,9732,58392).
route(prodloc16,prodloc3,tr0,7592,197392).
route(prodloc16,prodloc3,tr13,7592,45552).
route(prodloc16,prodloc4,tr0,25707,668382).
route(prodloc16,prodloc4,tr13,25707,154242).
route(prodloc16,prodloc5,tr0,9200,239200).
route(prodloc16,prodloc5,tr13,9200,55200).
route(prodloc16,prodloc6,tr0,16755,435630).
route(prodloc16,prodloc6,tr13,16755,100530).
route(prodloc16,prodloc7,tr0,24010,624260).
route(prodloc16,prodloc7,tr13,24010,144060).
route(prodloc16,prodloc8,tr0,1430,37180).
route(prodloc16,prodloc8,tr15,1430,45760).
route(prodloc16,prodloc9,tr0,9290,241540).
route(prodloc16,prodloc9,tr13,9290,55740).
route(prodloc16,prodloc10,tr0,15018,390468).
route(prodloc16,prodloc10,tr15,15018,480576).
route(prodloc16,prodloc11,tr0,4927,128102).
route(prodloc16,prodloc11,tr13,4927,29562).
route(prodloc16,prodloc12,tr0,10398,270348).
route(prodloc16,prodloc12,tr13,10398,62388).
route(prodloc16,prodloc13,tr0,20391,530166).
route(prodloc16,prodloc13,tr13,20391,122346).
route(prodloc16,prodloc14,tr13,27538,165228).
route(prodloc16,prodloc14,tr15,27538,881216).
route(prodloc16,prodloc15,tr0,11471,298246).
route(prodloc16,prodloc15,tr13,11471,68826).
route(prodloc16,prodloc17,tr13,19305,115830).
route(prodloc16,prodloc17,tr15,19305,617760).
route(prodloc16,prodloc18,tr0,7428,193128).
route(prodloc16,prodloc18,tr13,7428,44568).
route(prodloc16,prodloc19,tr0,25928,674128).
route(prodloc16,prodloc19,tr13,25928,155568).
route(prodloc16,prodloc20,tr0,28247,734422).
route(prodloc16,prodloc20,tr13,28247,169482).
route(prodloc16,prodloc21,tr0,25986,675636).
route(prodloc16,prodloc21,tr13,25986,155916).
route(prodloc16,prodloc22,tr0,584,15184).
route(prodloc16,prodloc22,tr13,584,3504).
route(prodloc16,prodloc23,tr13,11792,70752).
route(prodloc16,prodloc23,tr15,11792,377344).
route(prodloc16,prodloc24,tr0,16809,437034).
route(prodloc16,prodloc24,tr13,16809,100854).
route(prodloc16,prodloc25,tr0,6486,168636).
route(prodloc16,prodloc25,tr13,6486,38916).
route(prodloc16,prodloc26,tr0,4129,107354).
route(prodloc16,prodloc26,tr13,4129,24774).
route(prodloc16,prodloc27,tr0,22226,577876).
route(prodloc16,prodloc27,tr13,22226,133356).
route(prodloc16,prodloc28,tr0,6852,178152).
route(prodloc16,prodloc28,tr13,6852,41112).
route(prodloc16,prodloc29,tr0,23001,598026).
route(prodloc16,prodloc29,tr13,23001,138006).
route(prodloc16,prodloc30,tr0,16570,430820).
route(prodloc16,prodloc30,tr13,16570,99420).
route(prodloc16,prodloc31,tr0,3767,97942).
route(prodloc16,prodloc31,tr13,3767,22602).
route(prodloc16,prodloc32,tr0,4045,105170).
route(prodloc16,prodloc32,tr13,4045,24270).
route(prodloc16,prodloc33,tr0,9157,238082).
route(prodloc16,prodloc33,tr13,9157,54942).
route(prodloc17,harbor0,tr0,19772,514072).
route(prodloc17,harbor0,tr13,19772,118632).
route(prodloc17,harbor1,tr0,17874,464724).
route(prodloc17,harbor1,tr13,17874,107244).
route(prodloc17,harbor2,tr0,25745,669370).
route(prodloc17,harbor2,tr13,25745,154470).
route(prodloc17,harbor3,tr0,6841,177866).
route(prodloc17,harbor3,tr13,6841,41046).
route(prodloc17,harbor4,tr0,24361,633386).
route(prodloc17,harbor4,tr13,24361,146166).
route(prodloc17,harbor5,tr0,2739,71214).
route(prodloc17,harbor5,tr13,2739,16434).
route(prodloc17,harbor6,tr0,17822,463372).
route(prodloc17,harbor6,tr13,17822,106932).
route(prodloc17,harbor7,tr0,16006,416156).
route(prodloc17,harbor7,tr13,16006,96036).
route(prodloc17,harbor8,tr0,27638,718588).
route(prodloc17,harbor8,tr13,27638,165828).
route(prodloc17,harbor9,tr0,8997,233922).
route(prodloc17,harbor9,tr13,8997,53982).
route(prodloc17,harbor10,tr0,19359,503334).
route(prodloc17,harbor10,tr13,19359,116154).
route(prodloc17,harbor11,tr0,9803,254878).
route(prodloc17,harbor11,tr13,9803,58818).
route(prodloc17,harbor12,tr0,4740,123240).
route(prodloc17,harbor12,tr13,4740,28440).
route(prodloc17,harbor13,tr0,13588,353288).
route(prodloc17,harbor13,tr13,13588,81528).
route(prodloc17,harbor14,tr0,12469,324194).
route(prodloc17,harbor14,tr13,12469,74814).
route(prodloc17,harbor15,tr0,19578,509028).
route(prodloc17,harbor15,tr13,19578,117468).
route(prodloc17,harbor16,tr0,23377,607802).
route(prodloc17,harbor16,tr13,23377,140262).
route(prodloc17,prodloc0,tr0,12358,321308).
route(prodloc17,prodloc0,tr13,12358,74148).
route(prodloc17,prodloc1,tr0,9935,258310).
route(prodloc17,prodloc1,tr13,9935,59610).
route(prodloc17,prodloc2,tr0,27231,708006).
route(prodloc17,prodloc2,tr13,27231,163386).
route(prodloc17,prodloc3,tr0,27123,705198).
route(prodloc17,prodloc3,tr13,27123,162738).
route(prodloc17,prodloc4,tr0,4558,118508).
route(prodloc17,prodloc4,tr13,4558,27348).
route(prodloc17,prodloc5,tr0,3710,96460).
route(prodloc17,prodloc5,tr13,3710,22260).
route(prodloc17,prodloc6,tr0,10866,282516).
route(prodloc17,prodloc6,tr13,10866,65196).
route(prodloc17,prodloc7,tr0,2483,64558).
route(prodloc17,prodloc7,tr13,2483,14898).
route(prodloc17,prodloc8,tr0,8557,222482).
route(prodloc17,prodloc8,tr13,8557,51342).
route(prodloc17,prodloc9,tr0,426,11076).
route(prodloc17,prodloc9,tr13,426,2556).
route(prodloc17,prodloc10,tr0,5158,134108).
route(prodloc17,prodloc10,tr13,5158,30948).
route(prodloc17,prodloc11,tr0,18224,473824).
route(prodloc17,prodloc11,tr13,18224,109344).
route(prodloc17,prodloc12,tr0,15714,408564).
route(prodloc17,prodloc12,tr13,15714,94284).
route(prodloc17,prodloc13,tr0,19759,513734).
route(prodloc17,prodloc13,tr13,19759,118554).
route(prodloc17,prodloc14,tr0,17549,456274).
route(prodloc17,prodloc14,tr13,17549,105294).
route(prodloc17,prodloc15,tr0,4049,105274).
route(prodloc17,prodloc15,tr13,4049,24294).
route(prodloc17,prodloc16,tr0,15473,402298).
route(prodloc17,prodloc16,tr13,15473,92838).
route(prodloc17,prodloc18,tr0,6775,176150).
route(prodloc17,prodloc18,tr13,6775,40650).
route(prodloc17,prodloc19,tr0,28756,747656).
route(prodloc17,prodloc19,tr13,28756,172536).
route(prodloc17,prodloc20,tr0,16755,435630).
route(prodloc17,prodloc20,tr13,16755,100530).
route(prodloc17,prodloc21,tr0,7090,184340).
route(prodloc17,prodloc21,tr13,7090,42540).
route(prodloc17,prodloc22,tr0,12775,332150).
route(prodloc17,prodloc22,tr13,12775,76650).
route(prodloc17,prodloc23,tr0,4807,124982).
route(prodloc17,prodloc23,tr13,4807,28842).
route(prodloc17,prodloc24,tr0,11993,311818).
route(prodloc17,prodloc24,tr13,11993,71958).
route(prodloc17,prodloc25,tr0,8134,211484).
route(prodloc17,prodloc25,tr13,8134,48804).
route(prodloc17,prodloc26,tr0,23606,613756).
route(prodloc17,prodloc26,tr13,23606,141636).
route(prodloc17,prodloc27,tr0,27301,709826).
route(prodloc17,prodloc27,tr13,27301,163806).
route(prodloc17,prodloc28,tr0,5624,146224).
route(prodloc17,prodloc28,tr13,5624,33744).
route(prodloc17,prodloc29,tr0,26588,691288).
route(prodloc17,prodloc29,tr13,26588,159528).
route(prodloc17,prodloc30,tr0,3703,96278).
route(prodloc17,prodloc30,tr13,3703,22218).
route(prodloc17,prodloc31,tr0,15662,407212).
route(prodloc17,prodloc31,tr13,15662,93972).
route(prodloc17,prodloc32,tr0,34,884).
route(prodloc17,prodloc32,tr13,34,204).
route(prodloc17,prodloc33,tr0,12580,327080).
route(prodloc17,prodloc33,tr13,12580,75480).
route(prodloc18,harbor0,tr0,11794,306644).
route(prodloc18,harbor0,tr13,11794,70764).
route(prodloc18,harbor1,tr0,16151,419926).
route(prodloc18,harbor1,tr13,16151,96906).
route(prodloc18,harbor2,tr0,9037,234962).
route(prodloc18,harbor2,tr13,9037,54222).
route(prodloc18,harbor3,tr0,8112,210912).
route(prodloc18,harbor3,tr13,8112,48672).
route(prodloc18,harbor4,tr0,17432,453232).
route(prodloc18,harbor4,tr13,17432,104592).
route(prodloc18,harbor5,tr0,7690,199940).
route(prodloc18,harbor5,tr13,7690,46140).
route(prodloc18,harbor6,tr0,1544,40144).
route(prodloc18,harbor6,tr13,1544,9264).
route(prodloc18,harbor7,tr0,8547,222222).
route(prodloc18,harbor7,tr13,8547,51282).
route(prodloc18,harbor8,tr0,16687,433862).
route(prodloc18,harbor8,tr13,16687,100122).
route(prodloc18,harbor9,tr0,26616,692016).
route(prodloc18,harbor9,tr13,26616,159696).
route(prodloc18,harbor10,tr0,5647,146822).
route(prodloc18,harbor10,tr13,5647,33882).
route(prodloc18,harbor11,tr0,1464,38064).
route(prodloc18,harbor11,tr13,1464,8784).
route(prodloc18,harbor12,tr0,22366,581516).
route(prodloc18,harbor12,tr13,22366,134196).
route(prodloc18,harbor13,tr0,7184,186784).
route(prodloc18,harbor13,tr13,7184,43104).
route(prodloc18,harbor14,tr0,5099,132574).
route(prodloc18,harbor14,tr13,5099,30594).
route(prodloc18,harbor15,tr0,12719,330694).
route(prodloc18,harbor15,tr13,12719,76314).
route(prodloc18,harbor16,tr0,18505,481130).
route(prodloc18,harbor16,tr13,18505,111030).
route(prodloc18,prodloc0,tr0,22083,574158).
route(prodloc18,prodloc0,tr13,22083,132498).
route(prodloc18,prodloc1,tr0,10782,280332).
route(prodloc18,prodloc1,tr13,10782,64692).
route(prodloc18,prodloc2,tr0,27228,707928).
route(prodloc18,prodloc2,tr13,27228,163368).
route(prodloc18,prodloc3,tr0,15795,410670).
route(prodloc18,prodloc3,tr13,15795,94770).
route(prodloc18,prodloc4,tr0,14852,386152).
route(prodloc18,prodloc4,tr13,14852,89112).
route(prodloc18,prodloc5,tr0,17151,445926).
route(prodloc18,prodloc5,tr13,17151,102906).
route(prodloc18,prodloc6,tr0,24575,638950).
route(prodloc18,prodloc6,tr13,24575,147450).
route(prodloc18,prodloc7,tr0,23611,613886).
route(prodloc18,prodloc7,tr13,23611,141666).
route(prodloc18,prodloc8,tr0,17310,450060).
route(prodloc18,prodloc8,tr13,17310,103860).
route(prodloc18,prodloc9,tr0,7429,193154).
route(prodloc18,prodloc9,tr13,7429,44574).
route(prodloc18,prodloc10,tr0,14764,383864).
route(prodloc18,prodloc10,tr13,14764,88584).
route(prodloc18,prodloc11,tr0,8289,215514).
route(prodloc18,prodloc11,tr13,8289,49734).
route(prodloc18,prodloc12,tr0,18204,473304).
route(prodloc18,prodloc12,tr13,18204,109224).
route(prodloc18,prodloc13,tr0,26781,696306).
route(prodloc18,prodloc13,tr13,26781,160686).
route(prodloc18,prodloc14,tr0,25453,661778).
route(prodloc18,prodloc14,tr15,25453,814496).
route(prodloc18,prodloc15,tr0,4610,119860).
route(prodloc18,prodloc15,tr13,4610,27660).
route(prodloc18,prodloc16,tr0,4713,122538).
route(prodloc18,prodloc16,tr13,4713,28278).
route(prodloc18,prodloc17,tr0,26519,689494).
route(prodloc18,prodloc17,tr13,26519,159114).
route(prodloc18,prodloc19,tr0,26536,689936).
route(prodloc18,prodloc19,tr13,26536,159216).
route(prodloc18,prodloc20,tr0,27344,710944).
route(prodloc18,prodloc20,tr13,27344,164064).
route(prodloc18,prodloc21,tr0,9762,253812).
route(prodloc18,prodloc21,tr13,9762,58572).
route(prodloc18,prodloc22,tr0,9264,240864).
route(prodloc18,prodloc22,tr13,9264,55584).
route(prodloc18,prodloc23,tr0,18586,483236).
route(prodloc18,prodloc23,tr13,18586,111516).
route(prodloc18,prodloc24,tr0,17548,456248).
route(prodloc18,prodloc24,tr13,17548,105288).
route(prodloc18,prodloc25,tr0,2562,66612).
route(prodloc18,prodloc25,tr13,2562,15372).
route(prodloc18,prodloc26,tr0,2218,57668).
route(prodloc18,prodloc26,tr13,2218,13308).
route(prodloc18,prodloc27,tr0,5717,148642).
route(prodloc18,prodloc27,tr13,5717,34302).
route(prodloc18,prodloc28,tr0,16535,429910).
route(prodloc18,prodloc28,tr13,16535,99210).
route(prodloc18,prodloc29,tr0,4676,121576).
route(prodloc18,prodloc29,tr13,4676,28056).
route(prodloc18,prodloc30,tr0,20099,522574).
route(prodloc18,prodloc30,tr13,20099,120594).
route(prodloc18,prodloc31,tr0,8740,227240).
route(prodloc18,prodloc31,tr13,8740,52440).
route(prodloc18,prodloc32,tr0,9645,250770).
route(prodloc18,prodloc32,tr13,9645,57870).
route(prodloc18,prodloc33,tr0,19846,515996).
route(prodloc18,prodloc33,tr13,19846,119076).
route(prodloc19,harbor0,tr0,8655,225030).
route(prodloc19,harbor0,tr13,8655,51930).
route(prodloc19,harbor1,tr0,21407,556582).
route(prodloc19,harbor1,tr13,21407,128442).
route(prodloc19,harbor2,tr0,10161,264186).
route(prodloc19,harbor2,tr13,10161,60966).
route(prodloc19,harbor3,tr0,24999,649974).
route(prodloc19,harbor3,tr13,24999,149994).
route(prodloc19,harbor4,tr0,17030,442780).
route(prodloc19,harbor4,tr13,17030,102180).
route(prodloc19,harbor5,tr0,26940,700440).
route(prodloc19,harbor5,tr13,26940,161640).
route(prodloc19,harbor6,tr0,24098,626548).
route(prodloc19,harbor6,tr13,24098,144588).
route(prodloc19,harbor7,tr0,15569,404794).
route(prodloc19,harbor7,tr13,15569,93414).
route(prodloc19,harbor8,tr0,16839,437814).
route(prodloc19,harbor8,tr13,16839,101034).
route(prodloc19,harbor9,tr0,12320,320320).
route(prodloc19,harbor9,tr13,12320,73920).
route(prodloc19,harbor10,tr0,5110,132860).
route(prodloc19,harbor10,tr13,5110,30660).
route(prodloc19,harbor11,tr0,26151,679926).
route(prodloc19,harbor11,tr13,26151,156906).
route(prodloc19,harbor12,tr0,1558,40508).
route(prodloc19,harbor12,tr13,1558,9348).
route(prodloc19,harbor13,tr0,20343,528918).
route(prodloc19,harbor13,tr13,20343,122058).
route(prodloc19,harbor14,tr0,25351,659126).
route(prodloc19,harbor14,tr13,25351,152106).
route(prodloc19,harbor15,tr0,11887,309062).
route(prodloc19,harbor15,tr13,11887,71322).
route(prodloc19,harbor16,tr0,2966,77116).
route(prodloc19,harbor16,tr13,2966,17796).
route(prodloc19,prodloc0,tr0,15257,396682).
route(prodloc19,prodloc0,tr13,15257,91542).
route(prodloc19,prodloc1,tr0,18285,475410).
route(prodloc19,prodloc1,tr13,18285,109710).
route(prodloc19,prodloc2,tr0,11288,293488).
route(prodloc19,prodloc2,tr13,11288,67728).
route(prodloc19,prodloc3,tr0,13483,350558).
route(prodloc19,prodloc3,tr13,13483,80898).
route(prodloc19,prodloc4,tr0,4217,109642).
route(prodloc19,prodloc4,tr13,4217,25302).
route(prodloc19,prodloc5,tr0,9446,245596).
route(prodloc19,prodloc5,tr13,9446,56676).
route(prodloc19,prodloc6,tr0,19158,498108).
route(prodloc19,prodloc6,tr13,19158,114948).
route(prodloc19,prodloc7,tr0,24658,641108).
route(prodloc19,prodloc7,tr13,24658,147948).
route(prodloc19,prodloc8,tr0,10335,268710).
route(prodloc19,prodloc8,tr13,10335,62010).
route(prodloc19,prodloc9,tr13,12316,73896).
route(prodloc19,prodloc9,tr15,12316,394112).
route(prodloc19,prodloc10,tr0,10331,268606).
route(prodloc19,prodloc10,tr13,10331,61986).
route(prodloc19,prodloc11,tr0,16720,434720).
route(prodloc19,prodloc11,tr13,16720,100320).
route(prodloc19,prodloc12,tr0,16597,431522).
route(prodloc19,prodloc12,tr13,16597,99582).
route(prodloc19,prodloc13,tr0,12475,324350).
route(prodloc19,prodloc13,tr13,12475,74850).
route(prodloc19,prodloc14,tr0,23874,620724).
route(prodloc19,prodloc14,tr13,23874,143244).
route(prodloc19,prodloc15,tr0,22320,580320).
route(prodloc19,prodloc15,tr13,22320,133920).
route(prodloc19,prodloc16,tr0,3116,81016).
route(prodloc19,prodloc16,tr13,3116,18696).
route(prodloc19,prodloc17,tr0,15077,392002).
route(prodloc19,prodloc17,tr13,15077,90462).
route(prodloc19,prodloc18,tr0,9432,245232).
route(prodloc19,prodloc18,tr13,9432,56592).
route(prodloc19,prodloc20,tr0,21336,554736).
route(prodloc19,prodloc20,tr13,21336,128016).
route(prodloc19,prodloc21,tr0,25487,662662).
route(prodloc19,prodloc21,tr13,25487,152922).
route(prodloc19,prodloc22,tr0,20574,534924).
route(prodloc19,prodloc22,tr13,20574,123444).
route(prodloc19,prodloc23,tr0,19831,515606).
route(prodloc19,prodloc23,tr13,19831,118986).
route(prodloc19,prodloc24,tr0,14372,373672).
route(prodloc19,prodloc24,tr13,14372,86232).
route(prodloc19,prodloc25,tr0,22387,582062).
route(prodloc19,prodloc25,tr13,22387,134322).
route(prodloc19,prodloc26,tr13,18626,111756).
route(prodloc19,prodloc26,tr15,18626,596032).
route(prodloc19,prodloc27,tr0,27807,722982).
route(prodloc19,prodloc27,tr13,27807,166842).
route(prodloc19,prodloc28,tr0,14393,374218).
route(prodloc19,prodloc28,tr13,14393,86358).
route(prodloc19,prodloc29,tr13,7895,47370).
route(prodloc19,prodloc29,tr15,7895,252640).
route(prodloc19,prodloc30,tr0,27893,725218).
route(prodloc19,prodloc30,tr13,27893,167358).
route(prodloc19,prodloc31,tr0,27525,715650).
route(prodloc19,prodloc31,tr13,27525,165150).
route(prodloc19,prodloc32,tr0,199,5174).
route(prodloc19,prodloc32,tr13,199,1194).
route(prodloc19,prodloc33,tr0,19620,510120).
route(prodloc19,prodloc33,tr13,19620,117720).
route(prodloc20,harbor0,tr0,26677,693602).
route(prodloc20,harbor0,tr13,26677,160062).
route(prodloc20,harbor1,tr0,20410,530660).
route(prodloc20,harbor1,tr13,20410,122460).
route(prodloc20,harbor2,tr0,478,12428).
route(prodloc20,harbor2,tr13,478,2868).
route(prodloc20,harbor3,tr0,5794,150644).
route(prodloc20,harbor3,tr13,5794,34764).
route(prodloc20,harbor4,tr0,19959,518934).
route(prodloc20,harbor4,tr13,19959,119754).
route(prodloc20,harbor5,tr0,2147,55822).
route(prodloc20,harbor5,tr13,2147,12882).
route(prodloc20,harbor6,tr0,8984,233584).
route(prodloc20,harbor6,tr13,8984,53904).
route(prodloc20,harbor7,tr0,22892,595192).
route(prodloc20,harbor7,tr13,22892,137352).
route(prodloc20,harbor8,tr0,5331,138606).
route(prodloc20,harbor8,tr13,5331,31986).
route(prodloc20,harbor9,tr0,24344,632944).
route(prodloc20,harbor9,tr13,24344,146064).
route(prodloc20,harbor10,tr0,4998,129948).
route(prodloc20,harbor10,tr13,4998,29988).
route(prodloc20,harbor11,tr0,4496,116896).
route(prodloc20,harbor11,tr13,4496,26976).
route(prodloc20,harbor12,tr0,5585,145210).
route(prodloc20,harbor12,tr13,5585,33510).
route(prodloc20,harbor13,tr0,22296,579696).
route(prodloc20,harbor13,tr13,22296,133776).
route(prodloc20,harbor14,tr0,25301,657826).
route(prodloc20,harbor14,tr13,25301,151806).
route(prodloc20,harbor15,tr0,2698,70148).
route(prodloc20,harbor15,tr13,2698,16188).
route(prodloc20,harbor16,tr0,1699,44174).
route(prodloc20,harbor16,tr13,1699,10194).
route(prodloc20,prodloc0,tr0,6820,177320).
route(prodloc20,prodloc0,tr13,6820,40920).
route(prodloc20,prodloc1,tr0,1598,41548).
route(prodloc20,prodloc1,tr13,1598,9588).
route(prodloc20,prodloc2,tr0,12971,337246).
route(prodloc20,prodloc2,tr13,12971,77826).
route(prodloc20,prodloc3,tr0,18701,486226).
route(prodloc20,prodloc3,tr13,18701,112206).
route(prodloc20,prodloc4,tr0,14797,384722).
route(prodloc20,prodloc4,tr13,14797,88782).
route(prodloc20,prodloc5,tr0,21588,561288).
route(prodloc20,prodloc5,tr13,21588,129528).
route(prodloc20,prodloc6,tr0,10973,285298).
route(prodloc20,prodloc6,tr13,10973,65838).
route(prodloc20,prodloc7,tr0,11792,306592).
route(prodloc20,prodloc7,tr13,11792,70752).
route(prodloc20,prodloc8,tr0,12540,326040).
route(prodloc20,prodloc8,tr13,12540,75240).
route(prodloc20,prodloc9,tr0,28390,738140).
route(prodloc20,prodloc9,tr13,28390,170340).
route(prodloc20,prodloc10,tr0,28849,750074).
route(prodloc20,prodloc10,tr13,28849,173094).
route(prodloc20,prodloc11,tr0,931,24206).
route(prodloc20,prodloc11,tr13,931,5586).
route(prodloc20,prodloc12,tr0,6315,164190).
route(prodloc20,prodloc12,tr13,6315,37890).
route(prodloc20,prodloc13,tr0,12981,337506).
route(prodloc20,prodloc13,tr13,12981,77886).
route(prodloc20,prodloc14,tr0,12885,335010).
route(prodloc20,prodloc14,tr13,12885,77310).
route(prodloc20,prodloc15,tr0,27078,704028).
route(prodloc20,prodloc15,tr13,27078,162468).
route(prodloc20,prodloc16,tr0,20055,521430).
route(prodloc20,prodloc16,tr13,20055,120330).
route(prodloc20,prodloc17,tr0,5523,143598).
route(prodloc20,prodloc17,tr13,5523,33138).
route(prodloc20,prodloc18,tr0,21443,557518).
route(prodloc20,prodloc18,tr13,21443,128658).
route(prodloc20,prodloc19,tr0,28459,739934).
route(prodloc20,prodloc19,tr13,28459,170754).
route(prodloc20,prodloc21,tr0,12632,328432).
route(prodloc20,prodloc21,tr13,12632,75792).
route(prodloc20,prodloc22,tr0,11473,298298).
route(prodloc20,prodloc22,tr13,11473,68838).
route(prodloc20,prodloc23,tr0,28492,740792).
route(prodloc20,prodloc23,tr13,28492,170952).
route(prodloc20,prodloc24,tr0,21012,546312).
route(prodloc20,prodloc24,tr13,21012,126072).
route(prodloc20,prodloc25,tr0,3736,97136).
route(prodloc20,prodloc25,tr13,3736,22416).
route(prodloc20,prodloc26,tr0,22623,588198).
route(prodloc20,prodloc26,tr13,22623,135738).
route(prodloc20,prodloc27,tr0,20914,543764).
route(prodloc20,prodloc27,tr13,20914,125484).
route(prodloc20,prodloc28,tr0,5246,136396).
route(prodloc20,prodloc28,tr13,5246,31476).
route(prodloc20,prodloc29,tr0,2751,71526).
route(prodloc20,prodloc29,tr13,2751,16506).
route(prodloc20,prodloc30,tr0,12056,313456).
route(prodloc20,prodloc30,tr13,12056,72336).
route(prodloc20,prodloc31,tr0,22358,581308).
route(prodloc20,prodloc31,tr13,22358,134148).
route(prodloc20,prodloc32,tr0,14516,377416).
route(prodloc20,prodloc32,tr13,14516,87096).
route(prodloc20,prodloc33,tr0,14069,365794).
route(prodloc20,prodloc33,tr13,14069,84414).
route(prodloc21,harbor0,tr0,19661,511186).
route(prodloc21,harbor0,tr13,19661,117966).
route(prodloc21,harbor1,tr0,12980,337480).
route(prodloc21,harbor1,tr13,12980,77880).
route(prodloc21,harbor2,tr0,17334,450684).
route(prodloc21,harbor2,tr13,17334,104004).
route(prodloc21,harbor3,tr0,19317,502242).
route(prodloc21,harbor3,tr13,19317,115902).
route(prodloc21,harbor4,tr0,4540,118040).
route(prodloc21,harbor4,tr13,4540,27240).
route(prodloc21,harbor5,tr0,7372,191672).
route(prodloc21,harbor5,tr13,7372,44232).
route(prodloc21,harbor6,tr0,6668,173368).
route(prodloc21,harbor6,tr13,6668,40008).
route(prodloc21,harbor7,tr0,14090,366340).
route(prodloc21,harbor7,tr13,14090,84540).
route(prodloc21,harbor8,tr0,10756,279656).
route(prodloc21,harbor8,tr13,10756,64536).
route(prodloc21,harbor9,tr0,28452,739752).
route(prodloc21,harbor9,tr13,28452,170712).
route(prodloc21,harbor10,tr0,2852,74152).
route(prodloc21,harbor10,tr13,2852,17112).
route(prodloc21,harbor11,tr0,3691,95966).
route(prodloc21,harbor11,tr13,3691,22146).
route(prodloc21,harbor12,tr0,25269,656994).
route(prodloc21,harbor12,tr13,25269,151614).
route(prodloc21,harbor13,tr0,27789,722514).
route(prodloc21,harbor13,tr13,27789,166734).
route(prodloc21,harbor14,tr0,9751,253526).
route(prodloc21,harbor14,tr13,9751,58506).
route(prodloc21,harbor15,tr0,24046,625196).
route(prodloc21,harbor15,tr13,24046,144276).
route(prodloc21,harbor16,tr0,1253,32578).
route(prodloc21,harbor16,tr13,1253,7518).
route(prodloc21,prodloc0,tr0,7206,187356).
route(prodloc21,prodloc0,tr13,7206,43236).
route(prodloc21,prodloc1,tr0,16418,426868).
route(prodloc21,prodloc1,tr13,16418,98508).
route(prodloc21,prodloc2,tr0,19263,500838).
route(prodloc21,prodloc2,tr13,19263,115578).
route(prodloc21,prodloc3,tr0,20126,523276).
route(prodloc21,prodloc3,tr13,20126,120756).
route(prodloc21,prodloc4,tr0,1055,27430).
route(prodloc21,prodloc4,tr13,1055,6330).
route(prodloc21,prodloc5,tr0,2358,61308).
route(prodloc21,prodloc5,tr13,2358,14148).
route(prodloc21,prodloc6,tr0,6922,179972).
route(prodloc21,prodloc6,tr13,6922,41532).
route(prodloc21,prodloc7,tr0,20097,522522).
route(prodloc21,prodloc7,tr13,20097,120582).
route(prodloc21,prodloc8,tr0,8340,216840).
route(prodloc21,prodloc8,tr13,8340,50040).
route(prodloc21,prodloc9,tr0,766,19916).
route(prodloc21,prodloc9,tr13,766,4596).
route(prodloc21,prodloc10,tr0,19595,509470).
route(prodloc21,prodloc10,tr13,19595,117570).
route(prodloc21,prodloc11,tr0,6032,156832).
route(prodloc21,prodloc11,tr13,6032,36192).
route(prodloc21,prodloc12,tr0,19085,496210).
route(prodloc21,prodloc12,tr13,19085,114510).
route(prodloc21,prodloc13,tr0,12353,321178).
route(prodloc21,prodloc13,tr13,12353,74118).
route(prodloc21,prodloc14,tr0,17744,461344).
route(prodloc21,prodloc14,tr13,17744,106464).
route(prodloc21,prodloc15,tr0,21806,566956).
route(prodloc21,prodloc15,tr13,21806,130836).
route(prodloc21,prodloc16,tr0,5269,136994).
route(prodloc21,prodloc16,tr13,5269,31614).
route(prodloc21,prodloc17,tr0,16461,427986).
route(prodloc21,prodloc17,tr13,16461,98766).
route(prodloc21,prodloc18,tr0,27772,722072).
route(prodloc21,prodloc18,tr13,27772,166632).
route(prodloc21,prodloc19,tr0,24496,636896).
route(prodloc21,prodloc19,tr13,24496,146976).
route(prodloc21,prodloc20,tr0,12624,328224).
route(prodloc21,prodloc20,tr13,12624,75744).
route(prodloc21,prodloc22,tr0,28608,743808).
route(prodloc21,prodloc22,tr13,28608,171648).
route(prodloc21,prodloc23,tr0,15761,409786).
route(prodloc21,prodloc23,tr13,15761,94566).
route(prodloc21,prodloc24,tr0,12097,314522).
route(prodloc21,prodloc24,tr13,12097,72582).
route(prodloc21,prodloc25,tr0,10828,281528).
route(prodloc21,prodloc25,tr13,10828,64968).
route(prodloc21,prodloc26,tr0,14714,382564).
route(prodloc21,prodloc26,tr13,14714,88284).
route(prodloc21,prodloc27,tr0,28536,741936).
route(prodloc21,prodloc27,tr13,28536,171216).
route(prodloc21,prodloc28,tr0,1484,38584).
route(prodloc21,prodloc28,tr13,1484,8904).
route(prodloc21,prodloc29,tr0,22725,590850).
route(prodloc21,prodloc29,tr13,22725,136350).
route(prodloc21,prodloc30,tr0,19786,514436).
route(prodloc21,prodloc30,tr13,19786,118716).
route(prodloc21,prodloc31,tr0,14417,374842).
route(prodloc21,prodloc31,tr13,14417,86502).
route(prodloc21,prodloc32,tr0,3351,87126).
route(prodloc21,prodloc32,tr13,3351,20106).
route(prodloc21,prodloc33,tr0,26174,680524).
route(prodloc21,prodloc33,tr13,26174,157044).
route(prodloc22,harbor0,tr0,26365,685490).
route(prodloc22,harbor0,tr13,26365,158190).
route(prodloc22,harbor1,tr0,19156,498056).
route(prodloc22,harbor1,tr13,19156,114936).
route(prodloc22,harbor2,tr0,22141,575666).
route(prodloc22,harbor2,tr13,22141,132846).
route(prodloc22,harbor3,tr0,4019,104494).
route(prodloc22,harbor3,tr13,4019,24114).
route(prodloc22,harbor4,tr0,2349,61074).
route(prodloc22,harbor4,tr13,2349,14094).
route(prodloc22,harbor5,tr0,22174,576524).
route(prodloc22,harbor5,tr13,22174,133044).
route(prodloc22,harbor6,tr0,1429,37154).
route(prodloc22,harbor6,tr13,1429,8574).
route(prodloc22,harbor7,tr0,28321,736346).
route(prodloc22,harbor7,tr13,28321,169926).
route(prodloc22,harbor8,tr0,28451,739726).
route(prodloc22,harbor8,tr13,28451,170706).
route(prodloc22,harbor9,tr0,10055,261430).
route(prodloc22,harbor9,tr13,10055,60330).
route(prodloc22,harbor10,tr0,19051,495326).
route(prodloc22,harbor10,tr13,19051,114306).
route(prodloc22,harbor11,tr0,24621,640146).
route(prodloc22,harbor11,tr13,24621,147726).
route(prodloc22,harbor12,tr0,19019,494494).
route(prodloc22,harbor12,tr13,19019,114114).
route(prodloc22,harbor13,tr0,25858,672308).
route(prodloc22,harbor13,tr13,25858,155148).
route(prodloc22,harbor14,tr0,12534,325884).
route(prodloc22,harbor14,tr13,12534,75204).
route(prodloc22,harbor15,tr0,27953,726778).
route(prodloc22,harbor15,tr13,27953,167718).
route(prodloc22,harbor16,tr0,3260,84760).
route(prodloc22,harbor16,tr13,3260,19560).
route(prodloc22,prodloc0,tr0,1703,44278).
route(prodloc22,prodloc0,tr13,1703,10218).
route(prodloc22,prodloc1,tr0,23727,616902).
route(prodloc22,prodloc1,tr13,23727,142362).
route(prodloc22,prodloc2,tr0,21310,554060).
route(prodloc22,prodloc2,tr13,21310,127860).
route(prodloc22,prodloc3,tr0,10971,285246).
route(prodloc22,prodloc3,tr13,10971,65826).
route(prodloc22,prodloc4,tr0,12995,337870).
route(prodloc22,prodloc4,tr13,12995,77970).
route(prodloc22,prodloc5,tr0,14003,364078).
route(prodloc22,prodloc5,tr13,14003,84018).
route(prodloc22,prodloc6,tr0,19314,502164).
route(prodloc22,prodloc6,tr13,19314,115884).
route(prodloc22,prodloc7,tr0,26254,682604).
route(prodloc22,prodloc7,tr13,26254,157524).
route(prodloc22,prodloc8,tr0,3535,91910).
route(prodloc22,prodloc8,tr13,3535,21210).
route(prodloc22,prodloc9,tr0,28882,750932).
route(prodloc22,prodloc9,tr13,28882,173292).
route(prodloc22,prodloc10,tr0,9380,243880).
route(prodloc22,prodloc10,tr13,9380,56280).
route(prodloc22,prodloc11,tr0,14963,389038).
route(prodloc22,prodloc11,tr13,14963,89778).
route(prodloc22,prodloc12,tr0,10928,284128).
route(prodloc22,prodloc12,tr13,10928,65568).
route(prodloc22,prodloc13,tr0,16871,438646).
route(prodloc22,prodloc13,tr13,16871,101226).
route(prodloc22,prodloc14,tr0,25406,660556).
route(prodloc22,prodloc14,tr13,25406,152436).
route(prodloc22,prodloc15,tr0,16416,426816).
route(prodloc22,prodloc15,tr13,16416,98496).
route(prodloc22,prodloc17,tr0,13563,352638).
route(prodloc22,prodloc17,tr13,13563,81378).
route(prodloc22,prodloc18,tr0,19298,501748).
route(prodloc22,prodloc18,tr13,19298,115788).
route(prodloc22,prodloc19,tr0,12228,317928).
route(prodloc22,prodloc19,tr13,12228,73368).
route(prodloc22,prodloc20,tr0,17142,445692).
route(prodloc22,prodloc20,tr13,17142,102852).
route(prodloc22,prodloc21,tr0,1775,46150).
route(prodloc22,prodloc21,tr13,1775,10650).
route(prodloc22,prodloc24,tr0,9345,242970).
route(prodloc22,prodloc24,tr13,9345,56070).
route(prodloc22,prodloc25,tr0,7862,204412).
route(prodloc22,prodloc25,tr13,7862,47172).
route(prodloc22,prodloc26,tr0,26604,691704).
route(prodloc22,prodloc26,tr13,26604,159624).
route(prodloc22,prodloc27,tr13,18965,113790).
route(prodloc22,prodloc27,tr15,18965,606880).
route(prodloc22,prodloc28,tr0,10615,275990).
route(prodloc22,prodloc28,tr13,10615,63690).
route(prodloc22,prodloc29,tr0,11249,292474).
route(prodloc22,prodloc29,tr13,11249,67494).
route(prodloc22,prodloc30,tr0,26928,700128).
route(prodloc22,prodloc30,tr13,26928,161568).
route(prodloc22,prodloc31,tr13,22304,133824).
route(prodloc22,prodloc31,tr15,22304,713728).
route(prodloc22,prodloc32,tr0,16610,431860).
route(prodloc22,prodloc32,tr13,16610,99660).
route(prodloc22,prodloc33,tr0,5874,152724).
route(prodloc22,prodloc33,tr13,5874,35244).
route(prodloc23,harbor0,tr0,16115,418990).
route(prodloc23,harbor0,tr13,16115,96690).
route(prodloc23,harbor1,tr0,13618,354068).
route(prodloc23,harbor1,tr13,13618,81708).
route(prodloc23,harbor2,tr0,28045,729170).
route(prodloc23,harbor2,tr13,28045,168270).
route(prodloc23,harbor3,tr0,669,17394).
route(prodloc23,harbor3,tr13,669,4014).
route(prodloc23,harbor4,tr0,19238,500188).
route(prodloc23,harbor4,tr13,19238,115428).
route(prodloc23,harbor5,tr0,10961,284986).
route(prodloc23,harbor5,tr13,10961,65766).
route(prodloc23,harbor6,tr0,19881,516906).
route(prodloc23,harbor6,tr13,19881,119286).
route(prodloc23,harbor7,tr0,7159,186134).
route(prodloc23,harbor7,tr13,7159,42954).
route(prodloc23,harbor8,tr0,7280,189280).
route(prodloc23,harbor8,tr13,7280,43680).
route(prodloc23,harbor9,tr0,28123,731198).
route(prodloc23,harbor9,tr13,28123,168738).
route(prodloc23,harbor10,tr0,5108,132808).
route(prodloc23,harbor10,tr13,5108,30648).
route(prodloc23,harbor11,tr0,11320,294320).
route(prodloc23,harbor11,tr13,11320,67920).
route(prodloc23,harbor12,tr0,15658,407108).
route(prodloc23,harbor12,tr13,15658,93948).
route(prodloc23,harbor13,tr0,756,19656).
route(prodloc23,harbor13,tr13,756,4536).
route(prodloc23,harbor14,tr0,15312,398112).
route(prodloc23,harbor14,tr13,15312,91872).
route(prodloc23,harbor15,tr0,5030,130780).
route(prodloc23,harbor15,tr13,5030,30180).
route(prodloc23,harbor16,tr0,8758,227708).
route(prodloc23,harbor16,tr13,8758,52548).
route(prodloc23,prodloc0,tr0,22812,593112).
route(prodloc23,prodloc0,tr13,22812,136872).
route(prodloc23,prodloc1,tr0,10590,275340).
route(prodloc23,prodloc1,tr13,10590,63540).
route(prodloc23,prodloc2,tr0,13225,343850).
route(prodloc23,prodloc2,tr13,13225,79350).
route(prodloc23,prodloc3,tr0,16557,430482).
route(prodloc23,prodloc3,tr13,16557,99342).
route(prodloc23,prodloc4,tr0,4483,116558).
route(prodloc23,prodloc4,tr13,4483,26898).
route(prodloc23,prodloc5,tr0,26884,698984).
route(prodloc23,prodloc5,tr13,26884,161304).
route(prodloc23,prodloc6,tr0,17214,447564).
route(prodloc23,prodloc6,tr13,17214,103284).
route(prodloc23,prodloc7,tr0,22800,592800).
route(prodloc23,prodloc7,tr13,22800,136800).
route(prodloc23,prodloc8,tr0,26386,686036).
route(prodloc23,prodloc8,tr13,26386,158316).
route(prodloc23,prodloc9,tr0,6956,180856).
route(prodloc23,prodloc9,tr13,6956,41736).
route(prodloc23,prodloc10,tr0,8716,226616).
route(prodloc23,prodloc10,tr13,8716,52296).
route(prodloc23,prodloc11,tr0,24462,636012).
route(prodloc23,prodloc11,tr13,24462,146772).
route(prodloc23,prodloc12,tr0,3094,80444).
route(prodloc23,prodloc12,tr13,3094,18564).
route(prodloc23,prodloc13,tr0,22414,582764).
route(prodloc23,prodloc13,tr13,22414,134484).
route(prodloc23,prodloc14,tr0,19288,501488).
route(prodloc23,prodloc14,tr13,19288,115728).
route(prodloc23,prodloc15,tr0,14453,375778).
route(prodloc23,prodloc15,tr13,14453,86718).
route(prodloc23,prodloc16,tr0,16428,427128).
route(prodloc23,prodloc16,tr13,16428,98568).
route(prodloc23,prodloc17,tr0,20476,532376).
route(prodloc23,prodloc17,tr13,20476,122856).
route(prodloc23,prodloc18,tr0,17318,450268).
route(prodloc23,prodloc18,tr13,17318,103908).
route(prodloc23,prodloc19,tr0,19654,511004).
route(prodloc23,prodloc19,tr13,19654,117924).
route(prodloc23,prodloc20,tr0,27013,702338).
route(prodloc23,prodloc20,tr13,27013,162078).
route(prodloc23,prodloc21,tr0,1988,51688).
route(prodloc23,prodloc21,tr13,1988,11928).
route(prodloc23,prodloc22,tr0,27508,715208).
route(prodloc23,prodloc22,tr13,27508,165048).
route(prodloc23,prodloc24,tr0,12740,331240).
route(prodloc23,prodloc24,tr13,12740,76440).
route(prodloc23,prodloc25,tr0,21618,562068).
route(prodloc23,prodloc25,tr13,21618,129708).
route(prodloc23,prodloc26,tr0,4538,117988).
route(prodloc23,prodloc26,tr13,4538,27228).
route(prodloc23,prodloc27,tr0,8742,227292).
route(prodloc23,prodloc27,tr13,8742,52452).
route(prodloc23,prodloc28,tr0,19654,511004).
route(prodloc23,prodloc28,tr13,19654,117924).
route(prodloc23,prodloc29,tr0,25329,658554).
route(prodloc23,prodloc29,tr13,25329,151974).
route(prodloc23,prodloc30,tr0,15920,413920).
route(prodloc23,prodloc30,tr13,15920,95520).
route(prodloc23,prodloc31,tr0,18726,486876).
route(prodloc23,prodloc31,tr13,18726,112356).
route(prodloc23,prodloc32,tr0,24031,624806).
route(prodloc23,prodloc32,tr13,24031,144186).
route(prodloc23,prodloc33,tr0,15819,411294).
route(prodloc23,prodloc33,tr13,15819,94914).
route(prodloc24,harbor0,tr0,15628,406328).
route(prodloc24,harbor0,tr13,15628,93768).
route(prodloc24,harbor1,tr0,8946,232596).
route(prodloc24,harbor1,tr13,8946,53676).
route(prodloc24,harbor2,tr0,27116,705016).
route(prodloc24,harbor2,tr13,27116,162696).
route(prodloc24,harbor3,tr0,26624,692224).
route(prodloc24,harbor3,tr13,26624,159744).
route(prodloc24,harbor4,tr0,2655,69030).
route(prodloc24,harbor4,tr13,2655,15930).
route(prodloc24,harbor5,tr0,9300,241800).
route(prodloc24,harbor5,tr13,9300,55800).
route(prodloc24,harbor6,tr0,1721,44746).
route(prodloc24,harbor6,tr13,1721,10326).
route(prodloc24,harbor7,tr0,2333,60658).
route(prodloc24,harbor7,tr13,2333,13998).
route(prodloc24,harbor8,tr0,13257,344682).
route(prodloc24,harbor8,tr13,13257,79542).
route(prodloc24,harbor9,tr0,28299,735774).
route(prodloc24,harbor9,tr13,28299,169794).
route(prodloc24,harbor10,tr0,16989,441714).
route(prodloc24,harbor10,tr13,16989,101934).
route(prodloc24,harbor11,tr0,25898,673348).
route(prodloc24,harbor11,tr13,25898,155388).
route(prodloc24,harbor12,tr0,21062,547612).
route(prodloc24,harbor12,tr13,21062,126372).
route(prodloc24,harbor13,tr0,7331,190606).
route(prodloc24,harbor13,tr13,7331,43986).
route(prodloc24,harbor14,tr0,21559,560534).
route(prodloc24,harbor14,tr13,21559,129354).
route(prodloc24,harbor15,tr0,14531,377806).
route(prodloc24,harbor15,tr13,14531,87186).
route(prodloc24,harbor16,tr0,16978,441428).
route(prodloc24,harbor16,tr13,16978,101868).
route(prodloc24,prodloc0,tr0,21163,550238).
route(prodloc24,prodloc0,tr13,21163,126978).
route(prodloc24,prodloc1,tr0,12222,317772).
route(prodloc24,prodloc1,tr13,12222,73332).
route(prodloc24,prodloc2,tr0,14831,385606).
route(prodloc24,prodloc2,tr13,14831,88986).
route(prodloc24,prodloc3,tr0,24032,624832).
route(prodloc24,prodloc3,tr13,24032,144192).
route(prodloc24,prodloc4,tr0,18292,475592).
route(prodloc24,prodloc4,tr13,18292,109752).
route(prodloc24,prodloc5,tr0,3263,84838).
route(prodloc24,prodloc5,tr13,3263,19578).
route(prodloc24,prodloc6,tr0,6811,177086).
route(prodloc24,prodloc6,tr13,6811,40866).
route(prodloc24,prodloc7,tr0,7409,192634).
route(prodloc24,prodloc7,tr13,7409,44454).
route(prodloc24,prodloc8,tr0,18906,491556).
route(prodloc24,prodloc8,tr13,18906,113436).
route(prodloc24,prodloc9,tr0,3190,82940).
route(prodloc24,prodloc9,tr13,3190,19140).
route(prodloc24,prodloc10,tr0,15021,390546).
route(prodloc24,prodloc10,tr13,15021,90126).
route(prodloc24,prodloc11,tr0,8229,213954).
route(prodloc24,prodloc11,tr13,8229,49374).
route(prodloc24,prodloc12,tr0,26014,676364).
route(prodloc24,prodloc12,tr13,26014,156084).
route(prodloc24,prodloc13,tr0,23017,598442).
route(prodloc24,prodloc13,tr13,23017,138102).
route(prodloc24,prodloc14,tr0,7752,201552).
route(prodloc24,prodloc14,tr13,7752,46512).
route(prodloc24,prodloc15,tr0,12162,316212).
route(prodloc24,prodloc15,tr13,12162,72972).
route(prodloc24,prodloc16,tr0,25042,651092).
route(prodloc24,prodloc16,tr13,25042,150252).
route(prodloc24,prodloc17,tr0,5006,130156).
route(prodloc24,prodloc17,tr13,5006,30036).
route(prodloc24,prodloc18,tr0,16779,436254).
route(prodloc24,prodloc18,tr13,16779,100674).
route(prodloc24,prodloc19,tr0,14,364).
route(prodloc24,prodloc19,tr13,14,84).
route(prodloc24,prodloc20,tr0,21963,571038).
route(prodloc24,prodloc20,tr13,21963,131778).
route(prodloc24,prodloc21,tr0,12021,312546).
route(prodloc24,prodloc21,tr13,12021,72126).
route(prodloc24,prodloc22,tr0,9605,249730).
route(prodloc24,prodloc22,tr13,9605,57630).
route(prodloc24,prodloc23,tr0,21268,552968).
route(prodloc24,prodloc23,tr13,21268,127608).
route(prodloc24,prodloc25,tr0,18141,471666).
route(prodloc24,prodloc25,tr13,18141,108846).
route(prodloc24,prodloc26,tr0,26443,687518).
route(prodloc24,prodloc26,tr13,26443,158658).
route(prodloc24,prodloc27,tr0,25270,657020).
route(prodloc24,prodloc27,tr13,25270,151620).
route(prodloc24,prodloc28,tr0,3949,102674).
route(prodloc24,prodloc28,tr13,3949,23694).
route(prodloc24,prodloc29,tr0,11372,295672).
route(prodloc24,prodloc29,tr13,11372,68232).
route(prodloc24,prodloc30,tr0,13928,362128).
route(prodloc24,prodloc30,tr13,13928,83568).
route(prodloc24,prodloc31,tr0,22880,594880).
route(prodloc24,prodloc31,tr13,22880,137280).
route(prodloc24,prodloc32,tr0,14119,367094).
route(prodloc24,prodloc32,tr13,14119,84714).
route(prodloc24,prodloc33,tr0,13281,345306).
route(prodloc24,prodloc33,tr13,13281,79686).
route(prodloc25,harbor0,tr0,23412,608712).
route(prodloc25,harbor0,tr13,23412,140472).
route(prodloc25,harbor1,tr0,6908,179608).
route(prodloc25,harbor1,tr13,6908,41448).
route(prodloc25,harbor2,tr0,6223,161798).
route(prodloc25,harbor2,tr13,6223,37338).
route(prodloc25,harbor3,tr0,16614,431964).
route(prodloc25,harbor3,tr13,16614,99684).
route(prodloc25,harbor4,tr0,22399,582374).
route(prodloc25,harbor4,tr13,22399,134394).
route(prodloc25,harbor5,tr0,6097,158522).
route(prodloc25,harbor5,tr13,6097,36582).
route(prodloc25,harbor6,tr0,3683,95758).
route(prodloc25,harbor6,tr13,3683,22098).
route(prodloc25,harbor7,tr0,7247,188422).
route(prodloc25,harbor7,tr13,7247,43482).
route(prodloc25,harbor8,tr0,18328,476528).
route(prodloc25,harbor8,tr13,18328,109968).
route(prodloc25,harbor9,tr0,2648,68848).
route(prodloc25,harbor9,tr13,2648,15888).
route(prodloc25,harbor10,tr0,23731,617006).
route(prodloc25,harbor10,tr13,23731,142386).
route(prodloc25,harbor11,tr0,21141,549666).
route(prodloc25,harbor11,tr13,21141,126846).
route(prodloc25,harbor12,tr0,11692,303992).
route(prodloc25,harbor12,tr13,11692,70152).
route(prodloc25,harbor13,tr0,24538,637988).
route(prodloc25,harbor13,tr13,24538,147228).
route(prodloc25,harbor14,tr0,480,12480).
route(prodloc25,harbor14,tr13,480,2880).
route(prodloc25,harbor15,tr0,18138,471588).
route(prodloc25,harbor15,tr13,18138,108828).
route(prodloc25,harbor16,tr0,6938,180388).
route(prodloc25,harbor16,tr13,6938,41628).
route(prodloc25,prodloc0,tr0,8823,229398).
route(prodloc25,prodloc0,tr13,8823,52938).
route(prodloc25,prodloc1,tr0,19806,514956).
route(prodloc25,prodloc1,tr13,19806,118836).
route(prodloc25,prodloc2,tr0,11857,308282).
route(prodloc25,prodloc2,tr13,11857,71142).
route(prodloc25,prodloc3,tr0,975,25350).
route(prodloc25,prodloc3,tr13,975,5850).
route(prodloc25,prodloc4,tr0,5196,135096).
route(prodloc25,prodloc4,tr13,5196,31176).
route(prodloc25,prodloc5,tr0,15023,390598).
route(prodloc25,prodloc5,tr13,15023,90138).
route(prodloc25,prodloc6,tr0,22259,578734).
route(prodloc25,prodloc6,tr13,22259,133554).
route(prodloc25,prodloc7,tr0,18425,479050).
route(prodloc25,prodloc7,tr13,18425,110550).
route(prodloc25,prodloc8,tr0,5190,134940).
route(prodloc25,prodloc8,tr13,5190,31140).
route(prodloc25,prodloc9,tr0,4223,109798).
route(prodloc25,prodloc9,tr13,4223,25338).
route(prodloc25,prodloc10,tr0,15867,412542).
route(prodloc25,prodloc10,tr13,15867,95202).
route(prodloc25,prodloc11,tr0,10183,264758).
route(prodloc25,prodloc11,tr13,10183,61098).
route(prodloc25,prodloc12,tr0,26668,693368).
route(prodloc25,prodloc12,tr13,26668,160008).
route(prodloc25,prodloc13,tr0,21602,561652).
route(prodloc25,prodloc13,tr13,21602,129612).
route(prodloc25,prodloc14,tr0,19645,510770).
route(prodloc25,prodloc14,tr13,19645,117870).
route(prodloc25,prodloc15,tr0,5242,136292).
route(prodloc25,prodloc15,tr13,5242,31452).
route(prodloc25,prodloc16,tr0,27183,706758).
route(prodloc25,prodloc16,tr13,27183,163098).
route(prodloc25,prodloc17,tr0,4489,116714).
route(prodloc25,prodloc17,tr13,4489,26934).
route(prodloc25,prodloc18,tr0,20436,531336).
route(prodloc25,prodloc18,tr13,20436,122616).
route(prodloc25,prodloc19,tr0,17980,467480).
route(prodloc25,prodloc19,tr13,17980,107880).
route(prodloc25,prodloc20,tr0,4407,114582).
route(prodloc25,prodloc20,tr13,4407,26442).
route(prodloc25,prodloc21,tr0,7438,193388).
route(prodloc25,prodloc21,tr13,7438,44628).
route(prodloc25,prodloc22,tr0,26017,676442).
route(prodloc25,prodloc22,tr13,26017,156102).
route(prodloc25,prodloc23,tr0,9053,235378).
route(prodloc25,prodloc23,tr13,9053,54318).
route(prodloc25,prodloc24,tr0,13198,343148).
route(prodloc25,prodloc24,tr13,13198,79188).
route(prodloc25,prodloc26,tr0,7247,188422).
route(prodloc25,prodloc26,tr13,7247,43482).
route(prodloc25,prodloc27,tr0,994,25844).
route(prodloc25,prodloc27,tr13,994,5964).
route(prodloc25,prodloc28,tr0,19382,503932).
route(prodloc25,prodloc28,tr13,19382,116292).
route(prodloc25,prodloc29,tr0,11505,299130).
route(prodloc25,prodloc29,tr13,11505,69030).
route(prodloc25,prodloc30,tr0,13701,356226).
route(prodloc25,prodloc30,tr13,13701,82206).
route(prodloc25,prodloc31,tr0,27996,727896).
route(prodloc25,prodloc31,tr13,27996,167976).
route(prodloc25,prodloc32,tr0,11980,311480).
route(prodloc25,prodloc32,tr13,11980,71880).
route(prodloc25,prodloc33,tr0,9151,237926).
route(prodloc25,prodloc33,tr13,9151,54906).
route(prodloc26,harbor0,tr0,662,17212).
route(prodloc26,harbor0,tr13,662,3972).
route(prodloc26,harbor1,tr0,25579,665054).
route(prodloc26,harbor1,tr13,25579,153474).
route(prodloc26,harbor2,tr0,13501,351026).
route(prodloc26,harbor2,tr13,13501,81006).
route(prodloc26,harbor3,tr0,15908,413608).
route(prodloc26,harbor3,tr13,15908,95448).
route(prodloc26,harbor4,tr0,6348,165048).
route(prodloc26,harbor4,tr13,6348,38088).
route(prodloc26,harbor5,tr0,6834,177684).
route(prodloc26,harbor5,tr13,6834,41004).
route(prodloc26,harbor6,tr0,12160,316160).
route(prodloc26,harbor6,tr13,12160,72960).
route(prodloc26,harbor7,tr0,21715,564590).
route(prodloc26,harbor7,tr13,21715,130290).
route(prodloc26,harbor8,tr0,27728,720928).
route(prodloc26,harbor8,tr13,27728,166368).
route(prodloc26,harbor9,tr0,2987,77662).
route(prodloc26,harbor9,tr13,2987,17922).
route(prodloc26,harbor10,tr0,19237,500162).
route(prodloc26,harbor10,tr13,19237,115422).
route(prodloc26,harbor11,tr0,4782,124332).
route(prodloc26,harbor11,tr13,4782,28692).
route(prodloc26,harbor12,tr0,5192,134992).
route(prodloc26,harbor12,tr13,5192,31152).
route(prodloc26,harbor13,tr0,21581,561106).
route(prodloc26,harbor13,tr13,21581,129486).
route(prodloc26,harbor14,tr0,21860,568360).
route(prodloc26,harbor14,tr13,21860,131160).
route(prodloc26,harbor15,tr0,14935,388310).
route(prodloc26,harbor15,tr13,14935,89610).
route(prodloc26,harbor16,tr0,11746,305396).
route(prodloc26,harbor16,tr13,11746,70476).
route(prodloc26,prodloc0,tr0,12021,312546).
route(prodloc26,prodloc0,tr13,12021,72126).
route(prodloc26,prodloc1,tr0,4369,113594).
route(prodloc26,prodloc1,tr13,4369,26214).
route(prodloc26,prodloc2,tr0,4890,127140).
route(prodloc26,prodloc2,tr13,4890,29340).
route(prodloc26,prodloc3,tr0,23793,618618).
route(prodloc26,prodloc3,tr13,23793,142758).
route(prodloc26,prodloc4,tr0,7908,205608).
route(prodloc26,prodloc4,tr13,7908,47448).
route(prodloc26,prodloc5,tr0,9035,234910).
route(prodloc26,prodloc5,tr13,9035,54210).
route(prodloc26,prodloc6,tr0,10732,279032).
route(prodloc26,prodloc6,tr13,10732,64392).
route(prodloc26,prodloc7,tr0,8997,233922).
route(prodloc26,prodloc7,tr13,8997,53982).
route(prodloc26,prodloc8,tr0,9186,238836).
route(prodloc26,prodloc8,tr13,9186,55116).
route(prodloc26,prodloc9,tr0,22702,590252).
route(prodloc26,prodloc9,tr13,22702,136212).
route(prodloc26,prodloc10,tr0,20642,536692).
route(prodloc26,prodloc10,tr13,20642,123852).
route(prodloc26,prodloc11,tr0,22812,593112).
route(prodloc26,prodloc11,tr13,22812,136872).
route(prodloc26,prodloc12,tr0,7978,207428).
route(prodloc26,prodloc12,tr13,7978,47868).
route(prodloc26,prodloc13,tr0,20913,543738).
route(prodloc26,prodloc13,tr13,20913,125478).
route(prodloc26,prodloc14,tr0,1785,46410).
route(prodloc26,prodloc14,tr13,1785,10710).
route(prodloc26,prodloc15,tr0,14,364).
route(prodloc26,prodloc15,tr13,14,84).
route(prodloc26,prodloc16,tr0,27805,722930).
route(prodloc26,prodloc16,tr13,27805,166830).
route(prodloc26,prodloc17,tr0,17813,463138).
route(prodloc26,prodloc17,tr13,17813,106878).
route(prodloc26,prodloc18,tr0,17349,451074).
route(prodloc26,prodloc18,tr13,17349,104094).
route(prodloc26,prodloc19,tr0,24361,633386).
route(prodloc26,prodloc19,tr13,24361,146166).
route(prodloc26,prodloc20,tr0,4141,107666).
route(prodloc26,prodloc20,tr13,4141,24846).
route(prodloc26,prodloc21,tr0,10883,282958).
route(prodloc26,prodloc21,tr13,10883,65298).
route(prodloc26,prodloc22,tr0,2076,53976).
route(prodloc26,prodloc22,tr13,2076,12456).
route(prodloc26,prodloc23,tr0,16708,434408).
route(prodloc26,prodloc23,tr13,16708,100248).
route(prodloc26,prodloc24,tr0,5593,145418).
route(prodloc26,prodloc24,tr13,5593,33558).
route(prodloc26,prodloc25,tr0,18010,468260).
route(prodloc26,prodloc25,tr13,18010,108060).
route(prodloc26,prodloc27,tr0,5000,130000).
route(prodloc26,prodloc27,tr13,5000,30000).
route(prodloc26,prodloc28,tr0,20956,544856).
route(prodloc26,prodloc28,tr13,20956,125736).
route(prodloc26,prodloc29,tr0,778,20228).
route(prodloc26,prodloc29,tr13,778,4668).
route(prodloc26,prodloc30,tr0,9844,255944).
route(prodloc26,prodloc30,tr13,9844,59064).
route(prodloc26,prodloc31,tr0,3493,90818).
route(prodloc26,prodloc31,tr13,3493,20958).
route(prodloc26,prodloc32,tr0,3410,88660).
route(prodloc26,prodloc32,tr13,3410,20460).
route(prodloc26,prodloc33,tr0,6786,176436).
route(prodloc26,prodloc33,tr13,6786,40716).
route(prodloc27,harbor0,tr0,4779,124254).
route(prodloc27,harbor0,tr13,4779,28674).
route(prodloc27,harbor1,tr0,22924,596024).
route(prodloc27,harbor1,tr13,22924,137544).
route(prodloc27,harbor2,tr0,140,3640).
route(prodloc27,harbor2,tr13,140,840).
route(prodloc27,harbor3,tr0,3717,96642).
route(prodloc27,harbor3,tr13,3717,22302).
route(prodloc27,harbor4,tr0,5532,143832).
route(prodloc27,harbor4,tr13,5532,33192).
route(prodloc27,harbor5,tr0,18433,479258).
route(prodloc27,harbor5,tr13,18433,110598).
route(prodloc27,harbor6,tr0,9447,245622).
route(prodloc27,harbor6,tr13,9447,56682).
route(prodloc27,harbor7,tr0,25999,675974).
route(prodloc27,harbor7,tr13,25999,155994).
route(prodloc27,harbor8,tr0,9453,245778).
route(prodloc27,harbor8,tr13,9453,56718).
route(prodloc27,harbor9,tr0,13158,342108).
route(prodloc27,harbor9,tr13,13158,78948).
route(prodloc27,harbor10,tr0,23967,623142).
route(prodloc27,harbor10,tr13,23967,143802).
route(prodloc27,harbor11,tr0,21823,567398).
route(prodloc27,harbor11,tr13,21823,130938).
route(prodloc27,harbor12,tr0,9109,236834).
route(prodloc27,harbor12,tr13,9109,54654).
route(prodloc27,harbor13,tr0,1390,36140).
route(prodloc27,harbor13,tr13,1390,8340).
route(prodloc27,harbor14,tr0,15808,411008).
route(prodloc27,harbor14,tr13,15808,94848).
route(prodloc27,harbor15,tr0,12266,318916).
route(prodloc27,harbor15,tr13,12266,73596).
route(prodloc27,harbor16,tr0,984,25584).
route(prodloc27,harbor16,tr13,984,5904).
route(prodloc27,prodloc0,tr0,22121,575146).
route(prodloc27,prodloc0,tr13,22121,132726).
route(prodloc27,prodloc1,tr0,21002,546052).
route(prodloc27,prodloc1,tr13,21002,126012).
route(prodloc27,prodloc2,tr0,12861,334386).
route(prodloc27,prodloc2,tr13,12861,77166).
route(prodloc27,prodloc3,tr0,15454,401804).
route(prodloc27,prodloc3,tr13,15454,92724).
route(prodloc27,prodloc4,tr0,21666,563316).
route(prodloc27,prodloc4,tr13,21666,129996).
route(prodloc27,prodloc5,tr0,11881,308906).
route(prodloc27,prodloc5,tr13,11881,71286).
route(prodloc27,prodloc6,tr0,19410,504660).
route(prodloc27,prodloc6,tr13,19410,116460).
route(prodloc27,prodloc7,tr0,25789,670514).
route(prodloc27,prodloc7,tr13,25789,154734).
route(prodloc27,prodloc8,tr0,26630,692380).
route(prodloc27,prodloc8,tr13,26630,159780).
route(prodloc27,prodloc9,tr0,23480,610480).
route(prodloc27,prodloc9,tr13,23480,140880).
route(prodloc27,prodloc10,tr0,23142,601692).
route(prodloc27,prodloc10,tr13,23142,138852).
route(prodloc27,prodloc11,tr0,8575,222950).
route(prodloc27,prodloc11,tr13,8575,51450).
route(prodloc27,prodloc12,tr0,26885,699010).
route(prodloc27,prodloc12,tr13,26885,161310).
route(prodloc27,prodloc13,tr0,14091,366366).
route(prodloc27,prodloc13,tr13,14091,84546).
route(prodloc27,prodloc14,tr0,6116,159016).
route(prodloc27,prodloc14,tr13,6116,36696).
route(prodloc27,prodloc15,tr0,673,17498).
route(prodloc27,prodloc15,tr13,673,4038).
route(prodloc27,prodloc16,tr0,1971,51246).
route(prodloc27,prodloc16,tr13,1971,11826).
route(prodloc27,prodloc17,tr0,26370,685620).
route(prodloc27,prodloc17,tr13,26370,158220).
route(prodloc27,prodloc18,tr0,18423,478998).
route(prodloc27,prodloc18,tr13,18423,110538).
route(prodloc27,prodloc19,tr0,11790,306540).
route(prodloc27,prodloc19,tr13,11790,70740).
route(prodloc27,prodloc20,tr0,14282,371332).
route(prodloc27,prodloc20,tr13,14282,85692).
route(prodloc27,prodloc21,tr0,10983,285558).
route(prodloc27,prodloc21,tr13,10983,65898).
route(prodloc27,prodloc22,tr0,10320,268320).
route(prodloc27,prodloc22,tr13,10320,61920).
route(prodloc27,prodloc23,tr0,9542,248092).
route(prodloc27,prodloc23,tr13,9542,57252).
route(prodloc27,prodloc24,tr0,13120,341120).
route(prodloc27,prodloc24,tr13,13120,78720).
route(prodloc27,prodloc25,tr0,22029,572754).
route(prodloc27,prodloc25,tr13,22029,132174).
route(prodloc27,prodloc26,tr0,4367,113542).
route(prodloc27,prodloc26,tr13,4367,26202).
route(prodloc27,prodloc28,tr0,13629,354354).
route(prodloc27,prodloc28,tr13,13629,81774).
route(prodloc27,prodloc29,tr13,2639,15834).
route(prodloc27,prodloc29,tr15,2639,84448).
route(prodloc27,prodloc30,tr0,99,2574).
route(prodloc27,prodloc30,tr13,99,594).
route(prodloc27,prodloc31,tr0,9799,254774).
route(prodloc27,prodloc31,tr13,9799,58794).
route(prodloc27,prodloc32,tr0,1705,44330).
route(prodloc27,prodloc32,tr13,1705,10230).
route(prodloc27,prodloc33,tr0,14693,382018).
route(prodloc27,prodloc33,tr13,14693,88158).
route(prodloc28,harbor0,tr0,22936,596336).
route(prodloc28,harbor0,tr13,22936,137616).
route(prodloc28,harbor1,tr0,5657,147082).
route(prodloc28,harbor1,tr13,5657,33942).
route(prodloc28,harbor2,tr0,3768,97968).
route(prodloc28,harbor2,tr13,3768,22608).
route(prodloc28,harbor3,tr0,23639,614614).
route(prodloc28,harbor3,tr13,23639,141834).
route(prodloc28,harbor4,tr0,11188,290888).
route(prodloc28,harbor4,tr13,11188,67128).
route(prodloc28,harbor5,tr0,108,2808).
route(prodloc28,harbor5,tr13,108,648).
route(prodloc28,harbor6,tr0,10391,270166).
route(prodloc28,harbor6,tr13,10391,62346).
route(prodloc28,harbor7,tr0,9562,248612).
route(prodloc28,harbor7,tr13,9562,57372).
route(prodloc28,harbor8,tr0,10456,271856).
route(prodloc28,harbor8,tr13,10456,62736).
route(prodloc28,harbor9,tr0,12968,337168).
route(prodloc28,harbor9,tr13,12968,77808).
route(prodloc28,harbor10,tr0,15692,407992).
route(prodloc28,harbor10,tr13,15692,94152).
route(prodloc28,harbor11,tr0,20543,534118).
route(prodloc28,harbor11,tr13,20543,123258).
route(prodloc28,harbor12,tr0,26888,699088).
route(prodloc28,harbor12,tr13,26888,161328).
route(prodloc28,harbor13,tr0,24388,634088).
route(prodloc28,harbor13,tr13,24388,146328).
route(prodloc28,harbor14,tr0,15669,407394).
route(prodloc28,harbor14,tr13,15669,94014).
route(prodloc28,harbor15,tr0,22201,577226).
route(prodloc28,harbor15,tr13,22201,133206).
route(prodloc28,harbor16,tr0,18076,469976).
route(prodloc28,harbor16,tr13,18076,108456).
route(prodloc28,prodloc0,tr0,6364,165464).
route(prodloc28,prodloc0,tr13,6364,38184).
route(prodloc28,prodloc1,tr0,7386,192036).
route(prodloc28,prodloc1,tr13,7386,44316).
route(prodloc28,prodloc2,tr0,27977,727402).
route(prodloc28,prodloc2,tr13,27977,167862).
route(prodloc28,prodloc3,tr0,509,13234).
route(prodloc28,prodloc3,tr13,509,3054).
route(prodloc28,prodloc4,tr0,1760,45760).
route(prodloc28,prodloc4,tr13,1760,10560).
route(prodloc28,prodloc5,tr0,14407,374582).
route(prodloc28,prodloc5,tr13,14407,86442).
route(prodloc28,prodloc6,tr0,19118,497068).
route(prodloc28,prodloc6,tr13,19118,114708).
route(prodloc28,prodloc7,tr0,1654,43004).
route(prodloc28,prodloc7,tr13,1654,9924).
route(prodloc28,prodloc8,tr0,170,4420).
route(prodloc28,prodloc8,tr13,170,1020).
route(prodloc28,prodloc9,tr0,25209,655434).
route(prodloc28,prodloc9,tr13,25209,151254).
route(prodloc28,prodloc10,tr13,13686,82116).
route(prodloc28,prodloc10,tr15,13686,437952).
route(prodloc28,prodloc11,tr0,15468,402168).
route(prodloc28,prodloc11,tr15,15468,494976).
route(prodloc28,prodloc12,tr0,14404,374504).
route(prodloc28,prodloc12,tr13,14404,86424).
route(prodloc28,prodloc13,tr0,3225,83850).
route(prodloc28,prodloc13,tr13,3225,19350).
route(prodloc28,prodloc14,tr0,16560,430560).
route(prodloc28,prodloc14,tr13,16560,99360).
route(prodloc28,prodloc15,tr0,7946,206596).
route(prodloc28,prodloc15,tr13,7946,47676).
route(prodloc28,prodloc16,tr0,25488,662688).
route(prodloc28,prodloc16,tr13,25488,152928).
route(prodloc28,prodloc17,tr0,21434,557284).
route(prodloc28,prodloc17,tr13,21434,128604).
route(prodloc28,prodloc18,tr0,4176,108576).
route(prodloc28,prodloc18,tr13,4176,25056).
route(prodloc28,prodloc19,tr0,22853,594178).
route(prodloc28,prodloc19,tr13,22853,137118).
route(prodloc28,prodloc20,tr0,2328,60528).
route(prodloc28,prodloc20,tr13,2328,13968).
route(prodloc28,prodloc21,tr0,5841,151866).
route(prodloc28,prodloc21,tr15,5841,186912).
route(prodloc28,prodloc22,tr0,25243,656318).
route(prodloc28,prodloc22,tr13,25243,151458).
route(prodloc28,prodloc23,tr0,4973,129298).
route(prodloc28,prodloc23,tr13,4973,29838).
route(prodloc28,prodloc24,tr0,11175,290550).
route(prodloc28,prodloc24,tr13,11175,67050).
route(prodloc28,prodloc25,tr0,5833,151658).
route(prodloc28,prodloc25,tr13,5833,34998).
route(prodloc28,prodloc26,tr0,23955,622830).
route(prodloc28,prodloc26,tr13,23955,143730).
route(prodloc28,prodloc27,tr0,17605,457730).
route(prodloc28,prodloc27,tr13,17605,105630).
route(prodloc28,prodloc29,tr0,24680,641680).
route(prodloc28,prodloc29,tr13,24680,148080).
route(prodloc28,prodloc30,tr0,11773,306098).
route(prodloc28,prodloc30,tr13,11773,70638).
route(prodloc28,prodloc31,tr0,10986,285636).
route(prodloc28,prodloc31,tr13,10986,65916).
route(prodloc28,prodloc32,tr0,7417,192842).
route(prodloc28,prodloc32,tr13,7417,44502).
route(prodloc28,prodloc33,tr0,12935,336310).
route(prodloc28,prodloc33,tr13,12935,77610).
route(prodloc29,harbor0,tr0,27607,717782).
route(prodloc29,harbor0,tr13,27607,165642).
route(prodloc29,harbor1,tr0,13466,350116).
route(prodloc29,harbor1,tr13,13466,80796).
route(prodloc29,harbor2,tr0,4964,129064).
route(prodloc29,harbor2,tr13,4964,29784).
route(prodloc29,harbor3,tr0,3286,85436).
route(prodloc29,harbor3,tr13,3286,19716).
route(prodloc29,harbor4,tr0,14880,386880).
route(prodloc29,harbor4,tr13,14880,89280).
route(prodloc29,harbor5,tr0,18573,482898).
route(prodloc29,harbor5,tr13,18573,111438).
route(prodloc29,harbor6,tr0,9564,248664).
route(prodloc29,harbor6,tr13,9564,57384).
route(prodloc29,harbor7,tr0,23771,618046).
route(prodloc29,harbor7,tr13,23771,142626).
route(prodloc29,harbor8,tr0,13460,349960).
route(prodloc29,harbor8,tr13,13460,80760).
route(prodloc29,harbor9,tr0,5464,142064).
route(prodloc29,harbor9,tr13,5464,32784).
route(prodloc29,harbor10,tr0,14557,378482).
route(prodloc29,harbor10,tr13,14557,87342).
route(prodloc29,harbor11,tr0,4514,117364).
route(prodloc29,harbor11,tr13,4514,27084).
route(prodloc29,harbor12,tr0,17957,466882).
route(prodloc29,harbor12,tr13,17957,107742).
route(prodloc29,harbor13,tr0,20966,545116).
route(prodloc29,harbor13,tr13,20966,125796).
route(prodloc29,harbor14,tr0,1168,30368).
route(prodloc29,harbor14,tr13,1168,7008).
route(prodloc29,harbor15,tr0,24999,649974).
route(prodloc29,harbor15,tr13,24999,149994).
route(prodloc29,harbor16,tr0,27485,714610).
route(prodloc29,harbor16,tr13,27485,164910).
route(prodloc29,prodloc0,tr0,21758,565708).
route(prodloc29,prodloc0,tr13,21758,130548).
route(prodloc29,prodloc1,tr0,23073,599898).
route(prodloc29,prodloc1,tr13,23073,138438).
route(prodloc29,prodloc2,tr0,11571,300846).
route(prodloc29,prodloc2,tr13,11571,69426).
route(prodloc29,prodloc3,tr0,27584,717184).
route(prodloc29,prodloc3,tr13,27584,165504).
route(prodloc29,prodloc4,tr0,26238,682188).
route(prodloc29,prodloc4,tr13,26238,157428).
route(prodloc29,prodloc5,tr0,16881,438906).
route(prodloc29,prodloc5,tr13,16881,101286).
route(prodloc29,prodloc6,tr0,14497,376922).
route(prodloc29,prodloc6,tr13,14497,86982).
route(prodloc29,prodloc7,tr0,27057,703482).
route(prodloc29,prodloc7,tr13,27057,162342).
route(prodloc29,prodloc8,tr0,17943,466518).
route(prodloc29,prodloc8,tr13,17943,107658).
route(prodloc29,prodloc9,tr0,10990,285740).
route(prodloc29,prodloc9,tr13,10990,65940).
route(prodloc29,prodloc10,tr0,5506,143156).
route(prodloc29,prodloc10,tr13,5506,33036).
route(prodloc29,prodloc11,tr0,16819,437294).
route(prodloc29,prodloc11,tr13,16819,100914).
route(prodloc29,prodloc12,tr0,22423,582998).
route(prodloc29,prodloc12,tr13,22423,134538).
route(prodloc29,prodloc13,tr0,16788,436488).
route(prodloc29,prodloc13,tr13,16788,100728).
route(prodloc29,prodloc14,tr0,2592,67392).
route(prodloc29,prodloc14,tr13,2592,15552).
route(prodloc29,prodloc15,tr0,11660,303160).
route(prodloc29,prodloc15,tr13,11660,69960).
route(prodloc29,prodloc16,tr0,7798,202748).
route(prodloc29,prodloc16,tr13,7798,46788).
route(prodloc29,prodloc17,tr0,9440,245440).
route(prodloc29,prodloc17,tr13,9440,56640).
route(prodloc29,prodloc18,tr0,28778,748228).
route(prodloc29,prodloc18,tr13,28778,172668).
route(prodloc29,prodloc19,tr0,9261,240786).
route(prodloc29,prodloc19,tr13,9261,55566).
route(prodloc29,prodloc20,tr0,26880,698880).
route(prodloc29,prodloc20,tr13,26880,161280).
route(prodloc29,prodloc21,tr0,9808,255008).
route(prodloc29,prodloc21,tr13,9808,58848).
route(prodloc29,prodloc22,tr0,9799,254774).
route(prodloc29,prodloc22,tr13,9799,58794).
route(prodloc29,prodloc23,tr0,3615,93990).
route(prodloc29,prodloc23,tr13,3615,21690).
route(prodloc29,prodloc24,tr0,19031,494806).
route(prodloc29,prodloc24,tr13,19031,114186).
route(prodloc29,prodloc25,tr0,28071,729846).
route(prodloc29,prodloc25,tr15,28071,898272).
route(prodloc29,prodloc26,tr0,12820,333320).
route(prodloc29,prodloc26,tr13,12820,76920).
route(prodloc29,prodloc27,tr0,17549,456274).
route(prodloc29,prodloc27,tr13,17549,105294).
route(prodloc29,prodloc28,tr0,19188,498888).
route(prodloc29,prodloc28,tr13,19188,115128).
route(prodloc29,prodloc30,tr0,7770,202020).
route(prodloc29,prodloc30,tr13,7770,46620).
route(prodloc29,prodloc31,tr0,6297,163722).
route(prodloc29,prodloc31,tr13,6297,37782).
route(prodloc29,prodloc32,tr0,22484,584584).
route(prodloc29,prodloc32,tr13,22484,134904).
route(prodloc29,prodloc33,tr0,13613,353938).
route(prodloc29,prodloc33,tr13,13613,81678).
route(prodloc30,harbor0,tr0,18763,487838).
route(prodloc30,harbor0,tr13,18763,112578).
route(prodloc30,harbor1,tr0,26304,683904).
route(prodloc30,harbor1,tr13,26304,157824).
route(prodloc30,harbor2,tr0,14745,383370).
route(prodloc30,harbor2,tr13,14745,88470).
route(prodloc30,harbor3,tr0,2610,67860).
route(prodloc30,harbor3,tr13,2610,15660).
route(prodloc30,harbor4,tr0,28150,731900).
route(prodloc30,harbor4,tr13,28150,168900).
route(prodloc30,harbor5,tr0,27541,716066).
route(prodloc30,harbor5,tr13,27541,165246).
route(prodloc30,harbor6,tr0,8879,230854).
route(prodloc30,harbor6,tr13,8879,53274).
route(prodloc30,harbor7,tr0,18651,484926).
route(prodloc30,harbor7,tr13,18651,111906).
route(prodloc30,harbor8,tr0,17416,452816).
route(prodloc30,harbor8,tr13,17416,104496).
route(prodloc30,harbor9,tr0,13424,349024).
route(prodloc30,harbor9,tr13,13424,80544).
route(prodloc30,harbor10,tr0,12591,327366).
route(prodloc30,harbor10,tr13,12591,75546).
route(prodloc30,harbor11,tr0,4179,108654).
route(prodloc30,harbor11,tr13,4179,25074).
route(prodloc30,harbor12,tr0,16387,426062).
route(prodloc30,harbor12,tr13,16387,98322).
route(prodloc30,harbor13,tr0,11983,311558).
route(prodloc30,harbor13,tr13,11983,71898).
route(prodloc30,harbor14,tr0,16132,419432).
route(prodloc30,harbor14,tr13,16132,96792).
route(prodloc30,harbor15,tr0,26930,700180).
route(prodloc30,harbor15,tr13,26930,161580).
route(prodloc30,harbor16,tr0,6658,173108).
route(prodloc30,harbor16,tr13,6658,39948).
route(prodloc30,prodloc0,tr0,3662,95212).
route(prodloc30,prodloc0,tr13,3662,21972).
route(prodloc30,prodloc1,tr0,6857,178282).
route(prodloc30,prodloc1,tr13,6857,41142).
route(prodloc30,prodloc2,tr0,19221,499746).
route(prodloc30,prodloc2,tr13,19221,115326).
route(prodloc30,prodloc3,tr0,16090,418340).
route(prodloc30,prodloc3,tr13,16090,96540).
route(prodloc30,prodloc4,tr0,21178,550628).
route(prodloc30,prodloc4,tr13,21178,127068).
route(prodloc30,prodloc5,tr0,5000,130000).
route(prodloc30,prodloc5,tr13,5000,30000).
route(prodloc30,prodloc6,tr0,2529,65754).
route(prodloc30,prodloc6,tr13,2529,15174).
route(prodloc30,prodloc7,tr0,28716,746616).
route(prodloc30,prodloc7,tr13,28716,172296).
route(prodloc30,prodloc8,tr0,6279,163254).
route(prodloc30,prodloc8,tr13,6279,37674).
route(prodloc30,prodloc9,tr0,26781,696306).
route(prodloc30,prodloc9,tr13,26781,160686).
route(prodloc30,prodloc10,tr0,26116,679016).
route(prodloc30,prodloc10,tr13,26116,156696).
route(prodloc30,prodloc11,tr0,25550,664300).
route(prodloc30,prodloc11,tr13,25550,153300).
route(prodloc30,prodloc12,tr0,16004,416104).
route(prodloc30,prodloc12,tr13,16004,96024).
route(prodloc30,prodloc13,tr0,22073,573898).
route(prodloc30,prodloc13,tr13,22073,132438).
route(prodloc30,prodloc14,tr0,4725,122850).
route(prodloc30,prodloc14,tr13,4725,28350).
route(prodloc30,prodloc15,tr0,3386,88036).
route(prodloc30,prodloc15,tr13,3386,20316).
route(prodloc30,prodloc16,tr0,21451,557726).
route(prodloc30,prodloc16,tr13,21451,128706).
route(prodloc30,prodloc17,tr0,22964,597064).
route(prodloc30,prodloc17,tr13,22964,137784).
route(prodloc30,prodloc18,tr0,27457,713882).
route(prodloc30,prodloc18,tr13,27457,164742).
route(prodloc30,prodloc19,tr0,20428,531128).
route(prodloc30,prodloc19,tr13,20428,122568).
route(prodloc30,prodloc20,tr0,8879,230854).
route(prodloc30,prodloc20,tr13,8879,53274).
route(prodloc30,prodloc21,tr0,10684,277784).
route(prodloc30,prodloc21,tr13,10684,64104).
route(prodloc30,prodloc22,tr0,24883,646958).
route(prodloc30,prodloc22,tr13,24883,149298).
route(prodloc30,prodloc23,tr0,6742,175292).
route(prodloc30,prodloc23,tr13,6742,40452).
route(prodloc30,prodloc24,tr0,15802,410852).
route(prodloc30,prodloc24,tr13,15802,94812).
route(prodloc30,prodloc25,tr0,24305,631930).
route(prodloc30,prodloc25,tr13,24305,145830).
route(prodloc30,prodloc26,tr0,12669,329394).
route(prodloc30,prodloc26,tr13,12669,76014).
route(prodloc30,prodloc27,tr0,18052,469352).
route(prodloc30,prodloc27,tr13,18052,108312).
route(prodloc30,prodloc28,tr0,19683,511758).
route(prodloc30,prodloc28,tr13,19683,118098).
route(prodloc30,prodloc29,tr0,22897,595322).
route(prodloc30,prodloc29,tr13,22897,137382).
route(prodloc30,prodloc31,tr0,9462,246012).
route(prodloc30,prodloc31,tr13,9462,56772).
route(prodloc30,prodloc32,tr0,117,3042).
route(prodloc30,prodloc32,tr13,117,702).
route(prodloc30,prodloc33,tr13,25395,152370).
route(prodloc30,prodloc33,tr15,25395,812640).
route(prodloc31,harbor0,tr0,27162,706212).
route(prodloc31,harbor0,tr13,27162,162972).
route(prodloc31,harbor1,tr0,25105,652730).
route(prodloc31,harbor1,tr13,25105,150630).
route(prodloc31,harbor2,tr0,6954,180804).
route(prodloc31,harbor2,tr13,6954,41724).
route(prodloc31,harbor3,tr0,14211,369486).
route(prodloc31,harbor3,tr13,14211,85266).
route(prodloc31,harbor4,tr0,24425,635050).
route(prodloc31,harbor4,tr13,24425,146550).
route(prodloc31,harbor5,tr0,10125,263250).
route(prodloc31,harbor5,tr13,10125,60750).
route(prodloc31,harbor6,tr0,3254,84604).
route(prodloc31,harbor6,tr13,3254,19524).
route(prodloc31,harbor7,tr0,8368,217568).
route(prodloc31,harbor7,tr13,8368,50208).
route(prodloc31,harbor8,tr0,25157,654082).
route(prodloc31,harbor8,tr13,25157,150942).
route(prodloc31,harbor9,tr0,58,1508).
route(prodloc31,harbor9,tr13,58,348).
route(prodloc31,harbor10,tr0,22556,586456).
route(prodloc31,harbor10,tr13,22556,135336).
route(prodloc31,harbor11,tr0,27555,716430).
route(prodloc31,harbor11,tr13,27555,165330).
route(prodloc31,harbor12,tr0,13105,340730).
route(prodloc31,harbor12,tr13,13105,78630).
route(prodloc31,harbor13,tr0,6669,173394).
route(prodloc31,harbor13,tr13,6669,40014).
route(prodloc31,harbor14,tr0,19074,495924).
route(prodloc31,harbor14,tr13,19074,114444).
route(prodloc31,harbor15,tr0,21824,567424).
route(prodloc31,harbor15,tr13,21824,130944).
route(prodloc31,harbor16,tr0,23571,612846).
route(prodloc31,harbor16,tr13,23571,141426).
route(prodloc31,prodloc0,tr0,22409,582634).
route(prodloc31,prodloc0,tr13,22409,134454).
route(prodloc31,prodloc1,tr0,27098,704548).
route(prodloc31,prodloc1,tr13,27098,162588).
route(prodloc31,prodloc2,tr0,9730,252980).
route(prodloc31,prodloc2,tr13,9730,58380).
route(prodloc31,prodloc3,tr0,5091,132366).
route(prodloc31,prodloc3,tr13,5091,30546).
route(prodloc31,prodloc4,tr0,20396,530296).
route(prodloc31,prodloc4,tr13,20396,122376).
route(prodloc31,prodloc5,tr0,25606,665756).
route(prodloc31,prodloc5,tr13,25606,153636).
route(prodloc31,prodloc6,tr0,9906,257556).
route(prodloc31,prodloc6,tr13,9906,59436).
route(prodloc31,prodloc7,tr0,2011,52286).
route(prodloc31,prodloc7,tr13,2011,12066).
route(prodloc31,prodloc8,tr0,13679,355654).
route(prodloc31,prodloc8,tr13,13679,82074).
route(prodloc31,prodloc9,tr0,21627,562302).
route(prodloc31,prodloc9,tr13,21627,129762).
route(prodloc31,prodloc10,tr0,11283,293358).
route(prodloc31,prodloc10,tr13,11283,67698).
route(prodloc31,prodloc11,tr0,14523,377598).
route(prodloc31,prodloc11,tr13,14523,87138).
route(prodloc31,prodloc12,tr0,28372,737672).
route(prodloc31,prodloc12,tr13,28372,170232).
route(prodloc31,prodloc13,tr0,27468,714168).
route(prodloc31,prodloc13,tr13,27468,164808).
route(prodloc31,prodloc14,tr0,1752,45552).
route(prodloc31,prodloc14,tr13,1752,10512).
route(prodloc31,prodloc15,tr0,12460,323960).
route(prodloc31,prodloc15,tr13,12460,74760).
route(prodloc31,prodloc16,tr0,14039,365014).
route(prodloc31,prodloc16,tr13,14039,84234).
route(prodloc31,prodloc17,tr0,25768,669968).
route(prodloc31,prodloc17,tr13,25768,154608).
route(prodloc31,prodloc18,tr0,10060,261560).
route(prodloc31,prodloc18,tr13,10060,60360).
route(prodloc31,prodloc19,tr0,3664,95264).
route(prodloc31,prodloc19,tr13,3664,21984).
route(prodloc31,prodloc20,tr0,11628,302328).
route(prodloc31,prodloc20,tr13,11628,69768).
route(prodloc31,prodloc21,tr0,26896,699296).
route(prodloc31,prodloc21,tr13,26896,161376).
route(prodloc31,prodloc22,tr13,9642,57852).
route(prodloc31,prodloc22,tr15,9642,308544).
route(prodloc31,prodloc23,tr0,28707,746382).
route(prodloc31,prodloc23,tr13,28707,172242).
route(prodloc31,prodloc24,tr0,25823,671398).
route(prodloc31,prodloc24,tr13,25823,154938).
route(prodloc31,prodloc25,tr0,25486,662636).
route(prodloc31,prodloc25,tr13,25486,152916).
route(prodloc31,prodloc26,tr0,3589,93314).
route(prodloc31,prodloc26,tr13,3589,21534).
route(prodloc31,prodloc27,tr0,16414,426764).
route(prodloc31,prodloc27,tr13,16414,98484).
route(prodloc31,prodloc28,tr0,5163,134238).
route(prodloc31,prodloc28,tr13,5163,30978).
route(prodloc31,prodloc29,tr0,6208,161408).
route(prodloc31,prodloc29,tr13,6208,37248).
route(prodloc31,prodloc30,tr0,26543,690118).
route(prodloc31,prodloc30,tr13,26543,159258).
route(prodloc31,prodloc32,tr0,24401,634426).
route(prodloc31,prodloc32,tr13,24401,146406).
route(prodloc31,prodloc33,tr0,292,7592).
route(prodloc31,prodloc33,tr13,292,1752).
route(prodloc32,harbor0,tr0,5035,130910).
route(prodloc32,harbor0,tr13,5035,30210).
route(prodloc32,harbor1,tr0,24125,627250).
route(prodloc32,harbor1,tr13,24125,144750).
route(prodloc32,harbor2,tr0,13865,360490).
route(prodloc32,harbor2,tr13,13865,83190).
route(prodloc32,harbor3,tr0,7341,190866).
route(prodloc32,harbor3,tr13,7341,44046).
route(prodloc32,harbor4,tr0,1947,50622).
route(prodloc32,harbor4,tr13,1947,11682).
route(prodloc32,harbor5,tr0,22134,575484).
route(prodloc32,harbor5,tr13,22134,132804).
route(prodloc32,harbor6,tr0,27694,720044).
route(prodloc32,harbor6,tr13,27694,166164).
route(prodloc32,harbor7,tr0,6735,175110).
route(prodloc32,harbor7,tr13,6735,40410).
route(prodloc32,harbor8,tr0,28746,747396).
route(prodloc32,harbor8,tr13,28746,172476).
route(prodloc32,harbor9,tr0,7637,198562).
route(prodloc32,harbor9,tr13,7637,45822).
route(prodloc32,harbor10,tr0,1300,33800).
route(prodloc32,harbor10,tr13,1300,7800).
route(prodloc32,harbor11,tr0,4130,107380).
route(prodloc32,harbor11,tr13,4130,24780).
route(prodloc32,harbor12,tr0,25713,668538).
route(prodloc32,harbor12,tr13,25713,154278).
route(prodloc32,harbor13,tr0,7220,187720).
route(prodloc32,harbor13,tr13,7220,43320).
route(prodloc32,harbor14,tr0,8100,210600).
route(prodloc32,harbor14,tr13,8100,48600).
route(prodloc32,harbor15,tr0,27292,709592).
route(prodloc32,harbor15,tr13,27292,163752).
route(prodloc32,harbor16,tr0,25889,673114).
route(prodloc32,harbor16,tr13,25889,155334).
route(prodloc32,prodloc0,tr0,5015,130390).
route(prodloc32,prodloc0,tr13,5015,30090).
route(prodloc32,prodloc1,tr0,21597,561522).
route(prodloc32,prodloc1,tr13,21597,129582).
route(prodloc32,prodloc2,tr0,13133,341458).
route(prodloc32,prodloc2,tr13,13133,78798).
route(prodloc32,prodloc3,tr0,9677,251602).
route(prodloc32,prodloc3,tr13,9677,58062).
route(prodloc32,prodloc4,tr0,18182,472732).
route(prodloc32,prodloc4,tr13,18182,109092).
route(prodloc32,prodloc5,tr0,14749,383474).
route(prodloc32,prodloc5,tr13,14749,88494).
route(prodloc32,prodloc6,tr0,17992,467792).
route(prodloc32,prodloc6,tr13,17992,107952).
route(prodloc32,prodloc7,tr0,18142,471692).
route(prodloc32,prodloc7,tr13,18142,108852).
route(prodloc32,prodloc8,tr0,26080,678080).
route(prodloc32,prodloc8,tr13,26080,156480).
route(prodloc32,prodloc9,tr0,11561,300586).
route(prodloc32,prodloc9,tr13,11561,69366).
route(prodloc32,prodloc10,tr0,27329,710554).
route(prodloc32,prodloc10,tr13,27329,163974).
route(prodloc32,prodloc11,tr0,25626,666276).
route(prodloc32,prodloc11,tr13,25626,153756).
route(prodloc32,prodloc12,tr0,25624,666224).
route(prodloc32,prodloc12,tr13,25624,153744).
route(prodloc32,prodloc13,tr0,26218,681668).
route(prodloc32,prodloc13,tr13,26218,157308).
route(prodloc32,prodloc14,tr0,17489,454714).
route(prodloc32,prodloc14,tr13,17489,104934).
route(prodloc32,prodloc15,tr0,21582,561132).
route(prodloc32,prodloc15,tr13,21582,129492).
route(prodloc32,prodloc16,tr0,5881,152906).
route(prodloc32,prodloc16,tr13,5881,35286).
route(prodloc32,prodloc17,tr0,1697,44122).
route(prodloc32,prodloc17,tr13,1697,10182).
route(prodloc32,prodloc18,tr0,1573,40898).
route(prodloc32,prodloc18,tr13,1573,9438).
route(prodloc32,prodloc19,tr0,14757,383682).
route(prodloc32,prodloc19,tr13,14757,88542).
route(prodloc32,prodloc20,tr0,21029,546754).
route(prodloc32,prodloc20,tr13,21029,126174).
route(prodloc32,prodloc21,tr0,7216,187616).
route(prodloc32,prodloc21,tr13,7216,43296).
route(prodloc32,prodloc22,tr0,9470,246220).
route(prodloc32,prodloc22,tr13,9470,56820).
route(prodloc32,prodloc23,tr0,10764,279864).
route(prodloc32,prodloc23,tr13,10764,64584).
route(prodloc32,prodloc24,tr0,13773,358098).
route(prodloc32,prodloc24,tr13,13773,82638).
route(prodloc32,prodloc25,tr0,5389,140114).
route(prodloc32,prodloc25,tr13,5389,32334).
route(prodloc32,prodloc26,tr0,28918,751868).
route(prodloc32,prodloc26,tr13,28918,173508).
route(prodloc32,prodloc27,tr0,17851,464126).
route(prodloc32,prodloc27,tr13,17851,107106).
route(prodloc32,prodloc28,tr0,13692,355992).
route(prodloc32,prodloc28,tr13,13692,82152).
route(prodloc32,prodloc29,tr0,14605,379730).
route(prodloc32,prodloc29,tr13,14605,87630).
route(prodloc32,prodloc30,tr0,8493,220818).
route(prodloc32,prodloc30,tr13,8493,50958).
route(prodloc32,prodloc31,tr0,2270,59020).
route(prodloc32,prodloc31,tr13,2270,13620).
route(prodloc32,prodloc33,tr0,6242,162292).
route(prodloc32,prodloc33,tr13,6242,37452).
route(prodloc33,harbor0,tr0,20917,543842).
route(prodloc33,harbor0,tr13,20917,125502).
route(prodloc33,harbor1,tr0,23490,610740).
route(prodloc33,harbor1,tr13,23490,140940).
route(prodloc33,harbor2,tr0,28622,744172).
route(prodloc33,harbor2,tr13,28622,171732).
route(prodloc33,harbor3,tr0,3313,86138).
route(prodloc33,harbor3,tr13,3313,19878).
route(prodloc33,harbor4,tr0,6071,157846).
route(prodloc33,harbor4,tr13,6071,36426).
route(prodloc33,harbor5,tr0,15564,404664).
route(prodloc33,harbor5,tr13,15564,93384).
route(prodloc33,harbor6,tr0,12020,312520).
route(prodloc33,harbor6,tr13,12020,72120).
route(prodloc33,harbor7,tr0,17371,451646).
route(prodloc33,harbor7,tr13,17371,104226).
route(prodloc33,harbor8,tr0,20171,524446).
route(prodloc33,harbor8,tr13,20171,121026).
route(prodloc33,harbor9,tr0,24277,631202).
route(prodloc33,harbor9,tr13,24277,145662).
route(prodloc33,harbor10,tr0,27341,710866).
route(prodloc33,harbor10,tr13,27341,164046).
route(prodloc33,harbor11,tr0,2231,58006).
route(prodloc33,harbor11,tr13,2231,13386).
route(prodloc33,harbor12,tr0,2282,59332).
route(prodloc33,harbor12,tr13,2282,13692).
route(prodloc33,harbor13,tr0,5818,151268).
route(prodloc33,harbor13,tr13,5818,34908).
route(prodloc33,harbor14,tr0,11729,304954).
route(prodloc33,harbor14,tr13,11729,70374).
route(prodloc33,harbor15,tr0,3948,102648).
route(prodloc33,harbor15,tr13,3948,23688).
route(prodloc33,harbor16,tr0,14046,365196).
route(prodloc33,harbor16,tr13,14046,84276).
route(prodloc33,prodloc0,tr0,16728,434928).
route(prodloc33,prodloc0,tr13,16728,100368).
route(prodloc33,prodloc1,tr0,25422,660972).
route(prodloc33,prodloc1,tr13,25422,152532).
route(prodloc33,prodloc2,tr0,11622,302172).
route(prodloc33,prodloc2,tr13,11622,69732).
route(prodloc33,prodloc3,tr0,3420,88920).
route(prodloc33,prodloc3,tr13,3420,20520).
route(prodloc33,prodloc4,tr0,22736,591136).
route(prodloc33,prodloc4,tr13,22736,136416).
route(prodloc33,prodloc5,tr0,8161,212186).
route(prodloc33,prodloc5,tr13,8161,48966).
route(prodloc33,prodloc6,tr0,9536,247936).
route(prodloc33,prodloc6,tr13,9536,57216).
route(prodloc33,prodloc7,tr0,2154,56004).
route(prodloc33,prodloc7,tr13,2154,12924).
route(prodloc33,prodloc8,tr13,19854,119124).
route(prodloc33,prodloc8,tr15,19854,635328).
route(prodloc33,prodloc9,tr0,7824,203424).
route(prodloc33,prodloc9,tr13,7824,46944).
route(prodloc33,prodloc10,tr0,11882,308932).
route(prodloc33,prodloc10,tr13,11882,71292).
route(prodloc33,prodloc11,tr0,25580,665080).
route(prodloc33,prodloc11,tr13,25580,153480).
route(prodloc33,prodloc12,tr0,5606,145756).
route(prodloc33,prodloc12,tr13,5606,33636).
route(prodloc33,prodloc13,tr0,15929,414154).
route(prodloc33,prodloc13,tr13,15929,95574).
route(prodloc33,prodloc14,tr0,27961,726986).
route(prodloc33,prodloc14,tr13,27961,167766).
route(prodloc33,prodloc15,tr0,4269,110994).
route(prodloc33,prodloc15,tr13,4269,25614).
route(prodloc33,prodloc16,tr0,27504,715104).
route(prodloc33,prodloc16,tr13,27504,165024).
route(prodloc33,prodloc17,tr0,2194,57044).
route(prodloc33,prodloc17,tr13,2194,13164).
route(prodloc33,prodloc18,tr0,11752,305552).
route(prodloc33,prodloc18,tr13,11752,70512).
route(prodloc33,prodloc19,tr0,3282,85332).
route(prodloc33,prodloc19,tr13,3282,19692).
route(prodloc33,prodloc20,tr0,12182,316732).
route(prodloc33,prodloc20,tr13,12182,73092).
route(prodloc33,prodloc21,tr0,921,23946).
route(prodloc33,prodloc21,tr13,921,5526).
route(prodloc33,prodloc22,tr0,6918,179868).
route(prodloc33,prodloc22,tr13,6918,41508).
route(prodloc33,prodloc23,tr0,22214,577564).
route(prodloc33,prodloc23,tr13,22214,133284).
route(prodloc33,prodloc24,tr0,11463,298038).
route(prodloc33,prodloc24,tr13,11463,68778).
route(prodloc33,prodloc25,tr0,2070,53820).
route(prodloc33,prodloc25,tr13,2070,12420).
route(prodloc33,prodloc26,tr0,13584,353184).
route(prodloc33,prodloc26,tr13,13584,81504).
route(prodloc33,prodloc27,tr0,26936,700336).
route(prodloc33,prodloc27,tr13,26936,161616).
route(prodloc33,prodloc28,tr0,3971,103246).
route(prodloc33,prodloc28,tr13,3971,23826).
route(prodloc33,prodloc29,tr0,6908,179608).
route(prodloc33,prodloc29,tr13,6908,41448).
route(prodloc33,prodloc30,tr0,15095,392470).
route(prodloc33,prodloc30,tr13,15095,90570).
route(prodloc33,prodloc31,tr0,14587,379262).
route(prodloc33,prodloc31,tr13,14587,87522).
route(prodloc33,prodloc32,tr0,11713,304538).
route(prodloc33,prodloc32,tr13,11713,70278).
hub(harbor6).
hub(harbor8).
hub(harbor9).
hub(harbor16).
hub(prodloc4).
hub(prodloc5).
hub(prodloc6).
hub(prodloc8).
hub(prodloc17).
hub(prodloc22).
