% Sparse benchmark instance
% Generated with seed=12001 locations=10 parts=4 transports=2 routes=66

% ---- locations ----
location(l1).
location(l2).
location(l3).
location(l4).
location(l5).
location(l6).
location(l7).
location(l8).
location(l9).
location(l10).

% ---- transport resources ----
transportCapacity(tr1,20).
transportCO2(tr1,15).
transportCost(tr1,76).
transportSpeed(tr1,5).
transportCapacity(tr2,12).
transportCO2(tr2,15).
transportCost(tr2,56).
transportSpeed(tr2,8).

% ---- parts ----
part(p1).
partSize(p1,2).
partVal(p1,484).
partTR(p1,tr1).
partTR(p1,tr2).
part(p2).
partSize(p2,4).
partVal(p2,797).
partTR(p2,tr1).
partTR(p2,tr2).
part(p3).
partSize(p3,3).
partVal(p3,545).
partTR(p3,tr1).
partTR(p3,tr2).
part(p4).
partSize(p4,3).
partVal(p4,522).
partTR(p4,tr1).
partTR(p4,tr2).

% ---- demand and supply ----
demandOffer(p1,l1,28).
demandOffer(p2,l1,9).
demandOffer(p3,l1,5).
demandOffer(p4,l1,5).
demandOffer(p1,l10,-6).
demandOffer(p2,l10,-12).
demandOffer(p3,l10,-7).
demandOffer(p4,l10,-15).
demandOffer(p1,l2,2).
demandOffer(p2,l2,21).
demandOffer(p3,l2,25).
demandOffer(p4,l2,25).
demandOffer(p1,l7,-12).
demandOffer(p2,l7,-15).
demandOffer(p3,l7,-10).
demandOffer(p4,l7,-7).
demandOffer(p1,l8,-1).
demandOffer(p2,l8,-2).
demandOffer(p3,l8,-5).
demandOffer(p4,l8,-3).
demandOffer(p1,l9,-11).
demandOffer(p2,l9,-1).
demandOffer(p3,l9,-8).
demandOffer(p4,l9,-5).

% ---- routes ----
route(l1,l10,tr2,4,224).
route(l1,l3,tr1,6,456).
route(l1,l3,tr2,9,504).
route(l1,l4,tr1,4,304).
route(l1,l4,tr2,1,56).
route(l1,l5,tr1,9,684).
route(l1,l5,tr2,9,504).
route(l1,l6,tr1,8,608).
route(l1,l6,tr2,4,224).
route(l1,l7,tr1,2,152).
route(l1,l7,tr2,3,168).
route(l1,l9,tr1,8,608).
route(l1,l9,tr2,2,112).
route(l2,l10,tr1,9,684).
route(l2,l10,tr2,10,560).
route(l2,l3,tr1,9,684).
route(l2,l3,tr2,4,224).
route(l2,l4,tr1,7,532).
route(l2,l4,tr2,6,336).
route(l2,l5,tr1,10,760).
route(l2,l5,tr2,2,112).
route(l2,l6,tr1,4,304).
route(l2,l9,tr1,7,532).
route(l2,l9,tr2,3,168).
route(l3,l10,tr1,8,608).
route(l3,l10,tr2,9,504).
route(l3,l5,tr1,2,152).
route(l3,l5,tr2,7,392).
route(l3,l7,tr1,7,532).
route(l3,l7,tr2,2,112).
route(l3,l8,tr1,10,760).
route(l3,l8,tr2,6,336).
route(l3,l9,tr1,9,684).
route(l3,l9,tr2,10,560).
route(l4,l10,tr1,10,760).
route(l4,l10,tr2,3,168).
route(l4,l3,tr1,8,608).
route(l4,l3,tr2,8,448).
route(l4,l6,tr1,6,456).
route(l4,l6,tr2,3,168).
route(l4,l7,tr1,3,228).
route(l4,l7,tr2,6,336).
route(l4,l8,tr1,4,304).
route(l4,l8,tr2,3,168).
route(l4,l9,tr1,6,456).
route(l4,l9,tr2,1,56).
route(l5,l10,tr1,6,456).
route(l5,l10,tr2,8,448).
route(l5,l3,tr1,10,760).
route(l5,l3,tr2,9,504).
route(l5,l7,tr1,7,532).
route(l5,l7,tr2,10,560).
route(l5,l8,tr1,4,304).
route(l5,l8,tr2,4,224).
route(l5,l9,tr1,6,456).
route(l5,l9,tr2,10,560).
route(l6,l10,tr1,6,456).
route(l6,l10,tr2,5,280).
route(l6,l5,tr1,7,532).
route(l6,l5,tr2,6,336).
route(l6,l7,tr1,5,380).
route(l6,l7,tr2,9,504).
route(l6,l8,tr1,9,684).
route(l6,l8,tr2,10,560).
route(l6,l9,tr1,4,304).
route(l6,l9,tr2,8,448).
