% Sparse benchmark instance
% Generated with seed=13004 locations=15 parts=6 transports=3 routes=203

% ---- locations ----
location(l1).
location(l2).
location(l3).
location(l4).
location(l5).
location(l6).
location(l7).
location(l8).
location(l9).
location(l10).
location(l11).
location(l12).
location(l13).
location(l14).
location(l15).

% ---- transport resources ----
transportCapacity(tr1,15).
transportCO2(tr1,37).
transportCost(tr1,67).
transportSpeed(tr1,7).
transportCapacity(tr2,17).
transportCO2(tr2,32).
transportCost(tr2,45).
transportSpeed(tr2,4).
transportCapacity(tr3,20).
transportCO2(tr3,46).
transportCost(tr3,74).
transportSpeed(tr3,2).

% ---- parts ----
part(p1).
partSize(p1,2).
partVal(p1,989).
partTR(p1,tr1).
partTR(p1,tr2).
partTR(p1,tr3).
part(p2).
partSize(p2,2).
partVal(p2,760).
partTR(p2,tr1).
partTR(p2,tr2).
partTR(p2,tr3).
part(p3).
partSize(p3,3).
partVal(p3,924).
partTR(p3,tr1).
partTR(p3,tr2).
partTR(p3,tr3).
part(p4).
partSize(p4,4).
partVal(p4,467).
partTR(p4,tr1).
partTR(p4,tr2).
partTR(p4,tr3).
part(p5).
partSize(p5,2).
partVal(p5,386).
partTR(p5,tr1).
partTR(p5,tr2).
partTR(p5,tr3).
part(p6).
partSize(p6,2).
partVal(p6,868).
partTR(p6,tr1).
partTR(p6,tr2).
partTR(p6,tr3).

% ---- demand and supply ----
demandOffer(p1,l1,1).
demandOffer(p2,l1,5).
demandOffer(p3,l1,3).
demandOffer(p4,l1,8).
demandOffer(p5,l1,3).
demandOffer(p6,l1,17).
demandOffer(p1,l10,-7).
demandOffer(p2,l10,-7).
demandOffer(p3,l10,-9).
demandOffer(p4,l10,-4).
demandOffer(p5,l10,-4).
demandOffer(p6,l10,-4).
demandOffer(p1,l11,-4).
demandOffer(p2,l11,-8).
demandOffer(p3,l11,-2).
demandOffer(p4,l11,-8).
demandOffer(p5,l11,-6).
demandOffer(p6,l11,-7).
demandOffer(p1,l12,-8).
demandOffer(p2,l12,-4).
demandOffer(p3,l12,-6).
demandOffer(p4,l12,-3).
demandOffer(p5,l12,-2).
demandOffer(p6,l12,-8).
demandOffer(p1,l13,-2).
demandOffer(p2,l13,-4).
demandOffer(p3,l13,-5).
demandOffer(p4,l13,-6).
demandOffer(p5,l13,-9).
demandOffer(p6,l13,-2).
demandOffer(p1,l14,-4).
demandOffer(p2,l14,-1).
demandOffer(p3,l14,-5).
demandOffer(p4,l14,-7).
demandOffer(p5,l14,-4).
demandOffer(p6,l14,-8).
demandOffer(p1,l15,-5).
demandOffer(p2,l15,-6).
demandOffer(p3,l15,-3).
demandOffer(p4,l15,-2).
demandOffer(p5,l15,-5).
demandOffer(p6,l15,-1).
demandOffer(p1,l2,13).
demandOffer(p2,l2,3).
demandOffer(p3,l2,10).
demandOffer(p4,l2,15).
demandOffer(p5,l2,12).
demandOffer(p6,l2,8).
demandOffer(p1,l3,16).
demandOffer(p2,l3,22).
demandOffer(p3,l3,17).
demandOffer(p4,l3,7).
demandOffer(p5,l3,15).
demandOffer(p6,l3,5).

% ---- routes ----
route(l1,l10,tr1,1,67).
route(l1,l10,tr2,6,270).
route(l1,l10,tr3,9,666).
route(l1,l11,tr1,1,67).
route(l1,l11,tr2,5,225).
route(l1,l11,tr3,1,74).
route(l1,l12,tr1,4,268).
route(l1,l12,tr2,8,360).
route(l1,l12,tr3,5,370).
route(l1,l15,tr1,6,402).
route(l1,l15,tr2,6,270).
route(l1,l15,tr3,3,222).
route(l1,l4,tr1,6,402).
route(l1,l4,tr2,1,45).
route(l1,l4,tr3,4,296).
route(l1,l5,tr1,8,536).
route(l1,l5,tr2,9,405).
route(l1,l5,tr3,1,74).
route(l1,l6,tr1,4,268).
route(l1,l6,tr2,9,405).
route(l1,l6,tr3,9,666).
route(l1,l7,tr1,5,335).
route(l1,l7,tr2,9,405).
route(l1,l7,tr3,10,740).
route(l1,l8,tr1,7,469).
route(l1,l8,tr2,5,225).
route(l1,l8,tr3,2,148).
route(l1,l9,tr1,5,335).
route(l1,l9,tr2,1,45).
route(l1,l9,tr3,7,518).
route(l2,l10,tr1,6,402).
route(l2,l10,tr2,2,90).
route(l2,l10,tr3,3,222).
route(l2,l4,tr1,3,201).
route(l2,l4,tr2,9,405).
route(l2,l4,tr3,4,296).
route(l2,l5,tr1,5,335).
route(l2,l5,tr2,6,270).
route(l2,l5,tr3,4,296).
route(l2,l6,tr1,7,469).
route(l2,l6,tr2,3,135).
route(l2,l6,tr3,7,518).
route(l2,l7,tr1,10,670).
route(l2,l7,tr2,5,225).
route(l2,l7,tr3,8,592).
route(l2,l8,tr1,2,134).
route(l2,l8,tr2,1,45).
route(l2,l8,tr3,2,148).
route(l2,l9,tr1,1,67).
route(l2,l9,tr2,5,225).
route(l2,l9,tr3,7,518).
route(l3,l10,tr1,5,335).
route(l3,l10,tr2,7,315).
route(l3,l10,tr3,6,444).
route(l3,l12,tr1,1,67).
route(l3,l12,tr2,10,450).
route(l3,l12,tr3,1,74).
route(l3,l13,tr1,8,536).
route(l3,l13,tr2,10,450).
route(l3,l13,tr3,6,444).
route(l3,l14,tr1,7,469).
route(l3,l14,tr2,7,315).
route(l3,l14,tr3,10,740).
route(l3,l4,tr1,6,402).
route(l3,l4,tr2,6,270).
route(l3,l4,tr3,6,444).
route(l3,l5,tr1,2,134).
route(l3,l5,tr2,7,315).
route(l3,l5,tr3,1,74).
route(l3,l6,tr1,4,268).
route(l3,l6,tr2,10,450).
route(l3,l6,tr3,2,148).
route(l3,l7,tr1,6,402).
route(l3,l7,tr2,1,45).
route(l3,l7,tr3,4,296).
route(l3,l8,tr1,2,134).
route(l3,l8,tr2,4,180).
route(l3,l8,tr3,5,370).
route(l3,l9,tr1,8,536).
route(l3,l9,tr2,10,450).
route(l3,l9,tr3,1,74).
route(l4,l10,tr1,4,268).
route(l4,l10,tr2,9,405).
route(l4,l10,tr3,6,444).
route(l4,l11,tr1,7,469).
route(l4,l11,tr2,4,180).
route(l4,l11,tr3,7,518).
route(l4,l12,tr1,1,67).
route(l4,l12,tr2,6,270).
route(l4,l12,tr3,9,666).
route(l4,l13,tr1,1,67).
route(l4,l13,tr2,9,405).
route(l4,l13,tr3,1,74).
route(l4,l14,tr1,10,670).
route(l4,l14,tr2,4,180).
route(l4,l14,tr3,8,592).
route(l4,l15,tr1,8,536).
route(l4,l15,tr2,3,135).
route(l4,l15,tr3,6,444).
route(l5,l10,tr1,1,67).
route(l5,l10,tr2,10,450).
route(l5,l10,tr3,9,666).
route(l5,l11,tr1,9,603).
route(l5,l11,tr2,7,315).
route(l5,l11,tr3,7,518).
route(l5,l12,tr2,10,450).
route(l5,l13,tr1,4,268).
route(l5,l13,tr2,4,180).
route(l5,l13,tr3,2,148).
route(l5,l14,tr1,2,134).
route(l5,l15,tr1,2,134).
route(l5,l15,tr2,10,450).
route(l5,l15,tr3,7,518).
route(l5,l7,tr1,10,670).
route(l5,l7,tr2,9,405).
route(l5,l7,tr3,9,666).
route(l5,l9,tr2,9,405).
route(l6,l10,tr1,10,670).
route(l6,l10,tr2,1,45).
route(l6,l10,tr3,7,518).
route(l6,l11,tr1,5,335).
route(l6,l11,tr2,3,135).
route(l6,l11,tr3,8,592).
route(l6,l12,tr1,9,603).
route(l6,l12,tr2,4,180).
route(l6,l12,tr3,2,148).
route(l6,l13,tr1,10,670).
route(l6,l13,tr2,4,180).
route(l6,l13,tr3,1,74).
route(l6,l14,tr1,3,201).
route(l6,l15,tr1,4,268).
route(l6,l15,tr2,5,225).
route(l6,l15,tr3,4,296).
route(l6,l9,tr3,10,740).
route(l7,l10,tr1,6,402).
route(l7,l10,tr2,4,180).
route(l7,l10,tr3,8,592).
route(l7,l11,tr1,9,603).
route(l7,l11,tr2,9,405).
route(l7,l11,tr3,3,222).
route(l7,l12,tr1,4,268).
route(l7,l12,tr2,2,90).
route(l7,l12,tr3,6,444).
route(l7,l13,tr1,3,201).
route(l7,l14,tr1,9,603).
route(l7,l14,tr2,6,270).
route(l7,l14,tr3,7,518).
route(l7,l15,tr1,7,469).
route(l7,l15,tr2,9,405).
route(l7,l15,tr3,7,518).
route(l7,l4,tr1,5,335).
route(l7,l4,tr2,5,225).
route(l7,l4,tr3,1,74).
route(l7,l5,tr1,9,603).
route(l7,l5,tr2,3,135).
route(l7,l5,tr3,2,148).
route(l7,l8,tr1,2,134).
route(l7,l8,tr2,4,180).
route(l7,l8,tr3,5,370).
route(l8,l10,tr3,6,444).
route(l8,l11,tr1,7,469).
route(l8,l11,tr2,2,90).
route(l8,l11,tr3,10,740).
route(l8,l12,tr1,3,201).
route(l8,l12,tr2,2,90).
route(l8,l12,tr3,8,592).
route(l8,l13,tr1,9,603).
route(l8,l13,tr2,8,360).
route(l8,l13,tr3,9,666).
route(l8,l14,tr1,6,402).
route(l8,l14,tr2,9,405).
route(l8,l14,tr3,4,296).
route(l8,l15,tr1,7,469).
route(l8,l15,tr2,2,90).
route(l8,l15,tr3,8,592).
route(l8,l6,tr1,9,603).
route(l8,l6,tr2,1,45).
route(l8,l6,tr3,5,370).
route(l8,l9,tr1,7,469).
route(l8,l9,tr2,10,450).
route(l8,l9,tr3,6,444).
route(l9,l10,tr1,9,603).
route(l9,l10,tr2,8,360).
route(l9,l10,tr3,4,296).
route(l9,l11,tr1,4,268).
route(l9,l11,tr2,6,270).
route(l9,l11,tr3,5,370).
route(l9,l12,tr1,9,603).
route(l9,l12,tr2,2,90).
route(l9,l12,tr3,5,370).
route(l9,l13,tr1,8,536).
route(l9,l13,tr2,6,270).
route(l9,l13,tr3,10,740).
route(l9,l14,tr2,6,270).
route(l9,l15,tr1,7,469).
route(l9,l15,tr2,9,405).
route(l9,l15,tr3,7,518).
route(l9,l6,tr1,1,67).
route(l9,l6,tr2,10,450).
route(l9,l6,tr3,6,444).
route(l9,l7,tr1,2,134).
route(l9,l7,tr2,7,315).
route(l9,l7,tr3,6,444).
