% Sparse benchmark instance
% Generated with seed=14003 locations=20 parts=10 transports=4 routes=522

% ---- locations ----
location(l1).
location(l2).
location(l3).
location(l4).
location(l5).
location(l6).
location(l7).
location(l8).
location(l9).
location(l10).
location(l11).
location(l12).
location(l13).
location(l14).
location(l15).
location(l16).
location(l17).
location(l18).
location(l19).
location(l20).

% ---- transport resources ----
transportCapacity(tr1,16).
transportCO2(tr1,42).
transportCost(tr1,41).
transportSpeed(tr1,3).
transportCapacity(tr2,13).
transportCO2(tr2,38).
transportCost(tr2,38).
transportSpeed(tr2,7).
transportCapacity(tr3,12).
transportCO2(tr3,41).
transportCost(tr3,73).
transportSpeed(tr3,6).
transportCapacity(tr4,10).
transportCO2(tr4,19).
transportCost(tr4,66).
transportSpeed(tr4,2).

% ---- parts ----
part(p1).
partSize(p1,2).
partVal(p1,467).
partTR(p1,tr1).
partTR(p1,tr2).
partTR(p1,tr3).
partTR(p1,tr4).
part(p2).
partSize(p2,4).
partVal(p2,486).
partTR(p2,tr1).
partTR(p2,tr2).
partTR(p2,tr3).
partTR(p2,tr4).
part(p3).
partSize(p3,3).
partVal(p3,906).
partTR(p3,tr1).
partTR(p3,tr2).
partTR(p3,tr3).
partTR(p3,tr4).
part(p4).
partSize(p4,2).
partVal(p4,759).
partTR(p4,tr1).
partTR(p4,tr2).
partTR(p4,tr3).
partTR(p4,tr4).
part(p5).
partSize(p5,2).
partVal(p5,527).
partTR(p5,tr1).
partTR(p5,tr2).
partTR(p5,tr3).
partTR(p5,tr4).
part(p6).
partSize(p6,4).
partVal(p6,960).
partTR(p6,tr1).
partTR(p6,tr2).
partTR(p6,tr3).
partTR(p6,tr4).
part(p7).
partSize(p7,3).
partVal(p7,827).
partTR(p7,tr1).
partTR(p7,tr2).
partTR(p7,tr3).
partTR(p7,tr4).
part(p8).
partSize(p8,3).
partVal(p8,539).
partTR(p8,tr1).
partTR(p8,tr2).
partTR(p8,tr3).
partTR(p8,tr4).
part(p9).
partSize(p9,2).
partVal(p9,641).
partTR(p9,tr1).
partTR(p9,tr2).
partTR(p9,tr3).
partTR(p9,tr4).
part(p10).
partSize(p10,3).
partVal(p10,642).
partTR(p10,tr1).
partTR(p10,tr2).
partTR(p10,tr3).
partTR(p10,tr4).

% ---- demand and supply ----
demandOffer(p1,l1,2).
demandOffer(p10,l1,4).
demandOffer(p2,l1,4).
demandOffer(p3,l1,3).
demandOffer(p4,l1,7).
demandOffer(p5,l1,15).
demandOffer(p6,l1,4).
demandOffer(p7,l1,6).
demandOffer(p8,l1,9).
demandOffer(p9,l1,10).
demandOffer(p1,l13,-3).
demandOffer(p10,l13,-2).
demandOffer(p2,l13,-5).
demandOffer(p3,l13,-2).
demandOffer(p4,l13,-5).
demandOffer(p5,l13,-7).
demandOffer(p6,l13,-1).
demandOffer(p7,l13,-3).
demandOffer(p8,l13,-6).
demandOffer(p9,l13,-1).
demandOffer(p1,l14,-3).
demandOffer(p10,l14,-7).
demandOffer(p2,l14,-5).
demandOffer(p3,l14,-3).
demandOffer(p4,l14,-5).
demandOffer(p5,l14,-7).
demandOffer(p6,l14,-5).
demandOffer(p7,l14,-5).
demandOffer(p8,l14,-2).
demandOffer(p9,l14,-3).
demandOffer(p1,l15,-2).
demandOffer(p10,l15,-4).
demandOffer(p2,l15,-6).
demandOffer(p3,l15,-4).
demandOffer(p4,l15,-4).
demandOffer(p5,l15,-1).
demandOffer(p6,l15,-4).
demandOffer(p7,l15,-5).
demandOffer(p8,l15,-2).
demandOffer(p9,l15,-5).
demandOffer(p1,l16,-4).
demandOffer(p10,l16,-1).
demandOffer(p2,l16,-3).
demandOffer(p3,l16,-3).
demandOffer(p4,l16,-1).
demandOffer(p5,l16,-1).
demandOffer(p6,l16,-6).
demandOffer(p7,l16,-4).
demandOffer(p8,l16,-2).
demandOffer(p9,l16,-2).
demandOffer(p1,l17,-7).
demandOffer(p10,l17,-5).
demandOffer(p2,l17,-3).
demandOffer(p3,l17,-5).
demandOffer(p4,l17,-5).
demandOffer(p5,l17,-1).
demandOffer(p6,l17,-3).
demandOffer(p7,l17,-4).
demandOffer(p8,l17,-2).
demandOffer(p9,l17,-7).
demandOffer(p1,l18,-2).
demandOffer(p10,l18,-3).
demandOffer(p2,l18,-5).
demandOffer(p3,l18,-4).
demandOffer(p4,l18,-1).
demandOffer(p5,l18,-7).
demandOffer(p6,l18,-4).
demandOffer(p7,l18,-3).
demandOffer(p8,l18,-5).
demandOffer(p9,l18,-6).
demandOffer(p1,l19,-6).
demandOffer(p10,l19,-3).
demandOffer(p2,l19,-1).
demandOffer(p3,l19,-7).
demandOffer(p4,l19,-4).
demandOffer(p5,l19,-5).
demandOffer(p6,l19,-3).
demandOffer(p7,l19,-5).
demandOffer(p8,l19,-5).
demandOffer(p9,l19,-4).
demandOffer(p1,l2,7).
demandOffer(p10,l2,13).
demandOffer(p2,l2,8).
demandOffer(p3,l2,8).
demandOffer(p4,l2,3).
demandOffer(p5,l2,5).
demandOffer(p6,l2,4).
demandOffer(p7,l2,12).
demandOffer(p8,l2,11).
demandOffer(p9,l2,2).
demandOffer(p1,l20,-3).
demandOffer(p10,l20,-5).
demandOffer(p2,l20,-2).
demandOffer(p3,l20,-2).
demandOffer(p4,l20,-5).
demandOffer(p5,l20,-1).
demandOffer(p6,l20,-4).
demandOffer(p7,l20,-1).
demandOffer(p8,l20,-6).
demandOffer(p9,l20,-2).
demandOffer(p1,l3,9).
demandOffer(p10,l3,9).
demandOffer(p2,l3,10).
demandOffer(p3,l3,1).
demandOffer(p4,l3,16).
demandOffer(p5,l3,6).
demandOffer(p6,l3,17).
demandOffer(p7,l3,3).
demandOffer(p8,l3,2).
demandOffer(p9,l3,1).
demandOffer(p1,l4,12).
demandOffer(p10,l4,4).
demandOffer(p2,l4,8).
demandOffer(p3,l4,18).
demandOffer(p4,l4,4).
demandOffer(p5,l4,4).
demandOffer(p6,l4,5).
demandOffer(p7,l4,9).
demandOffer(p8,l4,8).
demandOffer(p9,l4,17).

% ---- routes ----
route(l1,l10,tr1,2,82).
route(l1,l10,tr2,10,380).
route(l1,l10,tr3,4,292).
route(l1,l10,tr4,3,198).
route(l1,l11,tr1,8,328).
route(l1,l11,tr2,8,304).
route(l1,l11,tr3,10,730).
route(l1,l11,tr4,7,462).
route(l1,l12,tr1,4,164).
route(l1,l12,tr2,6,228).
route(l1,l12,tr3,9,657).
route(l1,l12,tr4,9,594).
route(l1,l13,tr1,6,246).
route(l1,l13,tr2,6,228).
route(l1,l13,tr3,1,73).
route(l1,l13,tr4,3,198).
route(l1,l17,tr1,9,369).
route(l1,l17,tr2,8,304).
route(l1,l17,tr3,5,365).
route(l1,l17,tr4,10,660).
route(l1,l19,tr1,1,41).
route(l1,l19,tr2,7,266).
route(l1,l19,tr3,2,146).
route(l1,l19,tr4,2,132).
route(l1,l5,tr1,2,82).
route(l1,l5,tr2,10,380).
route(l1,l5,tr3,9,657).
route(l1,l5,tr4,5,330).
route(l1,l6,tr1,2,82).
route(l1,l7,tr1,9,369).
route(l1,l7,tr2,1,38).
route(l1,l7,tr3,2,146).
route(l1,l7,tr4,2,132).
route(l1,l8,tr2,4,152).
route(l1,l9,tr1,4,164).
route(l1,l9,tr2,6,228).
route(l1,l9,tr3,5,365).
route(l1,l9,tr4,6,396).
route(l10,l13,tr1,2,82).
route(l10,l13,tr2,4,152).
route(l10,l13,tr3,2,146).
route(l10,l13,tr4,9,594).
route(l10,l14,tr1,8,328).
route(l10,l14,tr2,9,342).
route(l10,l14,tr3,5,365).
route(l10,l14,tr4,3,198).
route(l10,l15,tr1,3,123).
route(l10,l15,tr2,3,114).
route(l10,l15,tr3,7,511).
route(l10,l15,tr4,8,528).
route(l10,l16,tr1,7,287).
route(l10,l16,tr2,10,380).
route(l10,l16,tr3,10,730).
route(l10,l16,tr4,1,66).
route(l10,l17,tr1,3,123).
route(l10,l17,tr2,5,190).
route(l10,l17,tr3,9,657).
route(l10,l17,tr4,3,198).
route(l10,l18,tr1,2,82).
route(l10,l18,tr2,8,304).
route(l10,l18,tr3,7,511).
route(l10,l18,tr4,4,264).
route(l10,l19,tr1,7,287).
route(l10,l19,tr2,4,152).
route(l10,l19,tr3,7,511).
route(l10,l19,tr4,2,132).
route(l10,l20,tr1,8,328).
route(l10,l20,tr2,1,38).
route(l10,l20,tr3,9,657).
route(l10,l20,tr4,6,396).
route(l11,l13,tr1,1,41).
route(l11,l13,tr2,5,190).
route(l11,l13,tr3,3,219).
route(l11,l13,tr4,7,462).
route(l11,l14,tr1,7,287).
route(l11,l14,tr2,1,38).
route(l11,l14,tr3,7,511).
route(l11,l14,tr4,6,396).
route(l11,l15,tr1,10,410).
route(l11,l15,tr2,9,342).
route(l11,l15,tr3,10,730).
route(l11,l15,tr4,5,330).
route(l11,l16,tr1,1,41).
route(l11,l16,tr2,10,380).
route(l11,l16,tr3,4,292).
route(l11,l16,tr4,10,660).
route(l11,l17,tr1,10,410).
route(l11,l17,tr2,7,266).
route(l11,l17,tr3,10,730).
route(l11,l17,tr4,5,330).
route(l11,l18,tr1,1,41).
route(l11,l18,tr2,4,152).
route(l11,l18,tr3,2,146).
route(l11,l18,tr4,5,330).
route(l11,l19,tr1,6,246).
route(l11,l19,tr2,3,114).
route(l11,l19,tr3,9,657).
route(l11,l19,tr4,2,132).
route(l11,l20,tr1,1,41).
route(l11,l20,tr2,3,114).
route(l11,l20,tr3,8,584).
route(l11,l20,tr4,7,462).
route(l11,l5,tr1,10,410).
route(l11,l5,tr2,5,190).
route(l11,l5,tr3,6,438).
route(l11,l5,tr4,5,330).
route(l11,l6,tr1,3,123).
route(l11,l6,tr2,9,342).
route(l11,l6,tr3,2,146).
route(l11,l6,tr4,9,594).
route(l11,l7,tr1,8,328).
route(l11,l7,tr2,3,114).
route(l11,l7,tr3,6,438).
route(l11,l7,tr4,6,396).
route(l11,l9,tr1,8,328).
route(l11,l9,tr2,5,190).
route(l11,l9,tr3,7,511).
route(l11,l9,tr4,9,594).
route(l12,l10,tr1,10,410).
route(l12,l10,tr2,10,380).
route(l12,l10,tr3,7,511).
route(l12,l10,tr4,9,594).
route(l12,l13,tr1,6,246).
route(l12,l13,tr2,8,304).
route(l12,l13,tr3,10,730).
route(l12,l13,tr4,7,462).
route(l12,l14,tr1,8,328).
route(l12,l14,tr2,4,152).
route(l12,l14,tr3,4,292).
route(l12,l14,tr4,4,264).
route(l12,l15,tr1,7,287).
route(l12,l15,tr2,2,76).
route(l12,l15,tr3,1,73).
route(l12,l15,tr4,5,330).
route(l12,l16,tr1,8,328).
route(l12,l16,tr2,8,304).
route(l12,l16,tr3,6,438).
route(l12,l16,tr4,6,396).
route(l12,l17,tr1,4,164).
route(l12,l17,tr2,6,228).
route(l12,l17,tr3,9,657).
route(l12,l17,tr4,1,66).
route(l12,l18,tr1,7,287).
route(l12,l18,tr2,9,342).
route(l12,l18,tr3,3,219).
route(l12,l18,tr4,7,462).
route(l12,l19,tr1,6,246).
route(l12,l19,tr2,2,76).
route(l12,l19,tr3,3,219).
route(l12,l19,tr4,5,330).
route(l12,l20,tr1,2,82).
route(l12,l20,tr2,6,228).
route(l12,l20,tr3,7,511).
route(l12,l20,tr4,6,396).
route(l12,l5,tr1,6,246).
route(l12,l5,tr2,7,266).
route(l12,l5,tr3,10,730).
route(l12,l5,tr4,1,66).
route(l12,l6,tr1,3,123).
route(l12,l6,tr2,1,38).
route(l12,l6,tr3,5,365).
route(l12,l6,tr4,4,264).
route(l12,l9,tr1,6,246).
route(l12,l9,tr2,5,190).
route(l12,l9,tr3,7,511).
route(l12,l9,tr4,6,396).
route(l2,l10,tr1,1,41).
route(l2,l10,tr2,2,76).
route(l2,l10,tr3,5,365).
route(l2,l10,tr4,1,66).
route(l2,l11,tr1,7,287).
route(l2,l11,tr2,5,190).
route(l2,l11,tr3,4,292).
route(l2,l11,tr4,9,594).
route(l2,l12,tr2,7,266).
route(l2,l14,tr1,8,328).
route(l2,l14,tr2,5,190).
route(l2,l14,tr3,6,438).
route(l2,l14,tr4,8,528).
route(l2,l15,tr1,9,369).
route(l2,l15,tr2,10,380).
route(l2,l15,tr3,3,219).
route(l2,l15,tr4,4,264).
route(l2,l16,tr1,6,246).
route(l2,l16,tr2,2,76).
route(l2,l16,tr3,1,73).
route(l2,l16,tr4,1,66).
route(l2,l17,tr1,8,328).
route(l2,l17,tr2,6,228).
route(l2,l17,tr3,4,292).
route(l2,l17,tr4,10,660).
route(l2,l18,tr3,9,657).
route(l2,l20,tr1,2,82).
route(l2,l20,tr2,3,114).
route(l2,l20,tr3,7,511).
route(l2,l20,tr4,1,66).
route(l2,l5,tr1,10,410).
route(l2,l5,tr2,9,342).
route(l2,l5,tr3,10,730).
route(l2,l5,tr4,8,528).
route(l2,l6,tr1,6,246).
route(l2,l6,tr2,1,38).
route(l2,l6,tr3,9,657).
route(l2,l6,tr4,2,132).
route(l2,l7,tr1,8,328).
route(l2,l7,tr2,7,266).
route(l2,l7,tr3,3,219).
route(l2,l7,tr4,3,198).
route(l2,l8,tr1,9,369).
route(l2,l8,tr2,3,114).
route(l2,l8,tr3,1,73).
route(l2,l8,tr4,6,396).
route(l2,l9,tr1,8,328).
route(l2,l9,tr2,4,152).
route(l2,l9,tr3,5,365).
route(l2,l9,tr4,5,330).
route(l3,l10,tr1,6,246).
route(l3,l10,tr2,1,38).
route(l3,l10,tr3,8,584).
route(l3,l10,tr4,7,462).
route(l3,l11,tr1,5,205).
route(l3,l11,tr2,4,152).
route(l3,l11,tr3,7,511).
route(l3,l11,tr4,4,264).
route(l3,l12,tr1,2,82).
route(l3,l12,tr2,9,342).
route(l3,l12,tr3,5,365).
route(l3,l12,tr4,7,462).
route(l3,l13,tr1,8,328).
route(l3,l13,tr2,7,266).
route(l3,l13,tr3,4,292).
route(l3,l13,tr4,4,264).
route(l3,l15,tr1,3,123).
route(l3,l15,tr2,1,38).
route(l3,l15,tr3,7,511).
route(l3,l15,tr4,4,264).
route(l3,l16,tr1,2,82).
route(l3,l16,tr2,1,38).
route(l3,l16,tr3,6,438).
route(l3,l16,tr4,2,132).
route(l3,l17,tr1,7,287).
route(l3,l17,tr2,2,76).
route(l3,l17,tr3,2,146).
route(l3,l17,tr4,1,66).
route(l3,l18,tr1,3,123).
route(l3,l18,tr2,1,38).
route(l3,l18,tr3,6,438).
route(l3,l18,tr4,4,264).
route(l3,l19,tr1,10,410).
route(l3,l19,tr2,7,266).
route(l3,l19,tr3,5,365).
route(l3,l19,tr4,5,330).
route(l3,l5,tr1,9,369).
route(l3,l5,tr2,8,304).
route(l3,l5,tr3,10,730).
route(l3,l5,tr4,7,462).
route(l3,l6,tr1,6,246).
route(l3,l6,tr2,2,76).
route(l3,l6,tr3,2,146).
route(l3,l6,tr4,6,396).
route(l3,l7,tr1,5,205).
route(l3,l7,tr2,4,152).
route(l3,l7,tr3,2,146).
route(l3,l7,tr4,5,330).
route(l3,l8,tr1,2,82).
route(l3,l8,tr2,2,76).
route(l3,l8,tr3,3,219).
route(l3,l8,tr4,6,396).
route(l3,l9,tr1,6,246).
route(l3,l9,tr2,4,152).
route(l3,l9,tr3,7,511).
route(l3,l9,tr4,5,330).
route(l4,l10,tr1,5,205).
route(l4,l10,tr2,2,76).
route(l4,l10,tr3,2,146).
route(l4,l10,tr4,4,264).
route(l4,l11,tr1,5,205).
route(l4,l11,tr2,2,76).
route(l4,l11,tr3,10,730).
route(l4,l11,tr4,1,66).
route(l4,l12,tr1,8,328).
route(l4,l12,tr2,3,114).
route(l4,l12,tr3,8,584).
route(l4,l12,tr4,9,594).
route(l4,l16,tr1,1,41).
route(l4,l16,tr2,3,114).
route(l4,l16,tr3,1,73).
route(l4,l16,tr4,6,396).
route(l4,l19,tr1,1,41).
route(l4,l19,tr2,5,190).
route(l4,l19,tr3,6,438).
route(l4,l19,tr4,5,330).
route(l4,l20,tr1,5,205).
route(l4,l20,tr2,5,190).
route(l4,l20,tr3,1,73).
route(l4,l20,tr4,9,594).
route(l4,l5,tr1,5,205).
route(l4,l5,tr2,3,114).
route(l4,l5,tr3,9,657).
route(l4,l5,tr4,9,594).
route(l4,l6,tr1,1,41).
route(l4,l6,tr2,7,266).
route(l4,l6,tr3,7,511).
route(l4,l6,tr4,5,330).
route(l4,l7,tr1,4,164).
route(l4,l7,tr2,6,228).
route(l4,l7,tr3,6,438).
route(l4,l7,tr4,5,330).
route(l4,l8,tr1,8,328).
route(l4,l8,tr2,6,228).
route(l4,l8,tr3,10,730).
route(l4,l8,tr4,5,330).
route(l4,l9,tr1,5,205).
route(l4,l9,tr2,7,266).
route(l4,l9,tr3,6,438).
route(l4,l9,tr4,2,132).
route(l5,l10,tr1,7,287).
route(l5,l10,tr2,4,152).
route(l5,l10,tr3,10,730).
route(l5,l10,tr4,7,462).
route(l5,l13,tr1,7,287).
route(l5,l14,tr1,3,123).
route(l5,l14,tr2,7,266).
route(l5,l14,tr3,10,730).
route(l5,l14,tr4,2,132).
route(l5,l15,tr1,1,41).
route(l5,l15,tr2,6,228).
route(l5,l15,tr3,9,657).
route(l5,l15,tr4,4,264).
route(l5,l16,tr1,4,164).
route(l5,l16,tr2,5,190).
route(l5,l16,tr3,7,511).
route(l5,l16,tr4,4,264).
route(l5,l17,tr1,9,369).
route(l5,l17,tr2,10,380).
route(l5,l17,tr3,10,730).
route(l5,l17,tr4,8,528).
route(l5,l18,tr1,2,82).
route(l5,l18,tr2,7,266).
route(l5,l18,tr3,7,511).
route(l5,l18,tr4,9,594).
route(l5,l19,tr1,10,410).
route(l5,l19,tr2,5,190).
route(l5,l19,tr3,8,584).
route(l5,l19,tr4,5,330).
route(l5,l20,tr1,7,287).
route(l5,l20,tr2,2,76).
route(l5,l20,tr3,4,292).
route(l5,l20,tr4,4,264).
route(l5,l8,tr1,7,287).
route(l5,l8,tr2,7,266).
route(l5,l8,tr3,8,584).
route(l5,l8,tr4,9,594).
route(l6,l11,tr1,8,328).
route(l6,l11,tr2,4,152).
route(l6,l11,tr3,2,146).
route(l6,l11,tr4,2,132).
route(l6,l13,tr1,2,82).
route(l6,l13,tr2,7,266).
route(l6,l13,tr3,7,511).
route(l6,l13,tr4,1,66).
route(l6,l14,tr1,7,287).
route(l6,l14,tr2,3,114).
route(l6,l14,tr3,3,219).
route(l6,l14,tr4,4,264).
route(l6,l15,tr1,1,41).
route(l6,l15,tr2,6,228).
route(l6,l15,tr3,5,365).
route(l6,l15,tr4,9,594).
route(l6,l16,tr1,8,328).
route(l6,l16,tr2,9,342).
route(l6,l16,tr3,5,365).
route(l6,l16,tr4,5,330).
route(l6,l17,tr1,8,328).
route(l6,l17,tr2,1,38).
route(l6,l17,tr3,2,146).
route(l6,l17,tr4,2,132).
route(l6,l18,tr1,5,205).
route(l6,l18,tr2,4,152).
route(l6,l18,tr3,10,730).
route(l6,l18,tr4,1,66).
route(l6,l19,tr1,10,410).
route(l6,l19,tr2,1,38).
route(l6,l19,tr3,6,438).
route(l6,l19,tr4,2,132).
route(l6,l20,tr1,9,369).
route(l6,l20,tr2,5,190).
route(l6,l20,tr3,4,292).
route(l6,l20,tr4,5,330).
route(l6,l5,tr1,3,123).
route(l6,l5,tr2,4,152).
route(l6,l5,tr3,10,730).
route(l6,l5,tr4,1,66).
route(l6,l9,tr1,9,369).
route(l6,l9,tr2,9,342).
route(l6,l9,tr3,3,219).
route(l6,l9,tr4,7,462).
route(l7,l10,tr1,10,410).
route(l7,l10,tr2,7,266).
route(l7,l10,tr3,6,438).
route(l7,l10,tr4,7,462).
route(l7,l12,tr1,7,287).
route(l7,l12,tr2,4,152).
route(l7,l12,tr3,1,73).
route(l7,l12,tr4,7,462).
route(l7,l13,tr1,8,328).
route(l7,l13,tr2,2,76).
route(l7,l13,tr3,3,219).
route(l7,l13,tr4,4,264).
route(l7,l14,tr1,7,287).
route(l7,l15,tr1,5,205).
route(l7,l15,tr2,10,380).
route(l7,l15,tr3,1,73).
route(l7,l15,tr4,4,264).
route(l7,l16,tr1,3,123).
route(l7,l16,tr2,1,38).
route(l7,l16,tr3,10,730).
route(l7,l16,tr4,2,132).
route(l7,l17,tr4,2,132).
route(l7,l18,tr1,5,205).
route(l7,l18,tr2,3,114).
route(l7,l18,tr3,3,219).
route(l7,l18,tr4,7,462).
route(l7,l19,tr1,5,205).
route(l7,l19,tr2,7,266).
route(l7,l19,tr3,4,292).
route(l7,l19,tr4,7,462).
route(l7,l20,tr2,4,152).
route(l7,l5,tr3,9,657).
route(l7,l6,tr1,9,369).
route(l7,l6,tr2,4,152).
route(l7,l6,tr3,10,730).
route(l7,l6,tr4,1,66).
route(l7,l8,tr1,9,369).
route(l7,l8,tr2,7,266).
route(l7,l8,tr3,3,219).
route(l7,l8,tr4,5,330).
route(l7,l9,tr1,9,369).
route(l7,l9,tr2,1,38).
route(l7,l9,tr3,5,365).
route(l7,l9,tr4,5,330).
route(l8,l10,tr1,9,369).
route(l8,l10,tr2,1,38).
route(l8,l10,tr3,10,730).
route(l8,l10,tr4,5,330).
route(l8,l12,tr1,5,205).
route(l8,l12,tr2,4,152).
route(l8,l12,tr3,9,657).
route(l8,l12,tr4,8,528).
route(l8,l13,tr1,6,246).
route(l8,l13,tr2,4,152).
route(l8,l13,tr3,6,438).
route(l8,l13,tr4,7,462).
route(l8,l14,tr1,5,205).
route(l8,l14,tr2,4,152).
route(l8,l14,tr3,1,73).
route(l8,l14,tr4,8,528).
route(l8,l15,tr1,4,164).
route(l8,l15,tr2,10,380).
route(l8,l15,tr3,1,73).
route(l8,l15,tr4,1,66).
route(l8,l16,tr1,9,369).
route(l8,l17,tr1,5,205).
route(l8,l17,tr2,7,266).
route(l8,l17,tr3,2,146).
route(l8,l17,tr4,5,330).
route(l8,l18,tr1,4,164).
route(l8,l18,tr2,3,114).
route(l8,l18,tr3,1,73).
route(l8,l18,tr4,2,132).
route(l8,l19,tr1,9,369).
route(l8,l19,tr2,2,76).
route(l8,l19,tr3,10,730).
route(l8,l19,tr4,10,660).
route(l8,l20,tr4,10,660).
route(l8,l7,tr1,2,82).
route(l8,l7,tr2,5,190).
route(l8,l7,tr3,1,73).
route(l8,l7,tr4,5,330).
route(l9,l10,tr1,9,369).
route(l9,l11,tr1,8,328).
route(l9,l11,tr2,5,190).
route(l9,l11,tr3,5,365).
route(l9,l11,tr4,10,660).
route(l9,l13,tr1,6,246).
route(l9,l13,tr2,2,76).
route(l9,l13,tr3,4,292).
route(l9,l13,tr4,1,66).
route(l9,l14,tr1,9,369).
route(l9,l14,tr2,10,380).
route(l9,l14,tr3,10,730).
route(l9,l14,tr4,7,462).
route(l9,l15,tr1,5,205).
route(l9,l15,tr2,7,266).
route(l9,l15,tr3,5,365).
route(l9,l15,tr4,2,132).
route(l9,l16,tr1,4,164).
route(l9,l16,tr2,6,228).
route(l9,l16,tr3,4,292).
route(l9,l16,tr4,2,132).
route(l9,l17,tr1,8,328).
route(l9,l17,tr2,8,304).
route(l9,l17,tr3,3,219).
route(l9,l17,tr4,5,330).
route(l9,l18,tr4,7,462).
route(l9,l19,tr1,3,123).
route(l9,l19,tr2,7,266).
route(l9,l19,tr3,4,292).
route(l9,l19,tr4,7,462).
route(l9,l20,tr1,7,287).
route(l9,l20,tr2,8,304).
route(l9,l20,tr3,10,730).
route(l9,l20,tr4,9,594).
route(l9,l5,tr3,1,73).
route(l9,l7,tr1,1,41).
route(l9,l7,tr2,7,266).
route(l9,l7,tr3,3,219).
route(l9,l7,tr4,7,462).
route(l9,l8,tr1,5,205).
route(l9,l8,tr2,8,304).
route(l9,l8,tr3,7,511).
route(l9,l8,tr4,3,198).
