% Sparse benchmark instance
% Generated with seed=13003 locations=15 parts=6 transports=3 routes=211

% ---- locations ----
location(l1).
location(l2).
location(l3).
location(l4).
location(l5).
location(l6).
location(l7).
location(l8).
location(l9).
location(l10).
location(l11).
location(l12).
location(l13).
location(l14).
location(l15).

% ---- transport resources ----
transportCapacity(tr1,14).
transportCO2(tr1,35).
transportCost(tr1,44).
transportSpeed(tr1,6).
transportCapacity(tr2,20).
transportCO2(tr2,45).
transportCost(tr2,75).
transportSpeed(tr2,2).
transportCapacity(tr3,12).
transportCO2(tr3,40).
transportCost(tr3,37).
transportSpeed(tr3,4).

% ---- parts ----
part(p1).
partSize(p1,4).
partVal(p1,740).
partTR(p1,tr1).
partTR(p1,tr2).
partTR(p1,tr3).
part(p2).
partSize(p2,2).
partVal(p2,439).
partTR(p2,tr1).
partTR(p2,tr2).
partTR(p2,tr3).
part(p3).
partSize(p3,2).
partVal(p3,811).
partTR(p3,tr1).
partTR(p3,tr2).
partTR(p3,tr3).
part(p4).
partSize(p4,4).
partVal(p4,324).
partTR(p4,tr1).
partTR(p4,tr2).
partTR(p4,tr3).
part(p5).
partSize(p5,3).
partVal(p5,925).
partTR(p5,tr1).
partTR(p5,tr2).
partTR(p5,tr3).
part(p6).
partSize(p6,2).
partVal(p6,884).
partTR(p6,tr1).
partTR(p6,tr2).
partTR(p6,tr3).

% ---- demand and supply ----
demandOffer(p1,l1,12).
demandOffer(p2,l1,6).
demandOffer(p3,l1,4).
demandOffer(p4,l1,1).
demandOffer(p5,l1,15).
demandOffer(p6,l1,8).
demandOffer(p1,l10,-9).
demandOffer(p2,l10,-3).
demandOffer(p3,l10,-1).
demandOffer(p4,l10,-2).
demandOffer(p5,l10,-2).
demandOffer(p6,l10,-4).
demandOffer(p1,l11,-8).
demandOffer(p2,l11,-11).
demandOffer(p3,l11,-1).
demandOffer(p4,l11,-9).
demandOffer(p5,l11,-3).
demandOffer(p6,l11,-10).
demandOffer(p1,l12,-3).
demandOffer(p2,l12,-2).
demandOffer(p3,l12,-16).
demandOffer(p4,l12,-2).
demandOffer(p5,l12,-7).
demandOffer(p6,l12,-5).
demandOffer(p1,l13,-1).
demandOffer(p2,l13,-9).
demandOffer(p3,l13,-1).
demandOffer(p4,l13,-9).
demandOffer(p5,l13,-2).
demandOffer(p6,l13,-2).
demandOffer(p1,l14,-4).
demandOffer(p2,l14,-1).
demandOffer(p3,l14,-3).
demandOffer(p4,l14,-7).
demandOffer(p5,l14,-9).
demandOffer(p6,l14,-3).
demandOffer(p1,l15,-5).
demandOffer(p2,l15,-4).
demandOffer(p3,l15,-8).
demandOffer(p4,l15,-1).
demandOffer(p5,l15,-7).
demandOffer(p6,l15,-6).
demandOffer(p1,l2,8).
demandOffer(p2,l2,23).
demandOffer(p3,l2,14).
demandOffer(p4,l2,7).
demandOffer(p5,l2,1).
demandOffer(p6,l2,12).
demandOffer(p1,l3,10).
demandOffer(p2,l3,1).
demandOffer(p3,l3,12).
demandOffer(p4,l3,22).
demandOffer(p5,l3,14).
demandOffer(p6,l3,10).

% ---- routes ----
route(l1,l10,tr1,9,396).
route(l1,l10,tr2,6,450).
route(l1,l10,tr3,6,222).
route(l1,l11,tr1,5,220).
route(l1,l11,tr2,5,375).
route(l1,l11,tr3,4,148).
route(l1,l12,tr1,8,352).
route(l1,l12,tr2,6,450).
route(l1,l12,tr3,8,296).
route(l1,l13,tr1,3,132).
route(l1,l13,tr2,1,75).
route(l1,l13,tr3,3,111).
route(l1,l15,tr1,6,264).
route(l1,l15,tr2,2,150).
route(l1,l15,tr3,2,74).
route(l1,l4,tr1,8,352).
route(l1,l4,tr2,6,450).
route(l1,l4,tr3,8,296).
route(l1,l5,tr1,1,44).
route(l1,l5,tr2,2,150).
route(l1,l5,tr3,6,222).
route(l1,l6,tr1,6,264).
route(l1,l6,tr2,5,375).
route(l1,l6,tr3,1,37).
route(l1,l7,tr1,1,44).
route(l1,l7,tr2,4,300).
route(l1,l7,tr3,5,185).
route(l1,l8,tr1,5,220).
route(l1,l8,tr2,1,75).
route(l1,l8,tr3,7,259).
route(l1,l9,tr1,6,264).
route(l1,l9,tr2,1,75).
route(l1,l9,tr3,4,148).
route(l2,l12,tr1,2,88).
route(l2,l12,tr2,8,600).
route(l2,l12,tr3,6,222).
route(l2,l15,tr1,9,396).
route(l2,l15,tr2,5,375).
route(l2,l15,tr3,8,296).
route(l2,l4,tr1,6,264).
route(l2,l4,tr2,9,675).
route(l2,l4,tr3,7,259).
route(l2,l5,tr1,8,352).
route(l2,l5,tr2,6,450).
route(l2,l5,tr3,7,259).
route(l2,l6,tr1,5,220).
route(l2,l6,tr2,9,675).
route(l2,l6,tr3,4,148).
route(l2,l7,tr1,2,88).
route(l2,l7,tr2,6,450).
route(l2,l7,tr3,8,296).
route(l2,l8,tr2,2,150).
route(l2,l9,tr1,1,44).
route(l2,l9,tr2,5,375).
route(l2,l9,tr3,9,333).
route(l3,l11,tr1,8,352).
route(l3,l11,tr2,9,675).
route(l3,l11,tr3,8,296).
route(l3,l12,tr1,4,176).
route(l3,l12,tr2,4,300).
route(l3,l12,tr3,10,370).
route(l3,l4,tr1,9,396).
route(l3,l4,tr2,1,75).
route(l3,l4,tr3,1,37).
route(l3,l5,tr1,8,352).
route(l3,l5,tr2,2,150).
route(l3,l5,tr3,4,148).
route(l3,l6,tr1,7,308).
route(l3,l6,tr2,6,450).
route(l3,l6,tr3,8,296).
route(l3,l7,tr1,3,132).
route(l3,l7,tr2,2,150).
route(l3,l7,tr3,9,333).
route(l3,l8,tr1,3,132).
route(l3,l8,tr2,2,150).
route(l3,l8,tr3,4,148).
route(l3,l9,tr1,8,352).
route(l3,l9,tr2,4,300).
route(l3,l9,tr3,10,370).
route(l4,l10,tr1,9,396).
route(l4,l10,tr2,8,600).
route(l4,l10,tr3,6,222).
route(l4,l11,tr1,8,352).
route(l4,l11,tr2,5,375).
route(l4,l11,tr3,8,296).
route(l4,l12,tr1,4,176).
route(l4,l12,tr2,2,150).
route(l4,l12,tr3,3,111).
route(l4,l13,tr1,8,352).
route(l4,l13,tr2,3,225).
route(l4,l13,tr3,9,333).
route(l4,l14,tr1,10,440).
route(l4,l14,tr2,3,225).
route(l4,l14,tr3,3,111).
route(l4,l15,tr1,8,352).
route(l4,l15,tr2,6,450).
route(l4,l15,tr3,4,148).
route(l4,l5,tr1,7,308).
route(l4,l5,tr2,6,450).
route(l4,l5,tr3,8,296).
route(l4,l7,tr1,5,220).
route(l4,l7,tr2,10,750).
route(l4,l7,tr3,3,111).
route(l4,l8,tr1,2,88).
route(l4,l8,tr2,9,675).
route(l4,l8,tr3,8,296).
route(l4,l9,tr1,4,176).
route(l4,l9,tr2,4,300).
route(l4,l9,tr3,8,296).
route(l5,l10,tr1,3,132).
route(l5,l10,tr2,3,225).
route(l5,l10,tr3,1,37).
route(l5,l11,tr1,1,44).
route(l5,l11,tr2,5,375).
route(l5,l11,tr3,4,148).
route(l5,l12,tr1,2,88).
route(l5,l12,tr2,10,750).
route(l5,l12,tr3,8,296).
route(l5,l13,tr1,8,352).
route(l5,l13,tr2,10,750).
route(l5,l13,tr3,4,148).
route(l5,l14,tr1,5,220).
route(l5,l14,tr2,10,750).
route(l5,l14,tr3,6,222).
route(l5,l15,tr1,8,352).
route(l5,l15,tr2,1,75).
route(l5,l15,tr3,8,296).
route(l5,l6,tr1,6,264).
route(l5,l6,tr2,3,225).
route(l5,l6,tr3,2,74).
route(l5,l7,tr3,4,148).
route(l5,l8,tr1,9,396).
route(l5,l8,tr2,4,300).
route(l5,l8,tr3,6,222).
route(l6,l10,tr2,8,600).
route(l6,l11,tr1,9,396).
route(l6,l11,tr2,7,525).
route(l6,l11,tr3,9,333).
route(l6,l12,tr1,5,220).
route(l6,l12,tr2,1,75).
route(l6,l12,tr3,4,148).
route(l6,l13,tr1,5,220).
route(l6,l13,tr2,6,450).
route(l6,l13,tr3,3,111).
route(l6,l14,tr1,7,308).
route(l6,l14,tr2,9,675).
route(l6,l14,tr3,6,222).
route(l6,l15,tr1,9,396).
route(l6,l15,tr2,1,75).
route(l6,l15,tr3,4,148).
route(l6,l9,tr1,4,176).
route(l6,l9,tr2,8,600).
route(l6,l9,tr3,4,148).
route(l7,l10,tr1,4,176).
route(l7,l10,tr2,8,600).
route(l7,l10,tr3,2,74).
route(l7,l11,tr1,7,308).
route(l7,l11,tr2,10,750).
route(l7,l11,tr3,3,111).
route(l7,l12,tr1,3,132).
route(l7,l12,tr2,2,150).
route(l7,l12,tr3,3,111).
route(l7,l13,tr1,4,176).
route(l7,l13,tr2,6,450).
route(l7,l13,tr3,10,370).
route(l7,l14,tr3,10,370).
route(l7,l15,tr1,9,396).
route(l7,l15,tr2,4,300).
route(l7,l15,tr3,2,74).
route(l7,l5,tr1,1,44).
route(l7,l5,tr2,8,600).
route(l7,l5,tr3,7,259).
route(l8,l10,tr1,2,88).
route(l8,l10,tr2,6,450).
route(l8,l10,tr3,3,111).
route(l8,l11,tr1,1,44).
route(l8,l11,tr2,5,375).
route(l8,l11,tr3,1,37).
route(l8,l12,tr1,3,132).
route(l8,l12,tr2,6,450).
route(l8,l12,tr3,1,37).
route(l8,l13,tr1,6,264).
route(l8,l13,tr2,5,375).
route(l8,l13,tr3,10,370).
route(l8,l14,tr1,1,44).
route(l8,l14,tr2,8,600).
route(l8,l14,tr3,6,222).
route(l8,l15,tr1,2,88).
route(l8,l15,tr2,2,150).
route(l8,l15,tr3,4,148).
route(l9,l10,tr1,7,308).
route(l9,l10,tr2,3,225).
route(l9,l10,tr3,4,148).
route(l9,l11,tr1,7,308).
route(l9,l11,tr2,2,150).
route(l9,l11,tr3,9,333).
route(l9,l12,tr1,9,396).
route(l9,l12,tr2,8,600).
route(l9,l12,tr3,1,37).
route(l9,l13,tr1,10,440).
route(l9,l13,tr2,8,600).
route(l9,l13,tr3,5,185).
route(l9,l14,tr1,3,132).
route(l9,l14,tr2,4,300).
route(l9,l14,tr3,6,222).
route(l9,l15,tr1,9,396).
route(l9,l15,tr2,1,75).
route(l9,l15,tr3,9,333).
route(l9,l4,tr1,1,44).
route(l9,l4,tr2,2,150).
route(l9,l4,tr3,10,370).
