totalLoad(harbor0,prodloc18,tr0,part10,3).
totalLoad(harbor0,prodloc18,tr0,part8,13).
totalLoad(harbor0,prodloc2,tr14,part2,45).
totalLoad(harbor0,prodloc24,tr0,part10,36).
totalLoad(harbor0,prodloc24,tr0,part18,6).
totalLoad(harbor0,prodloc24,tr0,part2,11).
totalLoad(harbor0,prodloc24,tr9,part19,17).
totalLoad(harbor1,harbor4,tr13,part13,14).
totalLoad(harbor1,prodloc30,tr4,part18,1).
totalLoad(harbor1,prodloc36,tr14,part18,1).
totalLoad(harbor1,prodloc40,tr13,part18,2).
totalLoad(harbor1,prodloc47,tr13,part18,2).
totalLoad(harbor10,harbor16,tr13,part1,5).
totalLoad(harbor10,harbor4,tr11,part33,33).
totalLoad(harbor10,harbor9,tr13,part1,2).
totalLoad(harbor10,harbor9,tr13,part13,16).
totalLoad(harbor10,prodloc18,tr13,part1,16).
totalLoad(harbor10,prodloc41,tr2,part32,1).
totalLoad(harbor11,prodloc12,tr12,part13,19).
totalLoad(harbor11,prodloc12,tr12,part5,11).
totalLoad(harbor11,prodloc24,tr13,part21,1).
totalLoad(harbor11,prodloc46,tr12,part1,2).
totalLoad(harbor11,prodloc46,tr12,part5,2).
totalLoad(harbor11,prodloc47,tr13,part2,3).
totalLoad(harbor12,prodloc42,tr14,part0,1).
totalLoad(harbor12,prodloc42,tr14,part17,3).
totalLoad(harbor12,prodloc42,tr14,part18,5).
totalLoad(harbor12,prodloc42,tr14,part2,10).
totalLoad(harbor12,prodloc42,tr14,part21,5).
totalLoad(harbor12,prodloc42,tr14,part23,1).
totalLoad(harbor12,prodloc42,tr14,part28,1).
totalLoad(harbor12,prodloc42,tr14,part32,1).
totalLoad(harbor12,prodloc42,tr14,part5,20).
totalLoad(harbor12,prodloc42,tr4,part0,1).
totalLoad(harbor12,prodloc42,tr4,part17,1).
totalLoad(harbor12,prodloc42,tr4,part18,77).
totalLoad(harbor12,prodloc42,tr4,part2,1).
totalLoad(harbor12,prodloc42,tr4,part21,5).
totalLoad(harbor12,prodloc42,tr4,part23,1).
totalLoad(harbor12,prodloc42,tr4,part25,1).
totalLoad(harbor12,prodloc42,tr4,part28,1).
totalLoad(harbor12,prodloc42,tr4,part32,1).
totalLoad(harbor12,prodloc47,tr13,part17,20).
totalLoad(harbor12,prodloc47,tr13,part18,1).
totalLoad(harbor12,prodloc47,tr13,part34,20).
totalLoad(harbor13,harbor1,tr4,part18,4).
totalLoad(harbor13,harbor7,tr13,part18,6).
totalLoad(harbor13,prodloc47,tr13,part18,2).
totalLoad(harbor14,harbor15,tr14,part2,18).
totalLoad(harbor14,harbor16,tr13,part2,1).
totalLoad(harbor14,prodloc23,tr4,part2,12).
totalLoad(harbor14,prodloc8,tr13,part2,45).
totalLoad(harbor15,harbor9,tr11,part13,3).
totalLoad(harbor15,prodloc23,tr14,part2,49).
totalLoad(harbor15,prodloc23,tr9,part1,20).
totalLoad(harbor15,prodloc47,tr11,part1,3).
totalLoad(harbor15,prodloc47,tr11,part13,31).
totalLoad(harbor15,prodloc47,tr11,part22,2).
totalLoad(harbor15,prodloc47,tr11,part27,9).
totalLoad(harbor15,prodloc47,tr11,part5,18).
totalLoad(harbor15,prodloc47,tr13,part13,1).
totalLoad(harbor16,harbor10,tr13,part1,5).
totalLoad(harbor16,harbor10,tr13,part13,14).
totalLoad(harbor16,prodloc22,tr4,part18,3).
totalLoad(harbor16,prodloc40,tr13,part2,1).
totalLoad(harbor2,harbor3,tr14,part18,1).
totalLoad(harbor2,harbor9,tr13,part2,2).
totalLoad(harbor2,prodloc17,tr11,part5,3).
totalLoad(harbor2,prodloc17,tr2,part5,10).
totalLoad(harbor2,prodloc44,tr12,part13,37).
totalLoad(harbor2,prodloc44,tr12,part33,75).
totalLoad(harbor3,harbor0,tr12,part10,1).
totalLoad(harbor3,harbor15,tr13,part2,25).
totalLoad(harbor3,prodloc18,tr0,part0,27).
totalLoad(harbor3,prodloc18,tr0,part1,1).
totalLoad(harbor3,prodloc18,tr0,part20,10).
totalLoad(harbor3,prodloc18,tr0,part34,17).
totalLoad(harbor3,prodloc18,tr0,part8,2).
totalLoad(harbor3,prodloc18,tr12,part1,25).
totalLoad(harbor3,prodloc18,tr13,part13,16).
totalLoad(harbor3,prodloc18,tr13,part18,16).
totalLoad(harbor3,prodloc18,tr13,part26,15).
totalLoad(harbor3,prodloc18,tr13,part33,1).
totalLoad(harbor3,prodloc18,tr13,part9,1).
totalLoad(harbor3,prodloc18,tr9,part1,7).
totalLoad(harbor3,prodloc18,tr9,part22,12).
totalLoad(harbor3,prodloc2,tr4,part18,1).
totalLoad(harbor3,prodloc20,tr14,part2,1).
totalLoad(harbor3,prodloc24,tr0,part0,78).
totalLoad(harbor3,prodloc24,tr0,part1,5).
totalLoad(harbor3,prodloc24,tr0,part10,19).
totalLoad(harbor3,prodloc24,tr0,part12,3).
totalLoad(harbor3,prodloc24,tr0,part13,7).
totalLoad(harbor3,prodloc24,tr0,part14,4).
totalLoad(harbor3,prodloc24,tr0,part15,79).
totalLoad(harbor3,prodloc24,tr0,part16,57).
totalLoad(harbor3,prodloc24,tr0,part17,2).
totalLoad(harbor3,prodloc24,tr0,part18,34).
totalLoad(harbor3,prodloc24,tr0,part19,1).
totalLoad(harbor3,prodloc24,tr0,part2,80).
totalLoad(harbor3,prodloc24,tr0,part20,66).
totalLoad(harbor3,prodloc24,tr0,part21,1).
totalLoad(harbor3,prodloc24,tr0,part22,80).
totalLoad(harbor3,prodloc24,tr0,part23,33).
totalLoad(harbor3,prodloc24,tr0,part25,2).
totalLoad(harbor3,prodloc24,tr0,part26,22).
totalLoad(harbor3,prodloc24,tr0,part27,80).
totalLoad(harbor3,prodloc24,tr0,part28,14).
totalLoad(harbor3,prodloc24,tr0,part3,2).
totalLoad(harbor3,prodloc24,tr0,part30,61).
totalLoad(harbor3,prodloc24,tr0,part31,4).
totalLoad(harbor3,prodloc24,tr0,part32,80).
totalLoad(harbor3,prodloc24,tr0,part33,65).
totalLoad(harbor3,prodloc24,tr0,part34,11).
totalLoad(harbor3,prodloc24,tr0,part4,1).
totalLoad(harbor3,prodloc24,tr0,part5,7).
totalLoad(harbor3,prodloc24,tr0,part6,78).
totalLoad(harbor3,prodloc24,tr0,part8,12).
totalLoad(harbor3,prodloc24,tr0,part9,2).
totalLoad(harbor4,harbor16,tr13,part13,14).
totalLoad(harbor4,prodloc24,tr11,part33,33).
totalLoad(harbor5,harbor12,tr13,part18,1).
totalLoad(harbor5,harbor6,tr11,part13,35).
totalLoad(harbor5,prodloc24,tr14,part2,1).
totalLoad(harbor6,harbor15,tr11,part1,3).
totalLoad(harbor6,harbor15,tr11,part13,35).
totalLoad(harbor6,harbor15,tr11,part22,2).
totalLoad(harbor6,harbor15,tr11,part27,9).
totalLoad(harbor6,harbor15,tr11,part5,18).
totalLoad(harbor6,harbor16,tr13,part18,3).
totalLoad(harbor7,harbor1,tr13,part13,14).
totalLoad(harbor7,harbor1,tr13,part18,2).
totalLoad(harbor7,harbor6,tr13,part18,2).
totalLoad(harbor7,harbor9,tr13,part18,2).
totalLoad(harbor7,prodloc11,tr2,part1,12).
totalLoad(harbor7,prodloc11,tr2,part13,4).
totalLoad(harbor7,prodloc11,tr9,part1,10).
totalLoad(harbor7,prodloc11,tr9,part13,19).
totalLoad(harbor8,harbor9,tr13,part1,40).
totalLoad(harbor8,prodloc40,tr11,part1,1).
totalLoad(harbor8,prodloc40,tr11,part13,10).
totalLoad(harbor8,prodloc8,tr11,part1,2).
totalLoad(harbor8,prodloc8,tr11,part22,2).
totalLoad(harbor8,prodloc8,tr11,part27,9).
totalLoad(harbor8,prodloc8,tr11,part34,20).
totalLoad(harbor8,prodloc8,tr11,part5,1).
totalLoad(harbor9,harbor11,tr11,part1,2).
totalLoad(harbor9,harbor11,tr11,part13,19).
totalLoad(harbor9,harbor11,tr11,part5,13).
totalLoad(harbor9,harbor3,tr14,part2,27).
totalLoad(harbor9,harbor8,tr13,part1,40).
totalLoad(harbor9,prodloc34,tr4,part2,52).
totalLoad(harbor9,prodloc5,tr4,part18,2).
totalLoad(prodloc1,prodloc12,tr15,part1,3).
totalLoad(prodloc1,prodloc2,tr15,part6,57).
totalLoad(prodloc1,prodloc20,tr15,part31,4).
totalLoad(prodloc1,prodloc21,tr15,part0,1).
totalLoad(prodloc1,prodloc21,tr15,part1,32).
totalLoad(prodloc1,prodloc21,tr15,part10,2).
totalLoad(prodloc1,prodloc21,tr15,part13,39).
totalLoad(prodloc1,prodloc21,tr15,part14,9).
totalLoad(prodloc1,prodloc21,tr15,part15,27).
totalLoad(prodloc1,prodloc21,tr15,part17,5).
totalLoad(prodloc1,prodloc21,tr15,part18,2).
totalLoad(prodloc1,prodloc21,tr15,part19,26).
totalLoad(prodloc1,prodloc21,tr15,part2,2).
totalLoad(prodloc1,prodloc21,tr15,part20,11).
totalLoad(prodloc1,prodloc21,tr15,part23,20).
totalLoad(prodloc1,prodloc21,tr15,part27,28).
totalLoad(prodloc1,prodloc21,tr15,part30,80).
totalLoad(prodloc1,prodloc21,tr15,part32,11).
totalLoad(prodloc1,prodloc21,tr15,part33,7).
totalLoad(prodloc1,prodloc21,tr15,part34,2).
totalLoad(prodloc1,prodloc21,tr15,part4,26).
totalLoad(prodloc1,prodloc21,tr15,part8,1).
totalLoad(prodloc1,prodloc31,tr15,part6,14).
totalLoad(prodloc1,prodloc41,tr15,part6,1).
totalLoad(prodloc1,prodloc41,tr15,part8,6).
totalLoad(prodloc1,prodloc49,tr15,part13,36).
totalLoad(prodloc1,prodloc49,tr15,part18,8).
totalLoad(prodloc1,prodloc49,tr15,part26,28).
totalLoad(prodloc1,prodloc49,tr15,part3,13).
totalLoad(prodloc11,harbor7,tr2,part1,22).
totalLoad(prodloc11,harbor7,tr2,part13,37).
totalLoad(prodloc11,prodloc30,tr15,part8,16).
totalLoad(prodloc11,prodloc36,tr15,part12,8).
totalLoad(prodloc11,prodloc36,tr15,part25,20).
totalLoad(prodloc11,prodloc36,tr15,part34,1).
totalLoad(prodloc11,prodloc36,tr15,part6,5).
totalLoad(prodloc12,prodloc1,tr15,part1,1).
totalLoad(prodloc12,prodloc1,tr15,part26,7).
totalLoad(prodloc12,prodloc18,tr12,part1,3).
totalLoad(prodloc12,prodloc2,tr15,part20,14).
totalLoad(prodloc12,prodloc2,tr15,part9,20).
totalLoad(prodloc12,prodloc21,tr15,part6,77).
totalLoad(prodloc12,prodloc22,tr12,part5,1).
totalLoad(prodloc12,prodloc3,tr14,part17,3).
totalLoad(prodloc12,prodloc3,tr14,part32,17).
totalLoad(prodloc12,prodloc3,tr14,part5,17).
totalLoad(prodloc12,prodloc31,tr15,part12,1).
totalLoad(prodloc12,prodloc31,tr15,part20,7).
totalLoad(prodloc12,prodloc31,tr15,part26,6).
totalLoad(prodloc12,prodloc31,tr15,part32,1).
totalLoad(prodloc12,prodloc31,tr15,part5,16).
totalLoad(prodloc12,prodloc33,tr15,part13,36).
totalLoad(prodloc12,prodloc33,tr15,part15,27).
totalLoad(prodloc12,prodloc33,tr15,part2,1).
totalLoad(prodloc12,prodloc33,tr15,part20,9).
totalLoad(prodloc12,prodloc33,tr15,part23,2).
totalLoad(prodloc12,prodloc33,tr15,part27,28).
totalLoad(prodloc12,prodloc33,tr15,part34,2).
totalLoad(prodloc12,prodloc33,tr15,part6,1).
totalLoad(prodloc12,prodloc33,tr15,part8,2).
totalLoad(prodloc12,prodloc44,tr15,part21,1).
totalLoad(prodloc12,prodloc49,tr15,part2,1).
totalLoad(prodloc12,prodloc6,tr15,part12,2).
totalLoad(prodloc12,prodloc6,tr2,part16,27).
totalLoad(prodloc12,prodloc6,tr2,part22,27).
totalLoad(prodloc12,prodloc6,tr2,part25,20).
totalLoad(prodloc12,prodloc6,tr2,part32,9).
totalLoad(prodloc12,prodloc6,tr2,part33,27).
totalLoad(prodloc16,prodloc34,tr12,part19,9).
totalLoad(prodloc16,prodloc34,tr12,part27,20).
totalLoad(prodloc16,prodloc34,tr12,part33,22).
totalLoad(prodloc16,prodloc34,tr12,part5,3).
totalLoad(prodloc16,prodloc7,tr14,part18,3).
totalLoad(prodloc17,harbor2,tr14,part5,13).
totalLoad(prodloc17,prodloc18,tr14,part5,1).
totalLoad(prodloc17,prodloc31,tr4,part2,52).
totalLoad(prodloc17,prodloc34,tr14,part2,28).
totalLoad(prodloc18,harbor0,tr0,part2,1).
totalLoad(prodloc18,harbor0,tr0,part8,13).
totalLoad(prodloc18,harbor10,tr13,part1,18).
totalLoad(prodloc18,harbor3,tr0,part0,80).
totalLoad(prodloc18,harbor3,tr0,part1,37).
totalLoad(prodloc18,harbor3,tr0,part10,6).
totalLoad(prodloc18,harbor3,tr0,part12,1).
totalLoad(prodloc18,harbor3,tr0,part13,1).
totalLoad(prodloc18,harbor3,tr0,part15,69).
totalLoad(prodloc18,harbor3,tr0,part16,55).
totalLoad(prodloc18,harbor3,tr0,part17,1).
totalLoad(prodloc18,harbor3,tr0,part18,23).
totalLoad(prodloc18,harbor3,tr0,part2,78).
totalLoad(prodloc18,harbor3,tr0,part20,63).
totalLoad(prodloc18,harbor3,tr0,part22,74).
totalLoad(prodloc18,harbor3,tr0,part23,31).
totalLoad(prodloc18,harbor3,tr0,part25,1).
totalLoad(prodloc18,harbor3,tr0,part26,36).
totalLoad(prodloc18,harbor3,tr0,part27,79).
totalLoad(prodloc18,harbor3,tr0,part28,11).
totalLoad(prodloc18,harbor3,tr0,part3,1).
totalLoad(prodloc18,harbor3,tr0,part30,48).
totalLoad(prodloc18,harbor3,tr0,part31,1).
totalLoad(prodloc18,harbor3,tr0,part32,76).
totalLoad(prodloc18,harbor3,tr0,part33,61).
totalLoad(prodloc18,harbor3,tr0,part34,17).
totalLoad(prodloc18,harbor3,tr0,part5,5).
totalLoad(prodloc18,harbor3,tr0,part6,70).
totalLoad(prodloc18,harbor3,tr0,part8,14).
totalLoad(prodloc18,harbor3,tr0,part9,1).
totalLoad(prodloc18,prodloc24,tr0,part20,80).
totalLoad(prodloc18,prodloc3,tr12,part27,8).
totalLoad(prodloc18,prodloc3,tr12,part33,20).
totalLoad(prodloc18,prodloc3,tr12,part34,7).
totalLoad(prodloc18,prodloc3,tr12,part9,20).
totalLoad(prodloc18,prodloc32,tr12,part1,1).
totalLoad(prodloc18,prodloc40,tr11,part13,26).
totalLoad(prodloc18,prodloc46,tr14,part5,18).
totalLoad(prodloc2,harbor0,tr14,part18,3).
totalLoad(prodloc2,harbor0,tr14,part2,45).
totalLoad(prodloc2,harbor11,tr4,part21,1).
totalLoad(prodloc2,prodloc1,tr15,part6,2).
totalLoad(prodloc2,prodloc18,tr14,part0,53).
totalLoad(prodloc2,prodloc18,tr14,part18,6).
totalLoad(prodloc2,prodloc18,tr14,part23,33).
totalLoad(prodloc2,prodloc21,tr15,part20,1).
totalLoad(prodloc2,prodloc26,tr14,part2,1).
totalLoad(prodloc2,prodloc31,tr15,part8,9).
totalLoad(prodloc2,prodloc33,tr15,part12,1).
totalLoad(prodloc2,prodloc33,tr15,part8,1).
totalLoad(prodloc2,prodloc6,tr15,part6,25).
totalLoad(prodloc2,prodloc8,tr15,part1,37).
totalLoad(prodloc2,prodloc8,tr15,part10,18).
totalLoad(prodloc2,prodloc8,tr15,part12,1).
totalLoad(prodloc2,prodloc8,tr15,part13,40).
totalLoad(prodloc2,prodloc8,tr15,part15,1).
totalLoad(prodloc2,prodloc8,tr15,part16,30).
totalLoad(prodloc2,prodloc8,tr15,part17,15).
totalLoad(prodloc2,prodloc8,tr15,part18,9).
totalLoad(prodloc2,prodloc8,tr15,part2,28).
totalLoad(prodloc2,prodloc8,tr15,part20,7).
totalLoad(prodloc2,prodloc8,tr15,part23,21).
totalLoad(prodloc2,prodloc8,tr15,part25,7).
totalLoad(prodloc2,prodloc8,tr15,part26,1).
totalLoad(prodloc2,prodloc8,tr15,part27,20).
totalLoad(prodloc2,prodloc8,tr15,part28,21).
totalLoad(prodloc2,prodloc8,tr15,part30,77).
totalLoad(prodloc2,prodloc8,tr15,part31,1).
totalLoad(prodloc2,prodloc8,tr15,part32,1).
totalLoad(prodloc2,prodloc8,tr15,part33,55).
totalLoad(prodloc2,prodloc8,tr15,part4,26).
totalLoad(prodloc2,prodloc8,tr15,part5,20).
totalLoad(prodloc2,prodloc8,tr15,part6,31).
totalLoad(prodloc2,prodloc8,tr15,part8,6).
totalLoad(prodloc2,prodloc8,tr15,part9,20).
totalLoad(prodloc20,harbor5,tr4,part2,1).
totalLoad(prodloc20,prodloc12,tr15,part12,2).
totalLoad(prodloc20,prodloc12,tr15,part5,3).
totalLoad(prodloc20,prodloc2,tr15,part31,4).
totalLoad(prodloc20,prodloc31,tr15,part1,40).
totalLoad(prodloc20,prodloc31,tr15,part5,1).
totalLoad(prodloc20,prodloc31,tr15,part8,8).
totalLoad(prodloc20,prodloc40,tr12,part34,6).
totalLoad(prodloc20,prodloc49,tr15,part6,27).
totalLoad(prodloc20,prodloc49,tr15,part8,3).
totalLoad(prodloc21,prodloc1,tr15,part6,69).
totalLoad(prodloc21,prodloc12,tr15,part6,3).
totalLoad(prodloc21,prodloc12,tr15,part8,1).
totalLoad(prodloc21,prodloc24,tr15,part20,48).
totalLoad(prodloc21,prodloc24,tr15,part6,3).
totalLoad(prodloc21,prodloc44,tr15,part6,2).
totalLoad(prodloc21,prodloc6,tr15,part0,40).
totalLoad(prodloc21,prodloc6,tr15,part1,40).
totalLoad(prodloc21,prodloc6,tr15,part10,2).
totalLoad(prodloc21,prodloc6,tr15,part13,40).
totalLoad(prodloc21,prodloc6,tr15,part14,26).
totalLoad(prodloc21,prodloc6,tr15,part15,27).
totalLoad(prodloc21,prodloc6,tr15,part17,5).
totalLoad(prodloc21,prodloc6,tr15,part18,2).
totalLoad(prodloc21,prodloc6,tr15,part19,26).
totalLoad(prodloc21,prodloc6,tr15,part2,41).
totalLoad(prodloc21,prodloc6,tr15,part20,24).
totalLoad(prodloc21,prodloc6,tr15,part23,22).
totalLoad(prodloc21,prodloc6,tr15,part27,28).
totalLoad(prodloc21,prodloc6,tr15,part30,80).
totalLoad(prodloc21,prodloc6,tr15,part32,11).
totalLoad(prodloc21,prodloc6,tr15,part33,7).
totalLoad(prodloc21,prodloc6,tr15,part34,2).
totalLoad(prodloc21,prodloc6,tr15,part4,26).
totalLoad(prodloc21,prodloc6,tr15,part8,1).
totalLoad(prodloc22,harbor0,tr4,part18,3).
totalLoad(prodloc22,harbor5,tr14,part18,1).
totalLoad(prodloc22,prodloc31,tr14,part18,1).
totalLoad(prodloc22,prodloc31,tr14,part2,40).
totalLoad(prodloc22,prodloc31,tr14,part23,20).
totalLoad(prodloc22,prodloc31,tr14,part28,18).
totalLoad(prodloc22,prodloc33,tr12,part1,20).
totalLoad(prodloc22,prodloc33,tr12,part10,20).
totalLoad(prodloc22,prodloc33,tr12,part13,20).
totalLoad(prodloc22,prodloc33,tr12,part30,40).
totalLoad(prodloc22,prodloc34,tr12,part13,35).
totalLoad(prodloc22,prodloc40,tr14,part5,1).
totalLoad(prodloc22,prodloc44,tr14,part2,3).
totalLoad(prodloc22,prodloc6,tr14,part0,40).
totalLoad(prodloc22,prodloc6,tr14,part18,38).
totalLoad(prodloc22,prodloc6,tr14,part28,2).
totalLoad(prodloc23,harbor14,tr14,part2,61).
totalLoad(prodloc23,harbor15,tr12,part1,15).
totalLoad(prodloc23,harbor15,tr9,part1,5).
totalLoad(prodloc24,harbor0,tr14,part2,1).
totalLoad(prodloc24,harbor0,tr4,part2,9).
totalLoad(prodloc24,harbor2,tr4,part2,2).
totalLoad(prodloc24,harbor3,tr0,part0,25).
totalLoad(prodloc24,harbor3,tr0,part1,1).
totalLoad(prodloc24,harbor3,tr0,part10,14).
totalLoad(prodloc24,harbor3,tr0,part12,2).
totalLoad(prodloc24,harbor3,tr0,part13,22).
totalLoad(prodloc24,harbor3,tr0,part14,4).
totalLoad(prodloc24,harbor3,tr0,part15,8).
totalLoad(prodloc24,harbor3,tr0,part16,2).
totalLoad(prodloc24,harbor3,tr0,part17,1).
totalLoad(prodloc24,harbor3,tr0,part18,27).
totalLoad(prodloc24,harbor3,tr0,part19,1).
totalLoad(prodloc24,harbor3,tr0,part2,1).
totalLoad(prodloc24,harbor3,tr0,part20,13).
totalLoad(prodloc24,harbor3,tr0,part21,1).
totalLoad(prodloc24,harbor3,tr0,part22,18).
totalLoad(prodloc24,harbor3,tr0,part23,2).
totalLoad(prodloc24,harbor3,tr0,part25,1).
totalLoad(prodloc24,harbor3,tr0,part26,1).
totalLoad(prodloc24,harbor3,tr0,part27,1).
totalLoad(prodloc24,harbor3,tr0,part28,3).
totalLoad(prodloc24,harbor3,tr0,part3,1).
totalLoad(prodloc24,harbor3,tr0,part30,13).
totalLoad(prodloc24,harbor3,tr0,part31,3).
totalLoad(prodloc24,harbor3,tr0,part32,4).
totalLoad(prodloc24,harbor3,tr0,part33,5).
totalLoad(prodloc24,harbor3,tr0,part34,11).
totalLoad(prodloc24,harbor3,tr0,part4,1).
totalLoad(prodloc24,harbor3,tr0,part5,2).
totalLoad(prodloc24,harbor3,tr0,part6,8).
totalLoad(prodloc24,harbor3,tr0,part9,2).
totalLoad(prodloc24,harbor3,tr11,part15,2).
totalLoad(prodloc24,prodloc18,tr0,part1,22).
totalLoad(prodloc24,prodloc18,tr0,part10,23).
totalLoad(prodloc24,prodloc18,tr0,part12,1).
totalLoad(prodloc24,prodloc18,tr0,part13,5).
totalLoad(prodloc24,prodloc18,tr0,part14,26).
totalLoad(prodloc24,prodloc18,tr0,part15,15).
totalLoad(prodloc24,prodloc18,tr0,part16,2).
totalLoad(prodloc24,prodloc18,tr0,part17,1).
totalLoad(prodloc24,prodloc18,tr0,part18,1).
totalLoad(prodloc24,prodloc18,tr0,part19,17).
totalLoad(prodloc24,prodloc18,tr0,part2,79).
totalLoad(prodloc24,prodloc18,tr0,part20,80).
totalLoad(prodloc24,prodloc18,tr0,part21,26).
totalLoad(prodloc24,prodloc18,tr0,part22,9).
totalLoad(prodloc24,prodloc18,tr0,part23,18).
totalLoad(prodloc24,prodloc18,tr0,part25,1).
totalLoad(prodloc24,prodloc18,tr0,part26,1).
totalLoad(prodloc24,prodloc18,tr0,part27,14).
totalLoad(prodloc24,prodloc18,tr0,part28,31).
totalLoad(prodloc24,prodloc18,tr0,part3,1).
totalLoad(prodloc24,prodloc18,tr0,part30,48).
totalLoad(prodloc24,prodloc18,tr0,part31,1).
totalLoad(prodloc24,prodloc18,tr0,part32,23).
totalLoad(prodloc24,prodloc18,tr0,part33,5).
totalLoad(prodloc24,prodloc18,tr0,part34,1).
totalLoad(prodloc24,prodloc18,tr0,part4,26).
totalLoad(prodloc24,prodloc18,tr0,part5,19).
totalLoad(prodloc24,prodloc18,tr0,part6,43).
totalLoad(prodloc24,prodloc18,tr0,part8,12).
totalLoad(prodloc24,prodloc18,tr0,part9,20).
totalLoad(prodloc24,prodloc2,tr15,part1,21).
totalLoad(prodloc24,prodloc2,tr15,part10,18).
totalLoad(prodloc24,prodloc2,tr15,part12,12).
totalLoad(prodloc24,prodloc2,tr15,part13,4).
totalLoad(prodloc24,prodloc2,tr15,part15,1).
totalLoad(prodloc24,prodloc2,tr15,part16,30).
totalLoad(prodloc24,prodloc2,tr15,part17,15).
totalLoad(prodloc24,prodloc2,tr15,part18,1).
totalLoad(prodloc24,prodloc2,tr15,part2,10).
totalLoad(prodloc24,prodloc2,tr15,part20,5).
totalLoad(prodloc24,prodloc2,tr15,part23,21).
totalLoad(prodloc24,prodloc2,tr15,part25,7).
totalLoad(prodloc24,prodloc2,tr15,part26,14).
totalLoad(prodloc24,prodloc2,tr15,part27,12).
totalLoad(prodloc24,prodloc2,tr15,part28,21).
totalLoad(prodloc24,prodloc2,tr15,part30,24).
totalLoad(prodloc24,prodloc2,tr15,part31,7).
totalLoad(prodloc24,prodloc2,tr15,part32,1).
totalLoad(prodloc24,prodloc2,tr15,part33,28).
totalLoad(prodloc24,prodloc2,tr15,part5,1).
totalLoad(prodloc24,prodloc2,tr15,part8,13).
totalLoad(prodloc24,prodloc21,tr15,part20,51).
totalLoad(prodloc24,prodloc3,tr12,part13,16).
totalLoad(prodloc24,prodloc3,tr12,part33,7).
totalLoad(prodloc24,prodloc31,tr15,part26,7).
totalLoad(prodloc24,prodloc31,tr15,part6,47).
totalLoad(prodloc24,prodloc6,tr15,part20,78).
totalLoad(prodloc24,prodloc6,tr15,part34,19).
totalLoad(prodloc24,prodloc6,tr15,part6,5).
totalLoad(prodloc24,prodloc6,tr15,part8,4).
totalLoad(prodloc26,harbor9,tr2,part5,13).
totalLoad(prodloc26,prodloc47,tr14,part32,8).
totalLoad(prodloc26,prodloc47,tr14,part5,2).
totalLoad(prodloc26,prodloc49,tr4,part2,1).
totalLoad(prodloc27,prodloc16,tr4,part18,1).
totalLoad(prodloc27,prodloc2,tr4,part2,34).
totalLoad(prodloc27,prodloc20,tr9,part5,4).
totalLoad(prodloc27,prodloc24,tr14,part17,15).
totalLoad(prodloc27,prodloc24,tr14,part5,15).
totalLoad(prodloc27,prodloc44,tr14,part17,5).
totalLoad(prodloc27,prodloc44,tr14,part32,8).
totalLoad(prodloc27,prodloc44,tr14,part5,1).
totalLoad(prodloc3,harbor0,tr12,part19,17).
totalLoad(prodloc3,harbor5,tr9,part13,1).
totalLoad(prodloc3,prodloc1,tr15,part1,2).
totalLoad(prodloc3,prodloc1,tr15,part18,3).
totalLoad(prodloc3,prodloc1,tr15,part26,19).
totalLoad(prodloc3,prodloc20,tr15,part6,27).
totalLoad(prodloc3,prodloc20,tr15,part8,2).
totalLoad(prodloc3,prodloc24,tr15,part6,25).
totalLoad(prodloc3,prodloc26,tr14,part32,8).
totalLoad(prodloc3,prodloc26,tr14,part5,15).
totalLoad(prodloc3,prodloc31,tr15,part12,6).
totalLoad(prodloc3,prodloc31,tr15,part13,36).
totalLoad(prodloc3,prodloc31,tr15,part18,1).
totalLoad(prodloc3,prodloc31,tr15,part26,1).
totalLoad(prodloc3,prodloc31,tr15,part27,3).
totalLoad(prodloc3,prodloc31,tr15,part3,1).
totalLoad(prodloc3,prodloc31,tr15,part30,80).
totalLoad(prodloc3,prodloc31,tr15,part32,2).
totalLoad(prodloc3,prodloc31,tr15,part33,7).
totalLoad(prodloc3,prodloc31,tr15,part34,6).
totalLoad(prodloc3,prodloc31,tr15,part6,25).
totalLoad(prodloc3,prodloc31,tr15,part8,1).
totalLoad(prodloc3,prodloc41,tr15,part12,3).
totalLoad(prodloc3,prodloc41,tr15,part6,5).
totalLoad(prodloc3,prodloc41,tr15,part8,1).
totalLoad(prodloc3,prodloc44,tr15,part12,8).
totalLoad(prodloc3,prodloc47,tr12,part13,34).
totalLoad(prodloc3,prodloc49,tr14,part18,36).
totalLoad(prodloc3,prodloc49,tr15,part12,5).
totalLoad(prodloc3,prodloc8,tr12,part15,1).
totalLoad(prodloc3,prodloc8,tr15,part1,2).
totalLoad(prodloc3,prodloc8,tr15,part12,4).
totalLoad(prodloc3,prodloc8,tr15,part14,26).
totalLoad(prodloc3,prodloc8,tr15,part19,9).
totalLoad(prodloc3,prodloc8,tr15,part2,39).
totalLoad(prodloc3,prodloc8,tr15,part3,39).
totalLoad(prodloc3,prodloc8,tr15,part31,7).
totalLoad(prodloc30,prodloc11,tr15,part12,8).
totalLoad(prodloc30,prodloc11,tr15,part13,14).
totalLoad(prodloc30,prodloc11,tr15,part25,20).
totalLoad(prodloc30,prodloc11,tr15,part34,1).
totalLoad(prodloc30,prodloc11,tr15,part6,5).
totalLoad(prodloc30,prodloc11,tr15,part8,16).
totalLoad(prodloc30,prodloc35,tr14,part18,1).
totalLoad(prodloc30,prodloc36,tr15,part1,40).
totalLoad(prodloc30,prodloc36,tr15,part12,1).
totalLoad(prodloc30,prodloc36,tr15,part13,20).
totalLoad(prodloc30,prodloc36,tr15,part32,1).
totalLoad(prodloc30,prodloc36,tr15,part8,3).
totalLoad(prodloc31,harbor2,tr14,part18,1).
totalLoad(prodloc31,harbor9,tr14,part2,77).
totalLoad(prodloc31,prodloc2,tr15,part13,36).
totalLoad(prodloc31,prodloc2,tr15,part18,32).
totalLoad(prodloc31,prodloc2,tr15,part2,12).
totalLoad(prodloc31,prodloc2,tr15,part20,3).
totalLoad(prodloc31,prodloc2,tr15,part23,33).
totalLoad(prodloc31,prodloc2,tr15,part26,1).
totalLoad(prodloc31,prodloc2,tr15,part3,14).
totalLoad(prodloc31,prodloc2,tr15,part30,80).
totalLoad(prodloc31,prodloc2,tr15,part31,1).
totalLoad(prodloc31,prodloc2,tr15,part5,19).
totalLoad(prodloc31,prodloc2,tr15,part6,25).
totalLoad(prodloc31,prodloc20,tr15,part1,40).
totalLoad(prodloc31,prodloc20,tr15,part12,2).
totalLoad(prodloc31,prodloc20,tr15,part34,6).
totalLoad(prodloc31,prodloc22,tr4,part2,3).
totalLoad(prodloc31,prodloc3,tr12,part10,18).
totalLoad(prodloc31,prodloc3,tr12,part15,1).
totalLoad(prodloc31,prodloc3,tr12,part27,3).
totalLoad(prodloc31,prodloc3,tr15,part1,2).
totalLoad(prodloc31,prodloc3,tr15,part12,6).
totalLoad(prodloc31,prodloc30,tr15,part8,9).
totalLoad(prodloc31,prodloc33,tr15,part20,2).
totalLoad(prodloc31,prodloc33,tr15,part26,28).
totalLoad(prodloc31,prodloc33,tr15,part6,74).
totalLoad(prodloc31,prodloc36,tr15,part18,10).
totalLoad(prodloc31,prodloc36,tr15,part6,9).
totalLoad(prodloc31,prodloc44,tr14,part18,3).
totalLoad(prodloc31,prodloc44,tr15,part12,1).
totalLoad(prodloc31,prodloc44,tr15,part18,1).
totalLoad(prodloc31,prodloc44,tr15,part20,2).
totalLoad(prodloc31,prodloc44,tr15,part23,8).
totalLoad(prodloc31,prodloc44,tr15,part28,18).
totalLoad(prodloc31,prodloc44,tr15,part32,4).
totalLoad(prodloc31,prodloc44,tr15,part33,7).
totalLoad(prodloc31,prodloc44,tr15,part6,4).
totalLoad(prodloc31,prodloc44,tr15,part8,13).
totalLoad(prodloc31,prodloc6,tr15,part26,39).
totalLoad(prodloc31,prodloc6,tr15,part31,7).
totalLoad(prodloc31,prodloc8,tr15,part12,1).
totalLoad(prodloc31,prodloc8,tr15,part20,9).
totalLoad(prodloc31,prodloc8,tr15,part6,1).
totalLoad(prodloc32,harbor6,tr12,part1,3).
totalLoad(prodloc32,harbor6,tr12,part22,2).
totalLoad(prodloc32,harbor6,tr12,part27,9).
totalLoad(prodloc32,harbor6,tr12,part5,18).
totalLoad(prodloc32,prodloc18,tr2,part15,1).
totalLoad(prodloc33,prodloc1,tr15,part0,1).
totalLoad(prodloc33,prodloc1,tr15,part1,32).
totalLoad(prodloc33,prodloc1,tr15,part10,2).
totalLoad(prodloc33,prodloc1,tr15,part13,39).
totalLoad(prodloc33,prodloc1,tr15,part14,9).
totalLoad(prodloc33,prodloc1,tr15,part15,27).
totalLoad(prodloc33,prodloc1,tr15,part17,5).
totalLoad(prodloc33,prodloc1,tr15,part18,7).
totalLoad(prodloc33,prodloc1,tr15,part19,26).
totalLoad(prodloc33,prodloc1,tr15,part2,2).
totalLoad(prodloc33,prodloc1,tr15,part20,11).
totalLoad(prodloc33,prodloc1,tr15,part23,20).
totalLoad(prodloc33,prodloc1,tr15,part27,28).
totalLoad(prodloc33,prodloc1,tr15,part30,80).
totalLoad(prodloc33,prodloc1,tr15,part32,11).
totalLoad(prodloc33,prodloc1,tr15,part33,7).
totalLoad(prodloc33,prodloc1,tr15,part34,2).
totalLoad(prodloc33,prodloc1,tr15,part4,26).
totalLoad(prodloc33,prodloc1,tr15,part6,1).
totalLoad(prodloc33,prodloc1,tr15,part8,5).
totalLoad(prodloc33,prodloc12,tr15,part12,1).
totalLoad(prodloc33,prodloc12,tr15,part26,13).
totalLoad(prodloc33,prodloc12,tr15,part6,74).
totalLoad(prodloc33,prodloc12,tr4,part21,1).
totalLoad(prodloc33,prodloc2,tr14,part18,11).
totalLoad(prodloc33,prodloc21,tr15,part0,39).
totalLoad(prodloc33,prodloc21,tr15,part1,8).
totalLoad(prodloc33,prodloc21,tr15,part13,1).
totalLoad(prodloc33,prodloc21,tr15,part14,17).
totalLoad(prodloc33,prodloc21,tr15,part2,39).
totalLoad(prodloc33,prodloc21,tr15,part23,2).
totalLoad(prodloc33,prodloc21,tr15,part8,1).
totalLoad(prodloc33,prodloc24,tr14,part18,26).
totalLoad(prodloc33,prodloc24,tr14,part21,25).
totalLoad(prodloc33,prodloc24,tr14,part23,8).
totalLoad(prodloc33,prodloc24,tr14,part28,38).
totalLoad(prodloc33,prodloc24,tr2,part13,1).
totalLoad(prodloc33,prodloc3,tr12,part13,21).
totalLoad(prodloc33,prodloc31,tr15,part26,15).
totalLoad(prodloc33,prodloc5,tr12,part10,38).
totalLoad(prodloc33,prodloc8,tr15,part20,2).
totalLoad(prodloc34,prodloc17,tr4,part2,80).
totalLoad(prodloc34,prodloc18,tr2,part19,9).
totalLoad(prodloc34,prodloc18,tr2,part27,20).
totalLoad(prodloc34,prodloc18,tr2,part33,22).
totalLoad(prodloc34,prodloc18,tr2,part5,3).
totalLoad(prodloc34,prodloc3,tr2,part13,34).
totalLoad(prodloc34,prodloc8,tr12,part13,1).
totalLoad(prodloc35,harbor13,tr4,part18,1).
totalLoad(prodloc36,harbor13,tr14,part18,10).
totalLoad(prodloc36,harbor13,tr4,part18,1).
totalLoad(prodloc36,prodloc30,tr15,part1,40).
totalLoad(prodloc36,prodloc30,tr15,part12,14).
totalLoad(prodloc36,prodloc30,tr15,part13,20).
totalLoad(prodloc36,prodloc30,tr15,part34,1).
totalLoad(prodloc36,prodloc30,tr15,part6,14).
totalLoad(prodloc36,prodloc30,tr15,part8,4).
totalLoad(prodloc36,prodloc30,tr4,part25,20).
totalLoad(prodloc36,prodloc31,tr15,part32,1).
totalLoad(prodloc36,prodloc44,tr15,part26,1).
totalLoad(prodloc40,harbor15,tr13,part2,1).
totalLoad(prodloc40,harbor6,tr13,part18,1).
totalLoad(prodloc40,prodloc18,tr12,part1,1).
totalLoad(prodloc40,prodloc18,tr12,part34,6).
totalLoad(prodloc40,prodloc18,tr2,part13,26).
totalLoad(prodloc40,prodloc24,tr14,part18,1).
totalLoad(prodloc40,prodloc27,tr12,part5,1).
totalLoad(prodloc40,prodloc47,tr11,part13,13).
totalLoad(prodloc41,harbor10,tr2,part13,2).
totalLoad(prodloc41,harbor10,tr4,part32,1).
totalLoad(prodloc41,harbor10,tr9,part33,33).
totalLoad(prodloc42,harbor12,tr14,part0,1).
totalLoad(prodloc42,harbor12,tr14,part17,5).
totalLoad(prodloc42,harbor12,tr14,part18,36).
totalLoad(prodloc42,harbor12,tr14,part2,2).
totalLoad(prodloc42,harbor12,tr14,part21,9).
totalLoad(prodloc42,harbor12,tr14,part23,1).
totalLoad(prodloc42,harbor12,tr14,part28,1).
totalLoad(prodloc42,harbor12,tr14,part32,1).
totalLoad(prodloc42,harbor12,tr14,part5,1).
totalLoad(prodloc42,harbor12,tr4,part0,1).
totalLoad(prodloc42,harbor12,tr4,part17,19).
totalLoad(prodloc42,harbor12,tr4,part18,46).
totalLoad(prodloc42,harbor12,tr4,part2,9).
totalLoad(prodloc42,harbor12,tr4,part21,1).
totalLoad(prodloc42,harbor12,tr4,part23,1).
totalLoad(prodloc42,harbor12,tr4,part25,1).
totalLoad(prodloc42,harbor12,tr4,part28,1).
totalLoad(prodloc42,harbor12,tr4,part32,1).
totalLoad(prodloc42,harbor12,tr9,part34,20).
totalLoad(prodloc42,harbor12,tr9,part5,19).
totalLoad(prodloc44,harbor2,tr12,part13,6).
totalLoad(prodloc44,harbor2,tr12,part33,75).
totalLoad(prodloc44,harbor2,tr2,part13,31).
totalLoad(prodloc44,prodloc17,tr14,part5,1).
totalLoad(prodloc44,prodloc2,tr4,part21,1).
totalLoad(prodloc44,prodloc20,tr15,part8,9).
totalLoad(prodloc44,prodloc24,tr15,part6,5).
totalLoad(prodloc44,prodloc30,tr15,part12,5).
totalLoad(prodloc44,prodloc30,tr15,part13,14).
totalLoad(prodloc44,prodloc30,tr15,part32,1).
totalLoad(prodloc44,prodloc30,tr15,part6,1).
totalLoad(prodloc44,prodloc33,tr15,part1,20).
totalLoad(prodloc44,prodloc33,tr15,part10,20).
totalLoad(prodloc44,prodloc33,tr15,part13,6).
totalLoad(prodloc44,prodloc33,tr15,part17,5).
totalLoad(prodloc44,prodloc33,tr15,part18,4).
totalLoad(prodloc44,prodloc33,tr15,part20,2).
totalLoad(prodloc44,prodloc33,tr15,part23,28).
totalLoad(prodloc44,prodloc33,tr15,part28,38).
totalLoad(prodloc44,prodloc33,tr15,part32,11).
totalLoad(prodloc44,prodloc33,tr15,part33,7).
totalLoad(prodloc44,prodloc33,tr15,part8,3).
totalLoad(prodloc44,prodloc36,tr15,part12,5).
totalLoad(prodloc44,prodloc36,tr15,part26,1).
totalLoad(prodloc44,prodloc36,tr15,part8,1).
totalLoad(prodloc44,prodloc49,tr4,part2,3).
totalLoad(prodloc46,prodloc31,tr12,part1,2).
totalLoad(prodloc46,prodloc31,tr12,part5,2).
totalLoad(prodloc46,prodloc32,tr2,part5,18).
totalLoad(prodloc47,harbor11,tr13,part2,3).
totalLoad(prodloc47,harbor15,tr13,part2,5).
totalLoad(prodloc47,harbor5,tr13,part13,34).
totalLoad(prodloc47,harbor8,tr11,part1,3).
totalLoad(prodloc47,harbor8,tr11,part13,10).
totalLoad(prodloc47,harbor8,tr11,part22,2).
totalLoad(prodloc47,harbor8,tr11,part27,9).
totalLoad(prodloc47,harbor8,tr11,part34,20).
totalLoad(prodloc47,harbor8,tr11,part5,1).
totalLoad(prodloc47,prodloc22,tr2,part13,35).
totalLoad(prodloc47,prodloc24,tr4,part18,4).
totalLoad(prodloc47,prodloc27,tr14,part17,20).
totalLoad(prodloc47,prodloc27,tr14,part18,1).
totalLoad(prodloc47,prodloc27,tr14,part32,8).
totalLoad(prodloc47,prodloc27,tr14,part5,19).
totalLoad(prodloc49,prodloc1,tr15,part13,35).
totalLoad(prodloc49,prodloc1,tr15,part31,4).
totalLoad(prodloc49,prodloc1,tr15,part8,2).
totalLoad(prodloc49,prodloc3,tr9,part5,18).
totalLoad(prodloc49,prodloc31,tr15,part18,45).
totalLoad(prodloc49,prodloc31,tr15,part3,13).
totalLoad(prodloc49,prodloc31,tr15,part6,27).
totalLoad(prodloc49,prodloc31,tr15,part8,1).
totalLoad(prodloc49,prodloc41,tr15,part12,5).
totalLoad(prodloc49,prodloc41,tr15,part13,1).
totalLoad(prodloc49,prodloc41,tr15,part33,1).
totalLoad(prodloc49,prodloc47,tr4,part2,5).
totalLoad(prodloc49,prodloc8,tr15,part26,28).
totalLoad(prodloc5,harbor0,tr12,part10,38).
totalLoad(prodloc5,prodloc24,tr14,part18,2).
totalLoad(prodloc6,prodloc12,tr15,part1,1).
totalLoad(prodloc6,prodloc12,tr15,part13,17).
totalLoad(prodloc6,prodloc12,tr15,part17,3).
totalLoad(prodloc6,prodloc12,tr15,part2,2).
totalLoad(prodloc6,prodloc12,tr15,part20,3).
totalLoad(prodloc6,prodloc12,tr15,part23,2).
totalLoad(prodloc6,prodloc12,tr15,part27,1).
totalLoad(prodloc6,prodloc12,tr15,part34,2).
totalLoad(prodloc6,prodloc12,tr15,part6,1).
totalLoad(prodloc6,prodloc12,tr15,part8,1).
totalLoad(prodloc6,prodloc18,tr2,part1,1).
totalLoad(prodloc6,prodloc2,tr15,part0,80).
totalLoad(prodloc6,prodloc2,tr15,part1,16).
totalLoad(prodloc6,prodloc2,tr15,part27,8).
totalLoad(prodloc6,prodloc2,tr15,part31,3).
totalLoad(prodloc6,prodloc2,tr15,part33,27).
totalLoad(prodloc6,prodloc2,tr15,part4,26).
totalLoad(prodloc6,prodloc24,tr15,part12,1).
totalLoad(prodloc6,prodloc24,tr15,part20,79).
totalLoad(prodloc6,prodloc3,tr15,part1,22).
totalLoad(prodloc6,prodloc3,tr15,part10,2).
totalLoad(prodloc6,prodloc3,tr15,part13,20).
totalLoad(prodloc6,prodloc3,tr15,part14,26).
totalLoad(prodloc6,prodloc3,tr15,part15,27).
totalLoad(prodloc6,prodloc3,tr15,part16,27).
totalLoad(prodloc6,prodloc3,tr15,part17,2).
totalLoad(prodloc6,prodloc3,tr15,part18,40).
totalLoad(prodloc6,prodloc3,tr15,part19,26).
totalLoad(prodloc6,prodloc3,tr15,part2,39).
totalLoad(prodloc6,prodloc3,tr15,part20,20).
totalLoad(prodloc6,prodloc3,tr15,part22,27).
totalLoad(prodloc6,prodloc3,tr15,part23,20).
totalLoad(prodloc6,prodloc3,tr15,part25,20).
totalLoad(prodloc6,prodloc3,tr15,part27,19).
totalLoad(prodloc6,prodloc3,tr15,part28,2).
totalLoad(prodloc6,prodloc3,tr15,part30,80).
totalLoad(prodloc6,prodloc3,tr15,part32,20).
totalLoad(prodloc6,prodloc3,tr15,part33,7).
totalLoad(prodloc6,prodloc3,tr15,part34,19).
totalLoad(prodloc6,prodloc3,tr15,part6,29).
totalLoad(prodloc6,prodloc3,tr15,part8,4).
totalLoad(prodloc6,prodloc31,tr15,part26,39).
totalLoad(prodloc6,prodloc40,tr9,part13,3).
totalLoad(prodloc6,prodloc44,tr15,part12,1).
totalLoad(prodloc6,prodloc49,tr15,part31,4).
totalLoad(prodloc7,prodloc24,tr4,part18,2).
totalLoad(prodloc7,prodloc49,tr14,part18,1).
totalLoad(prodloc8,harbor14,tr13,part2,15).
totalLoad(prodloc8,prodloc1,tr15,part13,1).
totalLoad(prodloc8,prodloc1,tr15,part26,2).
totalLoad(prodloc8,prodloc1,tr15,part3,13).
totalLoad(prodloc8,prodloc16,tr12,part19,9).
totalLoad(prodloc8,prodloc16,tr12,part27,20).
totalLoad(prodloc8,prodloc16,tr12,part33,22).
totalLoad(prodloc8,prodloc16,tr12,part5,3).
totalLoad(prodloc8,prodloc16,tr14,part18,2).
totalLoad(prodloc8,prodloc21,tr15,part20,9).
totalLoad(prodloc8,prodloc24,tr15,part1,39).
totalLoad(prodloc8,prodloc24,tr15,part12,1).
totalLoad(prodloc8,prodloc24,tr15,part13,39).
totalLoad(prodloc8,prodloc24,tr15,part14,26).
totalLoad(prodloc8,prodloc24,tr15,part16,30).
totalLoad(prodloc8,prodloc24,tr15,part18,7).
totalLoad(prodloc8,prodloc24,tr15,part2,63).
totalLoad(prodloc8,prodloc24,tr15,part25,7).
totalLoad(prodloc8,prodloc24,tr15,part26,27).
totalLoad(prodloc8,prodloc24,tr15,part28,3).
totalLoad(prodloc8,prodloc24,tr15,part3,26).
totalLoad(prodloc8,prodloc24,tr15,part30,77).
totalLoad(prodloc8,prodloc24,tr15,part32,1).
totalLoad(prodloc8,prodloc24,tr15,part34,20).
totalLoad(prodloc8,prodloc24,tr15,part4,26).
totalLoad(prodloc8,prodloc24,tr15,part6,28).
totalLoad(prodloc8,prodloc24,tr15,part9,20).
totalLoad(prodloc8,prodloc27,tr4,part2,34).
totalLoad(prodloc8,prodloc3,tr4,part17,15).
totalLoad(prodloc8,prodloc3,tr4,part28,18).
totalLoad(prodloc8,prodloc31,tr15,part10,18).
totalLoad(prodloc8,prodloc31,tr15,part12,3).
totalLoad(prodloc8,prodloc31,tr15,part15,1).
totalLoad(prodloc8,prodloc31,tr15,part20,9).
totalLoad(prodloc8,prodloc31,tr15,part23,21).
totalLoad(prodloc8,prodloc31,tr15,part31,8).
totalLoad(prodloc8,prodloc31,tr15,part8,3).
totalLoad(prodloc8,prodloc32,tr12,part1,2).
totalLoad(prodloc8,prodloc32,tr12,part15,1).
totalLoad(prodloc8,prodloc32,tr12,part22,2).
totalLoad(prodloc8,prodloc32,tr12,part27,9).
totalLoad(prodloc8,prodloc41,tr15,part12,2).
totalLoad(prodloc8,prodloc41,tr15,part13,1).
totalLoad(prodloc8,prodloc41,tr15,part33,32).
totalLoad(prodloc8,prodloc41,tr15,part6,4).
totalLoad(prodloc8,prodloc41,tr15,part8,3).
totalLoad(prodloc8,prodloc49,tr9,part33,1).
totalLoad(prodloc8,prodloc49,tr9,part5,18).
activeRoute(prodloc18,prodloc24,tr0,13,1800).
activeRoute(harbor3,prodloc18,tr0,17,1800).
activeRoute(harbor0,prodloc18,tr0,17,1800).
activeRoute(prodloc24,prodloc18,tr0,20,1800).
activeRoute(harbor0,prodloc24,tr0,1,1800).
activeRoute(prodloc18,harbor0,tr0,15,1800).
activeRoute(prodloc18,harbor3,tr0,20,1800).
activeRoute(harbor3,prodloc24,tr0,20,1800).
activeRoute(prodloc24,harbor3,tr0,20,1800).
activeRoute(prodloc33,prodloc24,tr2,20,96).
activeRoute(harbor7,prodloc11,tr2,3,96).
activeRoute(prodloc44,harbor2,tr2,2,96).
activeRoute(prodloc12,prodloc6,tr2,16,96).
activeRoute(prodloc46,prodloc32,tr2,16,96).
activeRoute(prodloc41,harbor10,tr2,6,96).
activeRoute(prodloc34,prodloc3,tr2,3,96).
activeRoute(prodloc32,prodloc18,tr2,11,96).
activeRoute(prodloc47,prodloc22,tr2,20,96).
activeRoute(harbor10,prodloc41,tr2,4,96).
activeRoute(prodloc34,prodloc18,tr2,20,96).
activeRoute(prodloc40,prodloc18,tr2,2,96).
activeRoute(harbor2,prodloc17,tr2,1,96).
activeRoute(prodloc11,harbor7,tr2,7,96).
activeRoute(prodloc26,harbor9,tr2,1,96).
activeRoute(prodloc6,prodloc18,tr2,1,96).
activeRoute(harbor9,prodloc34,tr4,20,148).
activeRoute(prodloc20,harbor5,tr4,20,148).
activeRoute(harbor3,prodloc2,tr4,19,148).
activeRoute(harbor1,prodloc30,tr4,20,148).
activeRoute(prodloc17,prodloc31,tr4,6,148).
activeRoute(harbor16,prodloc22,tr4,20,148).
activeRoute(prodloc44,prodloc2,tr4,15,148).
activeRoute(harbor12,prodloc42,tr4,20,148).
activeRoute(prodloc27,prodloc16,tr4,19,148).
activeRoute(prodloc41,harbor10,tr4,16,148).
activeRoute(prodloc2,harbor11,tr4,20,148).
activeRoute(prodloc44,prodloc49,tr4,9,148).
activeRoute(prodloc33,prodloc12,tr4,20,148).
activeRoute(prodloc35,harbor13,tr4,11,148).
activeRoute(prodloc36,harbor13,tr4,19,148).
activeRoute(harbor9,prodloc5,tr4,20,148).
activeRoute(prodloc24,harbor0,tr4,4,148).
activeRoute(prodloc27,prodloc2,tr4,20,148).
activeRoute(prodloc8,prodloc27,tr4,18,148).
activeRoute(prodloc47,prodloc24,tr4,1,148).
activeRoute(prodloc31,prodloc22,tr4,13,148).
activeRoute(prodloc34,prodloc17,tr4,20,148).
activeRoute(prodloc42,harbor12,tr4,20,148).
activeRoute(prodloc36,prodloc30,tr4,20,148).
activeRoute(prodloc26,prodloc49,tr4,20,148).
activeRoute(prodloc8,prodloc3,tr4,6,148).
activeRoute(prodloc22,harbor0,tr4,20,148).
activeRoute(prodloc49,prodloc47,tr4,1,148).
activeRoute(prodloc24,harbor2,tr4,20,148).
activeRoute(harbor14,prodloc23,tr4,20,148).
activeRoute(prodloc7,prodloc24,tr4,16,148).
activeRoute(harbor13,harbor1,tr4,2,148).
activeRoute(harbor3,prodloc18,tr9,20,65).
activeRoute(prodloc6,prodloc40,tr9,1,65).
activeRoute(prodloc3,harbor5,tr9,1,65).
activeRoute(harbor7,prodloc11,tr9,2,65).
activeRoute(prodloc23,harbor15,tr9,20,65).
activeRoute(prodloc49,prodloc3,tr9,1,65).
activeRoute(prodloc41,harbor10,tr9,1,65).
activeRoute(harbor0,prodloc24,tr9,4,65).
activeRoute(prodloc27,prodloc20,tr9,1,65).
activeRoute(prodloc42,harbor12,tr9,20,65).
activeRoute(harbor15,prodloc23,tr9,1,65).
activeRoute(prodloc8,prodloc49,tr9,1,65).
activeRoute(harbor6,harbor15,tr11,20,65).
activeRoute(harbor8,prodloc40,tr11,19,65).
activeRoute(harbor15,prodloc47,tr11,20,65).
activeRoute(harbor4,prodloc24,tr11,20,65).
activeRoute(prodloc40,prodloc47,tr11,1,65).
activeRoute(prodloc18,prodloc40,tr11,1,65).
activeRoute(harbor10,harbor4,tr11,1,65).
activeRoute(harbor2,prodloc17,tr11,1,65).
activeRoute(harbor9,harbor11,tr11,1,65).
activeRoute(harbor5,harbor6,tr11,1,65).
activeRoute(prodloc24,harbor3,tr11,1,65).
activeRoute(harbor15,harbor9,tr11,1,65).
activeRoute(prodloc47,harbor8,tr11,20,65).
activeRoute(harbor8,prodloc8,tr11,20,65).
activeRoute(prodloc22,prodloc34,tr12,20,65).
activeRoute(prodloc18,prodloc32,tr12,20,65).
activeRoute(prodloc32,harbor6,tr12,3,65).
activeRoute(prodloc31,prodloc3,tr12,20,65).
activeRoute(prodloc40,prodloc27,tr12,20,65).
activeRoute(harbor3,prodloc18,tr12,15,65).
activeRoute(prodloc3,prodloc47,tr12,16,65).
activeRoute(prodloc5,harbor0,tr12,1,65).
activeRoute(prodloc23,harbor15,tr12,3,65).
activeRoute(prodloc12,prodloc18,tr12,19,65).
activeRoute(prodloc44,harbor2,tr12,2,65).
activeRoute(prodloc34,prodloc8,tr12,20,65).
activeRoute(prodloc3,harbor0,tr12,1,65).
activeRoute(harbor3,harbor0,tr12,13,65).
activeRoute(harbor2,prodloc44,tr12,2,65).
activeRoute(prodloc46,prodloc31,tr12,20,65).
activeRoute(prodloc40,prodloc18,tr12,19,65).
activeRoute(prodloc8,prodloc16,tr12,18,65).
activeRoute(prodloc24,prodloc3,tr12,1,65).
activeRoute(prodloc20,prodloc40,tr12,1,65).
activeRoute(harbor11,prodloc46,tr12,4,65).
activeRoute(prodloc33,prodloc3,tr12,20,65).
activeRoute(prodloc33,prodloc5,tr12,1,65).
activeRoute(harbor11,prodloc12,tr12,20,65).
activeRoute(prodloc18,prodloc3,tr12,2,65).
activeRoute(prodloc3,prodloc8,tr12,20,65).
activeRoute(prodloc12,prodloc22,tr12,19,65).
activeRoute(prodloc8,prodloc32,tr12,13,65).
activeRoute(prodloc22,prodloc33,tr12,20,65).
activeRoute(prodloc16,prodloc34,tr12,20,65).
activeRoute(harbor14,prodloc8,tr13,20,68).
activeRoute(harbor1,harbor4,tr13,1,68).
activeRoute(harbor3,prodloc18,tr13,19,68).
activeRoute(harbor15,prodloc47,tr13,1,68).
activeRoute(prodloc18,harbor10,tr13,1,68).
activeRoute(harbor10,harbor16,tr13,1,68).
activeRoute(harbor11,prodloc47,tr13,5,68).
activeRoute(harbor1,prodloc47,tr13,1,68).
activeRoute(harbor8,harbor9,tr13,1,68).
activeRoute(harbor13,prodloc47,tr13,1,68).
activeRoute(harbor6,harbor16,tr13,4,68).
activeRoute(harbor9,harbor8,tr13,1,68).
activeRoute(harbor3,harbor15,tr13,6,68).
activeRoute(harbor16,harbor10,tr13,1,68).
activeRoute(harbor1,prodloc40,tr13,1,68).
activeRoute(harbor14,harbor16,tr13,7,68).
activeRoute(harbor7,harbor6,tr13,1,68).
activeRoute(harbor10,prodloc18,tr13,1,68).
activeRoute(prodloc47,harbor11,tr13,4,68).
activeRoute(harbor10,harbor9,tr13,1,68).
activeRoute(harbor7,harbor1,tr13,11,68).
activeRoute(harbor16,prodloc40,tr13,19,68).
activeRoute(harbor11,prodloc24,tr13,1,68).
activeRoute(prodloc47,harbor15,tr13,2,68).
activeRoute(prodloc8,harbor14,tr13,19,68).
activeRoute(prodloc40,harbor15,tr13,4,68).
activeRoute(prodloc47,harbor5,tr13,1,68).
activeRoute(harbor7,harbor9,tr13,2,68).
activeRoute(harbor4,harbor16,tr13,1,68).
activeRoute(harbor5,harbor12,tr13,1,68).
activeRoute(prodloc40,harbor6,tr13,1,68).
activeRoute(harbor13,harbor7,tr13,12,68).
activeRoute(harbor12,prodloc47,tr13,1,68).
activeRoute(harbor2,harbor9,tr13,19,68).
activeRoute(harbor14,harbor15,tr14,19,146).
activeRoute(prodloc12,prodloc3,tr14,20,146).
activeRoute(prodloc3,prodloc26,tr14,19,146).
activeRoute(prodloc18,prodloc46,tr14,20,146).
activeRoute(prodloc27,prodloc24,tr14,20,146).
activeRoute(prodloc44,prodloc17,tr14,9,146).
activeRoute(prodloc5,prodloc24,tr14,20,146).
activeRoute(prodloc33,prodloc24,tr14,15,146).
activeRoute(prodloc16,prodloc7,tr14,20,146).
activeRoute(prodloc22,prodloc44,tr14,2,146).
activeRoute(prodloc23,harbor14,tr14,20,146).
activeRoute(prodloc22,harbor5,tr14,1,146).
activeRoute(prodloc17,harbor2,tr14,1,146).
activeRoute(prodloc22,prodloc6,tr14,17,146).
activeRoute(prodloc22,prodloc31,tr14,19,146).
activeRoute(prodloc31,harbor2,tr14,2,146).
activeRoute(prodloc47,prodloc27,tr14,20,146).
activeRoute(harbor2,harbor3,tr14,20,146).
activeRoute(prodloc27,prodloc44,tr14,20,146).
activeRoute(harbor12,prodloc42,tr14,20,146).
activeRoute(prodloc17,prodloc34,tr14,20,146).
activeRoute(prodloc17,prodloc18,tr14,19,146).
activeRoute(prodloc22,prodloc40,tr14,20,146).
activeRoute(prodloc31,prodloc44,tr14,20,146).
activeRoute(prodloc40,prodloc24,tr14,1,146).
activeRoute(prodloc2,harbor0,tr14,16,146).
activeRoute(prodloc3,prodloc49,tr14,20,146).
activeRoute(prodloc7,prodloc49,tr14,20,146).
activeRoute(harbor1,prodloc36,tr14,20,146).
activeRoute(prodloc36,harbor13,tr14,20,146).
activeRoute(prodloc30,prodloc35,tr14,20,146).
activeRoute(harbor0,prodloc2,tr14,16,146).
activeRoute(harbor5,prodloc24,tr14,20,146).
activeRoute(prodloc24,harbor0,tr14,1,146).
activeRoute(prodloc8,prodloc16,tr14,20,146).
activeRoute(harbor9,harbor3,tr14,20,146).
activeRoute(prodloc42,harbor12,tr14,20,146).
activeRoute(prodloc26,prodloc47,tr14,20,146).
activeRoute(harbor3,prodloc20,tr14,20,146).
activeRoute(prodloc2,prodloc26,tr14,2,146).
activeRoute(prodloc33,prodloc2,tr14,3,146).
activeRoute(prodloc31,harbor9,tr14,19,146).
activeRoute(harbor15,prodloc23,tr14,19,146).
activeRoute(prodloc2,prodloc18,tr14,15,146).
activeRoute(prodloc31,prodloc36,tr15,1,2217).
activeRoute(prodloc44,prodloc20,tr15,3,2217).
activeRoute(prodloc21,prodloc24,tr15,4,2217).
activeRoute(prodloc2,prodloc1,tr15,5,2217).
activeRoute(prodloc12,prodloc21,tr15,6,2217).
activeRoute(prodloc21,prodloc44,tr15,2,2217).
activeRoute(prodloc31,prodloc20,tr15,1,2217).
activeRoute(prodloc31,prodloc3,tr15,3,2217).
activeRoute(prodloc31,prodloc33,tr15,6,2217).
activeRoute(prodloc2,prodloc31,tr15,1,2217).
activeRoute(prodloc30,prodloc36,tr15,1,2217).
activeRoute(prodloc2,prodloc21,tr15,3,2217).
activeRoute(prodloc24,prodloc6,tr15,7,2217).
activeRoute(prodloc31,prodloc8,tr15,1,2217).
activeRoute(prodloc20,prodloc49,tr15,3,2217).
activeRoute(prodloc1,prodloc2,tr15,5,2217).
activeRoute(prodloc6,prodloc2,tr15,6,2217).
activeRoute(prodloc8,prodloc21,tr15,12,2217).
activeRoute(prodloc12,prodloc44,tr15,2,2217).
activeRoute(prodloc44,prodloc30,tr15,1,2217).
activeRoute(prodloc24,prodloc21,tr15,4,2217).
activeRoute(prodloc12,prodloc33,tr15,1,2217).
activeRoute(prodloc12,prodloc49,tr15,16,2217).
activeRoute(prodloc1,prodloc20,tr15,2,2217).
activeRoute(prodloc12,prodloc2,tr15,8,2217).
activeRoute(prodloc20,prodloc2,tr15,1,2217).
activeRoute(prodloc21,prodloc1,tr15,5,2217).
activeRoute(prodloc49,prodloc8,tr15,17,2217).
activeRoute(prodloc1,prodloc12,tr15,1,2217).
activeRoute(prodloc33,prodloc8,tr15,6,2217).
activeRoute(prodloc31,prodloc6,tr15,2,2217).
activeRoute(prodloc6,prodloc12,tr15,1,2217).
activeRoute(prodloc3,prodloc24,tr15,5,2217).
activeRoute(prodloc1,prodloc31,tr15,2,2217).
activeRoute(prodloc6,prodloc31,tr15,1,2217).
activeRoute(prodloc11,prodloc30,tr15,3,2217).
activeRoute(prodloc31,prodloc44,tr15,2,2217).
activeRoute(prodloc3,prodloc20,tr15,5,2217).
activeRoute(prodloc36,prodloc31,tr15,1,2217).
activeRoute(prodloc12,prodloc6,tr15,12,2217).
activeRoute(prodloc3,prodloc49,tr15,3,2217).
activeRoute(prodloc2,prodloc6,tr15,3,2217).
activeRoute(prodloc33,prodloc21,tr15,4,2217).
activeRoute(prodloc21,prodloc12,tr15,6,2217).
activeRoute(prodloc33,prodloc12,tr15,7,2217).
activeRoute(prodloc2,prodloc33,tr15,3,2217).
activeRoute(prodloc49,prodloc31,tr15,3,2217).
activeRoute(prodloc24,prodloc31,tr15,5,2217).
activeRoute(prodloc49,prodloc41,tr15,1,2217).
activeRoute(prodloc11,prodloc36,tr15,2,2217).
activeRoute(prodloc3,prodloc41,tr15,1,2217).
activeRoute(prodloc8,prodloc1,tr15,1,2217).
activeRoute(prodloc6,prodloc44,tr15,2,2217).
activeRoute(prodloc1,prodloc41,tr15,1,2217).
activeRoute(prodloc30,prodloc11,tr15,4,2217).
activeRoute(prodloc49,prodloc1,tr15,1,2217).
activeRoute(prodloc20,prodloc31,tr15,5,2217).
activeRoute(prodloc31,prodloc30,tr15,1,2217).
activeRoute(prodloc1,prodloc21,tr15,3,2217).
activeRoute(prodloc36,prodloc30,tr15,4,2217).
activeRoute(prodloc8,prodloc31,tr15,3,2217).
activeRoute(prodloc36,prodloc44,tr15,1,2217).
activeRoute(prodloc3,prodloc31,tr15,3,2217).
activeRoute(prodloc12,prodloc31,tr15,1,2217).
activeRoute(prodloc20,prodloc12,tr15,10,2217).
activeRoute(prodloc24,prodloc2,tr15,5,2217).
activeRoute(prodloc44,prodloc33,tr15,2,2217).
activeRoute(prodloc44,prodloc24,tr15,1,2217).
activeRoute(prodloc8,prodloc24,tr15,5,2217).
activeRoute(prodloc31,prodloc2,tr15,3,2217).
activeRoute(prodloc6,prodloc49,tr15,7,2217).
activeRoute(prodloc8,prodloc41,tr15,1,2217).
activeRoute(prodloc3,prodloc8,tr15,17,2217).
activeRoute(prodloc21,prodloc6,tr15,4,2217).
activeRoute(prodloc33,prodloc31,tr15,1,2217).
activeRoute(prodloc1,prodloc49,tr15,1,2217).
activeRoute(prodloc3,prodloc1,tr15,1,2217).
activeRoute(prodloc12,prodloc1,tr15,1,2217).
activeRoute(prodloc6,prodloc24,tr15,18,2217).
activeRoute(prodloc2,prodloc8,tr15,6,2217).
activeRoute(prodloc44,prodloc36,tr15,1,2217).
activeRoute(prodloc33,prodloc1,tr15,2,2217).
activeRoute(prodloc3,prodloc44,tr15,2,2217).
activeRoute(prodloc6,prodloc3,tr15,7,2217).
transportCapacity(tr0,1800).
transportCapacity(tr1,65).
transportCapacity(tr10,1).
transportCapacity(tr11,65).
transportCapacity(tr12,65).
transportCapacity(tr13,68).
transportCapacity(tr14,146).
transportCapacity(tr15,2217).
transportCapacity(tr2,96).
transportCapacity(tr3,1).
transportCapacity(tr4,148).
transportCapacity(tr5,65).
transportCapacity(tr6,1).
transportCapacity(tr7,1).
transportCapacity(tr8,1).
transportCapacity(tr9,65).
partSize(part0,21).
partSize(part1,1).
partSize(part10,1).
partSize(part11,83).
partSize(part12,273).
partSize(part13,1).
partSize(part14,68).
partSize(part15,4).
partSize(part16,4).
partSize(part17,8).
partSize(part18,24).
partSize(part19,6).
partSize(part2,19).
partSize(part20,128).
partSize(part21,25).
partSize(part22,7).
partSize(part23,5).
partSize(part24,55).
partSize(part25,5).
partSize(part26,32).
partSize(part27,5).
partSize(part28,3).
partSize(part29,627).
partSize(part3,48).
partSize(part30,2).
partSize(part31,144).
partSize(part32,16).
partSize(part33,7).
partSize(part3345,353).
partSize(part34,2).
partSize(part4,2).
partSize(part5,2).
partSize(part6,111).
partSize(part8,163).
partSize(part9,2).
routeCost(harbor0,harbor11,tr12,4209).
routeCost(harbor0,harbor11,tr14,5612).
routeCost(harbor0,harbor11,tr2,4209).
routeCost(harbor0,harbor11,tr4,5612).
routeCost(harbor0,harbor16,tr12,2079).
routeCost(harbor0,harbor16,tr14,2772).
routeCost(harbor0,harbor16,tr2,2079).
routeCost(harbor0,harbor16,tr4,2772).
routeCost(harbor0,harbor2,tr12,8226).
routeCost(harbor0,harbor2,tr14,10968).
routeCost(harbor0,harbor2,tr2,8226).
routeCost(harbor0,harbor2,tr4,10968).
routeCost(harbor0,harbor3,tr12,105).
routeCost(harbor0,harbor3,tr14,140).
routeCost(harbor0,harbor3,tr2,105).
routeCost(harbor0,harbor3,tr4,140).
routeCost(harbor0,harbor5,tr12,3897).
routeCost(harbor0,harbor5,tr14,5196).
routeCost(harbor0,harbor5,tr2,3897).
routeCost(harbor0,harbor5,tr4,5196).
routeCost(harbor0,harbor6,tr12,7206).
routeCost(harbor0,harbor6,tr14,9608).
routeCost(harbor0,harbor6,tr2,7206).
routeCost(harbor0,harbor6,tr4,9608).
routeCost(harbor0,harbor9,tr12,5574).
routeCost(harbor0,harbor9,tr14,7432).
routeCost(harbor0,harbor9,tr2,5574).
routeCost(harbor0,harbor9,tr4,7432).
routeCost(harbor0,prodloc12,tr12,2220).
routeCost(harbor0,prodloc12,tr14,2960).
routeCost(harbor0,prodloc12,tr2,2220).
routeCost(harbor0,prodloc12,tr4,2960).
routeCost(harbor0,prodloc16,tr12,2472).
routeCost(harbor0,prodloc16,tr14,3296).
routeCost(harbor0,prodloc16,tr2,2472).
routeCost(harbor0,prodloc16,tr4,3296).
routeCost(harbor0,prodloc17,tr12,8076).
routeCost(harbor0,prodloc17,tr14,10768).
routeCost(harbor0,prodloc17,tr2,8076).
routeCost(harbor0,prodloc17,tr4,10768).
routeCost(harbor0,prodloc18,tr0,3848).
routeCost(harbor0,prodloc18,tr12,324).
routeCost(harbor0,prodloc18,tr14,432).
routeCost(harbor0,prodloc18,tr2,324).
routeCost(harbor0,prodloc18,tr4,432).
routeCost(harbor0,prodloc18,tr9,216).
routeCost(harbor0,prodloc2,tr12,4644).
routeCost(harbor0,prodloc2,tr14,6192).
routeCost(harbor0,prodloc2,tr2,4644).
routeCost(harbor0,prodloc2,tr4,6192).
routeCost(harbor0,prodloc20,tr12,1770).
routeCost(harbor0,prodloc20,tr14,2360).
routeCost(harbor0,prodloc20,tr2,1770).
routeCost(harbor0,prodloc20,tr4,2360).
routeCost(harbor0,prodloc21,tr12,6393).
routeCost(harbor0,prodloc21,tr14,8524).
routeCost(harbor0,prodloc21,tr2,6393).
routeCost(harbor0,prodloc21,tr4,8524).
routeCost(harbor0,prodloc22,tr12,4008).
routeCost(harbor0,prodloc22,tr14,5344).
routeCost(harbor0,prodloc22,tr2,4008).
routeCost(harbor0,prodloc22,tr4,5344).
routeCost(harbor0,prodloc24,tr0,494).
routeCost(harbor0,prodloc24,tr12,63).
routeCost(harbor0,prodloc24,tr14,84).
routeCost(harbor0,prodloc24,tr2,63).
routeCost(harbor0,prodloc24,tr4,84).
routeCost(harbor0,prodloc24,tr9,42).
routeCost(harbor0,prodloc26,tr12,5559).
routeCost(harbor0,prodloc26,tr14,7412).
routeCost(harbor0,prodloc26,tr2,5559).
routeCost(harbor0,prodloc26,tr4,7412).
routeCost(harbor0,prodloc27,tr12,2142).
routeCost(harbor0,prodloc27,tr14,2856).
routeCost(harbor0,prodloc27,tr2,2142).
routeCost(harbor0,prodloc27,tr4,2856).
routeCost(harbor0,prodloc3,tr12,3897).
routeCost(harbor0,prodloc3,tr14,5196).
routeCost(harbor0,prodloc3,tr2,3897).
routeCost(harbor0,prodloc3,tr4,5196).
routeCost(harbor0,prodloc31,tr12,5487).
routeCost(harbor0,prodloc31,tr14,7316).
routeCost(harbor0,prodloc31,tr2,5487).
routeCost(harbor0,prodloc31,tr4,7316).
routeCost(harbor0,prodloc32,tr12,7104).
routeCost(harbor0,prodloc32,tr14,9472).
routeCost(harbor0,prodloc32,tr2,7104).
routeCost(harbor0,prodloc32,tr4,9472).
routeCost(harbor0,prodloc33,tr12,2259).
routeCost(harbor0,prodloc33,tr14,3012).
routeCost(harbor0,prodloc33,tr2,2259).
routeCost(harbor0,prodloc33,tr4,3012).
routeCost(harbor0,prodloc34,tr12,1314).
routeCost(harbor0,prodloc34,tr14,1752).
routeCost(harbor0,prodloc34,tr2,1314).
routeCost(harbor0,prodloc34,tr4,1752).
routeCost(harbor0,prodloc40,tr12,657).
routeCost(harbor0,prodloc40,tr14,876).
routeCost(harbor0,prodloc40,tr2,657).
routeCost(harbor0,prodloc40,tr4,876).
routeCost(harbor0,prodloc44,tr12,8535).
routeCost(harbor0,prodloc44,tr14,11380).
routeCost(harbor0,prodloc44,tr2,8535).
routeCost(harbor0,prodloc44,tr4,11380).
routeCost(harbor0,prodloc46,tr12,5289).
routeCost(harbor0,prodloc46,tr14,7052).
routeCost(harbor0,prodloc46,tr2,5289).
routeCost(harbor0,prodloc46,tr4,7052).
routeCost(harbor0,prodloc47,tr12,2217).
routeCost(harbor0,prodloc47,tr14,2956).
routeCost(harbor0,prodloc47,tr2,2217).
routeCost(harbor0,prodloc47,tr4,2956).
routeCost(harbor0,prodloc49,tr12,3780).
routeCost(harbor0,prodloc49,tr14,5040).
routeCost(harbor0,prodloc49,tr2,3780).
routeCost(harbor0,prodloc49,tr4,5040).
routeCost(harbor0,prodloc5,tr12,39).
routeCost(harbor0,prodloc5,tr14,52).
routeCost(harbor0,prodloc5,tr2,39).
routeCost(harbor0,prodloc5,tr4,52).
routeCost(harbor0,prodloc5,tr9,26).
routeCost(harbor0,prodloc6,tr12,297).
routeCost(harbor0,prodloc6,tr14,396).
routeCost(harbor0,prodloc6,tr2,297).
routeCost(harbor0,prodloc6,tr4,396).
routeCost(harbor0,prodloc6,tr9,198).
routeCost(harbor0,prodloc7,tr12,6447).
routeCost(harbor0,prodloc7,tr14,8596).
routeCost(harbor0,prodloc7,tr2,6447).
routeCost(harbor0,prodloc7,tr4,8596).
routeCost(harbor0,prodloc8,tr12,3897).
routeCost(harbor0,prodloc8,tr14,5196).
routeCost(harbor0,prodloc8,tr2,3897).
routeCost(harbor0,prodloc8,tr4,5196).
routeCost(harbor1,harbor10,tr11,27512).
routeCost(harbor1,harbor10,tr13,165072).
routeCost(harbor1,harbor11,tr11,24905).
routeCost(harbor1,harbor11,tr13,149430).
routeCost(harbor1,harbor12,tr11,880).
routeCost(harbor1,harbor12,tr13,5280).
routeCost(harbor1,harbor13,tr11,1433).
routeCost(harbor1,harbor13,tr12,3381).
routeCost(harbor1,harbor13,tr13,8598).
routeCost(harbor1,harbor13,tr14,4508).
routeCost(harbor1,harbor13,tr2,3381).
routeCost(harbor1,harbor13,tr4,4508).
routeCost(harbor1,harbor14,tr11,23346).
routeCost(harbor1,harbor14,tr13,140076).
routeCost(harbor1,harbor15,tr11,25113).
routeCost(harbor1,harbor15,tr13,150678).
routeCost(harbor1,harbor16,tr11,27018).
routeCost(harbor1,harbor16,tr13,162108).
routeCost(harbor1,harbor2,tr11,23623).
routeCost(harbor1,harbor2,tr13,141738).
routeCost(harbor1,harbor3,tr11,27100).
routeCost(harbor1,harbor3,tr13,162600).
routeCost(harbor1,harbor4,tr11,28069).
routeCost(harbor1,harbor4,tr13,168414).
routeCost(harbor1,harbor5,tr11,24879).
routeCost(harbor1,harbor5,tr13,149274).
routeCost(harbor1,harbor6,tr11,23953).
routeCost(harbor1,harbor6,tr13,143718).
routeCost(harbor1,harbor7,tr11,814).
routeCost(harbor1,harbor7,tr13,4884).
routeCost(harbor1,harbor8,tr11,26972).
routeCost(harbor1,harbor8,tr13,161832).
routeCost(harbor1,harbor9,tr11,25454).
routeCost(harbor1,harbor9,tr13,152724).
routeCost(harbor1,prodloc17,tr11,23602).
routeCost(harbor1,prodloc18,tr11,27017).
routeCost(harbor1,prodloc18,tr13,162102).
routeCost(harbor1,prodloc24,tr11,27096).
routeCost(harbor1,prodloc24,tr13,162576).
routeCost(harbor1,prodloc30,tr12,3453).
routeCost(harbor1,prodloc30,tr14,4604).
routeCost(harbor1,prodloc30,tr2,3453).
routeCost(harbor1,prodloc30,tr4,4604).
routeCost(harbor1,prodloc35,tr12,513).
routeCost(harbor1,prodloc35,tr14,684).
routeCost(harbor1,prodloc35,tr2,513).
routeCost(harbor1,prodloc35,tr4,684).
routeCost(harbor1,prodloc35,tr9,342).
routeCost(harbor1,prodloc36,tr12,5988).
routeCost(harbor1,prodloc36,tr14,7984).
routeCost(harbor1,prodloc36,tr2,5988).
routeCost(harbor1,prodloc36,tr4,7984).
routeCost(harbor1,prodloc40,tr11,27284).
routeCost(harbor1,prodloc40,tr13,163704).
routeCost(harbor1,prodloc47,tr11,27707).
routeCost(harbor1,prodloc47,tr13,166242).
routeCost(harbor1,prodloc8,tr11,24879).
routeCost(harbor1,prodloc8,tr13,149274).
routeCost(harbor10,harbor1,tr11,27512).
routeCost(harbor10,harbor1,tr13,165072).
routeCost(harbor10,harbor11,tr11,9602).
routeCost(harbor10,harbor11,tr13,57612).
routeCost(harbor10,harbor12,tr11,28197).
routeCost(harbor10,harbor12,tr13,169182).
routeCost(harbor10,harbor13,tr11,28755).
routeCost(harbor10,harbor13,tr13,172530).
routeCost(harbor10,harbor14,tr11,8278).
routeCost(harbor10,harbor14,tr13,49668).
routeCost(harbor10,harbor15,tr11,9810).
routeCost(harbor10,harbor15,tr13,58860).
routeCost(harbor10,harbor16,tr11,9133).
routeCost(harbor10,harbor16,tr13,54798).
routeCost(harbor10,harbor2,tr11,8320).
routeCost(harbor10,harbor2,tr13,49920).
routeCost(harbor10,harbor3,tr11,9216).
routeCost(harbor10,harbor3,tr13,55296).
routeCost(harbor10,harbor4,tr1,959).
routeCost(harbor10,harbor4,tr11,959).
routeCost(harbor10,harbor4,tr13,5754).
routeCost(harbor10,harbor5,tr11,8388).
routeCost(harbor10,harbor5,tr13,50328).
routeCost(harbor10,harbor5,tr8,897516).
routeCost(harbor10,harbor6,tr11,8122).
routeCost(harbor10,harbor6,tr13,48732).
routeCost(harbor10,harbor7,tr11,26830).
routeCost(harbor10,harbor7,tr13,160980).
routeCost(harbor10,harbor8,tr1,2122).
routeCost(harbor10,harbor8,tr11,2122).
routeCost(harbor10,harbor8,tr13,12732).
routeCost(harbor10,harbor9,tr11,10151).
routeCost(harbor10,harbor9,tr13,60906).
routeCost(harbor10,prodloc17,tr11,8219).
routeCost(harbor10,prodloc18,tr11,9132).
routeCost(harbor10,prodloc18,tr13,54792).
routeCost(harbor10,prodloc24,tr11,9211).
routeCost(harbor10,prodloc24,tr13,55266).
routeCost(harbor10,prodloc40,tr11,9399).
routeCost(harbor10,prodloc40,tr13,56394).
routeCost(harbor10,prodloc41,tr12,18).
routeCost(harbor10,prodloc41,tr14,24).
routeCost(harbor10,prodloc41,tr2,18).
routeCost(harbor10,prodloc41,tr4,24).
routeCost(harbor10,prodloc41,tr7,1668).
routeCost(harbor10,prodloc41,tr9,12).
routeCost(harbor10,prodloc47,tr11,9822).
routeCost(harbor10,prodloc47,tr13,58932).
routeCost(harbor10,prodloc8,tr11,8388).
routeCost(harbor10,prodloc8,tr13,50328).
routeCost(harbor11,harbor0,tr12,4209).
routeCost(harbor11,harbor0,tr14,5612).
routeCost(harbor11,harbor0,tr2,4209).
routeCost(harbor11,harbor0,tr4,5612).
routeCost(harbor11,harbor1,tr11,24905).
routeCost(harbor11,harbor1,tr13,149430).
routeCost(harbor11,harbor10,tr11,9602).
routeCost(harbor11,harbor10,tr13,57612).
routeCost(harbor11,harbor12,tr11,25591).
routeCost(harbor11,harbor12,tr13,153546).
routeCost(harbor11,harbor13,tr11,26149).
routeCost(harbor11,harbor13,tr13,156894).
routeCost(harbor11,harbor14,tr11,1684).
routeCost(harbor11,harbor14,tr13,10104).
routeCost(harbor11,harbor15,tr11,904).
routeCost(harbor11,harbor15,tr13,5424).
routeCost(harbor11,harbor16,tr11,5298).
routeCost(harbor11,harbor16,tr12,3171).
routeCost(harbor11,harbor16,tr13,31788).
routeCost(harbor11,harbor16,tr14,4228).
routeCost(harbor11,harbor16,tr2,3171).
routeCost(harbor11,harbor16,tr4,4228).
routeCost(harbor11,harbor2,tr11,1300).
routeCost(harbor11,harbor2,tr12,4617).
routeCost(harbor11,harbor2,tr13,7800).
routeCost(harbor11,harbor2,tr14,6156).
routeCost(harbor11,harbor2,tr2,4617).
routeCost(harbor11,harbor2,tr4,6156).
routeCost(harbor11,harbor3,tr11,5381).
routeCost(harbor11,harbor3,tr12,4254).
routeCost(harbor11,harbor3,tr13,32286).
routeCost(harbor11,harbor3,tr14,5672).
routeCost(harbor11,harbor3,tr2,4254).
routeCost(harbor11,harbor3,tr4,5672).
routeCost(harbor11,harbor4,tr11,10167).
routeCost(harbor11,harbor4,tr13,61002).
routeCost(harbor11,harbor5,tr11,3138).
routeCost(harbor11,harbor5,tr12,3021).
routeCost(harbor11,harbor5,tr13,18828).
routeCost(harbor11,harbor5,tr14,4028).
routeCost(harbor11,harbor5,tr2,3021).
routeCost(harbor11,harbor5,tr4,4028).
routeCost(harbor11,harbor6,tr11,2177).
routeCost(harbor11,harbor6,tr12,4374).
routeCost(harbor11,harbor6,tr13,13062).
routeCost(harbor11,harbor6,tr14,5832).
routeCost(harbor11,harbor6,tr2,4374).
routeCost(harbor11,harbor6,tr4,5832).
routeCost(harbor11,harbor7,tr11,24224).
routeCost(harbor11,harbor7,tr13,145344).
routeCost(harbor11,harbor8,tr11,8195).
routeCost(harbor11,harbor8,tr13,49170).
routeCost(harbor11,harbor9,tr11,863).
routeCost(harbor11,harbor9,tr12,3249).
routeCost(harbor11,harbor9,tr13,5178).
routeCost(harbor11,harbor9,tr14,4336).
routeCost(harbor11,harbor9,tr2,3252).
routeCost(harbor11,harbor9,tr4,4332).
routeCost(harbor11,prodloc12,tr12,2739).
routeCost(harbor11,prodloc12,tr14,3652).
routeCost(harbor11,prodloc12,tr2,2739).
routeCost(harbor11,prodloc12,tr4,3652).
routeCost(harbor11,prodloc16,tr12,3339).
routeCost(harbor11,prodloc16,tr14,4452).
routeCost(harbor11,prodloc16,tr2,3339).
routeCost(harbor11,prodloc16,tr4,4452).
routeCost(harbor11,prodloc17,tr11,1447).
routeCost(harbor11,prodloc17,tr12,4716).
routeCost(harbor11,prodloc17,tr14,6288).
routeCost(harbor11,prodloc17,tr2,4716).
routeCost(harbor11,prodloc17,tr4,6288).
routeCost(harbor11,prodloc18,tr11,5297).
routeCost(harbor11,prodloc18,tr12,4056).
routeCost(harbor11,prodloc18,tr13,31782).
routeCost(harbor11,prodloc18,tr14,5408).
routeCost(harbor11,prodloc18,tr2,4056).
routeCost(harbor11,prodloc18,tr4,5408).
routeCost(harbor11,prodloc2,tr12,1236).
routeCost(harbor11,prodloc2,tr14,1648).
routeCost(harbor11,prodloc2,tr2,1236).
routeCost(harbor11,prodloc2,tr4,1648).
routeCost(harbor11,prodloc20,tr12,2673).
routeCost(harbor11,prodloc20,tr14,3564).
routeCost(harbor11,prodloc20,tr2,2673).
routeCost(harbor11,prodloc20,tr4,3564).
routeCost(harbor11,prodloc21,tr12,3222).
routeCost(harbor11,prodloc21,tr14,4296).
routeCost(harbor11,prodloc21,tr2,3222).
routeCost(harbor11,prodloc21,tr4,4296).
routeCost(harbor11,prodloc22,tr12,2370).
routeCost(harbor11,prodloc22,tr14,3160).
routeCost(harbor11,prodloc22,tr2,2370).
routeCost(harbor11,prodloc22,tr4,3160).
routeCost(harbor11,prodloc24,tr11,5377).
routeCost(harbor11,prodloc24,tr12,4227).
routeCost(harbor11,prodloc24,tr13,32262).
routeCost(harbor11,prodloc24,tr14,5636).
routeCost(harbor11,prodloc24,tr2,4227).
routeCost(harbor11,prodloc24,tr4,5636).
routeCost(harbor11,prodloc26,tr12,3234).
routeCost(harbor11,prodloc26,tr14,4312).
routeCost(harbor11,prodloc26,tr2,3234).
routeCost(harbor11,prodloc26,tr4,4312).
routeCost(harbor11,prodloc27,tr12,2787).
routeCost(harbor11,prodloc27,tr14,3716).
routeCost(harbor11,prodloc27,tr2,2787).
routeCost(harbor11,prodloc27,tr4,3716).
routeCost(harbor11,prodloc3,tr12,3021).
routeCost(harbor11,prodloc3,tr14,4028).
routeCost(harbor11,prodloc3,tr2,3021).
routeCost(harbor11,prodloc3,tr4,4028).
routeCost(harbor11,prodloc31,tr12,6069).
routeCost(harbor11,prodloc31,tr14,8096).
routeCost(harbor11,prodloc31,tr2,6072).
routeCost(harbor11,prodloc31,tr4,8092).
routeCost(harbor11,prodloc32,tr12,4275).
routeCost(harbor11,prodloc32,tr14,5700).
routeCost(harbor11,prodloc32,tr2,4275).
routeCost(harbor11,prodloc32,tr4,5700).
routeCost(harbor11,prodloc33,tr12,2796).
routeCost(harbor11,prodloc33,tr14,3728).
routeCost(harbor11,prodloc33,tr2,2796).
routeCost(harbor11,prodloc33,tr4,3728).
routeCost(harbor11,prodloc34,tr12,4125).
routeCost(harbor11,prodloc34,tr14,5500).
routeCost(harbor11,prodloc34,tr2,4125).
routeCost(harbor11,prodloc34,tr4,5500).
routeCost(harbor11,prodloc40,tr11,5564).
routeCost(harbor11,prodloc40,tr12,4782).
routeCost(harbor11,prodloc40,tr13,33384).
routeCost(harbor11,prodloc40,tr14,6376).
routeCost(harbor11,prodloc40,tr2,4782).
routeCost(harbor11,prodloc40,tr4,6376).
routeCost(harbor11,prodloc44,tr12,8565).
routeCost(harbor11,prodloc44,tr14,11424).
routeCost(harbor11,prodloc44,tr2,8568).
routeCost(harbor11,prodloc44,tr4,11420).
routeCost(harbor11,prodloc46,tr12,2457).
routeCost(harbor11,prodloc46,tr14,3276).
routeCost(harbor11,prodloc46,tr2,2457).
routeCost(harbor11,prodloc46,tr4,3276).
routeCost(harbor11,prodloc47,tr11,5987).
routeCost(harbor11,prodloc47,tr12,6195).
routeCost(harbor11,prodloc47,tr13,35922).
routeCost(harbor11,prodloc47,tr14,8260).
routeCost(harbor11,prodloc47,tr2,6195).
routeCost(harbor11,prodloc47,tr4,8260).
routeCost(harbor11,prodloc49,tr12,2847).
routeCost(harbor11,prodloc49,tr14,3796).
routeCost(harbor11,prodloc49,tr2,2847).
routeCost(harbor11,prodloc49,tr4,3796).
routeCost(harbor11,prodloc5,tr12,4218).
routeCost(harbor11,prodloc5,tr14,5624).
routeCost(harbor11,prodloc5,tr2,4218).
routeCost(harbor11,prodloc5,tr4,5624).
routeCost(harbor11,prodloc6,tr12,3936).
routeCost(harbor11,prodloc6,tr14,5248).
routeCost(harbor11,prodloc6,tr2,3936).
routeCost(harbor11,prodloc6,tr4,5248).
routeCost(harbor11,prodloc7,tr12,3276).
routeCost(harbor11,prodloc7,tr14,4368).
routeCost(harbor11,prodloc7,tr2,3276).
routeCost(harbor11,prodloc7,tr4,4368).
routeCost(harbor11,prodloc8,tr11,3138).
routeCost(harbor11,prodloc8,tr12,3021).
routeCost(harbor11,prodloc8,tr13,18828).
routeCost(harbor11,prodloc8,tr14,4028).
routeCost(harbor11,prodloc8,tr2,3021).
routeCost(harbor11,prodloc8,tr4,4028).
routeCost(harbor12,harbor1,tr11,880).
routeCost(harbor12,harbor1,tr13,5280).
routeCost(harbor12,harbor10,tr11,28197).
routeCost(harbor12,harbor10,tr13,169182).
routeCost(harbor12,harbor11,tr11,25591).
routeCost(harbor12,harbor11,tr13,153546).
routeCost(harbor12,harbor13,tr11,1193).
routeCost(harbor12,harbor13,tr13,7158).
routeCost(harbor12,harbor14,tr11,24031).
routeCost(harbor12,harbor14,tr13,144186).
routeCost(harbor12,harbor15,tr11,25799).
routeCost(harbor12,harbor15,tr13,154794).
routeCost(harbor12,harbor16,tr11,27704).
routeCost(harbor12,harbor16,tr13,166224).
routeCost(harbor12,harbor2,tr11,24309).
routeCost(harbor12,harbor2,tr13,145854).
routeCost(harbor12,harbor3,tr11,27786).
routeCost(harbor12,harbor3,tr13,166716).
routeCost(harbor12,harbor4,tr11,28755).
routeCost(harbor12,harbor4,tr13,172530).
routeCost(harbor12,harbor5,tr11,25565).
routeCost(harbor12,harbor5,tr13,153390).
routeCost(harbor12,harbor6,tr11,24639).
routeCost(harbor12,harbor6,tr13,147834).
routeCost(harbor12,harbor7,tr11,1500).
routeCost(harbor12,harbor7,tr13,9000).
routeCost(harbor12,harbor8,tr11,27658).
routeCost(harbor12,harbor8,tr13,165948).
routeCost(harbor12,harbor9,tr11,26140).
routeCost(harbor12,harbor9,tr13,156840).
routeCost(harbor12,prodloc17,tr11,24288).
routeCost(harbor12,prodloc18,tr11,27703).
routeCost(harbor12,prodloc18,tr13,166218).
routeCost(harbor12,prodloc24,tr11,27782).
routeCost(harbor12,prodloc24,tr13,166692).
routeCost(harbor12,prodloc40,tr11,27970).
routeCost(harbor12,prodloc40,tr13,167820).
routeCost(harbor12,prodloc42,tr14,72).
routeCost(harbor12,prodloc42,tr2,54).
routeCost(harbor12,prodloc42,tr4,72).
routeCost(harbor12,prodloc42,tr9,36).
routeCost(harbor12,prodloc47,tr11,28393).
routeCost(harbor12,prodloc47,tr13,170358).
routeCost(harbor12,prodloc8,tr11,25565).
routeCost(harbor12,prodloc8,tr13,153390).
routeCost(harbor13,harbor1,tr11,1433).
routeCost(harbor13,harbor1,tr12,3339).
routeCost(harbor13,harbor1,tr13,8598).
routeCost(harbor13,harbor1,tr14,4452).
routeCost(harbor13,harbor1,tr2,3339).
routeCost(harbor13,harbor1,tr4,4452).
routeCost(harbor13,harbor10,tr11,28755).
routeCost(harbor13,harbor10,tr13,172530).
routeCost(harbor13,harbor11,tr11,26149).
routeCost(harbor13,harbor11,tr13,156894).
routeCost(harbor13,harbor12,tr11,1193).
routeCost(harbor13,harbor12,tr13,7158).
routeCost(harbor13,harbor14,tr11,24589).
routeCost(harbor13,harbor14,tr13,147534).
routeCost(harbor13,harbor15,tr11,26357).
routeCost(harbor13,harbor15,tr13,158142).
routeCost(harbor13,harbor16,tr11,28262).
routeCost(harbor13,harbor16,tr13,169572).
routeCost(harbor13,harbor2,tr11,24867).
routeCost(harbor13,harbor2,tr13,149202).
routeCost(harbor13,harbor3,tr11,28344).
routeCost(harbor13,harbor3,tr13,170064).
routeCost(harbor13,harbor3,tr3,3061152).
routeCost(harbor13,harbor4,tr11,29313).
routeCost(harbor13,harbor4,tr13,175878).
routeCost(harbor13,harbor5,tr11,26123).
routeCost(harbor13,harbor5,tr13,156738).
routeCost(harbor13,harbor6,tr11,25197).
routeCost(harbor13,harbor6,tr13,151182).
routeCost(harbor13,harbor7,tr11,2058).
routeCost(harbor13,harbor7,tr13,12348).
routeCost(harbor13,harbor8,tr11,28216).
routeCost(harbor13,harbor8,tr13,169296).
routeCost(harbor13,harbor9,tr11,26698).
routeCost(harbor13,harbor9,tr13,160188).
routeCost(harbor13,prodloc17,tr11,24846).
routeCost(harbor13,prodloc18,tr11,28261).
routeCost(harbor13,prodloc18,tr13,169566).
routeCost(harbor13,prodloc24,tr11,28340).
routeCost(harbor13,prodloc24,tr13,170040).
routeCost(harbor13,prodloc30,tr12,117).
routeCost(harbor13,prodloc30,tr14,156).
routeCost(harbor13,prodloc30,tr2,117).
routeCost(harbor13,prodloc30,tr4,156).
routeCost(harbor13,prodloc30,tr7,10842).
routeCost(harbor13,prodloc30,tr9,78).
routeCost(harbor13,prodloc35,tr12,3402).
routeCost(harbor13,prodloc35,tr14,4536).
routeCost(harbor13,prodloc35,tr2,3402).
routeCost(harbor13,prodloc35,tr4,4536).
routeCost(harbor13,prodloc36,tr12,5538).
routeCost(harbor13,prodloc36,tr14,7384).
routeCost(harbor13,prodloc36,tr2,5538).
routeCost(harbor13,prodloc36,tr4,7384).
routeCost(harbor13,prodloc40,tr11,28528).
routeCost(harbor13,prodloc40,tr13,171168).
routeCost(harbor13,prodloc47,tr11,28951).
routeCost(harbor13,prodloc47,tr13,173706).
routeCost(harbor13,prodloc8,tr11,26123).
routeCost(harbor13,prodloc8,tr13,156738).
routeCost(harbor14,harbor1,tr11,23346).
routeCost(harbor14,harbor1,tr13,140076).
routeCost(harbor14,harbor10,tr11,8278).
routeCost(harbor14,harbor10,tr13,49668).
routeCost(harbor14,harbor11,tr11,1684).
routeCost(harbor14,harbor11,tr13,10104).
routeCost(harbor14,harbor12,tr11,24031).
routeCost(harbor14,harbor12,tr13,144186).
routeCost(harbor14,harbor13,tr11,24589).
routeCost(harbor14,harbor13,tr13,147534).
routeCost(harbor14,harbor15,tr11,1892).
routeCost(harbor14,harbor15,tr13,11352).
routeCost(harbor14,harbor15,tr14,8724).
routeCost(harbor14,harbor15,tr2,6543).
routeCost(harbor14,harbor15,tr4,8836).
routeCost(harbor14,harbor16,tr11,4016).
routeCost(harbor14,harbor16,tr13,24096).
routeCost(harbor14,harbor2,tr11,402).
routeCost(harbor14,harbor2,tr13,2412).
routeCost(harbor14,harbor3,tr11,4098).
routeCost(harbor14,harbor3,tr13,24588).
routeCost(harbor14,harbor4,tr11,8843).
routeCost(harbor14,harbor4,tr13,53058).
routeCost(harbor14,harbor5,tr11,1855).
routeCost(harbor14,harbor5,tr13,11130).
routeCost(harbor14,harbor6,tr11,895).
routeCost(harbor14,harbor6,tr13,5370).
routeCost(harbor14,harbor7,tr11,22664).
routeCost(harbor14,harbor7,tr13,135984).
routeCost(harbor14,harbor8,tr11,6894).
routeCost(harbor14,harbor8,tr13,41364).
routeCost(harbor14,harbor9,tr11,2233).
routeCost(harbor14,harbor9,tr13,13398).
routeCost(harbor14,prodloc1,tr14,120).
routeCost(harbor14,prodloc1,tr2,90).
routeCost(harbor14,prodloc1,tr4,120).
routeCost(harbor14,prodloc1,tr9,60).
routeCost(harbor14,prodloc17,tr11,396).
routeCost(harbor14,prodloc18,tr11,4015).
routeCost(harbor14,prodloc18,tr13,24090).
routeCost(harbor14,prodloc23,tr14,8688).
routeCost(harbor14,prodloc23,tr2,6516).
routeCost(harbor14,prodloc23,tr4,8788).
routeCost(harbor14,prodloc24,tr11,4094).
routeCost(harbor14,prodloc24,tr13,24564).
routeCost(harbor14,prodloc40,tr11,4282).
routeCost(harbor14,prodloc40,tr13,25692).
routeCost(harbor14,prodloc47,tr11,4704).
routeCost(harbor14,prodloc47,tr13,28224).
routeCost(harbor14,prodloc8,tr11,1855).
routeCost(harbor14,prodloc8,tr13,11130).
routeCost(harbor15,harbor1,tr11,25113).
routeCost(harbor15,harbor1,tr13,150678).
routeCost(harbor15,harbor10,tr11,9810).
routeCost(harbor15,harbor10,tr13,58860).
routeCost(harbor15,harbor11,tr11,904).
routeCost(harbor15,harbor11,tr13,5424).
routeCost(harbor15,harbor12,tr11,25799).
routeCost(harbor15,harbor12,tr13,154794).
routeCost(harbor15,harbor13,tr11,26357).
routeCost(harbor15,harbor13,tr13,158142).
routeCost(harbor15,harbor14,tr11,1892).
routeCost(harbor15,harbor14,tr13,11352).
routeCost(harbor15,harbor14,tr14,8708).
routeCost(harbor15,harbor14,tr2,6531).
routeCost(harbor15,harbor14,tr4,8832).
routeCost(harbor15,harbor16,tr11,5506).
routeCost(harbor15,harbor16,tr13,33036).
routeCost(harbor15,harbor2,tr11,1510).
routeCost(harbor15,harbor2,tr13,9060).
routeCost(harbor15,harbor3,tr11,5589).
routeCost(harbor15,harbor3,tr13,33534).
routeCost(harbor15,harbor4,tr11,10375).
routeCost(harbor15,harbor4,tr13,62250).
routeCost(harbor15,harbor5,tr11,3346).
routeCost(harbor15,harbor5,tr13,20076).
routeCost(harbor15,harbor6,tr11,2385).
routeCost(harbor15,harbor6,tr13,14310).
routeCost(harbor15,harbor7,tr11,24432).
routeCost(harbor15,harbor7,tr13,146592).
routeCost(harbor15,harbor8,tr11,8403).
routeCost(harbor15,harbor8,tr13,50418).
routeCost(harbor15,harbor9,tr11,610).
routeCost(harbor15,harbor9,tr13,3660).
routeCost(harbor15,prodloc1,tr14,8768).
routeCost(harbor15,prodloc1,tr2,6576).
routeCost(harbor15,prodloc1,tr4,8892).
routeCost(harbor15,prodloc17,tr11,1655).
routeCost(harbor15,prodloc18,tr11,5505).
routeCost(harbor15,prodloc18,tr13,33030).
routeCost(harbor15,prodloc23,tr12,66).
routeCost(harbor15,prodloc23,tr14,92).
routeCost(harbor15,prodloc23,tr2,69).
routeCost(harbor15,prodloc23,tr4,88).
routeCost(harbor15,prodloc23,tr9,44).
routeCost(harbor15,prodloc24,tr11,5585).
routeCost(harbor15,prodloc24,tr13,33510).
routeCost(harbor15,prodloc40,tr11,5772).
routeCost(harbor15,prodloc40,tr13,34632).
routeCost(harbor15,prodloc47,tr11,6195).
routeCost(harbor15,prodloc47,tr13,37170).
routeCost(harbor15,prodloc8,tr11,3346).
routeCost(harbor15,prodloc8,tr13,20076).
routeCost(harbor16,harbor0,tr12,2085).
routeCost(harbor16,harbor0,tr14,2780).
routeCost(harbor16,harbor0,tr2,2085).
routeCost(harbor16,harbor0,tr4,2780).
routeCost(harbor16,harbor1,tr11,27018).
routeCost(harbor16,harbor1,tr13,162108).
routeCost(harbor16,harbor10,tr11,9133).
routeCost(harbor16,harbor10,tr13,54798).
routeCost(harbor16,harbor11,tr11,5298).
routeCost(harbor16,harbor11,tr12,3168).
routeCost(harbor16,harbor11,tr13,31788).
routeCost(harbor16,harbor11,tr14,4224).
routeCost(harbor16,harbor11,tr2,3168).
routeCost(harbor16,harbor11,tr4,4224).
routeCost(harbor16,harbor12,tr11,27704).
routeCost(harbor16,harbor12,tr13,166224).
routeCost(harbor16,harbor13,tr11,28262).
routeCost(harbor16,harbor13,tr13,169572).
routeCost(harbor16,harbor14,tr11,4016).
routeCost(harbor16,harbor14,tr13,24096).
routeCost(harbor16,harbor15,tr11,5506).
routeCost(harbor16,harbor15,tr13,33036).
routeCost(harbor16,harbor2,tr11,4016).
routeCost(harbor16,harbor2,tr12,6477).
routeCost(harbor16,harbor2,tr13,24096).
routeCost(harbor16,harbor2,tr14,8636).
routeCost(harbor16,harbor2,tr2,6477).
routeCost(harbor16,harbor2,tr4,8636).
routeCost(harbor16,harbor3,tr11,695).
routeCost(harbor16,harbor3,tr12,2130).
routeCost(harbor16,harbor3,tr13,4170).
routeCost(harbor16,harbor3,tr14,2840).
routeCost(harbor16,harbor3,tr2,2130).
routeCost(harbor16,harbor3,tr4,2840).
routeCost(harbor16,harbor4,tr11,9698).
routeCost(harbor16,harbor4,tr13,58188).
routeCost(harbor16,harbor5,tr11,2596).
routeCost(harbor16,harbor5,tr12,2034).
routeCost(harbor16,harbor5,tr13,15576).
routeCost(harbor16,harbor5,tr14,2712).
routeCost(harbor16,harbor5,tr2,2034).
routeCost(harbor16,harbor5,tr4,2712).
routeCost(harbor16,harbor6,tr11,3146).
routeCost(harbor16,harbor6,tr12,5457).
routeCost(harbor16,harbor6,tr13,18876).
routeCost(harbor16,harbor6,tr14,7276).
routeCost(harbor16,harbor6,tr2,5457).
routeCost(harbor16,harbor6,tr4,7276).
routeCost(harbor16,harbor7,tr11,26337).
routeCost(harbor16,harbor7,tr13,158022).
routeCost(harbor16,harbor8,tr11,7460).
routeCost(harbor16,harbor8,tr13,44760).
routeCost(harbor16,harbor9,tr11,5847).
routeCost(harbor16,harbor9,tr12,5301).
routeCost(harbor16,harbor9,tr13,35082).
routeCost(harbor16,harbor9,tr14,7068).
routeCost(harbor16,harbor9,tr2,5301).
routeCost(harbor16,harbor9,tr4,7068).
routeCost(harbor16,prodloc12,tr12,417).
routeCost(harbor16,prodloc12,tr14,556).
routeCost(harbor16,prodloc12,tr2,417).
routeCost(harbor16,prodloc12,tr4,556).
routeCost(harbor16,prodloc12,tr9,278).
routeCost(harbor16,prodloc16,tr12,3090).
routeCost(harbor16,prodloc16,tr14,4120).
routeCost(harbor16,prodloc16,tr2,3090).
routeCost(harbor16,prodloc16,tr4,4120).
routeCost(harbor16,prodloc17,tr11,3895).
routeCost(harbor16,prodloc17,tr12,6327).
routeCost(harbor16,prodloc17,tr14,8436).
routeCost(harbor16,prodloc17,tr2,6327).
routeCost(harbor16,prodloc17,tr4,8436).
routeCost(harbor16,prodloc18,tr11,603).
routeCost(harbor16,prodloc18,tr12,1932).
routeCost(harbor16,prodloc18,tr13,3618).
routeCost(harbor16,prodloc18,tr14,2576).
routeCost(harbor16,prodloc18,tr2,1932).
routeCost(harbor16,prodloc18,tr4,2576).
routeCost(harbor16,prodloc2,tr12,2892).
routeCost(harbor16,prodloc2,tr14,3856).
routeCost(harbor16,prodloc2,tr2,2892).
routeCost(harbor16,prodloc2,tr4,3856).
routeCost(harbor16,prodloc20,tr12,1764).
routeCost(harbor16,prodloc20,tr14,2352).
routeCost(harbor16,prodloc20,tr2,1764).
routeCost(harbor16,prodloc20,tr4,2352).
routeCost(harbor16,prodloc21,tr12,4644).
routeCost(harbor16,prodloc21,tr14,6192).
routeCost(harbor16,prodloc21,tr2,4644).
routeCost(harbor16,prodloc21,tr4,6192).
routeCost(harbor16,prodloc22,tr12,2256).
routeCost(harbor16,prodloc22,tr14,3008).
routeCost(harbor16,prodloc22,tr2,2256).
routeCost(harbor16,prodloc22,tr4,3008).
routeCost(harbor16,prodloc24,tr11,690).
routeCost(harbor16,prodloc24,tr12,2103).
routeCost(harbor16,prodloc24,tr13,4140).
routeCost(harbor16,prodloc24,tr14,2804).
routeCost(harbor16,prodloc24,tr2,2103).
routeCost(harbor16,prodloc24,tr4,2804).
routeCost(harbor16,prodloc26,tr12,5283).
routeCost(harbor16,prodloc26,tr14,7044).
routeCost(harbor16,prodloc26,tr2,5283).
routeCost(harbor16,prodloc26,tr4,7044).
routeCost(harbor16,prodloc27,tr12,2472).
routeCost(harbor16,prodloc27,tr14,3296).
routeCost(harbor16,prodloc27,tr2,2472).
routeCost(harbor16,prodloc27,tr4,3296).
routeCost(harbor16,prodloc3,tr12,2034).
routeCost(harbor16,prodloc3,tr14,2712).
routeCost(harbor16,prodloc3,tr2,2034).
routeCost(harbor16,prodloc3,tr4,2712).
routeCost(harbor16,prodloc31,tr12,6579).
routeCost(harbor16,prodloc31,tr14,8772).
routeCost(harbor16,prodloc31,tr2,6579).
routeCost(harbor16,prodloc31,tr4,8772).
routeCost(harbor16,prodloc32,tr12,5355).
routeCost(harbor16,prodloc32,tr14,7140).
routeCost(harbor16,prodloc32,tr2,5355).
routeCost(harbor16,prodloc32,tr4,7140).
routeCost(harbor16,prodloc33,tr12,2619).
routeCost(harbor16,prodloc33,tr14,3492).
routeCost(harbor16,prodloc33,tr2,2619).
routeCost(harbor16,prodloc33,tr4,3492).
routeCost(harbor16,prodloc34,tr12,2556).
routeCost(harbor16,prodloc34,tr14,3408).
routeCost(harbor16,prodloc34,tr2,2556).
routeCost(harbor16,prodloc34,tr4,3408).
routeCost(harbor16,prodloc40,tr11,878).
routeCost(harbor16,prodloc40,tr12,2658).
routeCost(harbor16,prodloc40,tr13,5268).
routeCost(harbor16,prodloc40,tr14,3544).
routeCost(harbor16,prodloc40,tr2,2658).
routeCost(harbor16,prodloc40,tr4,3544).
routeCost(harbor16,prodloc44,tr12,9624).
routeCost(harbor16,prodloc44,tr14,12832).
routeCost(harbor16,prodloc44,tr2,9624).
routeCost(harbor16,prodloc44,tr4,12832).
routeCost(harbor16,prodloc46,tr12,3537).
routeCost(harbor16,prodloc46,tr14,4716).
routeCost(harbor16,prodloc46,tr2,3537).
routeCost(harbor16,prodloc46,tr4,4716).
routeCost(harbor16,prodloc47,tr11,1368).
routeCost(harbor16,prodloc47,tr12,4137).
routeCost(harbor16,prodloc47,tr13,8208).
routeCost(harbor16,prodloc47,tr14,5516).
routeCost(harbor16,prodloc47,tr2,4137).
routeCost(harbor16,prodloc47,tr4,5516).
routeCost(harbor16,prodloc49,tr12,1917).
routeCost(harbor16,prodloc49,tr14,2556).
routeCost(harbor16,prodloc49,tr2,1917).
routeCost(harbor16,prodloc49,tr4,2556).
routeCost(harbor16,prodloc5,tr12,2094).
routeCost(harbor16,prodloc5,tr14,2792).
routeCost(harbor16,prodloc5,tr2,2094).
routeCost(harbor16,prodloc5,tr4,2792).
routeCost(harbor16,prodloc6,tr12,1812).
routeCost(harbor16,prodloc6,tr14,2416).
routeCost(harbor16,prodloc6,tr2,1812).
routeCost(harbor16,prodloc6,tr4,2416).
routeCost(harbor16,prodloc7,tr12,4698).
routeCost(harbor16,prodloc7,tr14,6264).
routeCost(harbor16,prodloc7,tr2,4698).
routeCost(harbor16,prodloc7,tr4,6264).
routeCost(harbor16,prodloc8,tr11,2596).
routeCost(harbor16,prodloc8,tr12,2034).
routeCost(harbor16,prodloc8,tr13,15576).
routeCost(harbor16,prodloc8,tr14,2712).
routeCost(harbor16,prodloc8,tr2,2034).
routeCost(harbor16,prodloc8,tr4,2712).
routeCost(harbor2,harbor0,tr12,8199).
routeCost(harbor2,harbor0,tr14,10932).
routeCost(harbor2,harbor0,tr2,8199).
routeCost(harbor2,harbor0,tr4,10932).
routeCost(harbor2,harbor1,tr11,23623).
routeCost(harbor2,harbor1,tr13,141738).
routeCost(harbor2,harbor10,tr11,8320).
routeCost(harbor2,harbor10,tr13,49920).
routeCost(harbor2,harbor11,tr11,1300).
routeCost(harbor2,harbor11,tr12,4614).
routeCost(harbor2,harbor11,tr13,7800).
routeCost(harbor2,harbor11,tr14,6152).
routeCost(harbor2,harbor11,tr2,4614).
routeCost(harbor2,harbor11,tr4,6152).
routeCost(harbor2,harbor12,tr11,24309).
routeCost(harbor2,harbor12,tr13,145854).
routeCost(harbor2,harbor13,tr11,24867).
routeCost(harbor2,harbor13,tr13,149202).
routeCost(harbor2,harbor14,tr11,402).
routeCost(harbor2,harbor14,tr13,2412).
routeCost(harbor2,harbor15,tr11,1510).
routeCost(harbor2,harbor15,tr13,9060).
routeCost(harbor2,harbor16,tr11,4016).
routeCost(harbor2,harbor16,tr12,6471).
routeCost(harbor2,harbor16,tr13,24096).
routeCost(harbor2,harbor16,tr14,8628).
routeCost(harbor2,harbor16,tr2,6471).
routeCost(harbor2,harbor16,tr4,8628).
routeCost(harbor2,harbor3,tr11,4099).
routeCost(harbor2,harbor3,tr12,8247).
routeCost(harbor2,harbor3,tr13,24594).
routeCost(harbor2,harbor3,tr14,10996).
routeCost(harbor2,harbor3,tr2,8247).
routeCost(harbor2,harbor3,tr4,10996).
routeCost(harbor2,harbor4,tr11,8885).
routeCost(harbor2,harbor4,tr13,53310).
routeCost(harbor2,harbor5,tr11,1856).
routeCost(harbor2,harbor5,tr12,5037).
routeCost(harbor2,harbor5,tr13,11136).
routeCost(harbor2,harbor5,tr14,6716).
routeCost(harbor2,harbor5,tr2,5037).
routeCost(harbor2,harbor5,tr4,6716).
routeCost(harbor2,harbor6,tr11,895).
routeCost(harbor2,harbor6,tr12,2298).
routeCost(harbor2,harbor6,tr13,5370).
routeCost(harbor2,harbor6,tr14,3064).
routeCost(harbor2,harbor6,tr2,2298).
routeCost(harbor2,harbor6,tr4,3064).
routeCost(harbor2,harbor7,tr11,22942).
routeCost(harbor2,harbor7,tr13,137652).
routeCost(harbor2,harbor8,tr11,6913).
routeCost(harbor2,harbor8,tr13,41478).
routeCost(harbor2,harbor9,tr11,1851).
routeCost(harbor2,harbor9,tr12,7773).
routeCost(harbor2,harbor9,tr13,11106).
routeCost(harbor2,harbor9,tr14,10364).
routeCost(harbor2,harbor9,tr2,7773).
routeCost(harbor2,harbor9,tr4,10364).
routeCost(harbor2,prodloc12,tr12,6042).
routeCost(harbor2,prodloc12,tr14,8056).
routeCost(harbor2,prodloc12,tr2,6042).
routeCost(harbor2,prodloc12,tr4,8056).
routeCost(harbor2,prodloc16,tr12,7551).
routeCost(harbor2,prodloc16,tr14,10068).
routeCost(harbor2,prodloc16,tr2,7551).
routeCost(harbor2,prodloc16,tr4,10068).
routeCost(harbor2,prodloc17,tr11,165).
routeCost(harbor2,prodloc17,tr12,333).
routeCost(harbor2,prodloc17,tr14,444).
routeCost(harbor2,prodloc17,tr2,333).
routeCost(harbor2,prodloc17,tr4,444).
routeCost(harbor2,prodloc17,tr9,222).
routeCost(harbor2,prodloc18,tr11,4015).
routeCost(harbor2,prodloc18,tr12,8046).
routeCost(harbor2,prodloc18,tr13,24090).
routeCost(harbor2,prodloc18,tr14,10728).
routeCost(harbor2,prodloc18,tr2,8046).
routeCost(harbor2,prodloc18,tr4,10728).
routeCost(harbor2,prodloc2,tr12,3945).
routeCost(harbor2,prodloc2,tr14,5260).
routeCost(harbor2,prodloc2,tr2,3945).
routeCost(harbor2,prodloc2,tr4,5260).
routeCost(harbor2,prodloc20,tr12,6765).
routeCost(harbor2,prodloc20,tr14,9020).
routeCost(harbor2,prodloc20,tr2,6765).
routeCost(harbor2,prodloc20,tr4,9020).
routeCost(harbor2,prodloc21,tr12,1842).
routeCost(harbor2,prodloc21,tr14,2456).
routeCost(harbor2,prodloc21,tr2,1842).
routeCost(harbor2,prodloc21,tr4,2456).
routeCost(harbor2,prodloc22,tr12,4386).
routeCost(harbor2,prodloc22,tr14,5848).
routeCost(harbor2,prodloc22,tr2,4386).
routeCost(harbor2,prodloc22,tr4,5848).
routeCost(harbor2,prodloc24,tr11,4095).
routeCost(harbor2,prodloc24,tr12,8220).
routeCost(harbor2,prodloc24,tr13,24570).
routeCost(harbor2,prodloc24,tr14,10960).
routeCost(harbor2,prodloc24,tr2,8220).
routeCost(harbor2,prodloc24,tr4,10960).
routeCost(harbor2,prodloc26,tr12,7758).
routeCost(harbor2,prodloc26,tr14,10344).
routeCost(harbor2,prodloc26,tr2,7758).
routeCost(harbor2,prodloc26,tr4,10344).
routeCost(harbor2,prodloc27,tr12,7005).
routeCost(harbor2,prodloc27,tr14,9340).
routeCost(harbor2,prodloc27,tr2,7005).
routeCost(harbor2,prodloc27,tr4,9340).
routeCost(harbor2,prodloc3,tr12,5037).
routeCost(harbor2,prodloc3,tr14,6716).
routeCost(harbor2,prodloc3,tr2,5037).
routeCost(harbor2,prodloc3,tr4,6716).
routeCost(harbor2,prodloc31,tr12,10593).
routeCost(harbor2,prodloc31,tr14,14124).
routeCost(harbor2,prodloc31,tr2,10593).
routeCost(harbor2,prodloc31,tr4,14124).
routeCost(harbor2,prodloc32,tr12,2349).
routeCost(harbor2,prodloc32,tr14,3132).
routeCost(harbor2,prodloc32,tr2,2349).
routeCost(harbor2,prodloc32,tr4,3132).
routeCost(harbor2,prodloc33,tr12,7014).
routeCost(harbor2,prodloc33,tr14,9352).
routeCost(harbor2,prodloc33,tr2,7014).
routeCost(harbor2,prodloc33,tr4,9352).
routeCost(harbor2,prodloc34,tr12,8217).
routeCost(harbor2,prodloc34,tr14,10956).
routeCost(harbor2,prodloc34,tr2,8217).
routeCost(harbor2,prodloc34,tr4,10956).
routeCost(harbor2,prodloc40,tr11,4283).
routeCost(harbor2,prodloc40,tr12,8775).
routeCost(harbor2,prodloc40,tr13,25698).
routeCost(harbor2,prodloc40,tr14,11700).
routeCost(harbor2,prodloc40,tr2,8775).
routeCost(harbor2,prodloc40,tr4,11700).
routeCost(harbor2,prodloc44,tr12,13089).
routeCost(harbor2,prodloc44,tr14,17452).
routeCost(harbor2,prodloc44,tr2,13089).
routeCost(harbor2,prodloc44,tr4,17452).
routeCost(harbor2,prodloc46,tr12,2931).
routeCost(harbor2,prodloc46,tr14,3908).
routeCost(harbor2,prodloc46,tr2,2931).
routeCost(harbor2,prodloc46,tr4,3908).
routeCost(harbor2,prodloc47,tr11,4705).
routeCost(harbor2,prodloc47,tr12,10287).
routeCost(harbor2,prodloc47,tr13,28230).
routeCost(harbor2,prodloc47,tr14,13716).
routeCost(harbor2,prodloc47,tr2,10287).
routeCost(harbor2,prodloc47,tr4,13716).
routeCost(harbor2,prodloc49,tr12,4863).
routeCost(harbor2,prodloc49,tr14,6484).
routeCost(harbor2,prodloc49,tr2,4863).
routeCost(harbor2,prodloc49,tr4,6484).
routeCost(harbor2,prodloc5,tr12,8208).
routeCost(harbor2,prodloc5,tr14,10944).
routeCost(harbor2,prodloc5,tr2,8208).
routeCost(harbor2,prodloc5,tr4,10944).
routeCost(harbor2,prodloc6,tr12,7926).
routeCost(harbor2,prodloc6,tr14,10568).
routeCost(harbor2,prodloc6,tr2,7926).
routeCost(harbor2,prodloc6,tr4,10568).
routeCost(harbor2,prodloc7,tr12,1839).
routeCost(harbor2,prodloc7,tr14,2452).
routeCost(harbor2,prodloc7,tr2,1839).
routeCost(harbor2,prodloc7,tr4,2452).
routeCost(harbor2,prodloc8,tr11,1856).
routeCost(harbor2,prodloc8,tr12,5037).
routeCost(harbor2,prodloc8,tr13,11136).
routeCost(harbor2,prodloc8,tr14,6716).
routeCost(harbor2,prodloc8,tr2,5037).
routeCost(harbor2,prodloc8,tr4,6716).
routeCost(harbor3,harbor0,tr12,90).
routeCost(harbor3,harbor0,tr14,120).
routeCost(harbor3,harbor0,tr2,90).
routeCost(harbor3,harbor0,tr4,120).
routeCost(harbor3,harbor1,tr11,27100).
routeCost(harbor3,harbor1,tr13,162600).
routeCost(harbor3,harbor10,tr11,9216).
routeCost(harbor3,harbor10,tr13,55296).
routeCost(harbor3,harbor11,tr11,5381).
routeCost(harbor3,harbor11,tr12,4239).
routeCost(harbor3,harbor11,tr13,32286).
routeCost(harbor3,harbor11,tr14,5652).
routeCost(harbor3,harbor11,tr2,4239).
routeCost(harbor3,harbor11,tr4,5652).
routeCost(harbor3,harbor12,tr11,27786).
routeCost(harbor3,harbor12,tr13,166716).
routeCost(harbor3,harbor13,tr11,28344).
routeCost(harbor3,harbor13,tr13,170064).
routeCost(harbor3,harbor13,tr3,3061152).
routeCost(harbor3,harbor14,tr11,4098).
routeCost(harbor3,harbor14,tr13,24588).
routeCost(harbor3,harbor15,tr11,5589).
routeCost(harbor3,harbor15,tr13,33534).
routeCost(harbor3,harbor16,tr11,695).
routeCost(harbor3,harbor16,tr12,2109).
routeCost(harbor3,harbor16,tr13,4170).
routeCost(harbor3,harbor16,tr14,2812).
routeCost(harbor3,harbor16,tr2,2109).
routeCost(harbor3,harbor16,tr4,2812).
routeCost(harbor3,harbor2,tr11,4099).
routeCost(harbor3,harbor2,tr12,8256).
routeCost(harbor3,harbor2,tr13,24594).
routeCost(harbor3,harbor2,tr14,11008).
routeCost(harbor3,harbor2,tr2,8256).
routeCost(harbor3,harbor2,tr4,11008).
routeCost(harbor3,harbor4,tr11,9781).
routeCost(harbor3,harbor4,tr13,58686).
routeCost(harbor3,harbor5,tr11,2678).
routeCost(harbor3,harbor5,tr12,3927).
routeCost(harbor3,harbor5,tr13,16068).
routeCost(harbor3,harbor5,tr14,5236).
routeCost(harbor3,harbor5,tr2,3927).
routeCost(harbor3,harbor5,tr4,5236).
routeCost(harbor3,harbor6,tr11,3228).
routeCost(harbor3,harbor6,tr12,7236).
routeCost(harbor3,harbor6,tr13,19368).
routeCost(harbor3,harbor6,tr14,9648).
routeCost(harbor3,harbor6,tr2,7236).
routeCost(harbor3,harbor6,tr4,9648).
routeCost(harbor3,harbor7,tr11,26419).
routeCost(harbor3,harbor7,tr13,158514).
routeCost(harbor3,harbor8,tr11,7543).
routeCost(harbor3,harbor8,tr13,45258).
routeCost(harbor3,harbor9,tr11,5930).
routeCost(harbor3,harbor9,tr12,5562).
routeCost(harbor3,harbor9,tr13,35580).
routeCost(harbor3,harbor9,tr14,7416).
routeCost(harbor3,harbor9,tr2,5562).
routeCost(harbor3,harbor9,tr4,7416).
routeCost(harbor3,prodloc12,tr12,2253).
routeCost(harbor3,prodloc12,tr14,3004).
routeCost(harbor3,prodloc12,tr2,2253).
routeCost(harbor3,prodloc12,tr4,3004).
routeCost(harbor3,prodloc16,tr12,2430).
routeCost(harbor3,prodloc16,tr14,3240).
routeCost(harbor3,prodloc16,tr2,2430).
routeCost(harbor3,prodloc16,tr4,3240).
routeCost(harbor3,prodloc17,tr11,3978).
routeCost(harbor3,prodloc17,tr12,8106).
routeCost(harbor3,prodloc17,tr14,10808).
routeCost(harbor3,prodloc17,tr2,8106).
routeCost(harbor3,prodloc17,tr4,10808).
routeCost(harbor3,prodloc18,tr0,4082).
routeCost(harbor3,prodloc18,tr11,157).
routeCost(harbor3,prodloc18,tr12,411).
routeCost(harbor3,prodloc18,tr13,942).
routeCost(harbor3,prodloc18,tr14,544).
routeCost(harbor3,prodloc18,tr2,408).
routeCost(harbor3,prodloc18,tr4,548).
routeCost(harbor3,prodloc18,tr9,274).
routeCost(harbor3,prodloc2,tr12,4674).
routeCost(harbor3,prodloc2,tr14,6232).
routeCost(harbor3,prodloc2,tr2,4674).
routeCost(harbor3,prodloc2,tr4,6232).
routeCost(harbor3,prodloc20,tr12,1758).
routeCost(harbor3,prodloc20,tr14,2344).
routeCost(harbor3,prodloc20,tr2,1758).
routeCost(harbor3,prodloc20,tr4,2344).
routeCost(harbor3,prodloc21,tr12,6426).
routeCost(harbor3,prodloc21,tr14,8568).
routeCost(harbor3,prodloc21,tr2,6426).
routeCost(harbor3,prodloc21,tr4,8568).
routeCost(harbor3,prodloc22,tr12,4038).
routeCost(harbor3,prodloc22,tr14,5384).
routeCost(harbor3,prodloc22,tr2,4038).
routeCost(harbor3,prodloc22,tr4,5384).
routeCost(harbor3,prodloc24,tr0,260).
routeCost(harbor3,prodloc24,tr11,10).
routeCost(harbor3,prodloc24,tr12,30).
routeCost(harbor3,prodloc24,tr13,60).
routeCost(harbor3,prodloc24,tr14,40).
routeCost(harbor3,prodloc24,tr2,30).
routeCost(harbor3,prodloc24,tr4,40).
routeCost(harbor3,prodloc24,tr9,20).
routeCost(harbor3,prodloc26,tr12,5544).
routeCost(harbor3,prodloc26,tr14,7392).
routeCost(harbor3,prodloc26,tr2,5544).
routeCost(harbor3,prodloc26,tr4,7392).
routeCost(harbor3,prodloc27,tr12,2130).
routeCost(harbor3,prodloc27,tr14,2840).
routeCost(harbor3,prodloc27,tr2,2130).
routeCost(harbor3,prodloc27,tr4,2840).
routeCost(harbor3,prodloc3,tr12,3927).
routeCost(harbor3,prodloc3,tr14,5236).
routeCost(harbor3,prodloc3,tr2,3927).
routeCost(harbor3,prodloc3,tr4,5236).
routeCost(harbor3,prodloc31,tr12,5448).
routeCost(harbor3,prodloc31,tr14,7264).
routeCost(harbor3,prodloc31,tr2,5448).
routeCost(harbor3,prodloc31,tr4,7264).
routeCost(harbor3,prodloc32,tr12,7137).
routeCost(harbor3,prodloc32,tr14,9516).
routeCost(harbor3,prodloc32,tr2,7137).
routeCost(harbor3,prodloc32,tr4,9516).
routeCost(harbor3,prodloc33,tr12,2247).
routeCost(harbor3,prodloc33,tr14,2996).
routeCost(harbor3,prodloc33,tr2,2247).
routeCost(harbor3,prodloc33,tr4,2996).
routeCost(harbor3,prodloc34,tr12,1272).
routeCost(harbor3,prodloc34,tr14,1696).
routeCost(harbor3,prodloc34,tr2,1272).
routeCost(harbor3,prodloc34,tr4,1696).
routeCost(harbor3,prodloc40,tr11,321).
routeCost(harbor3,prodloc40,tr12,591).
routeCost(harbor3,prodloc40,tr13,1926).
routeCost(harbor3,prodloc40,tr14,788).
routeCost(harbor3,prodloc40,tr2,591).
routeCost(harbor3,prodloc40,tr4,788).
routeCost(harbor3,prodloc40,tr9,394).
routeCost(harbor3,prodloc44,tr12,8493).
routeCost(harbor3,prodloc44,tr14,11324).
routeCost(harbor3,prodloc44,tr2,8493).
routeCost(harbor3,prodloc44,tr4,11324).
routeCost(harbor3,prodloc46,tr12,5319).
routeCost(harbor3,prodloc46,tr14,7092).
routeCost(harbor3,prodloc46,tr2,5319).
routeCost(harbor3,prodloc46,tr4,7092).
routeCost(harbor3,prodloc47,tr11,811).
routeCost(harbor3,prodloc47,tr12,2151).
routeCost(harbor3,prodloc47,tr13,4866).
routeCost(harbor3,prodloc47,tr14,2868).
routeCost(harbor3,prodloc47,tr2,2151).
routeCost(harbor3,prodloc47,tr4,2868).
routeCost(harbor3,prodloc49,tr12,3810).
routeCost(harbor3,prodloc49,tr14,5080).
routeCost(harbor3,prodloc49,tr2,3810).
routeCost(harbor3,prodloc49,tr4,5080).
routeCost(harbor3,prodloc5,tr12,114).
routeCost(harbor3,prodloc5,tr14,152).
routeCost(harbor3,prodloc5,tr2,114).
routeCost(harbor3,prodloc5,tr4,152).
routeCost(harbor3,prodloc5,tr9,76).
routeCost(harbor3,prodloc6,tr12,327).
routeCost(harbor3,prodloc6,tr14,436).
routeCost(harbor3,prodloc6,tr2,327).
routeCost(harbor3,prodloc6,tr4,436).
routeCost(harbor3,prodloc6,tr9,218).
routeCost(harbor3,prodloc7,tr12,6477).
routeCost(harbor3,prodloc7,tr14,8636).
routeCost(harbor3,prodloc7,tr2,6477).
routeCost(harbor3,prodloc7,tr4,8636).
routeCost(harbor3,prodloc8,tr11,2678).
routeCost(harbor3,prodloc8,tr12,3927).
routeCost(harbor3,prodloc8,tr13,16068).
routeCost(harbor3,prodloc8,tr14,5236).
routeCost(harbor3,prodloc8,tr2,3927).
routeCost(harbor3,prodloc8,tr4,5236).
routeCost(harbor4,harbor1,tr11,28069).
routeCost(harbor4,harbor1,tr13,168414).
routeCost(harbor4,harbor10,tr1,959).
routeCost(harbor4,harbor10,tr11,959).
routeCost(harbor4,harbor10,tr13,5754).
routeCost(harbor4,harbor11,tr11,10167).
routeCost(harbor4,harbor11,tr13,61002).
routeCost(harbor4,harbor12,tr11,28755).
routeCost(harbor4,harbor12,tr13,172530).
routeCost(harbor4,harbor13,tr11,29313).
routeCost(harbor4,harbor13,tr13,175878).
routeCost(harbor4,harbor14,tr11,8843).
routeCost(harbor4,harbor14,tr13,53058).
routeCost(harbor4,harbor15,tr11,10375).
routeCost(harbor4,harbor15,tr13,62250).
routeCost(harbor4,harbor16,tr11,9698).
routeCost(harbor4,harbor16,tr13,58188).
routeCost(harbor4,harbor2,tr11,8885).
routeCost(harbor4,harbor2,tr13,53310).
routeCost(harbor4,harbor3,tr11,9781).
routeCost(harbor4,harbor3,tr13,58686).
routeCost(harbor4,harbor5,tr11,8953).
routeCost(harbor4,harbor5,tr13,53718).
routeCost(harbor4,harbor6,tr11,8687).
routeCost(harbor4,harbor6,tr13,52122).
routeCost(harbor4,harbor7,tr11,27388).
routeCost(harbor4,harbor7,tr13,164328).
routeCost(harbor4,harbor8,tr1,2688).
routeCost(harbor4,harbor8,tr11,2688).
routeCost(harbor4,harbor8,tr13,16128).
routeCost(harbor4,harbor9,tr11,10716).
routeCost(harbor4,harbor9,tr13,64296).
routeCost(harbor4,prodloc17,tr11,8784).
routeCost(harbor4,prodloc18,tr11,9697).
routeCost(harbor4,prodloc18,tr13,58182).
routeCost(harbor4,prodloc24,tr11,9777).
routeCost(harbor4,prodloc24,tr13,58662).
routeCost(harbor4,prodloc40,tr11,9964).
routeCost(harbor4,prodloc40,tr13,59784).
routeCost(harbor4,prodloc47,tr11,10387).
routeCost(harbor4,prodloc47,tr13,62322).
routeCost(harbor4,prodloc8,tr11,8953).
routeCost(harbor4,prodloc8,tr13,53718).
routeCost(harbor5,harbor0,tr12,3876).
routeCost(harbor5,harbor0,tr14,5168).
routeCost(harbor5,harbor0,tr2,3876).
routeCost(harbor5,harbor0,tr4,5168).
routeCost(harbor5,harbor1,tr11,24879).
routeCost(harbor5,harbor1,tr13,149274).
routeCost(harbor5,harbor10,tr11,8388).
routeCost(harbor5,harbor10,tr13,50328).
routeCost(harbor5,harbor10,tr8,897516).
routeCost(harbor5,harbor11,tr11,3138).
routeCost(harbor5,harbor11,tr12,3018).
routeCost(harbor5,harbor11,tr13,18828).
routeCost(harbor5,harbor11,tr14,4024).
routeCost(harbor5,harbor11,tr2,3018).
routeCost(harbor5,harbor11,tr4,4024).
routeCost(harbor5,harbor12,tr11,25565).
routeCost(harbor5,harbor12,tr13,153390).
routeCost(harbor5,harbor13,tr11,26123).
routeCost(harbor5,harbor13,tr13,156738).
routeCost(harbor5,harbor14,tr11,1855).
routeCost(harbor5,harbor14,tr13,11130).
routeCost(harbor5,harbor15,tr11,3346).
routeCost(harbor5,harbor15,tr13,20076).
routeCost(harbor5,harbor16,tr11,2596).
routeCost(harbor5,harbor16,tr12,2034).
routeCost(harbor5,harbor16,tr13,15576).
routeCost(harbor5,harbor16,tr14,2712).
routeCost(harbor5,harbor16,tr2,2034).
routeCost(harbor5,harbor16,tr4,2712).
routeCost(harbor5,harbor2,tr11,1856).
routeCost(harbor5,harbor2,tr12,5040).
routeCost(harbor5,harbor2,tr13,11136).
routeCost(harbor5,harbor2,tr14,6720).
routeCost(harbor5,harbor2,tr2,5040).
routeCost(harbor5,harbor2,tr4,6720).
routeCost(harbor5,harbor3,tr11,2678).
routeCost(harbor5,harbor3,tr12,3921).
routeCost(harbor5,harbor3,tr13,16068).
routeCost(harbor5,harbor3,tr14,5228).
routeCost(harbor5,harbor3,tr2,3921).
routeCost(harbor5,harbor3,tr4,5228).
routeCost(harbor5,harbor4,tr11,8953).
routeCost(harbor5,harbor4,tr13,53718).
routeCost(harbor5,harbor6,tr11,975).
routeCost(harbor5,harbor6,tr12,4017).
routeCost(harbor5,harbor6,tr13,5850).
routeCost(harbor5,harbor6,tr14,5356).
routeCost(harbor5,harbor6,tr2,4017).
routeCost(harbor5,harbor6,tr4,5356).
routeCost(harbor5,harbor7,tr11,24198).
routeCost(harbor5,harbor7,tr13,145188).
routeCost(harbor5,harbor8,tr11,6800).
routeCost(harbor5,harbor8,tr13,40800).
routeCost(harbor5,harbor9,tr11,3687).
routeCost(harbor5,harbor9,tr12,5559).
routeCost(harbor5,harbor9,tr13,22122).
routeCost(harbor5,harbor9,tr14,7412).
routeCost(harbor5,harbor9,tr2,5559).
routeCost(harbor5,harbor9,tr4,7412).
routeCost(harbor5,prodloc12,tr12,1716).
routeCost(harbor5,prodloc12,tr14,2288).
routeCost(harbor5,prodloc12,tr2,1716).
routeCost(harbor5,prodloc12,tr4,2288).
routeCost(harbor5,prodloc16,tr12,4167).
routeCost(harbor5,prodloc16,tr14,5556).
routeCost(harbor5,prodloc16,tr2,4167).
routeCost(harbor5,prodloc16,tr4,5556).
routeCost(harbor5,prodloc17,tr11,1735).
routeCost(harbor5,prodloc17,tr12,4890).
routeCost(harbor5,prodloc17,tr14,6520).
routeCost(harbor5,prodloc17,tr2,4890).
routeCost(harbor5,prodloc17,tr4,6520).
routeCost(harbor5,prodloc18,tr11,2594).
routeCost(harbor5,prodloc18,tr12,3723).
routeCost(harbor5,prodloc18,tr13,15564).
routeCost(harbor5,prodloc18,tr14,4964).
routeCost(harbor5,prodloc18,tr2,3723).
routeCost(harbor5,prodloc18,tr4,4964).
routeCost(harbor5,prodloc2,tr12,1830).
routeCost(harbor5,prodloc2,tr14,2440).
routeCost(harbor5,prodloc2,tr2,1830).
routeCost(harbor5,prodloc2,tr4,2440).
routeCost(harbor5,prodloc20,tr12,2829).
routeCost(harbor5,prodloc20,tr14,3772).
routeCost(harbor5,prodloc20,tr2,2829).
routeCost(harbor5,prodloc20,tr4,3772).
routeCost(harbor5,prodloc21,tr12,3207).
routeCost(harbor5,prodloc21,tr14,4276).
routeCost(harbor5,prodloc21,tr2,3207).
routeCost(harbor5,prodloc21,tr4,4276).
routeCost(harbor5,prodloc22,tr12,660).
routeCost(harbor5,prodloc22,tr14,880).
routeCost(harbor5,prodloc22,tr2,660).
routeCost(harbor5,prodloc22,tr4,880).
routeCost(harbor5,prodloc24,tr11,2674).
routeCost(harbor5,prodloc24,tr12,3894).
routeCost(harbor5,prodloc24,tr13,16044).
routeCost(harbor5,prodloc24,tr14,5192).
routeCost(harbor5,prodloc24,tr2,3894).
routeCost(harbor5,prodloc24,tr4,5192).
routeCost(harbor5,prodloc26,tr12,5544).
routeCost(harbor5,prodloc26,tr14,7392).
routeCost(harbor5,prodloc26,tr2,5544).
routeCost(harbor5,prodloc26,tr4,7392).
routeCost(harbor5,prodloc27,tr12,3540).
routeCost(harbor5,prodloc27,tr14,4720).
routeCost(harbor5,prodloc27,tr2,3540).
routeCost(harbor5,prodloc27,tr4,4720).
routeCost(harbor5,prodloc3,tr12,9).
routeCost(harbor5,prodloc3,tr14,12).
routeCost(harbor5,prodloc3,tr2,9).
routeCost(harbor5,prodloc3,tr4,12).
routeCost(harbor5,prodloc3,tr9,6).
routeCost(harbor5,prodloc31,tr12,7758).
routeCost(harbor5,prodloc31,tr14,10344).
routeCost(harbor5,prodloc31,tr2,7758).
routeCost(harbor5,prodloc31,tr4,10344).
routeCost(harbor5,prodloc32,tr12,3918).
routeCost(harbor5,prodloc32,tr14,5224).
routeCost(harbor5,prodloc32,tr2,3918).
routeCost(harbor5,prodloc32,tr4,5224).
routeCost(harbor5,prodloc33,tr12,3687).
routeCost(harbor5,prodloc33,tr14,4916).
routeCost(harbor5,prodloc33,tr2,3687).
routeCost(harbor5,prodloc33,tr4,4916).
routeCost(harbor5,prodloc34,tr12,4239).
routeCost(harbor5,prodloc34,tr14,5652).
routeCost(harbor5,prodloc34,tr2,4239).
routeCost(harbor5,prodloc34,tr4,5652).
routeCost(harbor5,prodloc40,tr11,2862).
routeCost(harbor5,prodloc40,tr12,4449).
routeCost(harbor5,prodloc40,tr13,17172).
routeCost(harbor5,prodloc40,tr14,5932).
routeCost(harbor5,prodloc40,tr2,4449).
routeCost(harbor5,prodloc40,tr4,5932).
routeCost(harbor5,prodloc44,tr12,10350).
routeCost(harbor5,prodloc44,tr14,13800).
routeCost(harbor5,prodloc44,tr2,10350).
routeCost(harbor5,prodloc44,tr4,13800).
routeCost(harbor5,prodloc46,tr12,2100).
routeCost(harbor5,prodloc46,tr14,2800).
routeCost(harbor5,prodloc46,tr2,2100).
routeCost(harbor5,prodloc46,tr4,2800).
routeCost(harbor5,prodloc47,tr11,3284).
routeCost(harbor5,prodloc47,tr12,5904).
routeCost(harbor5,prodloc47,tr13,19704).
routeCost(harbor5,prodloc47,tr14,7872).
routeCost(harbor5,prodloc47,tr2,5904).
routeCost(harbor5,prodloc47,tr4,7872).
routeCost(harbor5,prodloc49,tr12,177).
routeCost(harbor5,prodloc49,tr14,236).
routeCost(harbor5,prodloc49,tr2,177).
routeCost(harbor5,prodloc49,tr4,236).
routeCost(harbor5,prodloc49,tr9,118).
routeCost(harbor5,prodloc5,tr12,3885).
routeCost(harbor5,prodloc5,tr14,5180).
routeCost(harbor5,prodloc5,tr2,3885).
routeCost(harbor5,prodloc5,tr4,5180).
routeCost(harbor5,prodloc6,tr12,3603).
routeCost(harbor5,prodloc6,tr14,4804).
routeCost(harbor5,prodloc6,tr2,3603).
routeCost(harbor5,prodloc6,tr4,4804).
routeCost(harbor5,prodloc7,tr12,3258).
routeCost(harbor5,prodloc7,tr14,4344).
routeCost(harbor5,prodloc7,tr2,3258).
routeCost(harbor5,prodloc7,tr4,4344).
routeCost(harbor6,harbor0,tr12,7188).
routeCost(harbor6,harbor0,tr14,9584).
routeCost(harbor6,harbor0,tr2,7188).
routeCost(harbor6,harbor0,tr4,9584).
routeCost(harbor6,harbor1,tr11,23953).
routeCost(harbor6,harbor1,tr13,143718).
routeCost(harbor6,harbor10,tr11,8122).
routeCost(harbor6,harbor10,tr13,48732).
routeCost(harbor6,harbor11,tr11,2177).
routeCost(harbor6,harbor11,tr12,4380).
routeCost(harbor6,harbor11,tr13,13062).
routeCost(harbor6,harbor11,tr14,5840).
routeCost(harbor6,harbor11,tr2,4380).
routeCost(harbor6,harbor11,tr4,5840).
routeCost(harbor6,harbor12,tr11,24639).
routeCost(harbor6,harbor12,tr13,147834).
routeCost(harbor6,harbor13,tr11,25197).
routeCost(harbor6,harbor13,tr13,151182).
routeCost(harbor6,harbor14,tr11,895).
routeCost(harbor6,harbor14,tr13,5370).
routeCost(harbor6,harbor15,tr11,2385).
routeCost(harbor6,harbor15,tr13,14310).
routeCost(harbor6,harbor16,tr11,3146).
routeCost(harbor6,harbor16,tr12,5460).
routeCost(harbor6,harbor16,tr13,18876).
routeCost(harbor6,harbor16,tr14,7280).
routeCost(harbor6,harbor16,tr2,5460).
routeCost(harbor6,harbor16,tr4,7280).
routeCost(harbor6,harbor2,tr11,895).
routeCost(harbor6,harbor2,tr12,2295).
routeCost(harbor6,harbor2,tr13,5370).
routeCost(harbor6,harbor2,tr14,3060).
routeCost(harbor6,harbor2,tr2,2295).
routeCost(harbor6,harbor2,tr4,3060).
routeCost(harbor6,harbor3,tr11,3228).
routeCost(harbor6,harbor3,tr12,7233).
routeCost(harbor6,harbor3,tr13,19368).
routeCost(harbor6,harbor3,tr14,9644).
routeCost(harbor6,harbor3,tr2,7233).
routeCost(harbor6,harbor3,tr4,9644).
routeCost(harbor6,harbor4,tr11,8687).
routeCost(harbor6,harbor4,tr13,52122).
routeCost(harbor6,harbor5,tr11,975).
routeCost(harbor6,harbor5,tr12,4023).
routeCost(harbor6,harbor5,tr13,5850).
routeCost(harbor6,harbor5,tr14,5364).
routeCost(harbor6,harbor5,tr2,4023).
routeCost(harbor6,harbor5,tr4,5364).
routeCost(harbor6,harbor7,tr11,23272).
routeCost(harbor6,harbor7,tr13,139632).
routeCost(harbor6,harbor8,tr11,6657).
routeCost(harbor6,harbor8,tr13,39942).
routeCost(harbor6,harbor9,tr11,2726).
routeCost(harbor6,harbor9,tr12,7539).
routeCost(harbor6,harbor9,tr13,16356).
routeCost(harbor6,harbor9,tr14,10052).
routeCost(harbor6,harbor9,tr2,7539).
routeCost(harbor6,harbor9,tr4,10052).
routeCost(harbor6,prodloc12,tr12,5028).
routeCost(harbor6,prodloc12,tr14,6704).
routeCost(harbor6,prodloc12,tr2,5028).
routeCost(harbor6,prodloc12,tr4,6704).
routeCost(harbor6,prodloc16,tr12,6930).
routeCost(harbor6,prodloc16,tr14,9240).
routeCost(harbor6,prodloc16,tr2,6930).
routeCost(harbor6,prodloc16,tr4,9240).
routeCost(harbor6,prodloc17,tr11,774).
routeCost(harbor6,prodloc17,tr12,2043).
routeCost(harbor6,prodloc17,tr14,2724).
routeCost(harbor6,prodloc17,tr2,2043).
routeCost(harbor6,prodloc17,tr4,2724).
routeCost(harbor6,prodloc18,tr11,3145).
routeCost(harbor6,prodloc18,tr12,7035).
routeCost(harbor6,prodloc18,tr13,18870).
routeCost(harbor6,prodloc18,tr14,9380).
routeCost(harbor6,prodloc18,tr2,7035).
routeCost(harbor6,prodloc18,tr4,9380).
routeCost(harbor6,prodloc2,tr12,3246).
routeCost(harbor6,prodloc2,tr14,4328).
routeCost(harbor6,prodloc2,tr2,3246).
routeCost(harbor6,prodloc2,tr4,4328).
routeCost(harbor6,prodloc20,tr12,5970).
routeCost(harbor6,prodloc20,tr14,7960).
routeCost(harbor6,prodloc20,tr2,5970).
routeCost(harbor6,prodloc20,tr4,7960).
routeCost(harbor6,prodloc21,tr12,1728).
routeCost(harbor6,prodloc21,tr14,2304).
routeCost(harbor6,prodloc21,tr2,1728).
routeCost(harbor6,prodloc21,tr4,2304).
routeCost(harbor6,prodloc22,tr12,3372).
routeCost(harbor6,prodloc22,tr14,4496).
routeCost(harbor6,prodloc22,tr2,3372).
routeCost(harbor6,prodloc22,tr4,4496).
routeCost(harbor6,prodloc24,tr11,3224).
routeCost(harbor6,prodloc24,tr12,7206).
routeCost(harbor6,prodloc24,tr13,19344).
routeCost(harbor6,prodloc24,tr14,9608).
routeCost(harbor6,prodloc24,tr2,7206).
routeCost(harbor6,prodloc24,tr4,9608).
routeCost(harbor6,prodloc26,tr12,7524).
routeCost(harbor6,prodloc26,tr14,10032).
routeCost(harbor6,prodloc26,tr2,7524).
routeCost(harbor6,prodloc26,tr4,10032).
routeCost(harbor6,prodloc27,tr12,6348).
routeCost(harbor6,prodloc27,tr14,8464).
routeCost(harbor6,prodloc27,tr2,6348).
routeCost(harbor6,prodloc27,tr4,8464).
routeCost(harbor6,prodloc3,tr12,4023).
routeCost(harbor6,prodloc3,tr14,5364).
routeCost(harbor6,prodloc3,tr2,4023).
routeCost(harbor6,prodloc3,tr4,5364).
routeCost(harbor6,prodloc31,tr12,10359).
routeCost(harbor6,prodloc31,tr14,13812).
routeCost(harbor6,prodloc31,tr2,10359).
routeCost(harbor6,prodloc31,tr4,13812).
routeCost(harbor6,prodloc32,tr12,96).
routeCost(harbor6,prodloc32,tr14,128).
routeCost(harbor6,prodloc32,tr2,96).
routeCost(harbor6,prodloc32,tr4,128).
routeCost(harbor6,prodloc32,tr9,64).
routeCost(harbor6,prodloc33,tr12,6393).
routeCost(harbor6,prodloc33,tr14,8524).
routeCost(harbor6,prodloc33,tr2,6393).
routeCost(harbor6,prodloc33,tr4,8524).
routeCost(harbor6,prodloc34,tr12,7422).
routeCost(harbor6,prodloc34,tr14,9896).
routeCost(harbor6,prodloc34,tr2,7422).
routeCost(harbor6,prodloc34,tr4,9896).
routeCost(harbor6,prodloc40,tr11,3412).
routeCost(harbor6,prodloc40,tr12,7761).
routeCost(harbor6,prodloc40,tr13,20472).
routeCost(harbor6,prodloc40,tr14,10348).
routeCost(harbor6,prodloc40,tr2,7761).
routeCost(harbor6,prodloc40,tr4,10348).
routeCost(harbor6,prodloc44,tr12,12855).
routeCost(harbor6,prodloc44,tr14,17140).
routeCost(harbor6,prodloc44,tr2,12855).
routeCost(harbor6,prodloc44,tr4,17140).
routeCost(harbor6,prodloc46,tr12,1920).
routeCost(harbor6,prodloc46,tr14,2560).
routeCost(harbor6,prodloc46,tr2,1920).
routeCost(harbor6,prodloc46,tr4,2560).
routeCost(harbor6,prodloc47,tr11,3835).
routeCost(harbor6,prodloc47,tr12,9216).
routeCost(harbor6,prodloc47,tr13,23010).
routeCost(harbor6,prodloc47,tr14,12288).
routeCost(harbor6,prodloc47,tr2,9216).
routeCost(harbor6,prodloc47,tr4,12288).
routeCost(harbor6,prodloc49,tr12,3852).
routeCost(harbor6,prodloc49,tr14,5136).
routeCost(harbor6,prodloc49,tr2,3852).
routeCost(harbor6,prodloc49,tr4,5136).
routeCost(harbor6,prodloc5,tr12,7197).
routeCost(harbor6,prodloc5,tr14,9596).
routeCost(harbor6,prodloc5,tr2,7197).
routeCost(harbor6,prodloc5,tr4,9596).
routeCost(harbor6,prodloc6,tr12,6915).
routeCost(harbor6,prodloc6,tr14,9220).
routeCost(harbor6,prodloc6,tr2,6915).
routeCost(harbor6,prodloc6,tr4,9220).
routeCost(harbor6,prodloc7,tr12,1752).
routeCost(harbor6,prodloc7,tr14,2336).
routeCost(harbor6,prodloc7,tr2,1752).
routeCost(harbor6,prodloc7,tr4,2336).
routeCost(harbor6,prodloc8,tr11,975).
routeCost(harbor6,prodloc8,tr12,4023).
routeCost(harbor6,prodloc8,tr13,5850).
routeCost(harbor6,prodloc8,tr14,5364).
routeCost(harbor6,prodloc8,tr2,4023).
routeCost(harbor6,prodloc8,tr4,5364).
routeCost(harbor7,harbor1,tr11,814).
routeCost(harbor7,harbor1,tr13,4884).
routeCost(harbor7,harbor10,tr11,26830).
routeCost(harbor7,harbor10,tr13,160980).
routeCost(harbor7,harbor11,tr11,24224).
routeCost(harbor7,harbor11,tr13,145344).
routeCost(harbor7,harbor12,tr11,1500).
routeCost(harbor7,harbor12,tr13,9000).
routeCost(harbor7,harbor13,tr11,2058).
routeCost(harbor7,harbor13,tr13,12348).
routeCost(harbor7,harbor14,tr11,22664).
routeCost(harbor7,harbor14,tr13,135984).
routeCost(harbor7,harbor15,tr11,24432).
routeCost(harbor7,harbor15,tr13,146592).
routeCost(harbor7,harbor16,tr11,26337).
routeCost(harbor7,harbor16,tr13,158022).
routeCost(harbor7,harbor2,tr11,22942).
routeCost(harbor7,harbor2,tr13,137652).
routeCost(harbor7,harbor3,tr11,26419).
routeCost(harbor7,harbor3,tr13,158514).
routeCost(harbor7,harbor4,tr11,27388).
routeCost(harbor7,harbor4,tr13,164328).
routeCost(harbor7,harbor5,tr11,24198).
routeCost(harbor7,harbor5,tr13,145188).
routeCost(harbor7,harbor6,tr11,23272).
routeCost(harbor7,harbor6,tr13,139632).
routeCost(harbor7,harbor8,tr11,26291).
routeCost(harbor7,harbor8,tr13,157746).
routeCost(harbor7,harbor9,tr11,24773).
routeCost(harbor7,harbor9,tr13,148638).
routeCost(harbor7,prodloc11,tr12,30).
routeCost(harbor7,prodloc11,tr14,40).
routeCost(harbor7,prodloc11,tr2,30).
routeCost(harbor7,prodloc11,tr4,40).
routeCost(harbor7,prodloc11,tr9,20).
routeCost(harbor7,prodloc17,tr11,22921).
routeCost(harbor7,prodloc18,tr11,26336).
routeCost(harbor7,prodloc18,tr13,158016).
routeCost(harbor7,prodloc24,tr11,26415).
routeCost(harbor7,prodloc24,tr13,158490).
routeCost(harbor7,prodloc40,tr11,26603).
routeCost(harbor7,prodloc40,tr13,159618).
routeCost(harbor7,prodloc47,tr11,27026).
routeCost(harbor7,prodloc47,tr13,162156).
routeCost(harbor7,prodloc8,tr11,24198).
routeCost(harbor7,prodloc8,tr13,145188).
routeCost(harbor8,harbor1,tr11,26972).
routeCost(harbor8,harbor1,tr13,161832).
routeCost(harbor8,harbor10,tr1,2122).
routeCost(harbor8,harbor10,tr11,2122).
routeCost(harbor8,harbor10,tr13,12732).
routeCost(harbor8,harbor11,tr11,8195).
routeCost(harbor8,harbor11,tr13,49170).
routeCost(harbor8,harbor12,tr11,27658).
routeCost(harbor8,harbor12,tr13,165948).
routeCost(harbor8,harbor13,tr11,28216).
routeCost(harbor8,harbor13,tr13,169296).
routeCost(harbor8,harbor14,tr11,6894).
routeCost(harbor8,harbor14,tr13,41364).
routeCost(harbor8,harbor15,tr11,8403).
routeCost(harbor8,harbor15,tr13,50418).
routeCost(harbor8,harbor16,tr11,7460).
routeCost(harbor8,harbor16,tr13,44760).
routeCost(harbor8,harbor2,tr11,6913).
routeCost(harbor8,harbor2,tr13,41478).
routeCost(harbor8,harbor3,tr11,7543).
routeCost(harbor8,harbor3,tr13,45258).
routeCost(harbor8,harbor4,tr1,2688).
routeCost(harbor8,harbor4,tr11,2688).
routeCost(harbor8,harbor4,tr13,16128).
routeCost(harbor8,harbor5,tr11,6800).
routeCost(harbor8,harbor5,tr13,40800).
routeCost(harbor8,harbor6,tr11,6657).
routeCost(harbor8,harbor6,tr13,39942).
routeCost(harbor8,harbor7,tr11,26291).
routeCost(harbor8,harbor7,tr13,157746).
routeCost(harbor8,harbor9,tr11,8743).
routeCost(harbor8,harbor9,tr13,52458).
routeCost(harbor8,prodloc17,tr11,6801).
routeCost(harbor8,prodloc18,tr11,7459).
routeCost(harbor8,prodloc18,tr13,44754).
routeCost(harbor8,prodloc24,tr11,7539).
routeCost(harbor8,prodloc24,tr13,45234).
routeCost(harbor8,prodloc40,tr11,7726).
routeCost(harbor8,prodloc40,tr13,46356).
routeCost(harbor8,prodloc47,tr11,8149).
routeCost(harbor8,prodloc47,tr13,48894).
routeCost(harbor8,prodloc8,tr11,6800).
routeCost(harbor8,prodloc8,tr13,40800).
routeCost(harbor9,harbor0,tr12,5571).
routeCost(harbor9,harbor0,tr14,7428).
routeCost(harbor9,harbor0,tr2,5571).
routeCost(harbor9,harbor0,tr4,7428).
routeCost(harbor9,harbor1,tr11,25454).
routeCost(harbor9,harbor1,tr13,152724).
routeCost(harbor9,harbor10,tr11,10151).
routeCost(harbor9,harbor10,tr13,60906).
routeCost(harbor9,harbor11,tr11,863).
routeCost(harbor9,harbor11,tr12,3252).
routeCost(harbor9,harbor11,tr13,5178).
routeCost(harbor9,harbor11,tr14,4336).
routeCost(harbor9,harbor11,tr2,3252).
routeCost(harbor9,harbor11,tr4,4336).
routeCost(harbor9,harbor12,tr11,26140).
routeCost(harbor9,harbor12,tr13,156840).
routeCost(harbor9,harbor13,tr11,26698).
routeCost(harbor9,harbor13,tr13,160188).
routeCost(harbor9,harbor14,tr11,2233).
routeCost(harbor9,harbor14,tr13,13398).
routeCost(harbor9,harbor15,tr11,610).
routeCost(harbor9,harbor15,tr13,3660).
routeCost(harbor9,harbor16,tr11,5847).
routeCost(harbor9,harbor16,tr12,5310).
routeCost(harbor9,harbor16,tr13,35082).
routeCost(harbor9,harbor16,tr14,7080).
routeCost(harbor9,harbor16,tr2,5310).
routeCost(harbor9,harbor16,tr4,7080).
routeCost(harbor9,harbor2,tr11,1851).
routeCost(harbor9,harbor2,tr12,7779).
routeCost(harbor9,harbor2,tr13,11106).
routeCost(harbor9,harbor2,tr14,10372).
routeCost(harbor9,harbor2,tr2,7779).
routeCost(harbor9,harbor2,tr4,10372).
routeCost(harbor9,harbor3,tr11,5930).
routeCost(harbor9,harbor3,tr12,5574).
routeCost(harbor9,harbor3,tr13,35580).
routeCost(harbor9,harbor3,tr14,7432).
routeCost(harbor9,harbor3,tr2,5574).
routeCost(harbor9,harbor3,tr4,7432).
routeCost(harbor9,harbor4,tr11,10716).
routeCost(harbor9,harbor4,tr13,64296).
routeCost(harbor9,harbor5,tr11,3687).
routeCost(harbor9,harbor5,tr12,5574).
routeCost(harbor9,harbor5,tr13,22122).
routeCost(harbor9,harbor5,tr14,7432).
routeCost(harbor9,harbor5,tr2,5574).
routeCost(harbor9,harbor5,tr4,7432).
routeCost(harbor9,harbor6,tr11,2726).
routeCost(harbor9,harbor6,tr12,7536).
routeCost(harbor9,harbor6,tr13,16356).
routeCost(harbor9,harbor6,tr14,10048).
routeCost(harbor9,harbor6,tr2,7536).
routeCost(harbor9,harbor6,tr4,10048).
routeCost(harbor9,harbor7,tr11,24773).
routeCost(harbor9,harbor7,tr13,148638).
routeCost(harbor9,harbor8,tr11,8743).
routeCost(harbor9,harbor8,tr13,52458).
routeCost(harbor9,prodloc12,tr12,4953).
routeCost(harbor9,prodloc12,tr14,6604).
routeCost(harbor9,prodloc12,tr2,4953).
routeCost(harbor9,prodloc12,tr4,6604).
routeCost(harbor9,prodloc16,tr12,3546).
routeCost(harbor9,prodloc16,tr14,4728).
routeCost(harbor9,prodloc16,tr2,3546).
routeCost(harbor9,prodloc16,tr4,4728).
routeCost(harbor9,prodloc17,tr11,1996).
routeCost(harbor9,prodloc17,tr12,7878).
routeCost(harbor9,prodloc17,tr14,10504).
routeCost(harbor9,prodloc17,tr2,7878).
routeCost(harbor9,prodloc17,tr4,10504).
routeCost(harbor9,prodloc18,tr11,5846).
routeCost(harbor9,prodloc18,tr12,5619).
routeCost(harbor9,prodloc18,tr13,35076).
routeCost(harbor9,prodloc18,tr14,7492).
routeCost(harbor9,prodloc18,tr2,5619).
routeCost(harbor9,prodloc18,tr4,7492).
routeCost(harbor9,prodloc2,tr12,4398).
routeCost(harbor9,prodloc2,tr14,5864).
routeCost(harbor9,prodloc2,tr2,4398).
routeCost(harbor9,prodloc2,tr4,5864).
routeCost(harbor9,prodloc20,tr12,4032).
routeCost(harbor9,prodloc20,tr14,5376).
routeCost(harbor9,prodloc20,tr2,4032).
routeCost(harbor9,prodloc20,tr4,5376).
routeCost(harbor9,prodloc21,tr12,6384).
routeCost(harbor9,prodloc21,tr14,8512).
routeCost(harbor9,prodloc21,tr2,6384).
routeCost(harbor9,prodloc21,tr4,8512).
routeCost(harbor9,prodloc22,tr12,5064).
routeCost(harbor9,prodloc22,tr14,6752).
routeCost(harbor9,prodloc22,tr2,5064).
routeCost(harbor9,prodloc22,tr4,6752).
routeCost(harbor9,prodloc24,tr11,5925).
routeCost(harbor9,prodloc24,tr12,5568).
routeCost(harbor9,prodloc24,tr13,35550).
routeCost(harbor9,prodloc24,tr14,7424).
routeCost(harbor9,prodloc24,tr2,5568).
routeCost(harbor9,prodloc24,tr4,7424).
routeCost(harbor9,prodloc26,tr12,87).
routeCost(harbor9,prodloc26,tr14,116).
routeCost(harbor9,prodloc26,tr2,87).
routeCost(harbor9,prodloc26,tr4,116).
routeCost(harbor9,prodloc26,tr9,58).
routeCost(harbor9,prodloc27,tr12,3348).
routeCost(harbor9,prodloc27,tr14,4464).
routeCost(harbor9,prodloc27,tr2,3348).
routeCost(harbor9,prodloc27,tr4,4464).
routeCost(harbor9,prodloc3,tr12,5574).
routeCost(harbor9,prodloc3,tr14,7432).
routeCost(harbor9,prodloc3,tr2,5574).
routeCost(harbor9,prodloc3,tr4,7432).
routeCost(harbor9,prodloc31,tr12,4101).
routeCost(harbor9,prodloc31,tr14,5468).
routeCost(harbor9,prodloc31,tr2,4101).
routeCost(harbor9,prodloc31,tr4,5468).
routeCost(harbor9,prodloc32,tr12,7437).
routeCost(harbor9,prodloc32,tr14,9916).
routeCost(harbor9,prodloc32,tr2,7437).
routeCost(harbor9,prodloc32,tr4,9916).
routeCost(harbor9,prodloc33,tr12,3270).
routeCost(harbor9,prodloc33,tr14,4360).
routeCost(harbor9,prodloc33,tr2,3270).
routeCost(harbor9,prodloc33,tr4,4360).
routeCost(harbor9,prodloc34,tr12,4569).
routeCost(harbor9,prodloc34,tr14,6092).
routeCost(harbor9,prodloc34,tr2,4569).
routeCost(harbor9,prodloc34,tr4,6092).
routeCost(harbor9,prodloc40,tr11,6113).
routeCost(harbor9,prodloc40,tr12,5601).
routeCost(harbor9,prodloc40,tr13,36678).
routeCost(harbor9,prodloc40,tr14,7468).
routeCost(harbor9,prodloc40,tr2,5601).
routeCost(harbor9,prodloc40,tr4,7468).
routeCost(harbor9,prodloc44,tr12,5874).
routeCost(harbor9,prodloc44,tr14,7832).
routeCost(harbor9,prodloc44,tr2,5874).
routeCost(harbor9,prodloc44,tr4,7832).
routeCost(harbor9,prodloc46,tr12,5619).
routeCost(harbor9,prodloc46,tr14,7492).
routeCost(harbor9,prodloc46,tr2,5619).
routeCost(harbor9,prodloc46,tr4,7492).
routeCost(harbor9,prodloc47,tr11,6536).
routeCost(harbor9,prodloc47,tr12,6522).
routeCost(harbor9,prodloc47,tr13,39216).
routeCost(harbor9,prodloc47,tr14,8696).
routeCost(harbor9,prodloc47,tr2,6522).
routeCost(harbor9,prodloc47,tr4,8696).
routeCost(harbor9,prodloc49,tr12,5397).
routeCost(harbor9,prodloc49,tr14,7196).
routeCost(harbor9,prodloc49,tr2,5397).
routeCost(harbor9,prodloc49,tr4,7196).
routeCost(harbor9,prodloc5,tr12,5580).
routeCost(harbor9,prodloc5,tr14,7440).
routeCost(harbor9,prodloc5,tr2,5580).
routeCost(harbor9,prodloc5,tr4,7440).
routeCost(harbor9,prodloc6,tr12,5421).
routeCost(harbor9,prodloc6,tr14,7228).
routeCost(harbor9,prodloc6,tr2,5421).
routeCost(harbor9,prodloc6,tr4,7228).
routeCost(harbor9,prodloc7,tr12,6438).
routeCost(harbor9,prodloc7,tr14,8584).
routeCost(harbor9,prodloc7,tr2,6438).
routeCost(harbor9,prodloc7,tr4,8584).
routeCost(harbor9,prodloc8,tr11,3687).
routeCost(harbor9,prodloc8,tr12,5574).
routeCost(harbor9,prodloc8,tr13,22122).
routeCost(harbor9,prodloc8,tr14,7432).
routeCost(harbor9,prodloc8,tr2,5574).
routeCost(harbor9,prodloc8,tr4,7432).
routeCost(prodloc1,harbor14,tr14,116).
routeCost(prodloc1,harbor14,tr2,87).
routeCost(prodloc1,harbor14,tr4,116).
routeCost(prodloc1,harbor14,tr9,58).
routeCost(prodloc1,harbor15,tr14,8784).
routeCost(prodloc1,harbor15,tr2,6588).
routeCost(prodloc1,harbor15,tr4,8900).
routeCost(prodloc1,prodloc11,tr15,370528).
routeCost(prodloc1,prodloc12,tr15,64864).
routeCost(prodloc1,prodloc2,tr15,43968).
routeCost(prodloc1,prodloc20,tr15,70656).
routeCost(prodloc1,prodloc21,tr15,26912).
routeCost(prodloc1,prodloc23,tr14,8748).
routeCost(prodloc1,prodloc23,tr2,6561).
routeCost(prodloc1,prodloc23,tr4,8848).
routeCost(prodloc1,prodloc24,tr15,84096).
routeCost(prodloc1,prodloc3,tr15,51616).
routeCost(prodloc1,prodloc30,tr15,325088).
routeCost(prodloc1,prodloc31,tr15,99808).
routeCost(prodloc1,prodloc33,tr15,72512).
routeCost(prodloc1,prodloc36,tr15,316608).
routeCost(prodloc1,prodloc41,tr15,236640).
routeCost(prodloc1,prodloc44,tr15,115872).
routeCost(prodloc1,prodloc49,tr15,51584).
routeCost(prodloc1,prodloc6,tr15,81376).
routeCost(prodloc1,prodloc8,tr15,51616).
routeCost(prodloc11,harbor7,tr12,30).
routeCost(prodloc11,harbor7,tr14,40).
routeCost(prodloc11,harbor7,tr2,30).
routeCost(prodloc11,harbor7,tr4,40).
routeCost(prodloc11,harbor7,tr9,20).
routeCost(prodloc11,prodloc1,tr15,370528).
routeCost(prodloc11,prodloc12,tr15,312064).
routeCost(prodloc11,prodloc2,tr15,328224).
routeCost(prodloc11,prodloc20,tr15,302400).
routeCost(prodloc11,prodloc21,tr15,346048).
routeCost(prodloc11,prodloc24,tr15,291936).
routeCost(prodloc11,prodloc3,tr15,326880).
routeCost(prodloc11,prodloc30,tr15,53760).
routeCost(prodloc11,prodloc31,tr15,271296).
routeCost(prodloc11,prodloc33,tr15,298912).
routeCost(prodloc11,prodloc36,tr15,57216).
routeCost(prodloc11,prodloc41,tr15,422080).
routeCost(prodloc11,prodloc44,tr15,260512).
routeCost(prodloc11,prodloc49,tr15,326144).
routeCost(prodloc11,prodloc6,tr15,294752).
routeCost(prodloc11,prodloc8,tr15,326880).
routeCost(prodloc12,harbor0,tr12,2223).
routeCost(prodloc12,harbor0,tr14,2964).
routeCost(prodloc12,harbor0,tr2,2223).
routeCost(prodloc12,harbor0,tr4,2964).
routeCost(prodloc12,harbor11,tr12,2751).
routeCost(prodloc12,harbor11,tr14,3668).
routeCost(prodloc12,harbor11,tr2,2751).
routeCost(prodloc12,harbor11,tr4,3668).
routeCost(prodloc12,harbor16,tr12,423).
routeCost(prodloc12,harbor16,tr14,564).
routeCost(prodloc12,harbor16,tr2,423).
routeCost(prodloc12,harbor16,tr4,564).
routeCost(prodloc12,harbor16,tr9,282).
routeCost(prodloc12,harbor2,tr12,6060).
routeCost(prodloc12,harbor2,tr14,8080).
routeCost(prodloc12,harbor2,tr2,6060).
routeCost(prodloc12,harbor2,tr4,8080).
routeCost(prodloc12,harbor3,tr12,2271).
routeCost(prodloc12,harbor3,tr14,3028).
routeCost(prodloc12,harbor3,tr2,2271).
routeCost(prodloc12,harbor3,tr4,3028).
routeCost(prodloc12,harbor5,tr12,1728).
routeCost(prodloc12,harbor5,tr14,2304).
routeCost(prodloc12,harbor5,tr2,1728).
routeCost(prodloc12,harbor5,tr4,2304).
routeCost(prodloc12,harbor6,tr12,5040).
routeCost(prodloc12,harbor6,tr14,6720).
routeCost(prodloc12,harbor6,tr2,5040).
routeCost(prodloc12,harbor6,tr4,6720).
routeCost(prodloc12,harbor9,tr12,4944).
routeCost(prodloc12,harbor9,tr14,6592).
routeCost(prodloc12,harbor9,tr2,4944).
routeCost(prodloc12,harbor9,tr4,6592).
routeCost(prodloc12,prodloc1,tr15,64864).
routeCost(prodloc12,prodloc11,tr15,312064).
routeCost(prodloc12,prodloc16,tr12,2925).
routeCost(prodloc12,prodloc16,tr14,3900).
routeCost(prodloc12,prodloc16,tr2,2925).
routeCost(prodloc12,prodloc16,tr4,3900).
routeCost(prodloc12,prodloc17,tr12,5910).
routeCost(prodloc12,prodloc17,tr14,7880).
routeCost(prodloc12,prodloc17,tr2,5910).
routeCost(prodloc12,prodloc17,tr4,7880).
routeCost(prodloc12,prodloc18,tr12,2070).
routeCost(prodloc12,prodloc18,tr14,2760).
routeCost(prodloc12,prodloc18,tr2,2070).
routeCost(prodloc12,prodloc18,tr4,2760).
routeCost(prodloc12,prodloc2,tr12,2475).
routeCost(prodloc12,prodloc2,tr14,3300).
routeCost(prodloc12,prodloc2,tr15,22880).
routeCost(prodloc12,prodloc2,tr2,2475).
routeCost(prodloc12,prodloc2,tr4,3300).
routeCost(prodloc12,prodloc20,tr12,1587).
routeCost(prodloc12,prodloc20,tr14,2116).
routeCost(prodloc12,prodloc20,tr15,13504).
routeCost(prodloc12,prodloc20,tr2,1587).
routeCost(prodloc12,prodloc20,tr4,2116).
routeCost(prodloc12,prodloc21,tr12,4227).
routeCost(prodloc12,prodloc21,tr14,5636).
routeCost(prodloc12,prodloc21,tr15,37952).
routeCost(prodloc12,prodloc21,tr2,4227).
routeCost(prodloc12,prodloc21,tr4,5636).
routeCost(prodloc12,prodloc22,tr12,1839).
routeCost(prodloc12,prodloc22,tr14,2452).
routeCost(prodloc12,prodloc22,tr2,1839).
routeCost(prodloc12,prodloc22,tr4,2452).
routeCost(prodloc12,prodloc24,tr12,2244).
routeCost(prodloc12,prodloc24,tr14,2992).
routeCost(prodloc12,prodloc24,tr15,20192).
routeCost(prodloc12,prodloc24,tr2,2244).
routeCost(prodloc12,prodloc24,tr4,2992).
routeCost(prodloc12,prodloc26,tr12,4926).
routeCost(prodloc12,prodloc26,tr14,6568).
routeCost(prodloc12,prodloc26,tr2,4926).
routeCost(prodloc12,prodloc26,tr4,6568).
routeCost(prodloc12,prodloc27,tr12,2298).
routeCost(prodloc12,prodloc27,tr14,3064).
routeCost(prodloc12,prodloc27,tr2,2298).
routeCost(prodloc12,prodloc27,tr4,3064).
routeCost(prodloc12,prodloc3,tr12,1731).
routeCost(prodloc12,prodloc3,tr14,2308).
routeCost(prodloc12,prodloc3,tr15,14816).
routeCost(prodloc12,prodloc3,tr2,1731).
routeCost(prodloc12,prodloc3,tr4,2308).
routeCost(prodloc12,prodloc30,tr15,263488).
routeCost(prodloc12,prodloc31,tr12,6513).
routeCost(prodloc12,prodloc31,tr14,8684).
routeCost(prodloc12,prodloc31,tr15,56416).
routeCost(prodloc12,prodloc31,tr2,6513).
routeCost(prodloc12,prodloc31,tr4,8684).
routeCost(prodloc12,prodloc32,tr12,4938).
routeCost(prodloc12,prodloc32,tr14,6584).
routeCost(prodloc12,prodloc32,tr2,4938).
routeCost(prodloc12,prodloc32,tr4,6584).
routeCost(prodloc12,prodloc33,tr12,2445).
routeCost(prodloc12,prodloc33,tr14,3260).
routeCost(prodloc12,prodloc33,tr15,21152).
routeCost(prodloc12,prodloc33,tr2,2445).
routeCost(prodloc12,prodloc33,tr4,3260).
routeCost(prodloc12,prodloc34,tr12,2679).
routeCost(prodloc12,prodloc34,tr14,3572).
routeCost(prodloc12,prodloc34,tr2,2679).
routeCost(prodloc12,prodloc34,tr4,3572).
routeCost(prodloc12,prodloc36,tr15,261760).
routeCost(prodloc12,prodloc40,tr12,2799).
routeCost(prodloc12,prodloc40,tr14,3732).
routeCost(prodloc12,prodloc40,tr2,2799).
routeCost(prodloc12,prodloc40,tr4,3732).
routeCost(prodloc12,prodloc41,tr15,240096).
routeCost(prodloc12,prodloc44,tr12,9366).
routeCost(prodloc12,prodloc44,tr14,12488).
routeCost(prodloc12,prodloc44,tr15,82304).
routeCost(prodloc12,prodloc44,tr2,9366).
routeCost(prodloc12,prodloc44,tr4,12488).
routeCost(prodloc12,prodloc46,tr12,3120).
routeCost(prodloc12,prodloc46,tr14,4160).
routeCost(prodloc12,prodloc46,tr2,3120).
routeCost(prodloc12,prodloc46,tr4,4160).
routeCost(prodloc12,prodloc47,tr12,4263).
routeCost(prodloc12,prodloc47,tr14,5684).
routeCost(prodloc12,prodloc47,tr2,4263).
routeCost(prodloc12,prodloc47,tr4,5684).
routeCost(prodloc12,prodloc49,tr12,1614).
routeCost(prodloc12,prodloc49,tr14,2152).
routeCost(prodloc12,prodloc49,tr15,14176).
routeCost(prodloc12,prodloc49,tr2,1614).
routeCost(prodloc12,prodloc49,tr4,2152).
routeCost(prodloc12,prodloc5,tr12,2232).
routeCost(prodloc12,prodloc5,tr14,2976).
routeCost(prodloc12,prodloc5,tr2,2232).
routeCost(prodloc12,prodloc5,tr4,2976).
routeCost(prodloc12,prodloc6,tr12,1950).
routeCost(prodloc12,prodloc6,tr14,2600).
routeCost(prodloc12,prodloc6,tr15,17344).
routeCost(prodloc12,prodloc6,tr2,1950).
routeCost(prodloc12,prodloc6,tr4,2600).
routeCost(prodloc12,prodloc7,tr12,4281).
routeCost(prodloc12,prodloc7,tr14,5708).
routeCost(prodloc12,prodloc7,tr2,4281).
routeCost(prodloc12,prodloc7,tr4,5708).
routeCost(prodloc12,prodloc8,tr12,1728).
routeCost(prodloc12,prodloc8,tr14,2304).
routeCost(prodloc12,prodloc8,tr15,14816).
routeCost(prodloc12,prodloc8,tr2,1728).
routeCost(prodloc12,prodloc8,tr4,2304).
routeCost(prodloc16,harbor0,tr12,2466).
routeCost(prodloc16,harbor0,tr14,3288).
routeCost(prodloc16,harbor0,tr2,2466).
routeCost(prodloc16,harbor0,tr4,3288).
routeCost(prodloc16,harbor11,tr12,3345).
routeCost(prodloc16,harbor11,tr14,4460).
routeCost(prodloc16,harbor11,tr2,3345).
routeCost(prodloc16,harbor11,tr4,4460).
routeCost(prodloc16,harbor16,tr12,3084).
routeCost(prodloc16,harbor16,tr14,4112).
routeCost(prodloc16,harbor16,tr2,3084).
routeCost(prodloc16,harbor16,tr4,4112).
routeCost(prodloc16,harbor2,tr12,7548).
routeCost(prodloc16,harbor2,tr14,10064).
routeCost(prodloc16,harbor2,tr2,7548).
routeCost(prodloc16,harbor2,tr4,10064).
routeCost(prodloc16,harbor3,tr12,2463).
routeCost(prodloc16,harbor3,tr14,3284).
routeCost(prodloc16,harbor3,tr2,2463).
routeCost(prodloc16,harbor3,tr4,3284).
routeCost(prodloc16,harbor5,tr12,4170).
routeCost(prodloc16,harbor5,tr14,5560).
routeCost(prodloc16,harbor5,tr2,4170).
routeCost(prodloc16,harbor5,tr4,5560).
routeCost(prodloc16,harbor6,tr12,6921).
routeCost(prodloc16,harbor6,tr14,9228).
routeCost(prodloc16,harbor6,tr2,6921).
routeCost(prodloc16,harbor6,tr4,9228).
routeCost(prodloc16,harbor9,tr12,3546).
routeCost(prodloc16,harbor9,tr14,4728).
routeCost(prodloc16,harbor9,tr2,3546).
routeCost(prodloc16,harbor9,tr4,4728).
routeCost(prodloc16,prodloc12,tr12,2922).
routeCost(prodloc16,prodloc12,tr14,3896).
routeCost(prodloc16,prodloc12,tr2,2922).
routeCost(prodloc16,prodloc12,tr4,3896).
routeCost(prodloc16,prodloc17,tr12,7647).
routeCost(prodloc16,prodloc17,tr14,10196).
routeCost(prodloc16,prodloc17,tr2,7647).
routeCost(prodloc16,prodloc17,tr4,10196).
routeCost(prodloc16,prodloc18,tr12,2628).
routeCost(prodloc16,prodloc18,tr14,3504).
routeCost(prodloc16,prodloc18,tr2,2628).
routeCost(prodloc16,prodloc18,tr4,3504).
routeCost(prodloc16,prodloc2,tr12,4167).
routeCost(prodloc16,prodloc2,tr14,5556).
routeCost(prodloc16,prodloc2,tr2,4167).
routeCost(prodloc16,prodloc2,tr4,5556).
routeCost(prodloc16,prodloc20,tr12,1422).
routeCost(prodloc16,prodloc20,tr14,1896).
routeCost(prodloc16,prodloc20,tr2,1422).
routeCost(prodloc16,prodloc20,tr4,1896).
routeCost(prodloc16,prodloc21,tr12,6153).
routeCost(prodloc16,prodloc21,tr14,8204).
routeCost(prodloc16,prodloc21,tr2,6153).
routeCost(prodloc16,prodloc21,tr4,8204).
routeCost(prodloc16,prodloc22,tr12,4113).
routeCost(prodloc16,prodloc22,tr14,5484).
routeCost(prodloc16,prodloc22,tr2,4113).
routeCost(prodloc16,prodloc22,tr4,5484).
routeCost(prodloc16,prodloc24,tr12,2457).
routeCost(prodloc16,prodloc24,tr14,3276).
routeCost(prodloc16,prodloc24,tr2,2457).
routeCost(prodloc16,prodloc24,tr4,3276).
routeCost(prodloc16,prodloc26,tr12,3531).
routeCost(prodloc16,prodloc26,tr14,4708).
routeCost(prodloc16,prodloc26,tr2,3531).
routeCost(prodloc16,prodloc26,tr4,4708).
routeCost(prodloc16,prodloc27,tr12,675).
routeCost(prodloc16,prodloc27,tr14,900).
routeCost(prodloc16,prodloc27,tr2,675).
routeCost(prodloc16,prodloc27,tr4,900).
routeCost(prodloc16,prodloc27,tr9,450).
routeCost(prodloc16,prodloc3,tr12,4170).
routeCost(prodloc16,prodloc3,tr14,5560).
routeCost(prodloc16,prodloc3,tr2,4170).
routeCost(prodloc16,prodloc3,tr4,5560).
routeCost(prodloc16,prodloc31,tr12,3513).
routeCost(prodloc16,prodloc31,tr14,4684).
routeCost(prodloc16,prodloc31,tr2,3513).
routeCost(prodloc16,prodloc31,tr4,4684).
routeCost(prodloc16,prodloc32,tr12,6822).
routeCost(prodloc16,prodloc32,tr14,9096).
routeCost(prodloc16,prodloc32,tr2,6822).
routeCost(prodloc16,prodloc32,tr4,9096).
routeCost(prodloc16,prodloc33,tr12,543).
routeCost(prodloc16,prodloc33,tr14,724).
routeCost(prodloc16,prodloc33,tr2,543).
routeCost(prodloc16,prodloc33,tr4,724).
routeCost(prodloc16,prodloc33,tr9,362).
routeCost(prodloc16,prodloc34,tr12,1386).
routeCost(prodloc16,prodloc34,tr14,1848).
routeCost(prodloc16,prodloc34,tr2,1386).
routeCost(prodloc16,prodloc34,tr4,1848).
routeCost(prodloc16,prodloc40,tr12,2472).
routeCost(prodloc16,prodloc40,tr14,3296).
routeCost(prodloc16,prodloc40,tr2,2472).
routeCost(prodloc16,prodloc40,tr4,3296).
routeCost(prodloc16,prodloc44,tr12,6558).
routeCost(prodloc16,prodloc44,tr14,8744).
routeCost(prodloc16,prodloc44,tr2,6558).
routeCost(prodloc16,prodloc44,tr4,8744).
routeCost(prodloc16,prodloc46,tr12,5004).
routeCost(prodloc16,prodloc46,tr14,6672).
routeCost(prodloc16,prodloc46,tr2,5004).
routeCost(prodloc16,prodloc46,tr4,6672).
routeCost(prodloc16,prodloc47,tr12,2844).
routeCost(prodloc16,prodloc47,tr14,3792).
routeCost(prodloc16,prodloc47,tr2,2844).
routeCost(prodloc16,prodloc47,tr4,3792).
routeCost(prodloc16,prodloc49,tr12,4053).
routeCost(prodloc16,prodloc49,tr14,5404).
routeCost(prodloc16,prodloc49,tr2,4053).
routeCost(prodloc16,prodloc49,tr4,5404).
routeCost(prodloc16,prodloc5,tr12,2475).
routeCost(prodloc16,prodloc5,tr14,3300).
routeCost(prodloc16,prodloc5,tr2,2475).
routeCost(prodloc16,prodloc5,tr4,3300).
routeCost(prodloc16,prodloc6,tr12,2436).
routeCost(prodloc16,prodloc6,tr14,3248).
routeCost(prodloc16,prodloc6,tr2,2436).
routeCost(prodloc16,prodloc6,tr4,3248).
routeCost(prodloc16,prodloc7,tr12,6207).
routeCost(prodloc16,prodloc7,tr14,8276).
routeCost(prodloc16,prodloc7,tr2,6207).
routeCost(prodloc16,prodloc7,tr4,8276).
routeCost(prodloc16,prodloc8,tr12,4170).
routeCost(prodloc16,prodloc8,tr14,5560).
routeCost(prodloc16,prodloc8,tr2,4170).
routeCost(prodloc16,prodloc8,tr4,5560).
routeCost(prodloc17,harbor0,tr12,8052).
routeCost(prodloc17,harbor0,tr14,10736).
routeCost(prodloc17,harbor0,tr2,8052).
routeCost(prodloc17,harbor0,tr4,10736).
routeCost(prodloc17,harbor1,tr11,23602).
routeCost(prodloc17,harbor10,tr11,8219).
routeCost(prodloc17,harbor11,tr11,1447).
routeCost(prodloc17,harbor11,tr12,4761).
routeCost(prodloc17,harbor11,tr14,6348).
routeCost(prodloc17,harbor11,tr2,4761).
routeCost(prodloc17,harbor11,tr4,6348).
routeCost(prodloc17,harbor12,tr11,24288).
routeCost(prodloc17,harbor13,tr11,24846).
routeCost(prodloc17,harbor14,tr11,396).
routeCost(prodloc17,harbor15,tr11,1655).
routeCost(prodloc17,harbor16,tr11,3895).
routeCost(prodloc17,harbor16,tr12,6324).
routeCost(prodloc17,harbor16,tr14,8432).
routeCost(prodloc17,harbor16,tr2,6324).
routeCost(prodloc17,harbor16,tr4,8432).
routeCost(prodloc17,harbor2,tr11,165).
routeCost(prodloc17,harbor2,tr12,330).
routeCost(prodloc17,harbor2,tr14,440).
routeCost(prodloc17,harbor2,tr2,330).
routeCost(prodloc17,harbor2,tr4,440).
routeCost(prodloc17,harbor2,tr9,220).
routeCost(prodloc17,harbor3,tr11,3978).
routeCost(prodloc17,harbor3,tr12,8097).
routeCost(prodloc17,harbor3,tr14,10796).
routeCost(prodloc17,harbor3,tr2,8097).
routeCost(prodloc17,harbor3,tr4,10796).
routeCost(prodloc17,harbor4,tr11,8784).
routeCost(prodloc17,harbor5,tr11,1735).
routeCost(prodloc17,harbor5,tr12,4887).
routeCost(prodloc17,harbor5,tr14,6516).
routeCost(prodloc17,harbor5,tr2,4887).
routeCost(prodloc17,harbor5,tr4,6516).
routeCost(prodloc17,harbor6,tr11,774).
routeCost(prodloc17,harbor6,tr12,2043).
routeCost(prodloc17,harbor6,tr14,2724).
routeCost(prodloc17,harbor6,tr2,2043).
routeCost(prodloc17,harbor6,tr4,2724).
routeCost(prodloc17,harbor7,tr11,22921).
routeCost(prodloc17,harbor8,tr11,6801).
routeCost(prodloc17,harbor9,tr11,1996).
routeCost(prodloc17,harbor9,tr12,7920).
routeCost(prodloc17,harbor9,tr14,10560).
routeCost(prodloc17,harbor9,tr2,7920).
routeCost(prodloc17,harbor9,tr4,10560).
routeCost(prodloc17,prodloc12,tr12,5895).
routeCost(prodloc17,prodloc12,tr14,7860).
routeCost(prodloc17,prodloc12,tr2,5895).
routeCost(prodloc17,prodloc12,tr4,7860).
routeCost(prodloc17,prodloc16,tr12,7698).
routeCost(prodloc17,prodloc16,tr14,10264).
routeCost(prodloc17,prodloc16,tr2,7698).
routeCost(prodloc17,prodloc16,tr4,10264).
routeCost(prodloc17,prodloc18,tr11,3894).
routeCost(prodloc17,prodloc18,tr12,7899).
routeCost(prodloc17,prodloc18,tr14,10532).
routeCost(prodloc17,prodloc18,tr2,7899).
routeCost(prodloc17,prodloc18,tr4,10532).
routeCost(prodloc17,prodloc2,tr12,3948).
routeCost(prodloc17,prodloc2,tr14,5264).
routeCost(prodloc17,prodloc2,tr2,3948).
routeCost(prodloc17,prodloc2,tr4,5264).
routeCost(prodloc17,prodloc20,tr12,6834).
routeCost(prodloc17,prodloc20,tr14,9112).
routeCost(prodloc17,prodloc20,tr2,6834).
routeCost(prodloc17,prodloc20,tr4,9112).
routeCost(prodloc17,prodloc21,tr12,1848).
routeCost(prodloc17,prodloc21,tr14,2464).
routeCost(prodloc17,prodloc21,tr2,1848).
routeCost(prodloc17,prodloc21,tr4,2464).
routeCost(prodloc17,prodloc22,tr12,4239).
routeCost(prodloc17,prodloc22,tr14,5652).
routeCost(prodloc17,prodloc22,tr2,4239).
routeCost(prodloc17,prodloc22,tr4,5652).
routeCost(prodloc17,prodloc24,tr11,3973).
routeCost(prodloc17,prodloc24,tr12,8070).
routeCost(prodloc17,prodloc24,tr14,10760).
routeCost(prodloc17,prodloc24,tr2,8070).
routeCost(prodloc17,prodloc24,tr4,10760).
routeCost(prodloc17,prodloc26,tr12,7902).
routeCost(prodloc17,prodloc26,tr14,10536).
routeCost(prodloc17,prodloc26,tr2,7902).
routeCost(prodloc17,prodloc26,tr4,10536).
routeCost(prodloc17,prodloc27,tr12,7152).
routeCost(prodloc17,prodloc27,tr14,9536).
routeCost(prodloc17,prodloc27,tr2,7152).
routeCost(prodloc17,prodloc27,tr4,9536).
routeCost(prodloc17,prodloc3,tr12,4887).
routeCost(prodloc17,prodloc3,tr14,6516).
routeCost(prodloc17,prodloc3,tr2,4887).
routeCost(prodloc17,prodloc3,tr4,6516).
routeCost(prodloc17,prodloc31,tr12,10740).
routeCost(prodloc17,prodloc31,tr14,14320).
routeCost(prodloc17,prodloc31,tr2,10740).
routeCost(prodloc17,prodloc31,tr4,14320).
routeCost(prodloc17,prodloc32,tr12,2094).
routeCost(prodloc17,prodloc32,tr14,2792).
routeCost(prodloc17,prodloc32,tr2,2094).
routeCost(prodloc17,prodloc32,tr4,2792).
routeCost(prodloc17,prodloc33,tr12,7161).
routeCost(prodloc17,prodloc33,tr14,9548).
routeCost(prodloc17,prodloc33,tr2,7161).
routeCost(prodloc17,prodloc33,tr4,9548).
routeCost(prodloc17,prodloc34,tr12,8286).
routeCost(prodloc17,prodloc34,tr14,11048).
routeCost(prodloc17,prodloc34,tr2,8286).
routeCost(prodloc17,prodloc34,tr4,11048).
routeCost(prodloc17,prodloc40,tr11,4161).
routeCost(prodloc17,prodloc40,tr12,8625).
routeCost(prodloc17,prodloc40,tr14,11500).
routeCost(prodloc17,prodloc40,tr2,8625).
routeCost(prodloc17,prodloc40,tr4,11500).
routeCost(prodloc17,prodloc44,tr12,13236).
routeCost(prodloc17,prodloc44,tr14,17648).
routeCost(prodloc17,prodloc44,tr2,13236).
routeCost(prodloc17,prodloc44,tr4,17648).
routeCost(prodloc17,prodloc46,tr12,2784).
routeCost(prodloc17,prodloc46,tr14,3712).
routeCost(prodloc17,prodloc46,tr2,2784).
routeCost(prodloc17,prodloc46,tr4,3712).
routeCost(prodloc17,prodloc47,tr11,4584).
routeCost(prodloc17,prodloc47,tr12,10080).
routeCost(prodloc17,prodloc47,tr14,13440).
routeCost(prodloc17,prodloc47,tr2,10080).
routeCost(prodloc17,prodloc47,tr4,13440).
routeCost(prodloc17,prodloc49,tr12,4716).
routeCost(prodloc17,prodloc49,tr14,6288).
routeCost(prodloc17,prodloc49,tr2,4716).
routeCost(prodloc17,prodloc49,tr4,6288).
routeCost(prodloc17,prodloc5,tr12,8061).
routeCost(prodloc17,prodloc5,tr14,10748).
routeCost(prodloc17,prodloc5,tr2,8061).
routeCost(prodloc17,prodloc5,tr4,10748).
routeCost(prodloc17,prodloc6,tr12,7779).
routeCost(prodloc17,prodloc6,tr14,10372).
routeCost(prodloc17,prodloc6,tr2,7779).
routeCost(prodloc17,prodloc6,tr4,10372).
routeCost(prodloc17,prodloc7,tr12,1737).
routeCost(prodloc17,prodloc7,tr14,2316).
routeCost(prodloc17,prodloc7,tr2,1737).
routeCost(prodloc17,prodloc7,tr4,2316).
routeCost(prodloc17,prodloc8,tr11,1735).
routeCost(prodloc17,prodloc8,tr12,4887).
routeCost(prodloc17,prodloc8,tr14,6516).
routeCost(prodloc17,prodloc8,tr2,4887).
routeCost(prodloc17,prodloc8,tr4,6516).
routeCost(prodloc18,harbor0,tr0,3848).
routeCost(prodloc18,harbor0,tr12,327).
routeCost(prodloc18,harbor0,tr14,436).
routeCost(prodloc18,harbor0,tr2,327).
routeCost(prodloc18,harbor0,tr4,436).
routeCost(prodloc18,harbor0,tr9,218).
routeCost(prodloc18,harbor1,tr11,27017).
routeCost(prodloc18,harbor1,tr13,162102).
routeCost(prodloc18,harbor10,tr11,9132).
routeCost(prodloc18,harbor10,tr13,54792).
routeCost(prodloc18,harbor11,tr11,5297).
routeCost(prodloc18,harbor11,tr12,4056).
routeCost(prodloc18,harbor11,tr13,31782).
routeCost(prodloc18,harbor11,tr14,5408).
routeCost(prodloc18,harbor11,tr2,4056).
routeCost(prodloc18,harbor11,tr4,5408).
routeCost(prodloc18,harbor12,tr11,27703).
routeCost(prodloc18,harbor12,tr13,166218).
routeCost(prodloc18,harbor13,tr11,28261).
routeCost(prodloc18,harbor13,tr13,169566).
routeCost(prodloc18,harbor14,tr11,4015).
routeCost(prodloc18,harbor14,tr13,24090).
routeCost(prodloc18,harbor15,tr11,5505).
routeCost(prodloc18,harbor15,tr13,33030).
routeCost(prodloc18,harbor16,tr11,603).
routeCost(prodloc18,harbor16,tr12,1929).
routeCost(prodloc18,harbor16,tr13,3618).
routeCost(prodloc18,harbor16,tr14,2572).
routeCost(prodloc18,harbor16,tr2,1929).
routeCost(prodloc18,harbor16,tr4,2572).
routeCost(prodloc18,harbor2,tr11,4015).
routeCost(prodloc18,harbor2,tr12,8076).
routeCost(prodloc18,harbor2,tr13,24090).
routeCost(prodloc18,harbor2,tr14,10768).
routeCost(prodloc18,harbor2,tr2,8076).
routeCost(prodloc18,harbor2,tr4,10768).
routeCost(prodloc18,harbor3,tr0,4082).
routeCost(prodloc18,harbor3,tr11,157).
routeCost(prodloc18,harbor3,tr12,432).
routeCost(prodloc18,harbor3,tr13,942).
routeCost(prodloc18,harbor3,tr14,572).
routeCost(prodloc18,harbor3,tr2,429).
routeCost(prodloc18,harbor3,tr4,576).
routeCost(prodloc18,harbor3,tr9,288).
routeCost(prodloc18,harbor4,tr11,9697).
routeCost(prodloc18,harbor4,tr13,58182).
routeCost(prodloc18,harbor5,tr11,2594).
routeCost(prodloc18,harbor5,tr12,3744).
routeCost(prodloc18,harbor5,tr13,15564).
routeCost(prodloc18,harbor5,tr14,4992).
routeCost(prodloc18,harbor5,tr2,3744).
routeCost(prodloc18,harbor5,tr4,4992).
routeCost(prodloc18,harbor6,tr11,3145).
routeCost(prodloc18,harbor6,tr12,7056).
routeCost(prodloc18,harbor6,tr13,18870).
routeCost(prodloc18,harbor6,tr14,9408).
routeCost(prodloc18,harbor6,tr2,7056).
routeCost(prodloc18,harbor6,tr4,9408).
routeCost(prodloc18,harbor7,tr11,26336).
routeCost(prodloc18,harbor7,tr13,158016).
routeCost(prodloc18,harbor8,tr11,7459).
routeCost(prodloc18,harbor8,tr13,44754).
routeCost(prodloc18,harbor9,tr11,5846).
routeCost(prodloc18,harbor9,tr12,5625).
routeCost(prodloc18,harbor9,tr13,35076).
routeCost(prodloc18,harbor9,tr14,7500).
routeCost(prodloc18,harbor9,tr2,5625).
routeCost(prodloc18,harbor9,tr4,7500).
routeCost(prodloc18,prodloc12,tr12,2070).
routeCost(prodloc18,prodloc12,tr14,2760).
routeCost(prodloc18,prodloc12,tr2,2070).
routeCost(prodloc18,prodloc12,tr4,2760).
routeCost(prodloc18,prodloc16,tr12,2637).
routeCost(prodloc18,prodloc16,tr14,3516).
routeCost(prodloc18,prodloc16,tr2,2637).
routeCost(prodloc18,prodloc16,tr4,3516).
routeCost(prodloc18,prodloc17,tr11,3894).
routeCost(prodloc18,prodloc17,tr12,7926).
routeCost(prodloc18,prodloc17,tr14,10568).
routeCost(prodloc18,prodloc17,tr2,7926).
routeCost(prodloc18,prodloc17,tr4,10568).
routeCost(prodloc18,prodloc2,tr12,4491).
routeCost(prodloc18,prodloc2,tr14,5988).
routeCost(prodloc18,prodloc2,tr2,4491).
routeCost(prodloc18,prodloc2,tr4,5988).
routeCost(prodloc18,prodloc20,tr12,1665).
routeCost(prodloc18,prodloc20,tr14,2224).
routeCost(prodloc18,prodloc20,tr2,1668).
routeCost(prodloc18,prodloc20,tr4,2220).
routeCost(prodloc18,prodloc21,tr12,6243).
routeCost(prodloc18,prodloc21,tr14,8324).
routeCost(prodloc18,prodloc21,tr2,6243).
routeCost(prodloc18,prodloc21,tr4,8324).
routeCost(prodloc18,prodloc22,tr12,3855).
routeCost(prodloc18,prodloc22,tr14,5140).
routeCost(prodloc18,prodloc22,tr2,3855).
routeCost(prodloc18,prodloc22,tr4,5140).
routeCost(prodloc18,prodloc24,tr0,3952).
routeCost(prodloc18,prodloc24,tr11,152).
routeCost(prodloc18,prodloc24,tr12,390).
routeCost(prodloc18,prodloc24,tr13,912).
routeCost(prodloc18,prodloc24,tr14,516).
routeCost(prodloc18,prodloc24,tr2,387).
routeCost(prodloc18,prodloc24,tr4,520).
routeCost(prodloc18,prodloc24,tr9,260).
routeCost(prodloc18,prodloc26,tr12,5610).
routeCost(prodloc18,prodloc26,tr14,7480).
routeCost(prodloc18,prodloc26,tr2,5610).
routeCost(prodloc18,prodloc26,tr4,7480).
routeCost(prodloc18,prodloc27,tr12,2193).
routeCost(prodloc18,prodloc27,tr14,2924).
routeCost(prodloc18,prodloc27,tr2,2193).
routeCost(prodloc18,prodloc27,tr4,2924).
routeCost(prodloc18,prodloc3,tr12,3747).
routeCost(prodloc18,prodloc3,tr14,4996).
routeCost(prodloc18,prodloc3,tr2,3747).
routeCost(prodloc18,prodloc3,tr4,4996).
routeCost(prodloc18,prodloc31,tr12,5652).
routeCost(prodloc18,prodloc31,tr14,7536).
routeCost(prodloc18,prodloc31,tr2,5652).
routeCost(prodloc18,prodloc31,tr4,7536).
routeCost(prodloc18,prodloc32,tr12,6954).
routeCost(prodloc18,prodloc32,tr14,9272).
routeCost(prodloc18,prodloc32,tr2,6954).
routeCost(prodloc18,prodloc32,tr4,9272).
routeCost(prodloc18,prodloc33,tr12,2340).
routeCost(prodloc18,prodloc33,tr14,3120).
routeCost(prodloc18,prodloc33,tr2,2340).
routeCost(prodloc18,prodloc33,tr4,3120).
routeCost(prodloc18,prodloc34,tr12,1479).
routeCost(prodloc18,prodloc34,tr14,1972).
routeCost(prodloc18,prodloc34,tr2,1479).
routeCost(prodloc18,prodloc34,tr4,1972).
routeCost(prodloc18,prodloc40,tr11,340).
routeCost(prodloc18,prodloc40,tr12,993).
routeCost(prodloc18,prodloc40,tr13,2040).
routeCost(prodloc18,prodloc40,tr14,1324).
routeCost(prodloc18,prodloc40,tr2,993).
routeCost(prodloc18,prodloc40,tr4,1324).
routeCost(prodloc18,prodloc44,tr12,8700).
routeCost(prodloc18,prodloc44,tr14,11600).
routeCost(prodloc18,prodloc44,tr2,8700).
routeCost(prodloc18,prodloc44,tr4,11600).
routeCost(prodloc18,prodloc46,tr12,5136).
routeCost(prodloc18,prodloc46,tr14,6848).
routeCost(prodloc18,prodloc46,tr2,5136).
routeCost(prodloc18,prodloc46,tr4,6848).
routeCost(prodloc18,prodloc47,tr11,830).
routeCost(prodloc18,prodloc47,tr12,2550).
routeCost(prodloc18,prodloc47,tr13,4980).
routeCost(prodloc18,prodloc47,tr14,3400).
routeCost(prodloc18,prodloc47,tr2,2550).
routeCost(prodloc18,prodloc47,tr4,3400).
routeCost(prodloc18,prodloc49,tr12,3630).
routeCost(prodloc18,prodloc49,tr14,4840).
routeCost(prodloc18,prodloc49,tr2,3630).
routeCost(prodloc18,prodloc49,tr4,4840).
routeCost(prodloc18,prodloc5,tr12,303).
routeCost(prodloc18,prodloc5,tr14,404).
routeCost(prodloc18,prodloc5,tr2,303).
routeCost(prodloc18,prodloc5,tr4,404).
routeCost(prodloc18,prodloc5,tr9,202).
routeCost(prodloc18,prodloc6,tr12,222).
routeCost(prodloc18,prodloc6,tr14,296).
routeCost(prodloc18,prodloc6,tr2,222).
routeCost(prodloc18,prodloc6,tr4,296).
routeCost(prodloc18,prodloc6,tr9,148).
routeCost(prodloc18,prodloc7,tr12,6297).
routeCost(prodloc18,prodloc7,tr14,8396).
routeCost(prodloc18,prodloc7,tr2,6297).
routeCost(prodloc18,prodloc7,tr4,8396).
routeCost(prodloc18,prodloc8,tr11,2594).
routeCost(prodloc18,prodloc8,tr12,3744).
routeCost(prodloc18,prodloc8,tr13,15564).
routeCost(prodloc18,prodloc8,tr14,4992).
routeCost(prodloc18,prodloc8,tr2,3744).
routeCost(prodloc18,prodloc8,tr4,4992).
routeCost(prodloc2,harbor0,tr12,4623).
routeCost(prodloc2,harbor0,tr14,6164).
routeCost(prodloc2,harbor0,tr2,4623).
routeCost(prodloc2,harbor0,tr4,6164).
routeCost(prodloc2,harbor11,tr12,1236).
routeCost(prodloc2,harbor11,tr14,1648).
routeCost(prodloc2,harbor11,tr2,1236).
routeCost(prodloc2,harbor11,tr4,1648).
routeCost(prodloc2,harbor16,tr12,2895).
routeCost(prodloc2,harbor16,tr14,3860).
routeCost(prodloc2,harbor16,tr2,2895).
routeCost(prodloc2,harbor16,tr4,3860).
routeCost(prodloc2,harbor2,tr12,3966).
routeCost(prodloc2,harbor2,tr14,5288).
routeCost(prodloc2,harbor2,tr2,3966).
routeCost(prodloc2,harbor2,tr4,5288).
routeCost(prodloc2,harbor3,tr12,4671).
routeCost(prodloc2,harbor3,tr14,6228).
routeCost(prodloc2,harbor3,tr2,4671).
routeCost(prodloc2,harbor3,tr4,6228).
routeCost(prodloc2,harbor5,tr12,1833).
routeCost(prodloc2,harbor5,tr14,2444).
routeCost(prodloc2,harbor5,tr2,1833).
routeCost(prodloc2,harbor5,tr4,2444).
routeCost(prodloc2,harbor6,tr12,3243).
routeCost(prodloc2,harbor6,tr14,4324).
routeCost(prodloc2,harbor6,tr2,3243).
routeCost(prodloc2,harbor6,tr4,4324).
routeCost(prodloc2,harbor9,tr12,4395).
routeCost(prodloc2,harbor9,tr14,5860).
routeCost(prodloc2,harbor9,tr2,4395).
routeCost(prodloc2,harbor9,tr4,5860).
routeCost(prodloc2,prodloc1,tr15,43968).
routeCost(prodloc2,prodloc11,tr15,328224).
routeCost(prodloc2,prodloc12,tr12,2466).
routeCost(prodloc2,prodloc12,tr14,3288).
routeCost(prodloc2,prodloc12,tr15,22880).
routeCost(prodloc2,prodloc12,tr2,2466).
routeCost(prodloc2,prodloc12,tr4,3288).
routeCost(prodloc2,prodloc16,tr12,4173).
routeCost(prodloc2,prodloc16,tr14,5564).
routeCost(prodloc2,prodloc16,tr2,4173).
routeCost(prodloc2,prodloc16,tr4,5564).
routeCost(prodloc2,prodloc17,tr12,4116).
routeCost(prodloc2,prodloc17,tr14,5488).
routeCost(prodloc2,prodloc17,tr2,4116).
routeCost(prodloc2,prodloc17,tr4,5488).
routeCost(prodloc2,prodloc18,tr12,4470).
routeCost(prodloc2,prodloc18,tr14,5960).
routeCost(prodloc2,prodloc18,tr2,4470).
routeCost(prodloc2,prodloc18,tr4,5960).
routeCost(prodloc2,prodloc20,tr12,3084).
routeCost(prodloc2,prodloc20,tr14,4112).
routeCost(prodloc2,prodloc20,tr15,26688).
routeCost(prodloc2,prodloc20,tr2,3084).
routeCost(prodloc2,prodloc20,tr4,4112).
routeCost(prodloc2,prodloc21,tr12,2142).
routeCost(prodloc2,prodloc21,tr14,2856).
routeCost(prodloc2,prodloc21,tr15,17824).
routeCost(prodloc2,prodloc21,tr2,2142).
routeCost(prodloc2,prodloc21,tr4,2856).
routeCost(prodloc2,prodloc22,tr12,1182).
routeCost(prodloc2,prodloc22,tr14,1576).
routeCost(prodloc2,prodloc22,tr2,1182).
routeCost(prodloc2,prodloc22,tr4,1576).
routeCost(prodloc2,prodloc24,tr12,4644).
routeCost(prodloc2,prodloc24,tr14,6192).
routeCost(prodloc2,prodloc24,tr15,40480).
routeCost(prodloc2,prodloc24,tr2,4644).
routeCost(prodloc2,prodloc24,tr4,6192).
routeCost(prodloc2,prodloc26,tr12,4377).
routeCost(prodloc2,prodloc26,tr14,5836).
routeCost(prodloc2,prodloc26,tr2,4377).
routeCost(prodloc2,prodloc26,tr4,5836).
routeCost(prodloc2,prodloc27,tr12,3462).
routeCost(prodloc2,prodloc27,tr14,4616).
routeCost(prodloc2,prodloc27,tr2,3462).
routeCost(prodloc2,prodloc27,tr4,4616).
routeCost(prodloc2,prodloc3,tr12,1833).
routeCost(prodloc2,prodloc3,tr14,2444).
routeCost(prodloc2,prodloc3,tr15,15744).
routeCost(prodloc2,prodloc3,tr2,1833).
routeCost(prodloc2,prodloc3,tr4,2444).
routeCost(prodloc2,prodloc30,tr15,281536).
routeCost(prodloc2,prodloc31,tr12,7215).
routeCost(prodloc2,prodloc31,tr14,9620).
routeCost(prodloc2,prodloc31,tr15,61408).
routeCost(prodloc2,prodloc31,tr2,7215).
routeCost(prodloc2,prodloc31,tr4,9620).
routeCost(prodloc2,prodloc32,tr12,3144).
routeCost(prodloc2,prodloc32,tr14,4192).
routeCost(prodloc2,prodloc32,tr2,3144).
routeCost(prodloc2,prodloc32,tr4,4192).
routeCost(prodloc2,prodloc33,tr12,3636).
routeCost(prodloc2,prodloc33,tr14,4848).
routeCost(prodloc2,prodloc33,tr15,29280).
routeCost(prodloc2,prodloc33,tr2,3636).
routeCost(prodloc2,prodloc33,tr4,4848).
routeCost(prodloc2,prodloc34,tr12,4536).
routeCost(prodloc2,prodloc34,tr14,6048).
routeCost(prodloc2,prodloc34,tr2,4536).
routeCost(prodloc2,prodloc34,tr4,6048).
routeCost(prodloc2,prodloc36,tr15,275776).
routeCost(prodloc2,prodloc40,tr12,5199).
routeCost(prodloc2,prodloc40,tr14,6932).
routeCost(prodloc2,prodloc40,tr2,5199).
routeCost(prodloc2,prodloc40,tr4,6932).
routeCost(prodloc2,prodloc41,tr15,245600).
routeCost(prodloc2,prodloc44,tr12,9711).
routeCost(prodloc2,prodloc44,tr14,12948).
routeCost(prodloc2,prodloc44,tr15,83232).
routeCost(prodloc2,prodloc44,tr2,9711).
routeCost(prodloc2,prodloc44,tr4,12948).
routeCost(prodloc2,prodloc46,tr12,1326).
routeCost(prodloc2,prodloc46,tr14,1768).
routeCost(prodloc2,prodloc46,tr2,1326).
routeCost(prodloc2,prodloc46,tr4,1768).
routeCost(prodloc2,prodloc47,tr12,6606).
routeCost(prodloc2,prodloc47,tr14,8808).
routeCost(prodloc2,prodloc47,tr2,6606).
routeCost(prodloc2,prodloc47,tr4,8808).
routeCost(prodloc2,prodloc49,tr12,1659).
routeCost(prodloc2,prodloc49,tr14,2212).
routeCost(prodloc2,prodloc49,tr15,14560).
routeCost(prodloc2,prodloc49,tr2,1659).
routeCost(prodloc2,prodloc49,tr4,2212).
routeCost(prodloc2,prodloc5,tr12,4632).
routeCost(prodloc2,prodloc5,tr14,6176).
routeCost(prodloc2,prodloc5,tr2,4632).
routeCost(prodloc2,prodloc5,tr4,6176).
routeCost(prodloc2,prodloc6,tr12,4350).
routeCost(prodloc2,prodloc6,tr14,5800).
routeCost(prodloc2,prodloc6,tr15,37856).
routeCost(prodloc2,prodloc6,tr2,4350).
routeCost(prodloc2,prodloc6,tr4,5800).
routeCost(prodloc2,prodloc7,tr12,2196).
routeCost(prodloc2,prodloc7,tr14,2928).
routeCost(prodloc2,prodloc7,tr2,2196).
routeCost(prodloc2,prodloc7,tr4,2928).
routeCost(prodloc2,prodloc8,tr12,1833).
routeCost(prodloc2,prodloc8,tr14,2444).
routeCost(prodloc2,prodloc8,tr15,15808).
routeCost(prodloc2,prodloc8,tr2,1833).
routeCost(prodloc2,prodloc8,tr4,2444).
routeCost(prodloc20,harbor0,tr12,1773).
routeCost(prodloc20,harbor0,tr14,2364).
routeCost(prodloc20,harbor0,tr2,1773).
routeCost(prodloc20,harbor0,tr4,2364).
routeCost(prodloc20,harbor11,tr12,2721).
routeCost(prodloc20,harbor11,tr14,3628).
routeCost(prodloc20,harbor11,tr2,2721).
routeCost(prodloc20,harbor11,tr4,3628).
routeCost(prodloc20,harbor16,tr12,1752).
routeCost(prodloc20,harbor16,tr14,2336).
routeCost(prodloc20,harbor16,tr2,1752).
routeCost(prodloc20,harbor16,tr4,2336).
routeCost(prodloc20,harbor2,tr12,6813).
routeCost(prodloc20,harbor2,tr14,9084).
routeCost(prodloc20,harbor2,tr2,6813).
routeCost(prodloc20,harbor2,tr4,9084).
routeCost(prodloc20,harbor3,tr12,1776).
routeCost(prodloc20,harbor3,tr14,2368).
routeCost(prodloc20,harbor3,tr2,1776).
routeCost(prodloc20,harbor3,tr4,2368).
routeCost(prodloc20,harbor5,tr12,2835).
routeCost(prodloc20,harbor5,tr14,3780).
routeCost(prodloc20,harbor5,tr2,2835).
routeCost(prodloc20,harbor5,tr4,3780).
routeCost(prodloc20,harbor6,tr12,6012).
routeCost(prodloc20,harbor6,tr14,8016).
routeCost(prodloc20,harbor6,tr2,6012).
routeCost(prodloc20,harbor6,tr4,8016).
routeCost(prodloc20,harbor9,tr12,4032).
routeCost(prodloc20,harbor9,tr14,5376).
routeCost(prodloc20,harbor9,tr2,4032).
routeCost(prodloc20,harbor9,tr4,5376).
routeCost(prodloc20,prodloc1,tr15,70656).
routeCost(prodloc20,prodloc11,tr15,302400).
routeCost(prodloc20,prodloc12,tr12,1587).
routeCost(prodloc20,prodloc12,tr14,2116).
routeCost(prodloc20,prodloc12,tr15,13504).
routeCost(prodloc20,prodloc12,tr2,1587).
routeCost(prodloc20,prodloc12,tr4,2116).
routeCost(prodloc20,prodloc16,tr12,1422).
routeCost(prodloc20,prodloc16,tr14,1896).
routeCost(prodloc20,prodloc16,tr2,1422).
routeCost(prodloc20,prodloc16,tr4,1896).
routeCost(prodloc20,prodloc17,tr12,6912).
routeCost(prodloc20,prodloc17,tr14,9216).
routeCost(prodloc20,prodloc17,tr2,6912).
routeCost(prodloc20,prodloc17,tr4,9216).
routeCost(prodloc20,prodloc18,tr12,1668).
routeCost(prodloc20,prodloc18,tr14,2228).
routeCost(prodloc20,prodloc18,tr2,1671).
routeCost(prodloc20,prodloc18,tr4,2224).
routeCost(prodloc20,prodloc2,tr12,3132).
routeCost(prodloc20,prodloc2,tr14,4176).
routeCost(prodloc20,prodloc2,tr15,26688).
routeCost(prodloc20,prodloc2,tr2,3132).
routeCost(prodloc20,prodloc2,tr4,4176).
routeCost(prodloc20,prodloc21,tr12,5202).
routeCost(prodloc20,prodloc21,tr14,6936).
routeCost(prodloc20,prodloc21,tr15,44288).
routeCost(prodloc20,prodloc21,tr2,5202).
routeCost(prodloc20,prodloc21,tr4,6936).
routeCost(prodloc20,prodloc22,tr12,2934).
routeCost(prodloc20,prodloc22,tr14,3912).
routeCost(prodloc20,prodloc22,tr2,2934).
routeCost(prodloc20,prodloc22,tr4,3912).
routeCost(prodloc20,prodloc24,tr12,1770).
routeCost(prodloc20,prodloc24,tr14,2360).
routeCost(prodloc20,prodloc24,tr15,15328).
routeCost(prodloc20,prodloc24,tr2,1770).
routeCost(prodloc20,prodloc24,tr4,2360).
routeCost(prodloc20,prodloc26,tr12,4014).
routeCost(prodloc20,prodloc26,tr14,5352).
routeCost(prodloc20,prodloc26,tr2,4014).
routeCost(prodloc20,prodloc26,tr4,5352).
routeCost(prodloc20,prodloc27,tr12,807).
routeCost(prodloc20,prodloc27,tr14,1076).
routeCost(prodloc20,prodloc27,tr2,807).
routeCost(prodloc20,prodloc27,tr4,1076).
routeCost(prodloc20,prodloc27,tr9,538).
routeCost(prodloc20,prodloc3,tr12,2835).
routeCost(prodloc20,prodloc3,tr14,3780).
routeCost(prodloc20,prodloc3,tr15,26048).
routeCost(prodloc20,prodloc3,tr2,2835).
routeCost(prodloc20,prodloc3,tr4,3780).
routeCost(prodloc20,prodloc30,tr15,255040).
routeCost(prodloc20,prodloc31,tr12,4908).
routeCost(prodloc20,prodloc31,tr14,6544).
routeCost(prodloc20,prodloc31,tr15,42912).
routeCost(prodloc20,prodloc31,tr2,4908).
routeCost(prodloc20,prodloc31,tr4,6544).
routeCost(prodloc20,prodloc32,tr12,5913).
routeCost(prodloc20,prodloc32,tr14,7884).
routeCost(prodloc20,prodloc32,tr2,5913).
routeCost(prodloc20,prodloc32,tr4,7884).
routeCost(prodloc20,prodloc33,tr12,954).
routeCost(prodloc20,prodloc33,tr14,1272).
routeCost(prodloc20,prodloc33,tr15,7936).
routeCost(prodloc20,prodloc33,tr2,954).
routeCost(prodloc20,prodloc33,tr4,1272).
routeCost(prodloc20,prodloc34,tr12,1494).
routeCost(prodloc20,prodloc34,tr14,1992).
routeCost(prodloc20,prodloc34,tr2,1494).
routeCost(prodloc20,prodloc34,tr4,1992).
routeCost(prodloc20,prodloc36,tr15,250944).
routeCost(prodloc20,prodloc40,tr12,2106).
routeCost(prodloc20,prodloc40,tr14,2808).
routeCost(prodloc20,prodloc40,tr2,2106).
routeCost(prodloc20,prodloc40,tr4,2808).
routeCost(prodloc20,prodloc41,tr15,253248).
routeCost(prodloc20,prodloc44,tr12,7953).
routeCost(prodloc20,prodloc44,tr14,10604).
routeCost(prodloc20,prodloc44,tr15,68864).
routeCost(prodloc20,prodloc44,tr2,7953).
routeCost(prodloc20,prodloc44,tr4,10604).
routeCost(prodloc20,prodloc46,tr12,4095).
routeCost(prodloc20,prodloc46,tr14,5460).
routeCost(prodloc20,prodloc46,tr2,4095).
routeCost(prodloc20,prodloc46,tr4,5460).
routeCost(prodloc20,prodloc47,tr12,3462).
routeCost(prodloc20,prodloc47,tr14,4616).
routeCost(prodloc20,prodloc47,tr2,3462).
routeCost(prodloc20,prodloc47,tr4,4616).
routeCost(prodloc20,prodloc49,tr12,2718).
routeCost(prodloc20,prodloc49,tr14,3624).
routeCost(prodloc20,prodloc49,tr15,24960).
routeCost(prodloc20,prodloc49,tr2,2718).
routeCost(prodloc20,prodloc49,tr4,3624).
routeCost(prodloc20,prodloc5,tr12,1782).
routeCost(prodloc20,prodloc5,tr14,2376).
routeCost(prodloc20,prodloc5,tr2,1782).
routeCost(prodloc20,prodloc5,tr4,2376).
routeCost(prodloc20,prodloc6,tr12,1467).
routeCost(prodloc20,prodloc6,tr14,1960).
routeCost(prodloc20,prodloc6,tr15,13312).
routeCost(prodloc20,prodloc6,tr2,1470).
routeCost(prodloc20,prodloc6,tr4,1956).
routeCost(prodloc20,prodloc7,tr12,5253).
routeCost(prodloc20,prodloc7,tr14,7004).
routeCost(prodloc20,prodloc7,tr2,5253).
routeCost(prodloc20,prodloc7,tr4,7004).
routeCost(prodloc20,prodloc8,tr12,2835).
routeCost(prodloc20,prodloc8,tr14,3780).
routeCost(prodloc20,prodloc8,tr15,26080).
routeCost(prodloc20,prodloc8,tr2,2835).
routeCost(prodloc20,prodloc8,tr4,3780).
routeCost(prodloc21,harbor0,tr12,6375).
routeCost(prodloc21,harbor0,tr14,8500).
routeCost(prodloc21,harbor0,tr2,6375).
routeCost(prodloc21,harbor0,tr4,8500).
routeCost(prodloc21,harbor11,tr12,3216).
routeCost(prodloc21,harbor11,tr14,4288).
routeCost(prodloc21,harbor11,tr2,3216).
routeCost(prodloc21,harbor11,tr4,4288).
routeCost(prodloc21,harbor16,tr12,4647).
routeCost(prodloc21,harbor16,tr14,6196).
routeCost(prodloc21,harbor16,tr2,4647).
routeCost(prodloc21,harbor16,tr4,6196).
routeCost(prodloc21,harbor2,tr12,1845).
routeCost(prodloc21,harbor2,tr14,2460).
routeCost(prodloc21,harbor2,tr2,1845).
routeCost(prodloc21,harbor2,tr4,2460).
routeCost(prodloc21,harbor3,tr12,6420).
routeCost(prodloc21,harbor3,tr14,8560).
routeCost(prodloc21,harbor3,tr2,6420).
routeCost(prodloc21,harbor3,tr4,8560).
routeCost(prodloc21,harbor5,tr12,3210).
routeCost(prodloc21,harbor5,tr14,4280).
routeCost(prodloc21,harbor5,tr2,3210).
routeCost(prodloc21,harbor5,tr4,4280).
routeCost(prodloc21,harbor6,tr12,1737).
routeCost(prodloc21,harbor6,tr14,2316).
routeCost(prodloc21,harbor6,tr2,1737).
routeCost(prodloc21,harbor6,tr4,2316).
routeCost(prodloc21,harbor9,tr12,6375).
routeCost(prodloc21,harbor9,tr14,8500).
routeCost(prodloc21,harbor9,tr2,6375).
routeCost(prodloc21,harbor9,tr4,8500).
routeCost(prodloc21,prodloc1,tr15,26912).
routeCost(prodloc21,prodloc11,tr15,346048).
routeCost(prodloc21,prodloc12,tr12,4215).
routeCost(prodloc21,prodloc12,tr14,5620).
routeCost(prodloc21,prodloc12,tr15,37952).
routeCost(prodloc21,prodloc12,tr2,4215).
routeCost(prodloc21,prodloc12,tr4,5620).
routeCost(prodloc21,prodloc16,tr12,6153).
routeCost(prodloc21,prodloc16,tr14,8204).
routeCost(prodloc21,prodloc16,tr2,6153).
routeCost(prodloc21,prodloc16,tr4,8204).
routeCost(prodloc21,prodloc17,tr12,1803).
routeCost(prodloc21,prodloc17,tr14,2404).
routeCost(prodloc21,prodloc17,tr2,1803).
routeCost(prodloc21,prodloc17,tr4,2404).
routeCost(prodloc21,prodloc18,tr12,6219).
routeCost(prodloc21,prodloc18,tr14,8292).
routeCost(prodloc21,prodloc18,tr2,6219).
routeCost(prodloc21,prodloc18,tr4,8292).
routeCost(prodloc21,prodloc2,tr12,2130).
routeCost(prodloc21,prodloc2,tr14,2840).
routeCost(prodloc21,prodloc2,tr15,17824).
routeCost(prodloc21,prodloc2,tr2,2130).
routeCost(prodloc21,prodloc2,tr4,2840).
routeCost(prodloc21,prodloc20,tr12,5157).
routeCost(prodloc21,prodloc20,tr14,6876).
routeCost(prodloc21,prodloc20,tr15,44288).
routeCost(prodloc21,prodloc20,tr2,5157).
routeCost(prodloc21,prodloc20,tr4,6876).
routeCost(prodloc21,prodloc22,tr12,2559).
routeCost(prodloc21,prodloc22,tr14,3412).
routeCost(prodloc21,prodloc22,tr2,2559).
routeCost(prodloc21,prodloc22,tr4,3412).
routeCost(prodloc21,prodloc24,tr12,6393).
routeCost(prodloc21,prodloc24,tr14,8524).
routeCost(prodloc21,prodloc24,tr15,57248).
routeCost(prodloc21,prodloc24,tr2,6393).
routeCost(prodloc21,prodloc24,tr4,8524).
routeCost(prodloc21,prodloc26,tr12,6360).
routeCost(prodloc21,prodloc26,tr14,8480).
routeCost(prodloc21,prodloc26,tr2,6360).
routeCost(prodloc21,prodloc26,tr4,8480).
routeCost(prodloc21,prodloc27,tr12,5607).
routeCost(prodloc21,prodloc27,tr14,7476).
routeCost(prodloc21,prodloc27,tr2,5607).
routeCost(prodloc21,prodloc27,tr4,7476).
routeCost(prodloc21,prodloc3,tr12,3210).
routeCost(prodloc21,prodloc3,tr14,4280).
routeCost(prodloc21,prodloc3,tr15,25216).
routeCost(prodloc21,prodloc3,tr2,3210).
routeCost(prodloc21,prodloc3,tr4,4280).
routeCost(prodloc21,prodloc30,tr15,299296).
routeCost(prodloc21,prodloc31,tr12,9195).
routeCost(prodloc21,prodloc31,tr14,12260).
routeCost(prodloc21,prodloc31,tr15,77984).
routeCost(prodloc21,prodloc31,tr2,9195).
routeCost(prodloc21,prodloc31,tr4,12260).
routeCost(prodloc21,prodloc32,tr12,1689).
routeCost(prodloc21,prodloc32,tr14,2252).
routeCost(prodloc21,prodloc32,tr2,1689).
routeCost(prodloc21,prodloc32,tr4,2252).
routeCost(prodloc21,prodloc33,tr12,5616).
routeCost(prodloc21,prodloc33,tr14,7488).
routeCost(prodloc21,prodloc33,tr15,47104).
routeCost(prodloc21,prodloc33,tr2,5616).
routeCost(prodloc21,prodloc33,tr4,7488).
routeCost(prodloc21,prodloc34,tr12,6606).
routeCost(prodloc21,prodloc34,tr14,8808).
routeCost(prodloc21,prodloc34,tr2,6606).
routeCost(prodloc21,prodloc34,tr4,8808).
routeCost(prodloc21,prodloc36,tr15,293408).
routeCost(prodloc21,prodloc40,tr12,6948).
routeCost(prodloc21,prodloc40,tr14,9264).
routeCost(prodloc21,prodloc40,tr2,6948).
routeCost(prodloc21,prodloc40,tr4,9264).
routeCost(prodloc21,prodloc41,tr15,237632).
routeCost(prodloc21,prodloc44,tr12,11691).
routeCost(prodloc21,prodloc44,tr14,15588).
routeCost(prodloc21,prodloc44,tr15,97952).
routeCost(prodloc21,prodloc44,tr2,11691).
routeCost(prodloc21,prodloc44,tr4,15588).
routeCost(prodloc21,prodloc46,tr12,1107).
routeCost(prodloc21,prodloc46,tr14,1476).
routeCost(prodloc21,prodloc46,tr2,1107).
routeCost(prodloc21,prodloc46,tr4,1476).
routeCost(prodloc21,prodloc47,tr12,8400).
routeCost(prodloc21,prodloc47,tr14,11200).
routeCost(prodloc21,prodloc47,tr2,8400).
routeCost(prodloc21,prodloc47,tr4,11200).
routeCost(prodloc21,prodloc49,tr12,3036).
routeCost(prodloc21,prodloc49,tr14,4048).
routeCost(prodloc21,prodloc49,tr15,24992).
routeCost(prodloc21,prodloc49,tr2,3036).
routeCost(prodloc21,prodloc49,tr4,4048).
routeCost(prodloc21,prodloc5,tr12,6384).
routeCost(prodloc21,prodloc5,tr14,8512).
routeCost(prodloc21,prodloc5,tr2,6384).
routeCost(prodloc21,prodloc5,tr4,8512).
routeCost(prodloc21,prodloc6,tr12,6099).
routeCost(prodloc21,prodloc6,tr14,8132).
routeCost(prodloc21,prodloc6,tr15,54496).
routeCost(prodloc21,prodloc6,tr2,6099).
routeCost(prodloc21,prodloc6,tr4,8132).
routeCost(prodloc21,prodloc7,tr12,72).
routeCost(prodloc21,prodloc7,tr14,96).
routeCost(prodloc21,prodloc7,tr2,72).
routeCost(prodloc21,prodloc7,tr4,96).
routeCost(prodloc21,prodloc7,tr9,48).
routeCost(prodloc21,prodloc8,tr12,3210).
routeCost(prodloc21,prodloc8,tr14,4280).
routeCost(prodloc21,prodloc8,tr15,25248).
routeCost(prodloc21,prodloc8,tr2,3210).
routeCost(prodloc21,prodloc8,tr4,4280).
routeCost(prodloc22,harbor0,tr12,3990).
routeCost(prodloc22,harbor0,tr14,5320).
routeCost(prodloc22,harbor0,tr2,3990).
routeCost(prodloc22,harbor0,tr4,5320).
routeCost(prodloc22,harbor11,tr12,2370).
routeCost(prodloc22,harbor11,tr14,3160).
routeCost(prodloc22,harbor11,tr2,2370).
routeCost(prodloc22,harbor11,tr4,3160).
routeCost(prodloc22,harbor16,tr12,2262).
routeCost(prodloc22,harbor16,tr14,3016).
routeCost(prodloc22,harbor16,tr2,2262).
routeCost(prodloc22,harbor16,tr4,3016).
routeCost(prodloc22,harbor2,tr12,4392).
routeCost(prodloc22,harbor2,tr14,5856).
routeCost(prodloc22,harbor2,tr2,4392).
routeCost(prodloc22,harbor2,tr4,5856).
routeCost(prodloc22,harbor3,tr12,4035).
routeCost(prodloc22,harbor3,tr14,5380).
routeCost(prodloc22,harbor3,tr2,4035).
routeCost(prodloc22,harbor3,tr4,5380).
routeCost(prodloc22,harbor5,tr12,663).
routeCost(prodloc22,harbor5,tr14,884).
routeCost(prodloc22,harbor5,tr2,663).
routeCost(prodloc22,harbor5,tr4,884).
routeCost(prodloc22,harbor6,tr12,3369).
routeCost(prodloc22,harbor6,tr14,4492).
routeCost(prodloc22,harbor6,tr2,3369).
routeCost(prodloc22,harbor6,tr4,4492).
routeCost(prodloc22,harbor9,tr12,5088).
routeCost(prodloc22,harbor9,tr14,6784).
routeCost(prodloc22,harbor9,tr2,5088).
routeCost(prodloc22,harbor9,tr4,6784).
routeCost(prodloc22,prodloc12,tr12,1830).
routeCost(prodloc22,prodloc12,tr14,2440).
routeCost(prodloc22,prodloc12,tr2,1830).
routeCost(prodloc22,prodloc12,tr4,2440).
routeCost(prodloc22,prodloc16,tr12,4116).
routeCost(prodloc22,prodloc16,tr14,5488).
routeCost(prodloc22,prodloc16,tr2,4116).
routeCost(prodloc22,prodloc16,tr4,5488).
routeCost(prodloc22,prodloc17,tr12,4242).
routeCost(prodloc22,prodloc17,tr14,5656).
routeCost(prodloc22,prodloc17,tr2,4242).
routeCost(prodloc22,prodloc17,tr4,5656).
routeCost(prodloc22,prodloc18,tr12,3837).
routeCost(prodloc22,prodloc18,tr14,5116).
routeCost(prodloc22,prodloc18,tr2,3837).
routeCost(prodloc22,prodloc18,tr4,5116).
routeCost(prodloc22,prodloc2,tr12,1182).
routeCost(prodloc22,prodloc2,tr14,1576).
routeCost(prodloc22,prodloc2,tr2,1182).
routeCost(prodloc22,prodloc2,tr4,1576).
routeCost(prodloc22,prodloc20,tr12,2931).
routeCost(prodloc22,prodloc20,tr14,3908).
routeCost(prodloc22,prodloc20,tr2,2931).
routeCost(prodloc22,prodloc20,tr4,3908).
routeCost(prodloc22,prodloc21,tr12,2559).
routeCost(prodloc22,prodloc21,tr14,3412).
routeCost(prodloc22,prodloc21,tr2,2559).
routeCost(prodloc22,prodloc21,tr4,3412).
routeCost(prodloc22,prodloc24,tr12,4008).
routeCost(prodloc22,prodloc24,tr14,5344).
routeCost(prodloc22,prodloc24,tr2,4008).
routeCost(prodloc22,prodloc24,tr4,5344).
routeCost(prodloc22,prodloc26,tr12,5073).
routeCost(prodloc22,prodloc26,tr14,6764).
routeCost(prodloc22,prodloc26,tr2,5073).
routeCost(prodloc22,prodloc26,tr4,6764).
routeCost(prodloc22,prodloc27,tr12,3489).
routeCost(prodloc22,prodloc27,tr14,4652).
routeCost(prodloc22,prodloc27,tr2,3489).
routeCost(prodloc22,prodloc27,tr4,4652).
routeCost(prodloc22,prodloc3,tr12,663).
routeCost(prodloc22,prodloc3,tr14,884).
routeCost(prodloc22,prodloc3,tr2,663).
routeCost(prodloc22,prodloc3,tr4,884).
routeCost(prodloc22,prodloc3,tr9,442).
routeCost(prodloc22,prodloc31,tr12,7644).
routeCost(prodloc22,prodloc31,tr14,10192).
routeCost(prodloc22,prodloc31,tr2,7644).
routeCost(prodloc22,prodloc31,tr4,10192).
routeCost(prodloc22,prodloc32,tr12,3270).
routeCost(prodloc22,prodloc32,tr14,4360).
routeCost(prodloc22,prodloc32,tr2,3270).
routeCost(prodloc22,prodloc32,tr4,4360).
routeCost(prodloc22,prodloc33,tr12,3366).
routeCost(prodloc22,prodloc33,tr14,4488).
routeCost(prodloc22,prodloc33,tr2,3366).
routeCost(prodloc22,prodloc33,tr4,4488).
routeCost(prodloc22,prodloc34,tr12,4341).
routeCost(prodloc22,prodloc34,tr14,5788).
routeCost(prodloc22,prodloc34,tr2,4341).
routeCost(prodloc22,prodloc34,tr4,5788).
routeCost(prodloc22,prodloc40,tr12,4563).
routeCost(prodloc22,prodloc40,tr14,6084).
routeCost(prodloc22,prodloc40,tr2,4563).
routeCost(prodloc22,prodloc40,tr4,6084).
routeCost(prodloc22,prodloc44,tr12,9993).
routeCost(prodloc22,prodloc44,tr14,13324).
routeCost(prodloc22,prodloc44,tr2,9993).
routeCost(prodloc22,prodloc44,tr4,13324).
routeCost(prodloc22,prodloc46,tr12,1452).
routeCost(prodloc22,prodloc46,tr14,1936).
routeCost(prodloc22,prodloc46,tr2,1452).
routeCost(prodloc22,prodloc46,tr4,1936).
routeCost(prodloc22,prodloc47,tr12,6018).
routeCost(prodloc22,prodloc47,tr14,8024).
routeCost(prodloc22,prodloc47,tr2,6018).
routeCost(prodloc22,prodloc47,tr4,8024).
routeCost(prodloc22,prodloc49,tr12,492).
routeCost(prodloc22,prodloc49,tr14,656).
routeCost(prodloc22,prodloc49,tr2,492).
routeCost(prodloc22,prodloc49,tr4,656).
routeCost(prodloc22,prodloc49,tr9,328).
routeCost(prodloc22,prodloc5,tr12,3999).
routeCost(prodloc22,prodloc5,tr14,5332).
routeCost(prodloc22,prodloc5,tr2,3999).
routeCost(prodloc22,prodloc5,tr4,5332).
routeCost(prodloc22,prodloc6,tr12,3717).
routeCost(prodloc22,prodloc6,tr14,4956).
routeCost(prodloc22,prodloc6,tr2,3717).
routeCost(prodloc22,prodloc6,tr4,4956).
routeCost(prodloc22,prodloc7,tr12,2610).
routeCost(prodloc22,prodloc7,tr14,3480).
routeCost(prodloc22,prodloc7,tr2,2610).
routeCost(prodloc22,prodloc7,tr4,3480).
routeCost(prodloc22,prodloc8,tr12,663).
routeCost(prodloc22,prodloc8,tr14,884).
routeCost(prodloc22,prodloc8,tr2,663).
routeCost(prodloc22,prodloc8,tr4,884).
routeCost(prodloc23,harbor14,tr14,8672).
routeCost(prodloc23,harbor14,tr2,6504).
routeCost(prodloc23,harbor14,tr4,8780).
routeCost(prodloc23,harbor15,tr12,63).
routeCost(prodloc23,harbor15,tr14,88).
routeCost(prodloc23,harbor15,tr2,66).
routeCost(prodloc23,harbor15,tr4,84).
routeCost(prodloc23,harbor15,tr9,42).
routeCost(prodloc23,prodloc1,tr14,8732).
routeCost(prodloc23,prodloc1,tr2,6549).
routeCost(prodloc23,prodloc1,tr4,8732).
routeCost(prodloc24,harbor0,tr0,494).
routeCost(prodloc24,harbor0,tr12,63).
routeCost(prodloc24,harbor0,tr14,84).
routeCost(prodloc24,harbor0,tr2,63).
routeCost(prodloc24,harbor0,tr4,84).
routeCost(prodloc24,harbor0,tr9,42).
routeCost(prodloc24,harbor1,tr11,27096).
routeCost(prodloc24,harbor1,tr13,162576).
routeCost(prodloc24,harbor10,tr11,9211).
routeCost(prodloc24,harbor10,tr13,55266).
routeCost(prodloc24,harbor11,tr11,5377).
routeCost(prodloc24,harbor11,tr12,4248).
routeCost(prodloc24,harbor11,tr13,32262).
routeCost(prodloc24,harbor11,tr14,5664).
routeCost(prodloc24,harbor11,tr2,4248).
routeCost(prodloc24,harbor11,tr4,5664).
routeCost(prodloc24,harbor12,tr11,27782).
routeCost(prodloc24,harbor12,tr13,166692).
routeCost(prodloc24,harbor13,tr11,28340).
routeCost(prodloc24,harbor13,tr13,170040).
routeCost(prodloc24,harbor14,tr11,4094).
routeCost(prodloc24,harbor14,tr13,24564).
routeCost(prodloc24,harbor15,tr11,5585).
routeCost(prodloc24,harbor15,tr13,33510).
routeCost(prodloc24,harbor16,tr11,690).
routeCost(prodloc24,harbor16,tr12,2118).
routeCost(prodloc24,harbor16,tr13,4140).
routeCost(prodloc24,harbor16,tr14,2824).
routeCost(prodloc24,harbor16,tr2,2118).
routeCost(prodloc24,harbor16,tr4,2824).
routeCost(prodloc24,harbor2,tr11,4095).
routeCost(prodloc24,harbor2,tr12,8265).
routeCost(prodloc24,harbor2,tr13,24570).
routeCost(prodloc24,harbor2,tr14,11020).
routeCost(prodloc24,harbor2,tr2,8265).
routeCost(prodloc24,harbor2,tr4,11020).
routeCost(prodloc24,harbor3,tr0,260).
routeCost(prodloc24,harbor3,tr11,10).
routeCost(prodloc24,harbor3,tr12,48).
routeCost(prodloc24,harbor3,tr13,60).
routeCost(prodloc24,harbor3,tr14,64).
routeCost(prodloc24,harbor3,tr2,48).
routeCost(prodloc24,harbor3,tr4,64).
routeCost(prodloc24,harbor3,tr9,32).
routeCost(prodloc24,harbor4,tr11,9777).
routeCost(prodloc24,harbor4,tr13,58662).
routeCost(prodloc24,harbor5,tr11,2674).
routeCost(prodloc24,harbor5,tr12,3936).
routeCost(prodloc24,harbor5,tr13,16044).
routeCost(prodloc24,harbor5,tr14,5248).
routeCost(prodloc24,harbor5,tr2,3936).
routeCost(prodloc24,harbor5,tr4,5248).
routeCost(prodloc24,harbor6,tr11,3224).
routeCost(prodloc24,harbor6,tr12,7245).
routeCost(prodloc24,harbor6,tr13,19344).
routeCost(prodloc24,harbor6,tr14,9660).
routeCost(prodloc24,harbor6,tr2,7245).
routeCost(prodloc24,harbor6,tr4,9660).
routeCost(prodloc24,harbor7,tr11,26415).
routeCost(prodloc24,harbor7,tr13,158490).
routeCost(prodloc24,harbor8,tr11,7539).
routeCost(prodloc24,harbor8,tr13,45234).
routeCost(prodloc24,harbor9,tr11,5925).
routeCost(prodloc24,harbor9,tr12,5571).
routeCost(prodloc24,harbor9,tr13,35550).
routeCost(prodloc24,harbor9,tr14,7428).
routeCost(prodloc24,harbor9,tr2,5571).
routeCost(prodloc24,harbor9,tr4,7428).
routeCost(prodloc24,prodloc1,tr15,84096).
routeCost(prodloc24,prodloc11,tr15,291936).
routeCost(prodloc24,prodloc12,tr12,2259).
routeCost(prodloc24,prodloc12,tr14,3012).
routeCost(prodloc24,prodloc12,tr15,20192).
routeCost(prodloc24,prodloc12,tr2,2259).
routeCost(prodloc24,prodloc12,tr4,3012).
routeCost(prodloc24,prodloc16,tr12,2439).
routeCost(prodloc24,prodloc16,tr14,3252).
routeCost(prodloc24,prodloc16,tr2,2439).
routeCost(prodloc24,prodloc16,tr4,3252).
routeCost(prodloc24,prodloc17,tr11,3973).
routeCost(prodloc24,prodloc17,tr12,8115).
routeCost(prodloc24,prodloc17,tr14,10820).
routeCost(prodloc24,prodloc17,tr2,8115).
routeCost(prodloc24,prodloc17,tr4,10820).
routeCost(prodloc24,prodloc18,tr0,3952).
routeCost(prodloc24,prodloc18,tr11,152).
routeCost(prodloc24,prodloc18,tr12,384).
routeCost(prodloc24,prodloc18,tr13,912).
routeCost(prodloc24,prodloc18,tr14,508).
routeCost(prodloc24,prodloc18,tr2,381).
routeCost(prodloc24,prodloc18,tr4,512).
routeCost(prodloc24,prodloc18,tr9,256).
routeCost(prodloc24,prodloc2,tr12,4683).
routeCost(prodloc24,prodloc2,tr14,6244).
routeCost(prodloc24,prodloc2,tr15,40480).
routeCost(prodloc24,prodloc2,tr2,4683).
routeCost(prodloc24,prodloc2,tr4,6244).
routeCost(prodloc24,prodloc20,tr12,1767).
routeCost(prodloc24,prodloc20,tr14,2356).
routeCost(prodloc24,prodloc20,tr15,15328).
routeCost(prodloc24,prodloc20,tr2,1767).
routeCost(prodloc24,prodloc20,tr4,2356).
routeCost(prodloc24,prodloc21,tr12,6435).
routeCost(prodloc24,prodloc21,tr14,8580).
routeCost(prodloc24,prodloc21,tr15,57248).
routeCost(prodloc24,prodloc21,tr2,6435).
routeCost(prodloc24,prodloc21,tr4,8580).
routeCost(prodloc24,prodloc22,tr12,4047).
routeCost(prodloc24,prodloc22,tr14,5396).
routeCost(prodloc24,prodloc22,tr2,4047).
routeCost(prodloc24,prodloc22,tr4,5396).
routeCost(prodloc24,prodloc26,tr12,5553).
routeCost(prodloc24,prodloc26,tr14,7404).
routeCost(prodloc24,prodloc26,tr2,5553).
routeCost(prodloc24,prodloc26,tr4,7404).
routeCost(prodloc24,prodloc27,tr12,2139).
routeCost(prodloc24,prodloc27,tr14,2852).
routeCost(prodloc24,prodloc27,tr2,2139).
routeCost(prodloc24,prodloc27,tr4,2852).
routeCost(prodloc24,prodloc3,tr12,3936).
routeCost(prodloc24,prodloc3,tr14,5248).
routeCost(prodloc24,prodloc3,tr15,35008).
routeCost(prodloc24,prodloc3,tr2,3936).
routeCost(prodloc24,prodloc3,tr4,5248).
routeCost(prodloc24,prodloc30,tr15,243296).
routeCost(prodloc24,prodloc31,tr12,5457).
routeCost(prodloc24,prodloc31,tr14,7276).
routeCost(prodloc24,prodloc31,tr15,45504).
routeCost(prodloc24,prodloc31,tr2,5457).
routeCost(prodloc24,prodloc31,tr4,7276).
routeCost(prodloc24,prodloc32,tr12,7146).
routeCost(prodloc24,prodloc32,tr14,9528).
routeCost(prodloc24,prodloc32,tr2,7146).
routeCost(prodloc24,prodloc32,tr4,9528).
routeCost(prodloc24,prodloc33,tr12,2256).
routeCost(prodloc24,prodloc33,tr14,3008).
routeCost(prodloc24,prodloc33,tr15,19616).
routeCost(prodloc24,prodloc33,tr2,2256).
routeCost(prodloc24,prodloc33,tr4,3008).
routeCost(prodloc24,prodloc34,tr12,1281).
routeCost(prodloc24,prodloc34,tr14,1708).
routeCost(prodloc24,prodloc34,tr2,1281).
routeCost(prodloc24,prodloc34,tr4,1708).
routeCost(prodloc24,prodloc36,tr15,242080).
routeCost(prodloc24,prodloc40,tr11,317).
routeCost(prodloc24,prodloc40,tr12,600).
routeCost(prodloc24,prodloc40,tr13,1902).
routeCost(prodloc24,prodloc40,tr14,800).
routeCost(prodloc24,prodloc40,tr2,600).
routeCost(prodloc24,prodloc40,tr4,800).
routeCost(prodloc24,prodloc40,tr9,400).
routeCost(prodloc24,prodloc41,tr15,249632).
routeCost(prodloc24,prodloc44,tr12,8502).
routeCost(prodloc24,prodloc44,tr14,11336).
routeCost(prodloc24,prodloc44,tr15,72608).
routeCost(prodloc24,prodloc44,tr2,8502).
routeCost(prodloc24,prodloc44,tr4,11336).
routeCost(prodloc24,prodloc46,tr12,5328).
routeCost(prodloc24,prodloc46,tr14,7104).
routeCost(prodloc24,prodloc46,tr2,5328).
routeCost(prodloc24,prodloc46,tr4,7104).
routeCost(prodloc24,prodloc47,tr11,807).
routeCost(prodloc24,prodloc47,tr12,2157).
routeCost(prodloc24,prodloc47,tr13,4842).
routeCost(prodloc24,prodloc47,tr14,2876).
routeCost(prodloc24,prodloc47,tr2,2157).
routeCost(prodloc24,prodloc47,tr4,2876).
routeCost(prodloc24,prodloc49,tr12,3819).
routeCost(prodloc24,prodloc49,tr14,5092).
routeCost(prodloc24,prodloc49,tr15,34400).
routeCost(prodloc24,prodloc49,tr2,3819).
routeCost(prodloc24,prodloc49,tr4,5092).
routeCost(prodloc24,prodloc5,tr12,87).
routeCost(prodloc24,prodloc5,tr14,116).
routeCost(prodloc24,prodloc5,tr2,87).
routeCost(prodloc24,prodloc5,tr4,116).
routeCost(prodloc24,prodloc5,tr9,58).
routeCost(prodloc24,prodloc6,tr12,336).
routeCost(prodloc24,prodloc6,tr14,448).
routeCost(prodloc24,prodloc6,tr15,2816).
routeCost(prodloc24,prodloc6,tr2,336).
routeCost(prodloc24,prodloc6,tr4,448).
routeCost(prodloc24,prodloc6,tr9,224).
routeCost(prodloc24,prodloc7,tr12,6486).
routeCost(prodloc24,prodloc7,tr14,8648).
routeCost(prodloc24,prodloc7,tr2,6486).
routeCost(prodloc24,prodloc7,tr4,8648).
routeCost(prodloc24,prodloc8,tr11,2674).
routeCost(prodloc24,prodloc8,tr12,3936).
routeCost(prodloc24,prodloc8,tr13,16044).
routeCost(prodloc24,prodloc8,tr14,5248).
routeCost(prodloc24,prodloc8,tr15,35008).
routeCost(prodloc24,prodloc8,tr2,3936).
routeCost(prodloc24,prodloc8,tr4,5248).
routeCost(prodloc26,harbor0,tr12,5553).
routeCost(prodloc26,harbor0,tr14,7404).
routeCost(prodloc26,harbor0,tr2,5553).
routeCost(prodloc26,harbor0,tr4,7404).
routeCost(prodloc26,harbor11,tr12,3234).
routeCost(prodloc26,harbor11,tr14,4312).
routeCost(prodloc26,harbor11,tr2,3234).
routeCost(prodloc26,harbor11,tr4,4312).
routeCost(prodloc26,harbor16,tr12,5292).
routeCost(prodloc26,harbor16,tr14,7056).
routeCost(prodloc26,harbor16,tr2,5292).
routeCost(prodloc26,harbor16,tr4,7056).
routeCost(prodloc26,harbor2,tr12,7761).
routeCost(prodloc26,harbor2,tr14,10348).
routeCost(prodloc26,harbor2,tr2,7761).
routeCost(prodloc26,harbor2,tr4,10348).
routeCost(prodloc26,harbor3,tr12,5553).
routeCost(prodloc26,harbor3,tr14,7404).
routeCost(prodloc26,harbor3,tr2,5553).
routeCost(prodloc26,harbor3,tr4,7404).
routeCost(prodloc26,harbor5,tr12,5556).
routeCost(prodloc26,harbor5,tr14,7408).
routeCost(prodloc26,harbor5,tr2,5556).
routeCost(prodloc26,harbor5,tr4,7408).
routeCost(prodloc26,harbor6,tr12,7518).
routeCost(prodloc26,harbor6,tr14,10024).
routeCost(prodloc26,harbor6,tr2,7518).
routeCost(prodloc26,harbor6,tr4,10024).
routeCost(prodloc26,harbor9,tr12,81).
routeCost(prodloc26,harbor9,tr14,108).
routeCost(prodloc26,harbor9,tr2,81).
routeCost(prodloc26,harbor9,tr4,108).
routeCost(prodloc26,harbor9,tr9,54).
routeCost(prodloc26,prodloc12,tr12,4935).
routeCost(prodloc26,prodloc12,tr14,6580).
routeCost(prodloc26,prodloc12,tr2,4935).
routeCost(prodloc26,prodloc12,tr4,6580).
routeCost(prodloc26,prodloc16,tr12,3528).
routeCost(prodloc26,prodloc16,tr14,4704).
routeCost(prodloc26,prodloc16,tr2,3528).
routeCost(prodloc26,prodloc16,tr4,4704).
routeCost(prodloc26,prodloc17,tr12,7860).
routeCost(prodloc26,prodloc17,tr14,10480).
routeCost(prodloc26,prodloc17,tr2,7860).
routeCost(prodloc26,prodloc17,tr4,10480).
routeCost(prodloc26,prodloc18,tr12,5601).
routeCost(prodloc26,prodloc18,tr14,7468).
routeCost(prodloc26,prodloc18,tr2,5601).
routeCost(prodloc26,prodloc18,tr4,7468).
routeCost(prodloc26,prodloc2,tr12,4380).
routeCost(prodloc26,prodloc2,tr14,5840).
routeCost(prodloc26,prodloc2,tr2,4380).
routeCost(prodloc26,prodloc2,tr4,5840).
routeCost(prodloc26,prodloc20,tr12,4014).
routeCost(prodloc26,prodloc20,tr14,5352).
routeCost(prodloc26,prodloc20,tr2,4014).
routeCost(prodloc26,prodloc20,tr4,5352).
routeCost(prodloc26,prodloc21,tr12,6363).
routeCost(prodloc26,prodloc21,tr14,8484).
routeCost(prodloc26,prodloc21,tr2,6363).
routeCost(prodloc26,prodloc21,tr4,8484).
routeCost(prodloc26,prodloc22,tr12,5046).
routeCost(prodloc26,prodloc22,tr14,6728).
routeCost(prodloc26,prodloc22,tr2,5046).
routeCost(prodloc26,prodloc22,tr4,6728).
routeCost(prodloc26,prodloc24,tr12,5550).
routeCost(prodloc26,prodloc24,tr14,7400).
routeCost(prodloc26,prodloc24,tr2,5550).
routeCost(prodloc26,prodloc24,tr4,7400).
routeCost(prodloc26,prodloc27,tr12,3330).
routeCost(prodloc26,prodloc27,tr14,4440).
routeCost(prodloc26,prodloc27,tr2,3330).
routeCost(prodloc26,prodloc27,tr4,4440).
routeCost(prodloc26,prodloc3,tr12,5556).
routeCost(prodloc26,prodloc3,tr14,7408).
routeCost(prodloc26,prodloc3,tr2,5556).
routeCost(prodloc26,prodloc3,tr4,7408).
routeCost(prodloc26,prodloc31,tr12,4056).
routeCost(prodloc26,prodloc31,tr14,5408).
routeCost(prodloc26,prodloc31,tr2,4056).
routeCost(prodloc26,prodloc31,tr4,5408).
routeCost(prodloc26,prodloc32,tr12,7416).
routeCost(prodloc26,prodloc32,tr14,9888).
routeCost(prodloc26,prodloc32,tr2,7416).
routeCost(prodloc26,prodloc32,tr4,9888).
routeCost(prodloc26,prodloc33,tr12,3252).
routeCost(prodloc26,prodloc33,tr14,4336).
routeCost(prodloc26,prodloc33,tr2,3252).
routeCost(prodloc26,prodloc33,tr4,4336).
routeCost(prodloc26,prodloc34,tr12,4548).
routeCost(prodloc26,prodloc34,tr14,6064).
routeCost(prodloc26,prodloc34,tr2,4548).
routeCost(prodloc26,prodloc34,tr4,6064).
routeCost(prodloc26,prodloc40,tr12,5583).
routeCost(prodloc26,prodloc40,tr14,7444).
routeCost(prodloc26,prodloc40,tr2,5583).
routeCost(prodloc26,prodloc40,tr4,7444).
routeCost(prodloc26,prodloc44,tr12,5826).
routeCost(prodloc26,prodloc44,tr14,7768).
routeCost(prodloc26,prodloc44,tr2,5826).
routeCost(prodloc26,prodloc44,tr4,7768).
routeCost(prodloc26,prodloc46,tr12,5601).
routeCost(prodloc26,prodloc46,tr14,7468).
routeCost(prodloc26,prodloc46,tr2,5601).
routeCost(prodloc26,prodloc46,tr4,7468).
routeCost(prodloc26,prodloc47,tr12,6504).
routeCost(prodloc26,prodloc47,tr14,8672).
routeCost(prodloc26,prodloc47,tr2,6504).
routeCost(prodloc26,prodloc47,tr4,8672).
routeCost(prodloc26,prodloc49,tr12,5379).
routeCost(prodloc26,prodloc49,tr14,7172).
routeCost(prodloc26,prodloc49,tr2,5379).
routeCost(prodloc26,prodloc49,tr4,7172).
routeCost(prodloc26,prodloc5,tr12,5562).
routeCost(prodloc26,prodloc5,tr14,7416).
routeCost(prodloc26,prodloc5,tr2,5562).
routeCost(prodloc26,prodloc5,tr4,7416).
routeCost(prodloc26,prodloc6,tr12,5403).
routeCost(prodloc26,prodloc6,tr14,7204).
routeCost(prodloc26,prodloc6,tr2,5403).
routeCost(prodloc26,prodloc6,tr4,7204).
routeCost(prodloc26,prodloc7,tr12,6420).
routeCost(prodloc26,prodloc7,tr14,8560).
routeCost(prodloc26,prodloc7,tr2,6420).
routeCost(prodloc26,prodloc7,tr4,8560).
routeCost(prodloc26,prodloc8,tr12,5556).
routeCost(prodloc26,prodloc8,tr14,7408).
routeCost(prodloc26,prodloc8,tr2,5556).
routeCost(prodloc26,prodloc8,tr4,7408).
routeCost(prodloc27,harbor0,tr12,2142).
routeCost(prodloc27,harbor0,tr14,2856).
routeCost(prodloc27,harbor0,tr2,2142).
routeCost(prodloc27,harbor0,tr4,2856).
routeCost(prodloc27,harbor11,tr12,2772).
routeCost(prodloc27,harbor11,tr14,3696).
routeCost(prodloc27,harbor11,tr2,2772).
routeCost(prodloc27,harbor11,tr4,3696).
routeCost(prodloc27,harbor16,tr12,2469).
routeCost(prodloc27,harbor16,tr14,3292).
routeCost(prodloc27,harbor16,tr2,2469).
routeCost(prodloc27,harbor16,tr4,3292).
routeCost(prodloc27,harbor2,tr12,7002).
routeCost(prodloc27,harbor2,tr14,9336).
routeCost(prodloc27,harbor2,tr2,7002).
routeCost(prodloc27,harbor2,tr4,9336).
routeCost(prodloc27,harbor3,tr12,2145).
routeCost(prodloc27,harbor3,tr14,2860).
routeCost(prodloc27,harbor3,tr2,2145).
routeCost(prodloc27,harbor3,tr4,2860).
routeCost(prodloc27,harbor5,tr12,3546).
routeCost(prodloc27,harbor5,tr14,4728).
routeCost(prodloc27,harbor5,tr2,3546).
routeCost(prodloc27,harbor5,tr4,4728).
routeCost(prodloc27,harbor6,tr12,6348).
routeCost(prodloc27,harbor6,tr14,8464).
routeCost(prodloc27,harbor6,tr2,6348).
routeCost(prodloc27,harbor6,tr4,8464).
routeCost(prodloc27,harbor9,tr12,3351).
routeCost(prodloc27,harbor9,tr14,4468).
routeCost(prodloc27,harbor9,tr2,3351).
routeCost(prodloc27,harbor9,tr4,4468).
routeCost(prodloc27,prodloc12,tr12,2298).
routeCost(prodloc27,prodloc12,tr14,3064).
routeCost(prodloc27,prodloc12,tr2,2298).
routeCost(prodloc27,prodloc12,tr4,3064).
routeCost(prodloc27,prodloc16,tr12,675).
routeCost(prodloc27,prodloc16,tr14,900).
routeCost(prodloc27,prodloc16,tr2,675).
routeCost(prodloc27,prodloc16,tr4,900).
routeCost(prodloc27,prodloc16,tr9,450).
routeCost(prodloc27,prodloc17,tr12,7098).
routeCost(prodloc27,prodloc17,tr14,9464).
routeCost(prodloc27,prodloc17,tr2,7098).
routeCost(prodloc27,prodloc17,tr4,9464).
routeCost(prodloc27,prodloc18,tr12,2193).
routeCost(prodloc27,prodloc18,tr14,2924).
routeCost(prodloc27,prodloc18,tr2,2193).
routeCost(prodloc27,prodloc18,tr4,2924).
routeCost(prodloc27,prodloc2,tr12,3468).
routeCost(prodloc27,prodloc2,tr14,4624).
routeCost(prodloc27,prodloc2,tr2,3468).
routeCost(prodloc27,prodloc2,tr4,4624).
routeCost(prodloc27,prodloc20,tr12,807).
routeCost(prodloc27,prodloc20,tr14,1076).
routeCost(prodloc27,prodloc20,tr2,807).
routeCost(prodloc27,prodloc20,tr4,1076).
routeCost(prodloc27,prodloc20,tr9,538).
routeCost(prodloc27,prodloc21,tr12,5604).
routeCost(prodloc27,prodloc21,tr14,7472).
routeCost(prodloc27,prodloc21,tr2,5604).
routeCost(prodloc27,prodloc21,tr4,7472).
routeCost(prodloc27,prodloc22,tr12,3489).
routeCost(prodloc27,prodloc22,tr14,4652).
routeCost(prodloc27,prodloc22,tr2,3489).
routeCost(prodloc27,prodloc22,tr4,4652).
routeCost(prodloc27,prodloc24,tr12,2139).
routeCost(prodloc27,prodloc24,tr14,2852).
routeCost(prodloc27,prodloc24,tr2,2139).
routeCost(prodloc27,prodloc24,tr4,2852).
routeCost(prodloc27,prodloc26,tr12,3333).
routeCost(prodloc27,prodloc26,tr14,4444).
routeCost(prodloc27,prodloc26,tr2,3333).
routeCost(prodloc27,prodloc26,tr4,4444).
routeCost(prodloc27,prodloc3,tr12,3546).
routeCost(prodloc27,prodloc3,tr14,4728).
routeCost(prodloc27,prodloc3,tr2,3546).
routeCost(prodloc27,prodloc3,tr4,4728).
routeCost(prodloc27,prodloc31,tr12,4203).
routeCost(prodloc27,prodloc31,tr14,5604).
routeCost(prodloc27,prodloc31,tr2,4203).
routeCost(prodloc27,prodloc31,tr4,5604).
routeCost(prodloc27,prodloc32,tr12,6246).
routeCost(prodloc27,prodloc32,tr14,8328).
routeCost(prodloc27,prodloc32,tr2,6246).
routeCost(prodloc27,prodloc32,tr4,8328).
routeCost(prodloc27,prodloc33,tr12,159).
routeCost(prodloc27,prodloc33,tr14,212).
routeCost(prodloc27,prodloc33,tr2,159).
routeCost(prodloc27,prodloc33,tr4,212).
routeCost(prodloc27,prodloc33,tr9,106).
routeCost(prodloc27,prodloc34,tr12,1257).
routeCost(prodloc27,prodloc34,tr14,1676).
routeCost(prodloc27,prodloc34,tr2,1257).
routeCost(prodloc27,prodloc34,tr4,1676).
routeCost(prodloc27,prodloc40,tr12,2292).
routeCost(prodloc27,prodloc40,tr14,3056).
routeCost(prodloc27,prodloc40,tr2,2292).
routeCost(prodloc27,prodloc40,tr4,3056).
routeCost(prodloc27,prodloc44,tr12,7113).
routeCost(prodloc27,prodloc44,tr14,9484).
routeCost(prodloc27,prodloc44,tr2,7113).
routeCost(prodloc27,prodloc44,tr4,9484).
routeCost(prodloc27,prodloc46,tr12,4431).
routeCost(prodloc27,prodloc46,tr14,5908).
routeCost(prodloc27,prodloc46,tr2,4431).
routeCost(prodloc27,prodloc46,tr4,5908).
routeCost(prodloc27,prodloc47,tr12,3330).
routeCost(prodloc27,prodloc47,tr14,4440).
routeCost(prodloc27,prodloc47,tr2,3330).
routeCost(prodloc27,prodloc47,tr4,4440).
routeCost(prodloc27,prodloc49,tr12,3429).
routeCost(prodloc27,prodloc49,tr14,4572).
routeCost(prodloc27,prodloc49,tr2,3429).
routeCost(prodloc27,prodloc49,tr4,4572).
routeCost(prodloc27,prodloc5,tr12,2154).
routeCost(prodloc27,prodloc5,tr14,2872).
routeCost(prodloc27,prodloc5,tr2,2154).
routeCost(prodloc27,prodloc5,tr4,2872).
routeCost(prodloc27,prodloc6,tr12,1995).
routeCost(prodloc27,prodloc6,tr14,2660).
routeCost(prodloc27,prodloc6,tr2,1995).
routeCost(prodloc27,prodloc6,tr4,2660).
routeCost(prodloc27,prodloc7,tr12,5658).
routeCost(prodloc27,prodloc7,tr14,7544).
routeCost(prodloc27,prodloc7,tr2,5658).
routeCost(prodloc27,prodloc7,tr4,7544).
routeCost(prodloc27,prodloc8,tr12,3546).
routeCost(prodloc27,prodloc8,tr14,4728).
routeCost(prodloc27,prodloc8,tr2,3546).
routeCost(prodloc27,prodloc8,tr4,4728).
routeCost(prodloc3,harbor0,tr12,3876).
routeCost(prodloc3,harbor0,tr14,5168).
routeCost(prodloc3,harbor0,tr2,3876).
routeCost(prodloc3,harbor0,tr4,5168).
routeCost(prodloc3,harbor11,tr12,3018).
routeCost(prodloc3,harbor11,tr14,4024).
routeCost(prodloc3,harbor11,tr2,3018).
routeCost(prodloc3,harbor11,tr4,4024).
routeCost(prodloc3,harbor16,tr12,2034).
routeCost(prodloc3,harbor16,tr14,2712).
routeCost(prodloc3,harbor16,tr2,2034).
routeCost(prodloc3,harbor16,tr4,2712).
routeCost(prodloc3,harbor2,tr12,5037).
routeCost(prodloc3,harbor2,tr14,6716).
routeCost(prodloc3,harbor2,tr2,5037).
routeCost(prodloc3,harbor2,tr4,6716).
routeCost(prodloc3,harbor3,tr12,3921).
routeCost(prodloc3,harbor3,tr14,5228).
routeCost(prodloc3,harbor3,tr2,3921).
routeCost(prodloc3,harbor3,tr4,5228).
routeCost(prodloc3,harbor5,tr12,9).
routeCost(prodloc3,harbor5,tr14,12).
routeCost(prodloc3,harbor5,tr2,9).
routeCost(prodloc3,harbor5,tr4,12).
routeCost(prodloc3,harbor5,tr9,6).
routeCost(prodloc3,harbor6,tr12,4017).
routeCost(prodloc3,harbor6,tr14,5356).
routeCost(prodloc3,harbor6,tr2,4017).
routeCost(prodloc3,harbor6,tr4,5356).
routeCost(prodloc3,harbor9,tr12,5559).
routeCost(prodloc3,harbor9,tr14,7412).
routeCost(prodloc3,harbor9,tr2,5559).
routeCost(prodloc3,harbor9,tr4,7412).
routeCost(prodloc3,prodloc1,tr15,51616).
routeCost(prodloc3,prodloc11,tr15,326880).
routeCost(prodloc3,prodloc12,tr12,1716).
routeCost(prodloc3,prodloc12,tr14,2288).
routeCost(prodloc3,prodloc12,tr15,14816).
routeCost(prodloc3,prodloc12,tr2,1716).
routeCost(prodloc3,prodloc12,tr4,2288).
routeCost(prodloc3,prodloc16,tr12,4167).
routeCost(prodloc3,prodloc16,tr14,5556).
routeCost(prodloc3,prodloc16,tr2,4167).
routeCost(prodloc3,prodloc16,tr4,5556).
routeCost(prodloc3,prodloc17,tr12,4890).
routeCost(prodloc3,prodloc17,tr14,6520).
routeCost(prodloc3,prodloc17,tr2,4890).
routeCost(prodloc3,prodloc17,tr4,6520).
routeCost(prodloc3,prodloc18,tr12,3723).
routeCost(prodloc3,prodloc18,tr14,4964).
routeCost(prodloc3,prodloc18,tr2,3723).
routeCost(prodloc3,prodloc18,tr4,4964).
routeCost(prodloc3,prodloc2,tr12,1830).
routeCost(prodloc3,prodloc2,tr14,2440).
routeCost(prodloc3,prodloc2,tr15,15744).
routeCost(prodloc3,prodloc2,tr2,1830).
routeCost(prodloc3,prodloc2,tr4,2440).
routeCost(prodloc3,prodloc20,tr12,2829).
routeCost(prodloc3,prodloc20,tr14,3772).
routeCost(prodloc3,prodloc20,tr15,26048).
routeCost(prodloc3,prodloc20,tr2,2829).
routeCost(prodloc3,prodloc20,tr4,3772).
routeCost(prodloc3,prodloc21,tr12,3207).
routeCost(prodloc3,prodloc21,tr14,4276).
routeCost(prodloc3,prodloc21,tr15,25216).
routeCost(prodloc3,prodloc21,tr2,3207).
routeCost(prodloc3,prodloc21,tr4,4276).
routeCost(prodloc3,prodloc22,tr12,660).
routeCost(prodloc3,prodloc22,tr14,880).
routeCost(prodloc3,prodloc22,tr2,660).
routeCost(prodloc3,prodloc22,tr4,880).
routeCost(prodloc3,prodloc22,tr9,440).
routeCost(prodloc3,prodloc24,tr12,3894).
routeCost(prodloc3,prodloc24,tr14,5192).
routeCost(prodloc3,prodloc24,tr15,35008).
routeCost(prodloc3,prodloc24,tr2,3894).
routeCost(prodloc3,prodloc24,tr4,5192).
routeCost(prodloc3,prodloc26,tr12,5544).
routeCost(prodloc3,prodloc26,tr14,7392).
routeCost(prodloc3,prodloc26,tr2,5544).
routeCost(prodloc3,prodloc26,tr4,7392).
routeCost(prodloc3,prodloc27,tr12,3540).
routeCost(prodloc3,prodloc27,tr14,4720).
routeCost(prodloc3,prodloc27,tr2,3540).
routeCost(prodloc3,prodloc27,tr4,4720).
routeCost(prodloc3,prodloc30,tr15,278272).
routeCost(prodloc3,prodloc31,tr12,7758).
routeCost(prodloc3,prodloc31,tr14,10344).
routeCost(prodloc3,prodloc31,tr15,67680).
routeCost(prodloc3,prodloc31,tr2,7758).
routeCost(prodloc3,prodloc31,tr4,10344).
routeCost(prodloc3,prodloc32,tr12,3918).
routeCost(prodloc3,prodloc32,tr14,5224).
routeCost(prodloc3,prodloc32,tr2,3918).
routeCost(prodloc3,prodloc32,tr4,5224).
routeCost(prodloc3,prodloc33,tr12,3687).
routeCost(prodloc3,prodloc33,tr14,4916).
routeCost(prodloc3,prodloc33,tr15,32224).
routeCost(prodloc3,prodloc33,tr2,3687).
routeCost(prodloc3,prodloc33,tr4,4916).
routeCost(prodloc3,prodloc34,tr12,4239).
routeCost(prodloc3,prodloc34,tr14,5652).
routeCost(prodloc3,prodloc34,tr2,4239).
routeCost(prodloc3,prodloc34,tr4,5652).
routeCost(prodloc3,prodloc36,tr15,276384).
routeCost(prodloc3,prodloc40,tr12,4449).
routeCost(prodloc3,prodloc40,tr14,5932).
routeCost(prodloc3,prodloc40,tr2,4449).
routeCost(prodloc3,prodloc40,tr4,5932).
routeCost(prodloc3,prodloc41,tr15,232736).
routeCost(prodloc3,prodloc44,tr12,10350).
routeCost(prodloc3,prodloc44,tr14,13800).
routeCost(prodloc3,prodloc44,tr15,92128).
routeCost(prodloc3,prodloc44,tr2,10350).
routeCost(prodloc3,prodloc44,tr4,13800).
routeCost(prodloc3,prodloc46,tr12,2100).
routeCost(prodloc3,prodloc46,tr14,2800).
routeCost(prodloc3,prodloc46,tr2,2100).
routeCost(prodloc3,prodloc46,tr4,2800).
routeCost(prodloc3,prodloc47,tr12,5904).
routeCost(prodloc3,prodloc47,tr14,7872).
routeCost(prodloc3,prodloc47,tr2,5904).
routeCost(prodloc3,prodloc47,tr4,7872).
routeCost(prodloc3,prodloc49,tr12,177).
routeCost(prodloc3,prodloc49,tr14,236).
routeCost(prodloc3,prodloc49,tr15,1440).
routeCost(prodloc3,prodloc49,tr2,177).
routeCost(prodloc3,prodloc49,tr4,236).
routeCost(prodloc3,prodloc49,tr9,118).
routeCost(prodloc3,prodloc5,tr12,3885).
routeCost(prodloc3,prodloc5,tr14,5180).
routeCost(prodloc3,prodloc5,tr2,3885).
routeCost(prodloc3,prodloc5,tr4,5180).
routeCost(prodloc3,prodloc6,tr12,3600).
routeCost(prodloc3,prodloc6,tr14,4800).
routeCost(prodloc3,prodloc6,tr15,32160).
routeCost(prodloc3,prodloc6,tr2,3600).
routeCost(prodloc3,prodloc6,tr4,4800).
routeCost(prodloc3,prodloc7,tr12,3258).
routeCost(prodloc3,prodloc7,tr14,4344).
routeCost(prodloc3,prodloc7,tr2,3258).
routeCost(prodloc3,prodloc7,tr4,4344).
routeCost(prodloc3,prodloc8,tr12,9).
routeCost(prodloc3,prodloc8,tr14,12).
routeCost(prodloc3,prodloc8,tr15,64).
routeCost(prodloc3,prodloc8,tr2,9).
routeCost(prodloc3,prodloc8,tr4,12).
routeCost(prodloc3,prodloc8,tr9,6).
routeCost(prodloc30,harbor1,tr12,3405).
routeCost(prodloc30,harbor1,tr14,4540).
routeCost(prodloc30,harbor1,tr2,3405).
routeCost(prodloc30,harbor1,tr4,4540).
routeCost(prodloc30,harbor13,tr12,120).
routeCost(prodloc30,harbor13,tr14,160).
routeCost(prodloc30,harbor13,tr2,120).
routeCost(prodloc30,harbor13,tr4,160).
routeCost(prodloc30,harbor13,tr7,11120).
routeCost(prodloc30,harbor13,tr9,80).
routeCost(prodloc30,prodloc1,tr15,325088).
routeCost(prodloc30,prodloc11,tr15,53760).
routeCost(prodloc30,prodloc12,tr15,263488).
routeCost(prodloc30,prodloc2,tr15,281536).
routeCost(prodloc30,prodloc20,tr15,255040).
routeCost(prodloc30,prodloc21,tr15,299296).
routeCost(prodloc30,prodloc24,tr15,243296).
routeCost(prodloc30,prodloc3,tr15,278272).
routeCost(prodloc30,prodloc31,tr15,228704).
routeCost(prodloc30,prodloc33,tr15,252576).
routeCost(prodloc30,prodloc35,tr12,3471).
routeCost(prodloc30,prodloc35,tr14,4628).
routeCost(prodloc30,prodloc35,tr2,3471).
routeCost(prodloc30,prodloc35,tr4,4628).
routeCost(prodloc30,prodloc36,tr12,5475).
routeCost(prodloc30,prodloc36,tr14,7300).
routeCost(prodloc30,prodloc36,tr15,49216).
routeCost(prodloc30,prodloc36,tr2,5475).
routeCost(prodloc30,prodloc36,tr4,7300).
routeCost(prodloc30,prodloc41,tr15,378336).
routeCost(prodloc30,prodloc44,tr15,222784).
routeCost(prodloc30,prodloc49,tr15,277696).
routeCost(prodloc30,prodloc6,tr15,246112).
routeCost(prodloc30,prodloc8,tr15,278272).
routeCost(prodloc31,harbor0,tr12,5484).
routeCost(prodloc31,harbor0,tr14,7312).
routeCost(prodloc31,harbor0,tr2,5484).
routeCost(prodloc31,harbor0,tr4,7312).
routeCost(prodloc31,harbor11,tr12,6021).
routeCost(prodloc31,harbor11,tr14,8028).
routeCost(prodloc31,harbor11,tr2,6021).
routeCost(prodloc31,harbor11,tr4,8028).
routeCost(prodloc31,harbor16,tr12,6570).
routeCost(prodloc31,harbor16,tr14,8760).
routeCost(prodloc31,harbor16,tr2,6570).
routeCost(prodloc31,harbor16,tr4,8760).
routeCost(prodloc31,harbor2,tr12,10374).
routeCost(prodloc31,harbor2,tr14,13832).
routeCost(prodloc31,harbor2,tr2,10374).
routeCost(prodloc31,harbor2,tr4,13832).
routeCost(prodloc31,harbor3,tr12,5478).
routeCost(prodloc31,harbor3,tr14,7304).
routeCost(prodloc31,harbor3,tr2,5478).
routeCost(prodloc31,harbor3,tr4,7304).
routeCost(prodloc31,harbor5,tr12,7761).
routeCost(prodloc31,harbor5,tr14,10348).
routeCost(prodloc31,harbor5,tr2,7761).
routeCost(prodloc31,harbor5,tr4,10348).
routeCost(prodloc31,harbor6,tr12,10131).
routeCost(prodloc31,harbor6,tr14,13508).
routeCost(prodloc31,harbor6,tr2,10131).
routeCost(prodloc31,harbor6,tr4,13508).
routeCost(prodloc31,harbor9,tr12,4098).
routeCost(prodloc31,harbor9,tr14,5464).
routeCost(prodloc31,harbor9,tr2,4098).
routeCost(prodloc31,harbor9,tr4,5464).
routeCost(prodloc31,prodloc1,tr15,99808).
routeCost(prodloc31,prodloc11,tr15,271296).
routeCost(prodloc31,prodloc12,tr12,6513).
routeCost(prodloc31,prodloc12,tr14,8684).
routeCost(prodloc31,prodloc12,tr15,56416).
routeCost(prodloc31,prodloc12,tr2,6513).
routeCost(prodloc31,prodloc12,tr4,8684).
routeCost(prodloc31,prodloc16,tr12,3513).
routeCost(prodloc31,prodloc16,tr14,4684).
routeCost(prodloc31,prodloc16,tr2,3513).
routeCost(prodloc31,prodloc16,tr4,4684).
routeCost(prodloc31,prodloc17,tr12,10473).
routeCost(prodloc31,prodloc17,tr14,13964).
routeCost(prodloc31,prodloc17,tr2,10473).
routeCost(prodloc31,prodloc17,tr4,13964).
routeCost(prodloc31,prodloc18,tr12,5646).
routeCost(prodloc31,prodloc18,tr14,7528).
routeCost(prodloc31,prodloc18,tr2,5646).
routeCost(prodloc31,prodloc18,tr4,7528).
routeCost(prodloc31,prodloc2,tr12,6993).
routeCost(prodloc31,prodloc2,tr14,9324).
routeCost(prodloc31,prodloc2,tr15,61408).
routeCost(prodloc31,prodloc2,tr2,6993).
routeCost(prodloc31,prodloc2,tr4,9324).
routeCost(prodloc31,prodloc20,tr12,4911).
routeCost(prodloc31,prodloc20,tr14,6548).
routeCost(prodloc31,prodloc20,tr15,42912).
routeCost(prodloc31,prodloc20,tr2,4911).
routeCost(prodloc31,prodloc20,tr4,6548).
routeCost(prodloc31,prodloc21,tr12,8979).
routeCost(prodloc31,prodloc21,tr14,11972).
routeCost(prodloc31,prodloc21,tr15,77984).
routeCost(prodloc31,prodloc21,tr2,8979).
routeCost(prodloc31,prodloc21,tr4,11972).
routeCost(prodloc31,prodloc22,tr12,7641).
routeCost(prodloc31,prodloc22,tr14,10188).
routeCost(prodloc31,prodloc22,tr2,7641).
routeCost(prodloc31,prodloc22,tr4,10188).
routeCost(prodloc31,prodloc24,tr12,5472).
routeCost(prodloc31,prodloc24,tr14,7296).
routeCost(prodloc31,prodloc24,tr15,45504).
routeCost(prodloc31,prodloc24,tr2,5472).
routeCost(prodloc31,prodloc24,tr4,7296).
routeCost(prodloc31,prodloc26,tr12,4041).
routeCost(prodloc31,prodloc26,tr14,5388).
routeCost(prodloc31,prodloc26,tr2,4041).
routeCost(prodloc31,prodloc26,tr4,5388).
routeCost(prodloc31,prodloc27,tr12,4203).
routeCost(prodloc31,prodloc27,tr14,5604).
routeCost(prodloc31,prodloc27,tr2,4203).
routeCost(prodloc31,prodloc27,tr4,5604).
routeCost(prodloc31,prodloc3,tr12,7761).
routeCost(prodloc31,prodloc3,tr14,10348).
routeCost(prodloc31,prodloc3,tr15,67680).
routeCost(prodloc31,prodloc3,tr2,7761).
routeCost(prodloc31,prodloc3,tr4,10348).
routeCost(prodloc31,prodloc30,tr15,228704).
routeCost(prodloc31,prodloc32,tr12,10032).
routeCost(prodloc31,prodloc32,tr14,13376).
routeCost(prodloc31,prodloc32,tr2,10032).
routeCost(prodloc31,prodloc32,tr4,13376).
routeCost(prodloc31,prodloc33,tr12,4071).
routeCost(prodloc31,prodloc33,tr14,5428).
routeCost(prodloc31,prodloc33,tr15,35616).
routeCost(prodloc31,prodloc33,tr2,4071).
routeCost(prodloc31,prodloc33,tr4,5428).
routeCost(prodloc31,prodloc34,tr12,4179).
routeCost(prodloc31,prodloc34,tr14,5572).
routeCost(prodloc31,prodloc34,tr2,4179).
routeCost(prodloc31,prodloc34,tr4,5572).
routeCost(prodloc31,prodloc36,tr15,216800).
routeCost(prodloc31,prodloc40,tr12,5313).
routeCost(prodloc31,prodloc40,tr14,7084).
routeCost(prodloc31,prodloc40,tr2,5313).
routeCost(prodloc31,prodloc40,tr4,7084).
routeCost(prodloc31,prodloc41,tr15,294880).
routeCost(prodloc31,prodloc44,tr12,3720).
routeCost(prodloc31,prodloc44,tr14,4960).
routeCost(prodloc31,prodloc44,tr15,27104).
routeCost(prodloc31,prodloc44,tr2,3720).
routeCost(prodloc31,prodloc44,tr4,4960).
routeCost(prodloc31,prodloc46,tr12,8214).
routeCost(prodloc31,prodloc46,tr14,10952).
routeCost(prodloc31,prodloc46,tr2,8214).
routeCost(prodloc31,prodloc46,tr4,10952).
routeCost(prodloc31,prodloc47,tr12,3972).
routeCost(prodloc31,prodloc47,tr14,5296).
routeCost(prodloc31,prodloc47,tr2,3972).
routeCost(prodloc31,prodloc47,tr4,5296).
routeCost(prodloc31,prodloc49,tr12,7644).
routeCost(prodloc31,prodloc49,tr14,10192).
routeCost(prodloc31,prodloc49,tr15,66368).
routeCost(prodloc31,prodloc49,tr2,7644).
routeCost(prodloc31,prodloc49,tr4,10192).
routeCost(prodloc31,prodloc5,tr12,5493).
routeCost(prodloc31,prodloc5,tr14,7324).
routeCost(prodloc31,prodloc5,tr2,5493).
routeCost(prodloc31,prodloc5,tr4,7324).
routeCost(prodloc31,prodloc6,tr12,5454).
routeCost(prodloc31,prodloc6,tr14,7272).
routeCost(prodloc31,prodloc6,tr15,46624).
routeCost(prodloc31,prodloc6,tr2,5454).
routeCost(prodloc31,prodloc6,tr4,7272).
routeCost(prodloc31,prodloc7,tr12,9033).
routeCost(prodloc31,prodloc7,tr14,12044).
routeCost(prodloc31,prodloc7,tr2,9033).
routeCost(prodloc31,prodloc7,tr4,12044).
routeCost(prodloc31,prodloc8,tr12,7761).
routeCost(prodloc31,prodloc8,tr14,10348).
routeCost(prodloc31,prodloc8,tr15,67712).
routeCost(prodloc31,prodloc8,tr2,7761).
routeCost(prodloc31,prodloc8,tr4,10348).
routeCost(prodloc32,harbor0,tr12,7086).
routeCost(prodloc32,harbor0,tr14,9448).
routeCost(prodloc32,harbor0,tr2,7086).
routeCost(prodloc32,harbor0,tr4,9448).
routeCost(prodloc32,harbor11,tr12,4278).
routeCost(prodloc32,harbor11,tr14,5704).
routeCost(prodloc32,harbor11,tr2,4278).
routeCost(prodloc32,harbor11,tr4,5704).
routeCost(prodloc32,harbor16,tr12,5355).
routeCost(prodloc32,harbor16,tr14,7140).
routeCost(prodloc32,harbor16,tr2,5355).
routeCost(prodloc32,harbor16,tr4,7140).
routeCost(prodloc32,harbor2,tr12,2343).
routeCost(prodloc32,harbor2,tr14,3120).
routeCost(prodloc32,harbor2,tr2,2340).
routeCost(prodloc32,harbor2,tr4,3124).
routeCost(prodloc32,harbor3,tr12,7131).
routeCost(prodloc32,harbor3,tr14,9508).
routeCost(prodloc32,harbor3,tr2,7131).
routeCost(prodloc32,harbor3,tr4,9508).
routeCost(prodloc32,harbor5,tr12,3921).
routeCost(prodloc32,harbor5,tr14,5228).
routeCost(prodloc32,harbor5,tr2,3921).
routeCost(prodloc32,harbor5,tr4,5228).
routeCost(prodloc32,harbor6,tr12,93).
routeCost(prodloc32,harbor6,tr14,124).
routeCost(prodloc32,harbor6,tr2,93).
routeCost(prodloc32,harbor6,tr4,124).
routeCost(prodloc32,harbor6,tr9,62).
routeCost(prodloc32,harbor9,tr12,7437).
routeCost(prodloc32,harbor9,tr14,9916).
routeCost(prodloc32,harbor9,tr2,7437).
routeCost(prodloc32,harbor9,tr4,9916).
routeCost(prodloc32,prodloc12,tr12,4926).
routeCost(prodloc32,prodloc12,tr14,6568).
routeCost(prodloc32,prodloc12,tr2,4926).
routeCost(prodloc32,prodloc12,tr4,6568).
routeCost(prodloc32,prodloc16,tr12,6825).
routeCost(prodloc32,prodloc16,tr14,9100).
routeCost(prodloc32,prodloc16,tr2,6825).
routeCost(prodloc32,prodloc16,tr4,9100).
routeCost(prodloc32,prodloc17,tr12,2091).
routeCost(prodloc32,prodloc17,tr14,2788).
routeCost(prodloc32,prodloc17,tr2,2091).
routeCost(prodloc32,prodloc17,tr4,2788).
routeCost(prodloc32,prodloc18,tr12,6930).
routeCost(prodloc32,prodloc18,tr14,9240).
routeCost(prodloc32,prodloc18,tr2,6930).
routeCost(prodloc32,prodloc18,tr4,9240).
routeCost(prodloc32,prodloc2,tr12,3144).
routeCost(prodloc32,prodloc2,tr14,4192).
routeCost(prodloc32,prodloc2,tr2,3144).
routeCost(prodloc32,prodloc2,tr4,4192).
routeCost(prodloc32,prodloc20,tr12,5868).
routeCost(prodloc32,prodloc20,tr14,7824).
routeCost(prodloc32,prodloc20,tr2,5868).
routeCost(prodloc32,prodloc20,tr4,7824).
routeCost(prodloc32,prodloc21,tr12,1683).
routeCost(prodloc32,prodloc21,tr14,2244).
routeCost(prodloc32,prodloc21,tr2,1683).
routeCost(prodloc32,prodloc21,tr4,2244).
routeCost(prodloc32,prodloc22,tr12,3270).
routeCost(prodloc32,prodloc22,tr14,4360).
routeCost(prodloc32,prodloc22,tr2,3270).
routeCost(prodloc32,prodloc22,tr4,4360).
routeCost(prodloc32,prodloc24,tr12,7104).
routeCost(prodloc32,prodloc24,tr14,9472).
routeCost(prodloc32,prodloc24,tr2,7104).
routeCost(prodloc32,prodloc24,tr4,9472).
routeCost(prodloc32,prodloc26,tr12,7419).
routeCost(prodloc32,prodloc26,tr14,9892).
routeCost(prodloc32,prodloc26,tr2,7419).
routeCost(prodloc32,prodloc26,tr4,9892).
routeCost(prodloc32,prodloc27,tr12,6246).
routeCost(prodloc32,prodloc27,tr14,8328).
routeCost(prodloc32,prodloc27,tr2,6246).
routeCost(prodloc32,prodloc27,tr4,8328).
routeCost(prodloc32,prodloc3,tr12,3921).
routeCost(prodloc32,prodloc3,tr14,5228).
routeCost(prodloc32,prodloc3,tr2,3921).
routeCost(prodloc32,prodloc3,tr4,5228).
routeCost(prodloc32,prodloc31,tr12,10257).
routeCost(prodloc32,prodloc31,tr14,13676).
routeCost(prodloc32,prodloc31,tr2,10257).
routeCost(prodloc32,prodloc31,tr4,13676).
routeCost(prodloc32,prodloc33,tr12,6291).
routeCost(prodloc32,prodloc33,tr14,8388).
routeCost(prodloc32,prodloc33,tr2,6291).
routeCost(prodloc32,prodloc33,tr4,8388).
routeCost(prodloc32,prodloc34,tr12,7317).
routeCost(prodloc32,prodloc34,tr14,9756).
routeCost(prodloc32,prodloc34,tr2,7317).
routeCost(prodloc32,prodloc34,tr4,9756).
routeCost(prodloc32,prodloc40,tr12,7659).
routeCost(prodloc32,prodloc40,tr14,10212).
routeCost(prodloc32,prodloc40,tr2,7659).
routeCost(prodloc32,prodloc40,tr4,10212).
routeCost(prodloc32,prodloc44,tr12,12753).
routeCost(prodloc32,prodloc44,tr14,17004).
routeCost(prodloc32,prodloc44,tr2,12753).
routeCost(prodloc32,prodloc44,tr4,17004).
routeCost(prodloc32,prodloc46,tr12,1818).
routeCost(prodloc32,prodloc46,tr14,2424).
routeCost(prodloc32,prodloc46,tr2,1818).
routeCost(prodloc32,prodloc46,tr4,2424).
routeCost(prodloc32,prodloc47,tr12,9111).
routeCost(prodloc32,prodloc47,tr14,12148).
routeCost(prodloc32,prodloc47,tr2,9111).
routeCost(prodloc32,prodloc47,tr4,12148).
routeCost(prodloc32,prodloc49,tr12,3747).
routeCost(prodloc32,prodloc49,tr14,4996).
routeCost(prodloc32,prodloc49,tr2,3747).
routeCost(prodloc32,prodloc49,tr4,4996).
routeCost(prodloc32,prodloc5,tr12,7095).
routeCost(prodloc32,prodloc5,tr14,9460).
routeCost(prodloc32,prodloc5,tr2,7095).
routeCost(prodloc32,prodloc5,tr4,9460).
routeCost(prodloc32,prodloc6,tr12,6810).
routeCost(prodloc32,prodloc6,tr14,9080).
routeCost(prodloc32,prodloc6,tr2,6810).
routeCost(prodloc32,prodloc6,tr4,9080).
routeCost(prodloc32,prodloc7,tr12,1707).
routeCost(prodloc32,prodloc7,tr14,2276).
routeCost(prodloc32,prodloc7,tr2,1707).
routeCost(prodloc32,prodloc7,tr4,2276).
routeCost(prodloc32,prodloc8,tr12,3921).
routeCost(prodloc32,prodloc8,tr14,5228).
routeCost(prodloc32,prodloc8,tr2,3921).
routeCost(prodloc32,prodloc8,tr4,5228).
routeCost(prodloc33,harbor0,tr12,2253).
routeCost(prodloc33,harbor0,tr14,3004).
routeCost(prodloc33,harbor0,tr2,2253).
routeCost(prodloc33,harbor0,tr4,3004).
routeCost(prodloc33,harbor11,tr12,2784).
routeCost(prodloc33,harbor11,tr14,3712).
routeCost(prodloc33,harbor11,tr2,2784).
routeCost(prodloc33,harbor11,tr4,3712).
routeCost(prodloc33,harbor16,tr12,2616).
routeCost(prodloc33,harbor16,tr14,3488).
routeCost(prodloc33,harbor16,tr2,2616).
routeCost(prodloc33,harbor16,tr4,3488).
routeCost(prodloc33,harbor2,tr12,7014).
routeCost(prodloc33,harbor2,tr14,9352).
routeCost(prodloc33,harbor2,tr2,7014).
routeCost(prodloc33,harbor2,tr4,9352).
routeCost(prodloc33,harbor3,tr12,2256).
routeCost(prodloc33,harbor3,tr14,3008).
routeCost(prodloc33,harbor3,tr2,2256).
routeCost(prodloc33,harbor3,tr4,3008).
routeCost(prodloc33,harbor5,tr12,3693).
routeCost(prodloc33,harbor5,tr14,4924).
routeCost(prodloc33,harbor5,tr2,3693).
routeCost(prodloc33,harbor5,tr4,4924).
routeCost(prodloc33,harbor6,tr12,6387).
routeCost(prodloc33,harbor6,tr14,8516).
routeCost(prodloc33,harbor6,tr2,6387).
routeCost(prodloc33,harbor6,tr4,8516).
routeCost(prodloc33,harbor9,tr12,3282).
routeCost(prodloc33,harbor9,tr14,4376).
routeCost(prodloc33,harbor9,tr2,3282).
routeCost(prodloc33,harbor9,tr4,4376).
routeCost(prodloc33,prodloc1,tr15,72512).
routeCost(prodloc33,prodloc11,tr15,298912).
routeCost(prodloc33,prodloc12,tr12,2445).
routeCost(prodloc33,prodloc12,tr14,3260).
routeCost(prodloc33,prodloc12,tr15,21152).
routeCost(prodloc33,prodloc12,tr2,2445).
routeCost(prodloc33,prodloc12,tr4,3260).
routeCost(prodloc33,prodloc16,tr12,543).
routeCost(prodloc33,prodloc16,tr14,724).
routeCost(prodloc33,prodloc16,tr2,543).
routeCost(prodloc33,prodloc16,tr4,724).
routeCost(prodloc33,prodloc16,tr9,362).
routeCost(prodloc33,prodloc17,tr12,7110).
routeCost(prodloc33,prodloc17,tr14,9480).
routeCost(prodloc33,prodloc17,tr2,7110).
routeCost(prodloc33,prodloc17,tr4,9480).
routeCost(prodloc33,prodloc18,tr12,2340).
routeCost(prodloc33,prodloc18,tr14,3120).
routeCost(prodloc33,prodloc18,tr2,2340).
routeCost(prodloc33,prodloc18,tr4,3120).
routeCost(prodloc33,prodloc2,tr12,3630).
routeCost(prodloc33,prodloc2,tr14,4840).
routeCost(prodloc33,prodloc2,tr15,29280).
routeCost(prodloc33,prodloc2,tr2,3630).
routeCost(prodloc33,prodloc2,tr4,4840).
routeCost(prodloc33,prodloc20,tr12,954).
routeCost(prodloc33,prodloc20,tr14,1272).
routeCost(prodloc33,prodloc20,tr15,7936).
routeCost(prodloc33,prodloc20,tr2,954).
routeCost(prodloc33,prodloc20,tr4,1272).
routeCost(prodloc33,prodloc21,tr12,5616).
routeCost(prodloc33,prodloc21,tr14,7488).
routeCost(prodloc33,prodloc21,tr15,47104).
routeCost(prodloc33,prodloc21,tr2,5616).
routeCost(prodloc33,prodloc21,tr4,7488).
routeCost(prodloc33,prodloc22,tr12,3366).
routeCost(prodloc33,prodloc22,tr14,4488).
routeCost(prodloc33,prodloc22,tr2,3366).
routeCost(prodloc33,prodloc22,tr4,4488).
routeCost(prodloc33,prodloc24,tr12,2250).
routeCost(prodloc33,prodloc24,tr14,3000).
routeCost(prodloc33,prodloc24,tr15,19616).
routeCost(prodloc33,prodloc24,tr2,2250).
routeCost(prodloc33,prodloc24,tr4,3000).
routeCost(prodloc33,prodloc26,tr12,3267).
routeCost(prodloc33,prodloc26,tr14,4356).
routeCost(prodloc33,prodloc26,tr2,3267).
routeCost(prodloc33,prodloc26,tr4,4356).
routeCost(prodloc33,prodloc27,tr12,159).
routeCost(prodloc33,prodloc27,tr14,212).
routeCost(prodloc33,prodloc27,tr2,159).
routeCost(prodloc33,prodloc27,tr4,212).
routeCost(prodloc33,prodloc27,tr9,106).
routeCost(prodloc33,prodloc3,tr12,3693).
routeCost(prodloc33,prodloc3,tr14,4924).
routeCost(prodloc33,prodloc3,tr15,32224).
routeCost(prodloc33,prodloc3,tr2,3693).
routeCost(prodloc33,prodloc3,tr4,4924).
routeCost(prodloc33,prodloc30,tr15,252576).
routeCost(prodloc33,prodloc31,tr12,4071).
routeCost(prodloc33,prodloc31,tr14,5428).
routeCost(prodloc33,prodloc31,tr15,35616).
routeCost(prodloc33,prodloc31,tr2,4071).
routeCost(prodloc33,prodloc31,tr4,5428).
routeCost(prodloc33,prodloc32,tr12,6285).
routeCost(prodloc33,prodloc32,tr14,8380).
routeCost(prodloc33,prodloc32,tr2,6285).
routeCost(prodloc33,prodloc32,tr4,8380).
routeCost(prodloc33,prodloc34,tr12,1350).
routeCost(prodloc33,prodloc34,tr14,1800).
routeCost(prodloc33,prodloc34,tr2,1350).
routeCost(prodloc33,prodloc34,tr4,1800).
routeCost(prodloc33,prodloc36,tr15,246624).
routeCost(prodloc33,prodloc40,tr12,2382).
routeCost(prodloc33,prodloc40,tr14,3176).
routeCost(prodloc33,prodloc40,tr2,2382).
routeCost(prodloc33,prodloc40,tr4,3176).
routeCost(prodloc33,prodloc41,tr15,261120).
routeCost(prodloc33,prodloc44,tr12,6981).
routeCost(prodloc33,prodloc44,tr14,9308).
routeCost(prodloc33,prodloc44,tr15,61152).
routeCost(prodloc33,prodloc44,tr2,6981).
routeCost(prodloc33,prodloc44,tr4,9308).
routeCost(prodloc33,prodloc46,tr12,4470).
routeCost(prodloc33,prodloc46,tr14,5960).
routeCost(prodloc33,prodloc46,tr2,4470).
routeCost(prodloc33,prodloc46,tr4,5960).
routeCost(prodloc33,prodloc47,tr12,3420).
routeCost(prodloc33,prodloc47,tr14,4560).
routeCost(prodloc33,prodloc47,tr2,3420).
routeCost(prodloc33,prodloc47,tr4,4560).
routeCost(prodloc33,prodloc49,tr12,3576).
routeCost(prodloc33,prodloc49,tr14,4768).
routeCost(prodloc33,prodloc49,tr15,31008).
routeCost(prodloc33,prodloc49,tr2,3576).
routeCost(prodloc33,prodloc49,tr4,4768).
routeCost(prodloc33,prodloc5,tr12,2262).
routeCost(prodloc33,prodloc5,tr14,3016).
routeCost(prodloc33,prodloc5,tr2,2262).
routeCost(prodloc33,prodloc5,tr4,3016).
routeCost(prodloc33,prodloc6,tr12,2139).
routeCost(prodloc33,prodloc6,tr14,2852).
routeCost(prodloc33,prodloc6,tr15,18528).
routeCost(prodloc33,prodloc6,tr2,2139).
routeCost(prodloc33,prodloc6,tr4,2852).
routeCost(prodloc33,prodloc7,tr12,5670).
routeCost(prodloc33,prodloc7,tr14,7560).
routeCost(prodloc33,prodloc7,tr2,5670).
routeCost(prodloc33,prodloc7,tr4,7560).
routeCost(prodloc33,prodloc8,tr12,3693).
routeCost(prodloc33,prodloc8,tr14,4924).
routeCost(prodloc33,prodloc8,tr15,32288).
routeCost(prodloc33,prodloc8,tr2,3693).
routeCost(prodloc33,prodloc8,tr4,4924).
routeCost(prodloc34,harbor0,tr12,1311).
routeCost(prodloc34,harbor0,tr14,1748).
routeCost(prodloc34,harbor0,tr2,1311).
routeCost(prodloc34,harbor0,tr4,1748).
routeCost(prodloc34,harbor11,tr12,4128).
routeCost(prodloc34,harbor11,tr14,5504).
routeCost(prodloc34,harbor11,tr2,4128).
routeCost(prodloc34,harbor11,tr4,5504).
routeCost(prodloc34,harbor16,tr12,2589).
routeCost(prodloc34,harbor16,tr14,3452).
routeCost(prodloc34,harbor16,tr2,2589).
routeCost(prodloc34,harbor16,tr4,3452).
routeCost(prodloc34,harbor2,tr12,8220).
routeCost(prodloc34,harbor2,tr14,10960).
routeCost(prodloc34,harbor2,tr2,8220).
routeCost(prodloc34,harbor2,tr4,10960).
routeCost(prodloc34,harbor3,tr12,1308).
routeCost(prodloc34,harbor3,tr14,1744).
routeCost(prodloc34,harbor3,tr2,1308).
routeCost(prodloc34,harbor3,tr4,1744).
routeCost(prodloc34,harbor5,tr12,4257).
routeCost(prodloc34,harbor5,tr14,5676).
routeCost(prodloc34,harbor5,tr2,4257).
routeCost(prodloc34,harbor5,tr4,5676).
routeCost(prodloc34,harbor6,tr12,7419).
routeCost(prodloc34,harbor6,tr14,9892).
routeCost(prodloc34,harbor6,tr2,7419).
routeCost(prodloc34,harbor6,tr4,9892).
routeCost(prodloc34,harbor9,tr12,4566).
routeCost(prodloc34,harbor9,tr14,6088).
routeCost(prodloc34,harbor9,tr2,4566).
routeCost(prodloc34,harbor9,tr4,6088).
routeCost(prodloc34,prodloc12,tr12,2718).
routeCost(prodloc34,prodloc12,tr14,3624).
routeCost(prodloc34,prodloc12,tr2,2718).
routeCost(prodloc34,prodloc12,tr4,3624).
routeCost(prodloc34,prodloc16,tr12,1395).
routeCost(prodloc34,prodloc16,tr14,1860).
routeCost(prodloc34,prodloc16,tr2,1395).
routeCost(prodloc34,prodloc16,tr4,1860).
routeCost(prodloc34,prodloc17,tr12,8319).
routeCost(prodloc34,prodloc17,tr14,11092).
routeCost(prodloc34,prodloc17,tr2,8319).
routeCost(prodloc34,prodloc17,tr4,11092).
routeCost(prodloc34,prodloc18,tr12,1476).
routeCost(prodloc34,prodloc18,tr14,1968).
routeCost(prodloc34,prodloc18,tr2,1476).
routeCost(prodloc34,prodloc18,tr4,1968).
routeCost(prodloc34,prodloc2,tr12,4539).
routeCost(prodloc34,prodloc2,tr14,6052).
routeCost(prodloc34,prodloc2,tr2,4539).
routeCost(prodloc34,prodloc2,tr4,6052).
routeCost(prodloc34,prodloc20,tr12,1494).
routeCost(prodloc34,prodloc20,tr14,1992).
routeCost(prodloc34,prodloc20,tr2,1494).
routeCost(prodloc34,prodloc20,tr4,1992).
routeCost(prodloc34,prodloc21,tr12,6609).
routeCost(prodloc34,prodloc21,tr14,8812).
routeCost(prodloc34,prodloc21,tr2,6609).
routeCost(prodloc34,prodloc21,tr4,8812).
routeCost(prodloc34,prodloc22,tr12,4356).
routeCost(prodloc34,prodloc22,tr14,5808).
routeCost(prodloc34,prodloc22,tr2,4356).
routeCost(prodloc34,prodloc22,tr4,5808).
routeCost(prodloc34,prodloc24,tr12,1302).
routeCost(prodloc34,prodloc24,tr14,1736).
routeCost(prodloc34,prodloc24,tr2,1302).
routeCost(prodloc34,prodloc24,tr4,1736).
routeCost(prodloc34,prodloc26,tr12,4551).
routeCost(prodloc34,prodloc26,tr14,6068).
routeCost(prodloc34,prodloc26,tr2,4551).
routeCost(prodloc34,prodloc26,tr4,6068).
routeCost(prodloc34,prodloc27,tr12,1260).
routeCost(prodloc34,prodloc27,tr14,1680).
routeCost(prodloc34,prodloc27,tr2,1260).
routeCost(prodloc34,prodloc27,tr4,1680).
routeCost(prodloc34,prodloc3,tr12,4257).
routeCost(prodloc34,prodloc3,tr14,5676).
routeCost(prodloc34,prodloc3,tr2,4257).
routeCost(prodloc34,prodloc3,tr4,5676).
routeCost(prodloc34,prodloc31,tr12,4188).
routeCost(prodloc34,prodloc31,tr14,5584).
routeCost(prodloc34,prodloc31,tr2,4188).
routeCost(prodloc34,prodloc31,tr4,5584).
routeCost(prodloc34,prodloc32,tr12,7320).
routeCost(prodloc34,prodloc32,tr14,9760).
routeCost(prodloc34,prodloc32,tr2,7320).
routeCost(prodloc34,prodloc32,tr4,9760).
routeCost(prodloc34,prodloc33,tr12,1350).
routeCost(prodloc34,prodloc33,tr14,1800).
routeCost(prodloc34,prodloc33,tr2,1350).
routeCost(prodloc34,prodloc33,tr4,1800).
routeCost(prodloc34,prodloc40,tr12,1320).
routeCost(prodloc34,prodloc40,tr14,1760).
routeCost(prodloc34,prodloc40,tr2,1320).
routeCost(prodloc34,prodloc40,tr4,1760).
routeCost(prodloc34,prodloc44,tr12,7233).
routeCost(prodloc34,prodloc44,tr14,9644).
routeCost(prodloc34,prodloc44,tr2,7233).
routeCost(prodloc34,prodloc44,tr4,9644).
routeCost(prodloc34,prodloc46,tr12,5502).
routeCost(prodloc34,prodloc46,tr14,7336).
routeCost(prodloc34,prodloc46,tr2,5502).
routeCost(prodloc34,prodloc46,tr4,7336).
routeCost(prodloc34,prodloc47,tr12,2016).
routeCost(prodloc34,prodloc47,tr14,2692).
routeCost(prodloc34,prodloc47,tr2,2019).
routeCost(prodloc34,prodloc47,tr4,2688).
routeCost(prodloc34,prodloc49,tr12,4140).
routeCost(prodloc34,prodloc49,tr14,5520).
routeCost(prodloc34,prodloc49,tr2,4140).
routeCost(prodloc34,prodloc49,tr4,5520).
routeCost(prodloc34,prodloc5,tr12,1320).
routeCost(prodloc34,prodloc5,tr14,1760).
routeCost(prodloc34,prodloc5,tr2,1320).
routeCost(prodloc34,prodloc5,tr4,1760).
routeCost(prodloc34,prodloc6,tr12,1281).
routeCost(prodloc34,prodloc6,tr14,1708).
routeCost(prodloc34,prodloc6,tr2,1281).
routeCost(prodloc34,prodloc6,tr4,1708).
routeCost(prodloc34,prodloc7,tr12,6660).
routeCost(prodloc34,prodloc7,tr14,8880).
routeCost(prodloc34,prodloc7,tr2,6660).
routeCost(prodloc34,prodloc7,tr4,8880).
routeCost(prodloc34,prodloc8,tr12,4257).
routeCost(prodloc34,prodloc8,tr14,5676).
routeCost(prodloc34,prodloc8,tr2,4257).
routeCost(prodloc34,prodloc8,tr4,5676).
routeCost(prodloc35,harbor1,tr12,516).
routeCost(prodloc35,harbor1,tr14,688).
routeCost(prodloc35,harbor1,tr2,516).
routeCost(prodloc35,harbor1,tr4,688).
routeCost(prodloc35,harbor1,tr9,344).
routeCost(prodloc35,harbor13,tr12,3408).
routeCost(prodloc35,harbor13,tr14,4556).
routeCost(prodloc35,harbor13,tr2,3417).
routeCost(prodloc35,harbor13,tr4,4544).
routeCost(prodloc35,prodloc30,tr12,3480).
routeCost(prodloc35,prodloc30,tr14,4652).
routeCost(prodloc35,prodloc30,tr2,3489).
routeCost(prodloc35,prodloc30,tr4,4640).
routeCost(prodloc35,prodloc36,tr12,5595).
routeCost(prodloc35,prodloc36,tr14,7460).
routeCost(prodloc35,prodloc36,tr2,5595).
routeCost(prodloc35,prodloc36,tr4,7460).
routeCost(prodloc36,harbor1,tr12,5958).
routeCost(prodloc36,harbor1,tr14,7944).
routeCost(prodloc36,harbor1,tr2,5958).
routeCost(prodloc36,harbor1,tr4,7944).
routeCost(prodloc36,harbor13,tr12,5505).
routeCost(prodloc36,harbor13,tr14,7340).
routeCost(prodloc36,harbor13,tr2,5505).
routeCost(prodloc36,harbor13,tr4,7340).
routeCost(prodloc36,prodloc1,tr15,316608).
routeCost(prodloc36,prodloc11,tr15,57216).
routeCost(prodloc36,prodloc12,tr15,261760).
routeCost(prodloc36,prodloc2,tr15,275776).
routeCost(prodloc36,prodloc20,tr15,250944).
routeCost(prodloc36,prodloc21,tr15,293408).
routeCost(prodloc36,prodloc24,tr15,242080).
routeCost(prodloc36,prodloc3,tr15,276384).
routeCost(prodloc36,prodloc30,tr12,5466).
routeCost(prodloc36,prodloc30,tr14,7288).
routeCost(prodloc36,prodloc30,tr15,49216).
routeCost(prodloc36,prodloc30,tr2,5466).
routeCost(prodloc36,prodloc30,tr4,7288).
routeCost(prodloc36,prodloc31,tr15,216800).
routeCost(prodloc36,prodloc33,tr15,246624).
routeCost(prodloc36,prodloc35,tr12,5607).
routeCost(prodloc36,prodloc35,tr14,7476).
routeCost(prodloc36,prodloc35,tr2,5607).
routeCost(prodloc36,prodloc35,tr4,7476).
routeCost(prodloc36,prodloc41,tr15,418432).
routeCost(prodloc36,prodloc44,tr15,204192).
routeCost(prodloc36,prodloc49,tr15,275488).
routeCost(prodloc36,prodloc6,tr15,244832).
routeCost(prodloc36,prodloc8,tr15,276384).
routeCost(prodloc40,harbor0,tr12,657).
routeCost(prodloc40,harbor0,tr14,876).
routeCost(prodloc40,harbor0,tr2,657).
routeCost(prodloc40,harbor0,tr4,876).
routeCost(prodloc40,harbor1,tr11,27284).
routeCost(prodloc40,harbor1,tr13,163704).
routeCost(prodloc40,harbor10,tr11,9399).
routeCost(prodloc40,harbor10,tr13,56394).
routeCost(prodloc40,harbor11,tr11,5564).
routeCost(prodloc40,harbor11,tr12,4794).
routeCost(prodloc40,harbor11,tr13,33384).
routeCost(prodloc40,harbor11,tr14,6392).
routeCost(prodloc40,harbor11,tr2,4794).
routeCost(prodloc40,harbor11,tr4,6392).
routeCost(prodloc40,harbor12,tr11,27970).
routeCost(prodloc40,harbor12,tr13,167820).
routeCost(prodloc40,harbor13,tr11,28528).
routeCost(prodloc40,harbor13,tr13,171168).
routeCost(prodloc40,harbor14,tr11,4282).
routeCost(prodloc40,harbor14,tr13,25692).
routeCost(prodloc40,harbor15,tr11,5772).
routeCost(prodloc40,harbor15,tr13,34632).
routeCost(prodloc40,harbor16,tr11,878).
routeCost(prodloc40,harbor16,tr12,2664).
routeCost(prodloc40,harbor16,tr13,5268).
routeCost(prodloc40,harbor16,tr14,3552).
routeCost(prodloc40,harbor16,tr2,2664).
routeCost(prodloc40,harbor16,tr4,3552).
routeCost(prodloc40,harbor2,tr11,4283).
routeCost(prodloc40,harbor2,tr12,8811).
routeCost(prodloc40,harbor2,tr13,25698).
routeCost(prodloc40,harbor2,tr14,11748).
routeCost(prodloc40,harbor2,tr2,8811).
routeCost(prodloc40,harbor2,tr4,11748).
routeCost(prodloc40,harbor3,tr11,321).
routeCost(prodloc40,harbor3,tr12,573).
routeCost(prodloc40,harbor3,tr13,1926).
routeCost(prodloc40,harbor3,tr14,764).
routeCost(prodloc40,harbor3,tr2,573).
routeCost(prodloc40,harbor3,tr4,764).
routeCost(prodloc40,harbor3,tr9,382).
routeCost(prodloc40,harbor4,tr11,9964).
routeCost(prodloc40,harbor4,tr13,59784).
routeCost(prodloc40,harbor5,tr11,2862).
routeCost(prodloc40,harbor5,tr12,4482).
routeCost(prodloc40,harbor5,tr13,17172).
routeCost(prodloc40,harbor5,tr14,5976).
routeCost(prodloc40,harbor5,tr2,4482).
routeCost(prodloc40,harbor5,tr4,5976).
routeCost(prodloc40,harbor6,tr11,3412).
routeCost(prodloc40,harbor6,tr12,7791).
routeCost(prodloc40,harbor6,tr13,20472).
routeCost(prodloc40,harbor6,tr14,10388).
routeCost(prodloc40,harbor6,tr2,7791).
routeCost(prodloc40,harbor6,tr4,10388).
routeCost(prodloc40,harbor7,tr11,26603).
routeCost(prodloc40,harbor7,tr13,159618).
routeCost(prodloc40,harbor8,tr11,7726).
routeCost(prodloc40,harbor8,tr13,46356).
routeCost(prodloc40,harbor9,tr11,6113).
routeCost(prodloc40,harbor9,tr12,5595).
routeCost(prodloc40,harbor9,tr13,36678).
routeCost(prodloc40,harbor9,tr14,7460).
routeCost(prodloc40,harbor9,tr2,5595).
routeCost(prodloc40,harbor9,tr4,7460).
routeCost(prodloc40,prodloc12,tr12,2808).
routeCost(prodloc40,prodloc12,tr14,3744).
routeCost(prodloc40,prodloc12,tr2,2808).
routeCost(prodloc40,prodloc12,tr4,3744).
routeCost(prodloc40,prodloc16,tr12,2475).
routeCost(prodloc40,prodloc16,tr14,3300).
routeCost(prodloc40,prodloc16,tr2,2475).
routeCost(prodloc40,prodloc16,tr4,3300).
routeCost(prodloc40,prodloc17,tr11,4161).
routeCost(prodloc40,prodloc17,tr12,8664).
routeCost(prodloc40,prodloc17,tr14,11552).
routeCost(prodloc40,prodloc17,tr2,8664).
routeCost(prodloc40,prodloc17,tr4,11552).
routeCost(prodloc40,prodloc18,tr11,340).
routeCost(prodloc40,prodloc18,tr12,1002).
routeCost(prodloc40,prodloc18,tr13,2040).
routeCost(prodloc40,prodloc18,tr14,1336).
routeCost(prodloc40,prodloc18,tr2,1002).
routeCost(prodloc40,prodloc18,tr4,1336).
routeCost(prodloc40,prodloc2,tr12,5229).
routeCost(prodloc40,prodloc2,tr14,6972).
routeCost(prodloc40,prodloc2,tr2,5229).
routeCost(prodloc40,prodloc2,tr4,6972).
routeCost(prodloc40,prodloc20,tr12,2103).
routeCost(prodloc40,prodloc20,tr14,2804).
routeCost(prodloc40,prodloc20,tr2,2103).
routeCost(prodloc40,prodloc20,tr4,2804).
routeCost(prodloc40,prodloc21,tr12,6981).
routeCost(prodloc40,prodloc21,tr14,9308).
routeCost(prodloc40,prodloc21,tr2,6981).
routeCost(prodloc40,prodloc21,tr4,9308).
routeCost(prodloc40,prodloc22,tr12,4593).
routeCost(prodloc40,prodloc22,tr14,6124).
routeCost(prodloc40,prodloc22,tr2,4593).
routeCost(prodloc40,prodloc22,tr4,6124).
routeCost(prodloc40,prodloc24,tr11,317).
routeCost(prodloc40,prodloc24,tr12,597).
routeCost(prodloc40,prodloc24,tr13,1902).
routeCost(prodloc40,prodloc24,tr14,796).
routeCost(prodloc40,prodloc24,tr2,597).
routeCost(prodloc40,prodloc24,tr4,796).
routeCost(prodloc40,prodloc24,tr9,398).
routeCost(prodloc40,prodloc26,tr12,5580).
routeCost(prodloc40,prodloc26,tr14,7440).
routeCost(prodloc40,prodloc26,tr2,5580).
routeCost(prodloc40,prodloc26,tr4,7440).
routeCost(prodloc40,prodloc27,tr12,2289).
routeCost(prodloc40,prodloc27,tr14,3052).
routeCost(prodloc40,prodloc27,tr2,2289).
routeCost(prodloc40,prodloc27,tr4,3052).
routeCost(prodloc40,prodloc3,tr12,4482).
routeCost(prodloc40,prodloc3,tr14,5976).
routeCost(prodloc40,prodloc3,tr2,4482).
routeCost(prodloc40,prodloc3,tr4,5976).
routeCost(prodloc40,prodloc31,tr12,5316).
routeCost(prodloc40,prodloc31,tr14,7088).
routeCost(prodloc40,prodloc31,tr2,5316).
routeCost(prodloc40,prodloc31,tr4,7088).
routeCost(prodloc40,prodloc32,tr12,7692).
routeCost(prodloc40,prodloc32,tr14,10256).
routeCost(prodloc40,prodloc32,tr2,7692).
routeCost(prodloc40,prodloc32,tr4,10256).
routeCost(prodloc40,prodloc33,tr12,2379).
routeCost(prodloc40,prodloc33,tr14,3172).
routeCost(prodloc40,prodloc33,tr2,2379).
routeCost(prodloc40,prodloc33,tr4,3172).
routeCost(prodloc40,prodloc34,tr12,1311).
routeCost(prodloc40,prodloc34,tr14,1748).
routeCost(prodloc40,prodloc34,tr2,1311).
routeCost(prodloc40,prodloc34,tr4,1748).
routeCost(prodloc40,prodloc44,tr12,8361).
routeCost(prodloc40,prodloc44,tr14,11148).
routeCost(prodloc40,prodloc44,tr2,8361).
routeCost(prodloc40,prodloc44,tr4,11148).
routeCost(prodloc40,prodloc46,tr12,5874).
routeCost(prodloc40,prodloc46,tr14,7832).
routeCost(prodloc40,prodloc46,tr2,5874).
routeCost(prodloc40,prodloc46,tr4,7832).
routeCost(prodloc40,prodloc47,tr11,550).
routeCost(prodloc40,prodloc47,tr12,1716).
routeCost(prodloc40,prodloc47,tr13,3300).
routeCost(prodloc40,prodloc47,tr14,2288).
routeCost(prodloc40,prodloc47,tr2,1716).
routeCost(prodloc40,prodloc47,tr4,2288).
routeCost(prodloc40,prodloc49,tr12,4365).
routeCost(prodloc40,prodloc49,tr14,5820).
routeCost(prodloc40,prodloc49,tr2,4365).
routeCost(prodloc40,prodloc49,tr4,5820).
routeCost(prodloc40,prodloc5,tr12,681).
routeCost(prodloc40,prodloc5,tr14,908).
routeCost(prodloc40,prodloc5,tr2,681).
routeCost(prodloc40,prodloc5,tr4,908).
routeCost(prodloc40,prodloc6,tr12,882).
routeCost(prodloc40,prodloc6,tr14,1176).
routeCost(prodloc40,prodloc6,tr2,882).
routeCost(prodloc40,prodloc6,tr4,1176).
routeCost(prodloc40,prodloc6,tr9,588).
routeCost(prodloc40,prodloc7,tr12,7032).
routeCost(prodloc40,prodloc7,tr14,9376).
routeCost(prodloc40,prodloc7,tr2,7032).
routeCost(prodloc40,prodloc7,tr4,9376).
routeCost(prodloc40,prodloc8,tr11,2862).
routeCost(prodloc40,prodloc8,tr12,4482).
routeCost(prodloc40,prodloc8,tr13,17172).
routeCost(prodloc40,prodloc8,tr14,5976).
routeCost(prodloc40,prodloc8,tr2,4482).
routeCost(prodloc40,prodloc8,tr4,5976).
routeCost(prodloc41,harbor10,tr12,18).
routeCost(prodloc41,harbor10,tr14,24).
routeCost(prodloc41,harbor10,tr2,18).
routeCost(prodloc41,harbor10,tr4,24).
routeCost(prodloc41,harbor10,tr7,1668).
routeCost(prodloc41,harbor10,tr9,12).
routeCost(prodloc41,prodloc1,tr15,236640).
routeCost(prodloc41,prodloc11,tr15,422080).
routeCost(prodloc41,prodloc12,tr15,240096).
routeCost(prodloc41,prodloc2,tr15,245600).
routeCost(prodloc41,prodloc20,tr15,253248).
routeCost(prodloc41,prodloc21,tr15,237632).
routeCost(prodloc41,prodloc24,tr15,249632).
routeCost(prodloc41,prodloc3,tr15,232736).
routeCost(prodloc41,prodloc30,tr15,378336).
routeCost(prodloc41,prodloc31,tr15,294880).
routeCost(prodloc41,prodloc33,tr15,261120).
routeCost(prodloc41,prodloc36,tr15,418432).
routeCost(prodloc41,prodloc44,tr15,321760).
routeCost(prodloc41,prodloc49,tr15,234208).
routeCost(prodloc41,prodloc6,tr15,248288).
routeCost(prodloc41,prodloc8,tr15,232672).
routeCost(prodloc42,harbor12,tr14,72).
routeCost(prodloc42,harbor12,tr2,54).
routeCost(prodloc42,harbor12,tr4,72).
routeCost(prodloc42,harbor12,tr9,36).
routeCost(prodloc44,harbor0,tr12,8532).
routeCost(prodloc44,harbor0,tr14,11376).
routeCost(prodloc44,harbor0,tr2,8532).
routeCost(prodloc44,harbor0,tr4,11376).
routeCost(prodloc44,harbor11,tr12,8505).
routeCost(prodloc44,harbor11,tr14,11340).
routeCost(prodloc44,harbor11,tr2,8505).
routeCost(prodloc44,harbor11,tr4,11340).
routeCost(prodloc44,harbor16,tr12,9477).
routeCost(prodloc44,harbor16,tr14,12636).
routeCost(prodloc44,harbor16,tr2,9477).
routeCost(prodloc44,harbor16,tr4,12636).
routeCost(prodloc44,harbor2,tr12,12858).
routeCost(prodloc44,harbor2,tr14,17144).
routeCost(prodloc44,harbor2,tr2,12858).
routeCost(prodloc44,harbor2,tr4,17144).
routeCost(prodloc44,harbor3,tr12,8526).
routeCost(prodloc44,harbor3,tr14,11368).
routeCost(prodloc44,harbor3,tr2,8526).
routeCost(prodloc44,harbor3,tr4,11368).
routeCost(prodloc44,harbor5,tr12,10287).
routeCost(prodloc44,harbor5,tr14,13716).
routeCost(prodloc44,harbor5,tr2,10287).
routeCost(prodloc44,harbor5,tr4,13716).
routeCost(prodloc44,harbor6,tr12,12615).
routeCost(prodloc44,harbor6,tr14,16820).
routeCost(prodloc44,harbor6,tr2,12615).
routeCost(prodloc44,harbor6,tr4,16820).
routeCost(prodloc44,harbor9,tr12,5883).
routeCost(prodloc44,harbor9,tr14,7844).
routeCost(prodloc44,harbor9,tr2,5883).
routeCost(prodloc44,harbor9,tr4,7844).
routeCost(prodloc44,prodloc1,tr15,115872).
routeCost(prodloc44,prodloc11,tr15,260512).
routeCost(prodloc44,prodloc12,tr12,9300).
routeCost(prodloc44,prodloc12,tr14,12400).
routeCost(prodloc44,prodloc12,tr15,82304).
routeCost(prodloc44,prodloc12,tr2,9300).
routeCost(prodloc44,prodloc12,tr4,12400).
routeCost(prodloc44,prodloc16,tr12,6420).
routeCost(prodloc44,prodloc16,tr14,8560).
routeCost(prodloc44,prodloc16,tr2,6420).
routeCost(prodloc44,prodloc16,tr4,8560).
routeCost(prodloc44,prodloc17,tr12,12954).
routeCost(prodloc44,prodloc17,tr14,17272).
routeCost(prodloc44,prodloc17,tr2,12954).
routeCost(prodloc44,prodloc17,tr4,17272).
routeCost(prodloc44,prodloc18,tr12,8694).
routeCost(prodloc44,prodloc18,tr14,11592).
routeCost(prodloc44,prodloc18,tr2,8694).
routeCost(prodloc44,prodloc18,tr4,11592).
routeCost(prodloc44,prodloc2,tr12,9474).
routeCost(prodloc44,prodloc2,tr14,12632).
routeCost(prodloc44,prodloc2,tr15,83232).
routeCost(prodloc44,prodloc2,tr2,9474).
routeCost(prodloc44,prodloc2,tr4,12632).
routeCost(prodloc44,prodloc20,tr12,7815).
routeCost(prodloc44,prodloc20,tr14,10420).
routeCost(prodloc44,prodloc20,tr15,68864).
routeCost(prodloc44,prodloc20,tr2,7815).
routeCost(prodloc44,prodloc20,tr4,10420).
routeCost(prodloc44,prodloc21,tr12,11460).
routeCost(prodloc44,prodloc21,tr14,15280).
routeCost(prodloc44,prodloc21,tr15,97952).
routeCost(prodloc44,prodloc21,tr2,11460).
routeCost(prodloc44,prodloc21,tr4,15280).
routeCost(prodloc44,prodloc22,tr12,9927).
routeCost(prodloc44,prodloc22,tr14,13236).
routeCost(prodloc44,prodloc22,tr2,9927).
routeCost(prodloc44,prodloc22,tr4,13236).
routeCost(prodloc44,prodloc24,tr12,8523).
routeCost(prodloc44,prodloc24,tr14,11364).
routeCost(prodloc44,prodloc24,tr15,72608).
routeCost(prodloc44,prodloc24,tr2,8523).
routeCost(prodloc44,prodloc24,tr4,11364).
routeCost(prodloc44,prodloc26,tr12,5826).
routeCost(prodloc44,prodloc26,tr14,7768).
routeCost(prodloc44,prodloc26,tr2,5826).
routeCost(prodloc44,prodloc26,tr4,7768).
routeCost(prodloc44,prodloc27,tr12,7053).
routeCost(prodloc44,prodloc27,tr14,9404).
routeCost(prodloc44,prodloc27,tr2,7053).
routeCost(prodloc44,prodloc27,tr4,9404).
routeCost(prodloc44,prodloc3,tr12,10287).
routeCost(prodloc44,prodloc3,tr14,13716).
routeCost(prodloc44,prodloc3,tr15,92128).
routeCost(prodloc44,prodloc3,tr2,10287).
routeCost(prodloc44,prodloc3,tr4,13716).
routeCost(prodloc44,prodloc30,tr15,222784).
routeCost(prodloc44,prodloc31,tr12,3642).
routeCost(prodloc44,prodloc31,tr14,4856).
routeCost(prodloc44,prodloc31,tr15,27104).
routeCost(prodloc44,prodloc31,tr2,3642).
routeCost(prodloc44,prodloc31,tr4,4856).
routeCost(prodloc44,prodloc32,tr12,12513).
routeCost(prodloc44,prodloc32,tr14,16684).
routeCost(prodloc44,prodloc32,tr2,12513).
routeCost(prodloc44,prodloc32,tr4,16684).
routeCost(prodloc44,prodloc33,tr12,6912).
routeCost(prodloc44,prodloc33,tr14,9216).
routeCost(prodloc44,prodloc33,tr15,61152).
routeCost(prodloc44,prodloc33,tr2,6912).
routeCost(prodloc44,prodloc33,tr4,9216).
routeCost(prodloc44,prodloc34,tr12,7227).
routeCost(prodloc44,prodloc34,tr14,9636).
routeCost(prodloc44,prodloc34,tr2,7227).
routeCost(prodloc44,prodloc34,tr4,9636).
routeCost(prodloc44,prodloc36,tr15,204192).
routeCost(prodloc44,prodloc40,tr12,8361).
routeCost(prodloc44,prodloc40,tr14,11148).
routeCost(prodloc44,prodloc40,tr2,8361).
routeCost(prodloc44,prodloc40,tr4,11148).
routeCost(prodloc44,prodloc41,tr15,321760).
routeCost(prodloc44,prodloc46,tr12,10695).
routeCost(prodloc44,prodloc46,tr14,14260).
routeCost(prodloc44,prodloc46,tr2,10695).
routeCost(prodloc44,prodloc46,tr4,14260).
routeCost(prodloc44,prodloc47,tr12,7896).
routeCost(prodloc44,prodloc47,tr14,10528).
routeCost(prodloc44,prodloc47,tr2,7896).
routeCost(prodloc44,prodloc47,tr4,10528).
routeCost(prodloc44,prodloc49,tr12,10113).
routeCost(prodloc44,prodloc49,tr14,13484).
routeCost(prodloc44,prodloc49,tr15,90752).
routeCost(prodloc44,prodloc49,tr2,10113).
routeCost(prodloc44,prodloc49,tr4,13484).
routeCost(prodloc44,prodloc5,tr12,8541).
routeCost(prodloc44,prodloc5,tr14,11388).
routeCost(prodloc44,prodloc5,tr2,8541).
routeCost(prodloc44,prodloc5,tr4,11388).
routeCost(prodloc44,prodloc6,tr12,8502).
routeCost(prodloc44,prodloc6,tr14,11336).
routeCost(prodloc44,prodloc6,tr15,73696).
routeCost(prodloc44,prodloc6,tr2,8502).
routeCost(prodloc44,prodloc6,tr4,11336).
routeCost(prodloc44,prodloc7,tr12,11514).
routeCost(prodloc44,prodloc7,tr14,15352).
routeCost(prodloc44,prodloc7,tr2,11514).
routeCost(prodloc44,prodloc7,tr4,15352).
routeCost(prodloc44,prodloc8,tr12,10287).
routeCost(prodloc44,prodloc8,tr14,13716).
routeCost(prodloc44,prodloc8,tr15,92192).
routeCost(prodloc44,prodloc8,tr2,10287).
routeCost(prodloc44,prodloc8,tr4,13716).
routeCost(prodloc46,harbor0,tr12,5271).
routeCost(prodloc46,harbor0,tr14,7028).
routeCost(prodloc46,harbor0,tr2,5271).
routeCost(prodloc46,harbor0,tr4,7028).
routeCost(prodloc46,harbor11,tr12,2463).
routeCost(prodloc46,harbor11,tr14,3284).
routeCost(prodloc46,harbor11,tr2,2463).
routeCost(prodloc46,harbor11,tr4,3284).
routeCost(prodloc46,harbor16,tr12,3543).
routeCost(prodloc46,harbor16,tr14,4724).
routeCost(prodloc46,harbor16,tr2,3543).
routeCost(prodloc46,harbor16,tr4,4724).
routeCost(prodloc46,harbor2,tr12,2940).
routeCost(prodloc46,harbor2,tr14,3920).
routeCost(prodloc46,harbor2,tr2,2940).
routeCost(prodloc46,harbor2,tr4,3920).
routeCost(prodloc46,harbor3,tr12,5316).
routeCost(prodloc46,harbor3,tr14,7088).
routeCost(prodloc46,harbor3,tr2,5316).
routeCost(prodloc46,harbor3,tr4,7088).
routeCost(prodloc46,harbor5,tr12,2106).
routeCost(prodloc46,harbor5,tr14,2808).
routeCost(prodloc46,harbor5,tr2,2106).
routeCost(prodloc46,harbor5,tr4,2808).
routeCost(prodloc46,harbor6,tr12,1920).
routeCost(prodloc46,harbor6,tr14,2560).
routeCost(prodloc46,harbor6,tr2,1920).
routeCost(prodloc46,harbor6,tr4,2560).
routeCost(prodloc46,harbor9,tr12,5622).
routeCost(prodloc46,harbor9,tr14,7496).
routeCost(prodloc46,harbor9,tr2,5622).
routeCost(prodloc46,harbor9,tr4,7496).
routeCost(prodloc46,prodloc12,tr12,3111).
routeCost(prodloc46,prodloc12,tr14,4148).
routeCost(prodloc46,prodloc12,tr2,3111).
routeCost(prodloc46,prodloc12,tr4,4148).
routeCost(prodloc46,prodloc16,tr12,5013).
routeCost(prodloc46,prodloc16,tr14,6684).
routeCost(prodloc46,prodloc16,tr2,5013).
routeCost(prodloc46,prodloc16,tr4,6684).
routeCost(prodloc46,prodloc17,tr12,2790).
routeCost(prodloc46,prodloc17,tr14,3720).
routeCost(prodloc46,prodloc17,tr2,2790).
routeCost(prodloc46,prodloc17,tr4,3720).
routeCost(prodloc46,prodloc18,tr12,5118).
routeCost(prodloc46,prodloc18,tr14,6824).
routeCost(prodloc46,prodloc18,tr2,5118).
routeCost(prodloc46,prodloc18,tr4,6824).
routeCost(prodloc46,prodloc2,tr12,1329).
routeCost(prodloc46,prodloc2,tr14,1772).
routeCost(prodloc46,prodloc2,tr2,1329).
routeCost(prodloc46,prodloc2,tr4,1772).
routeCost(prodloc46,prodloc20,tr12,4053).
routeCost(prodloc46,prodloc20,tr14,5404).
routeCost(prodloc46,prodloc20,tr2,4053).
routeCost(prodloc46,prodloc20,tr4,5404).
routeCost(prodloc46,prodloc21,tr12,1107).
routeCost(prodloc46,prodloc21,tr14,1476).
routeCost(prodloc46,prodloc21,tr2,1107).
routeCost(prodloc46,prodloc21,tr4,1476).
routeCost(prodloc46,prodloc22,tr12,1455).
routeCost(prodloc46,prodloc22,tr14,1940).
routeCost(prodloc46,prodloc22,tr2,1455).
routeCost(prodloc46,prodloc22,tr4,1940).
routeCost(prodloc46,prodloc24,tr12,5289).
routeCost(prodloc46,prodloc24,tr14,7052).
routeCost(prodloc46,prodloc24,tr2,5289).
routeCost(prodloc46,prodloc24,tr4,7052).
routeCost(prodloc46,prodloc26,tr12,5607).
routeCost(prodloc46,prodloc26,tr14,7476).
routeCost(prodloc46,prodloc26,tr2,5607).
routeCost(prodloc46,prodloc26,tr4,7476).
routeCost(prodloc46,prodloc27,tr12,4431).
routeCost(prodloc46,prodloc27,tr14,5908).
routeCost(prodloc46,prodloc27,tr2,4431).
routeCost(prodloc46,prodloc27,tr4,5908).
routeCost(prodloc46,prodloc3,tr12,2106).
routeCost(prodloc46,prodloc3,tr14,2808).
routeCost(prodloc46,prodloc3,tr2,2106).
routeCost(prodloc46,prodloc3,tr4,2808).
routeCost(prodloc46,prodloc31,tr12,8442).
routeCost(prodloc46,prodloc31,tr14,11256).
routeCost(prodloc46,prodloc31,tr2,8442).
routeCost(prodloc46,prodloc31,tr4,11256).
routeCost(prodloc46,prodloc32,tr12,1818).
routeCost(prodloc46,prodloc32,tr14,2424).
routeCost(prodloc46,prodloc32,tr2,1818).
routeCost(prodloc46,prodloc32,tr4,2424).
routeCost(prodloc46,prodloc33,tr12,4476).
routeCost(prodloc46,prodloc33,tr14,5968).
routeCost(prodloc46,prodloc33,tr2,4476).
routeCost(prodloc46,prodloc33,tr4,5968).
routeCost(prodloc46,prodloc34,tr12,5505).
routeCost(prodloc46,prodloc34,tr14,7340).
routeCost(prodloc46,prodloc34,tr2,5505).
routeCost(prodloc46,prodloc34,tr4,7340).
routeCost(prodloc46,prodloc40,tr12,5844).
routeCost(prodloc46,prodloc40,tr14,7792).
routeCost(prodloc46,prodloc40,tr2,5844).
routeCost(prodloc46,prodloc40,tr4,7792).
routeCost(prodloc46,prodloc44,tr12,10938).
routeCost(prodloc46,prodloc44,tr14,14584).
routeCost(prodloc46,prodloc44,tr2,10938).
routeCost(prodloc46,prodloc44,tr4,14584).
routeCost(prodloc46,prodloc47,tr12,7299).
routeCost(prodloc46,prodloc47,tr14,9732).
routeCost(prodloc46,prodloc47,tr2,7299).
routeCost(prodloc46,prodloc47,tr4,9732).
routeCost(prodloc46,prodloc49,tr12,1935).
routeCost(prodloc46,prodloc49,tr14,2580).
routeCost(prodloc46,prodloc49,tr2,1935).
routeCost(prodloc46,prodloc49,tr4,2580).
routeCost(prodloc46,prodloc5,tr12,5280).
routeCost(prodloc46,prodloc5,tr14,7040).
routeCost(prodloc46,prodloc5,tr2,5280).
routeCost(prodloc46,prodloc5,tr4,7040).
routeCost(prodloc46,prodloc6,tr12,4998).
routeCost(prodloc46,prodloc6,tr14,6664).
routeCost(prodloc46,prodloc6,tr2,4998).
routeCost(prodloc46,prodloc6,tr4,6664).
routeCost(prodloc46,prodloc7,tr12,1161).
routeCost(prodloc46,prodloc7,tr14,1548).
routeCost(prodloc46,prodloc7,tr2,1161).
routeCost(prodloc46,prodloc7,tr4,1548).
routeCost(prodloc46,prodloc8,tr12,2106).
routeCost(prodloc46,prodloc8,tr14,2808).
routeCost(prodloc46,prodloc8,tr2,2106).
routeCost(prodloc46,prodloc8,tr4,2808).
routeCost(prodloc47,harbor0,tr12,2214).
routeCost(prodloc47,harbor0,tr14,2952).
routeCost(prodloc47,harbor0,tr2,2214).
routeCost(prodloc47,harbor0,tr4,2952).
routeCost(prodloc47,harbor1,tr11,27707).
routeCost(prodloc47,harbor1,tr13,166242).
routeCost(prodloc47,harbor10,tr11,9822).
routeCost(prodloc47,harbor10,tr13,58932).
routeCost(prodloc47,harbor11,tr11,5987).
routeCost(prodloc47,harbor11,tr12,6195).
routeCost(prodloc47,harbor11,tr13,35922).
routeCost(prodloc47,harbor11,tr14,8264).
routeCost(prodloc47,harbor11,tr2,6198).
routeCost(prodloc47,harbor11,tr4,8260).
routeCost(prodloc47,harbor12,tr11,28393).
routeCost(prodloc47,harbor12,tr13,170358).
routeCost(prodloc47,harbor13,tr11,28951).
routeCost(prodloc47,harbor13,tr13,173706).
routeCost(prodloc47,harbor14,tr11,4704).
routeCost(prodloc47,harbor14,tr13,28224).
routeCost(prodloc47,harbor15,tr11,6195).
routeCost(prodloc47,harbor15,tr13,37170).
routeCost(prodloc47,harbor16,tr11,1368).
routeCost(prodloc47,harbor16,tr12,4131).
routeCost(prodloc47,harbor16,tr13,8208).
routeCost(prodloc47,harbor16,tr14,5508).
routeCost(prodloc47,harbor16,tr2,4131).
routeCost(prodloc47,harbor16,tr4,5508).
routeCost(prodloc47,harbor2,tr11,4705).
routeCost(prodloc47,harbor2,tr12,10290).
routeCost(prodloc47,harbor2,tr13,28230).
routeCost(prodloc47,harbor2,tr14,13720).
routeCost(prodloc47,harbor2,tr2,10290).
routeCost(prodloc47,harbor2,tr4,13720).
routeCost(prodloc47,harbor3,tr11,811).
routeCost(prodloc47,harbor3,tr12,2130).
routeCost(prodloc47,harbor3,tr13,4866).
routeCost(prodloc47,harbor3,tr14,2840).
routeCost(prodloc47,harbor3,tr2,2130).
routeCost(prodloc47,harbor3,tr4,2840).
routeCost(prodloc47,harbor4,tr11,10387).
routeCost(prodloc47,harbor4,tr13,62322).
routeCost(prodloc47,harbor5,tr11,3284).
routeCost(prodloc47,harbor5,tr12,5910).
routeCost(prodloc47,harbor5,tr13,19704).
routeCost(prodloc47,harbor5,tr14,7880).
routeCost(prodloc47,harbor5,tr2,5910).
routeCost(prodloc47,harbor5,tr4,7880).
routeCost(prodloc47,harbor6,tr11,3835).
routeCost(prodloc47,harbor6,tr12,9219).
routeCost(prodloc47,harbor6,tr13,23010).
routeCost(prodloc47,harbor6,tr14,12292).
routeCost(prodloc47,harbor6,tr2,9219).
routeCost(prodloc47,harbor6,tr4,12292).
routeCost(prodloc47,harbor7,tr11,27026).
routeCost(prodloc47,harbor7,tr13,162156).
routeCost(prodloc47,harbor8,tr11,8149).
routeCost(prodloc47,harbor8,tr13,48894).
routeCost(prodloc47,harbor9,tr11,6536).
routeCost(prodloc47,harbor9,tr12,6525).
routeCost(prodloc47,harbor9,tr13,39216).
routeCost(prodloc47,harbor9,tr14,8704).
routeCost(prodloc47,harbor9,tr2,6528).
routeCost(prodloc47,harbor9,tr4,8700).
routeCost(prodloc47,prodloc12,tr12,4269).
routeCost(prodloc47,prodloc12,tr14,5692).
routeCost(prodloc47,prodloc12,tr2,4269).
routeCost(prodloc47,prodloc12,tr4,5692).
routeCost(prodloc47,prodloc16,tr12,2844).
routeCost(prodloc47,prodloc16,tr14,3800).
routeCost(prodloc47,prodloc16,tr2,2850).
routeCost(prodloc47,prodloc16,tr4,3792).
routeCost(prodloc47,prodloc17,tr11,4584).
routeCost(prodloc47,prodloc17,tr12,10089).
routeCost(prodloc47,prodloc17,tr14,13452).
routeCost(prodloc47,prodloc17,tr2,10089).
routeCost(prodloc47,prodloc17,tr4,13452).
routeCost(prodloc47,prodloc18,tr11,830).
routeCost(prodloc47,prodloc18,tr12,2559).
routeCost(prodloc47,prodloc18,tr13,4980).
routeCost(prodloc47,prodloc18,tr14,3412).
routeCost(prodloc47,prodloc18,tr2,2559).
routeCost(prodloc47,prodloc18,tr4,3412).
routeCost(prodloc47,prodloc2,tr12,6609).
routeCost(prodloc47,prodloc2,tr14,8812).
routeCost(prodloc47,prodloc2,tr2,6609).
routeCost(prodloc47,prodloc2,tr4,8812).
routeCost(prodloc47,prodloc20,tr12,3450).
routeCost(prodloc47,prodloc20,tr14,4604).
routeCost(prodloc47,prodloc20,tr2,3453).
routeCost(prodloc47,prodloc20,tr4,4600).
routeCost(prodloc47,prodloc21,tr12,8409).
routeCost(prodloc47,prodloc21,tr14,11212).
routeCost(prodloc47,prodloc21,tr2,8409).
routeCost(prodloc47,prodloc21,tr4,11212).
routeCost(prodloc47,prodloc22,tr12,6021).
routeCost(prodloc47,prodloc22,tr14,8028).
routeCost(prodloc47,prodloc22,tr2,6021).
routeCost(prodloc47,prodloc22,tr4,8028).
routeCost(prodloc47,prodloc24,tr11,807).
routeCost(prodloc47,prodloc24,tr12,2154).
routeCost(prodloc47,prodloc24,tr13,4842).
routeCost(prodloc47,prodloc24,tr14,2872).
routeCost(prodloc47,prodloc24,tr2,2154).
routeCost(prodloc47,prodloc24,tr4,2872).
routeCost(prodloc47,prodloc26,tr12,6507).
routeCost(prodloc47,prodloc26,tr14,8684).
routeCost(prodloc47,prodloc26,tr2,6513).
routeCost(prodloc47,prodloc26,tr4,8676).
routeCost(prodloc47,prodloc27,tr12,3327).
routeCost(prodloc47,prodloc27,tr14,4440).
routeCost(prodloc47,prodloc27,tr2,3330).
routeCost(prodloc47,prodloc27,tr4,4440).
routeCost(prodloc47,prodloc3,tr12,5910).
routeCost(prodloc47,prodloc3,tr14,7880).
routeCost(prodloc47,prodloc3,tr2,5910).
routeCost(prodloc47,prodloc3,tr4,7880).
routeCost(prodloc47,prodloc31,tr12,3969).
routeCost(prodloc47,prodloc31,tr14,5300).
routeCost(prodloc47,prodloc31,tr2,3975).
routeCost(prodloc47,prodloc31,tr4,5292).
routeCost(prodloc47,prodloc32,tr12,9120).
routeCost(prodloc47,prodloc32,tr14,12160).
routeCost(prodloc47,prodloc32,tr2,9120).
routeCost(prodloc47,prodloc32,tr4,12160).
routeCost(prodloc47,prodloc33,tr12,3417).
routeCost(prodloc47,prodloc33,tr14,4560).
routeCost(prodloc47,prodloc33,tr2,3420).
routeCost(prodloc47,prodloc33,tr4,4560).
routeCost(prodloc47,prodloc34,tr12,2004).
routeCost(prodloc47,prodloc34,tr14,2680).
routeCost(prodloc47,prodloc34,tr2,2010).
routeCost(prodloc47,prodloc34,tr4,2672).
routeCost(prodloc47,prodloc40,tr11,550).
routeCost(prodloc47,prodloc40,tr12,1794).
routeCost(prodloc47,prodloc40,tr13,3300).
routeCost(prodloc47,prodloc40,tr14,2392).
routeCost(prodloc47,prodloc40,tr2,1794).
routeCost(prodloc47,prodloc40,tr4,2392).
routeCost(prodloc47,prodloc44,tr12,7905).
routeCost(prodloc47,prodloc44,tr14,10540).
routeCost(prodloc47,prodloc44,tr2,7905).
routeCost(prodloc47,prodloc44,tr4,10540).
routeCost(prodloc47,prodloc46,tr12,7302).
routeCost(prodloc47,prodloc46,tr14,9736).
routeCost(prodloc47,prodloc46,tr2,7302).
routeCost(prodloc47,prodloc46,tr4,9736).
routeCost(prodloc47,prodloc49,tr12,5793).
routeCost(prodloc47,prodloc49,tr14,7724).
routeCost(prodloc47,prodloc49,tr2,5793).
routeCost(prodloc47,prodloc49,tr4,7724).
routeCost(prodloc47,prodloc5,tr12,2238).
routeCost(prodloc47,prodloc5,tr14,2984).
routeCost(prodloc47,prodloc5,tr2,2238).
routeCost(prodloc47,prodloc5,tr4,2984).
routeCost(prodloc47,prodloc6,tr12,2442).
routeCost(prodloc47,prodloc6,tr14,3256).
routeCost(prodloc47,prodloc6,tr2,2442).
routeCost(prodloc47,prodloc6,tr4,3256).
routeCost(prodloc47,prodloc7,tr12,8460).
routeCost(prodloc47,prodloc7,tr14,11280).
routeCost(prodloc47,prodloc7,tr2,8460).
routeCost(prodloc47,prodloc7,tr4,11280).
routeCost(prodloc47,prodloc8,tr11,3284).
routeCost(prodloc47,prodloc8,tr12,5910).
routeCost(prodloc47,prodloc8,tr13,19704).
routeCost(prodloc47,prodloc8,tr14,7880).
routeCost(prodloc47,prodloc8,tr2,5910).
routeCost(prodloc47,prodloc8,tr4,7880).
routeCost(prodloc49,harbor0,tr12,3759).
routeCost(prodloc49,harbor0,tr14,5012).
routeCost(prodloc49,harbor0,tr2,3759).
routeCost(prodloc49,harbor0,tr4,5012).
routeCost(prodloc49,harbor11,tr12,2847).
routeCost(prodloc49,harbor11,tr14,3796).
routeCost(prodloc49,harbor11,tr2,2847).
routeCost(prodloc49,harbor11,tr4,3796).
routeCost(prodloc49,harbor16,tr12,1917).
routeCost(prodloc49,harbor16,tr14,2556).
routeCost(prodloc49,harbor16,tr2,1917).
routeCost(prodloc49,harbor16,tr4,2556).
routeCost(prodloc49,harbor2,tr12,4869).
routeCost(prodloc49,harbor2,tr14,6492).
routeCost(prodloc49,harbor2,tr2,4869).
routeCost(prodloc49,harbor2,tr4,6492).
routeCost(prodloc49,harbor3,tr12,3804).
routeCost(prodloc49,harbor3,tr14,5072).
routeCost(prodloc49,harbor3,tr2,3804).
routeCost(prodloc49,harbor3,tr4,5072).
routeCost(prodloc49,harbor5,tr12,180).
routeCost(prodloc49,harbor5,tr14,240).
routeCost(prodloc49,harbor5,tr2,180).
routeCost(prodloc49,harbor5,tr4,240).
routeCost(prodloc49,harbor5,tr9,120).
routeCost(prodloc49,harbor6,tr12,3849).
routeCost(prodloc49,harbor6,tr14,5132).
routeCost(prodloc49,harbor6,tr2,3849).
routeCost(prodloc49,harbor6,tr4,5132).
routeCost(prodloc49,harbor9,tr12,5388).
routeCost(prodloc49,harbor9,tr14,7184).
routeCost(prodloc49,harbor9,tr2,5388).
routeCost(prodloc49,harbor9,tr4,7184).
routeCost(prodloc49,prodloc1,tr15,51584).
routeCost(prodloc49,prodloc11,tr15,326144).
routeCost(prodloc49,prodloc12,tr12,1599).
routeCost(prodloc49,prodloc12,tr14,2132).
routeCost(prodloc49,prodloc12,tr15,14176).
routeCost(prodloc49,prodloc12,tr2,1599).
routeCost(prodloc49,prodloc12,tr4,2132).
routeCost(prodloc49,prodloc16,tr12,4050).
routeCost(prodloc49,prodloc16,tr14,5400).
routeCost(prodloc49,prodloc16,tr2,4050).
routeCost(prodloc49,prodloc16,tr4,5400).
routeCost(prodloc49,prodloc17,tr12,4719).
routeCost(prodloc49,prodloc17,tr14,6292).
routeCost(prodloc49,prodloc17,tr2,4719).
routeCost(prodloc49,prodloc17,tr4,6292).
routeCost(prodloc49,prodloc18,tr12,3606).
routeCost(prodloc49,prodloc18,tr14,4808).
routeCost(prodloc49,prodloc18,tr2,3606).
routeCost(prodloc49,prodloc18,tr4,4808).
routeCost(prodloc49,prodloc2,tr12,1659).
routeCost(prodloc49,prodloc2,tr14,2212).
routeCost(prodloc49,prodloc2,tr15,14560).
routeCost(prodloc49,prodloc2,tr2,1659).
routeCost(prodloc49,prodloc2,tr4,2212).
routeCost(prodloc49,prodloc20,tr12,2712).
routeCost(prodloc49,prodloc20,tr14,3616).
routeCost(prodloc49,prodloc20,tr15,24960).
routeCost(prodloc49,prodloc20,tr2,2712).
routeCost(prodloc49,prodloc20,tr4,3616).
routeCost(prodloc49,prodloc21,tr12,3036).
routeCost(prodloc49,prodloc21,tr14,4048).
routeCost(prodloc49,prodloc21,tr15,24992).
routeCost(prodloc49,prodloc21,tr2,3036).
routeCost(prodloc49,prodloc21,tr4,4048).
routeCost(prodloc49,prodloc22,tr12,489).
routeCost(prodloc49,prodloc22,tr14,652).
routeCost(prodloc49,prodloc22,tr2,489).
routeCost(prodloc49,prodloc22,tr4,652).
routeCost(prodloc49,prodloc22,tr9,326).
routeCost(prodloc49,prodloc24,tr12,3777).
routeCost(prodloc49,prodloc24,tr14,5036).
routeCost(prodloc49,prodloc24,tr15,34400).
routeCost(prodloc49,prodloc24,tr2,3777).
routeCost(prodloc49,prodloc24,tr4,5036).
routeCost(prodloc49,prodloc26,tr12,5373).
routeCost(prodloc49,prodloc26,tr14,7164).
routeCost(prodloc49,prodloc26,tr2,5373).
routeCost(prodloc49,prodloc26,tr4,7164).
routeCost(prodloc49,prodloc27,tr12,3423).
routeCost(prodloc49,prodloc27,tr14,4564).
routeCost(prodloc49,prodloc27,tr2,3423).
routeCost(prodloc49,prodloc27,tr4,4564).
routeCost(prodloc49,prodloc3,tr12,180).
routeCost(prodloc49,prodloc3,tr14,240).
routeCost(prodloc49,prodloc3,tr15,1440).
routeCost(prodloc49,prodloc3,tr2,180).
routeCost(prodloc49,prodloc3,tr4,240).
routeCost(prodloc49,prodloc3,tr9,120).
routeCost(prodloc49,prodloc30,tr15,277696).
routeCost(prodloc49,prodloc31,tr12,7641).
routeCost(prodloc49,prodloc31,tr14,10188).
routeCost(prodloc49,prodloc31,tr15,66368).
routeCost(prodloc49,prodloc31,tr2,7641).
routeCost(prodloc49,prodloc31,tr4,10188).
routeCost(prodloc49,prodloc32,tr12,3747).
routeCost(prodloc49,prodloc32,tr14,4996).
routeCost(prodloc49,prodloc32,tr2,3747).
routeCost(prodloc49,prodloc32,tr4,4996).
routeCost(prodloc49,prodloc33,tr12,3570).
routeCost(prodloc49,prodloc33,tr14,4760).
routeCost(prodloc49,prodloc33,tr15,31008).
routeCost(prodloc49,prodloc33,tr2,3570).
routeCost(prodloc49,prodloc33,tr4,4760).
routeCost(prodloc49,prodloc34,tr12,4122).
routeCost(prodloc49,prodloc34,tr14,5496).
routeCost(prodloc49,prodloc34,tr2,4122).
routeCost(prodloc49,prodloc34,tr4,5496).
routeCost(prodloc49,prodloc36,tr15,275488).
routeCost(prodloc49,prodloc40,tr12,4332).
routeCost(prodloc49,prodloc40,tr14,5776).
routeCost(prodloc49,prodloc40,tr2,4332).
routeCost(prodloc49,prodloc40,tr4,5776).
routeCost(prodloc49,prodloc41,tr15,234208).
routeCost(prodloc49,prodloc44,tr12,10179).
routeCost(prodloc49,prodloc44,tr14,13572).
routeCost(prodloc49,prodloc44,tr15,90752).
routeCost(prodloc49,prodloc44,tr2,10179).
routeCost(prodloc49,prodloc44,tr4,13572).
routeCost(prodloc49,prodloc46,tr12,1929).
routeCost(prodloc49,prodloc46,tr14,2572).
routeCost(prodloc49,prodloc46,tr2,1929).
routeCost(prodloc49,prodloc46,tr4,2572).
routeCost(prodloc49,prodloc47,tr12,5787).
routeCost(prodloc49,prodloc47,tr14,7716).
routeCost(prodloc49,prodloc47,tr2,5787).
routeCost(prodloc49,prodloc47,tr4,7716).
routeCost(prodloc49,prodloc5,tr12,3768).
routeCost(prodloc49,prodloc5,tr14,5024).
routeCost(prodloc49,prodloc5,tr2,3768).
routeCost(prodloc49,prodloc5,tr4,5024).
routeCost(prodloc49,prodloc6,tr12,3483).
routeCost(prodloc49,prodloc6,tr14,4644).
routeCost(prodloc49,prodloc6,tr15,31552).
routeCost(prodloc49,prodloc6,tr2,3483).
routeCost(prodloc49,prodloc6,tr4,4644).
routeCost(prodloc49,prodloc7,tr12,3087).
routeCost(prodloc49,prodloc7,tr14,4116).
routeCost(prodloc49,prodloc7,tr2,3087).
routeCost(prodloc49,prodloc7,tr4,4116).
routeCost(prodloc49,prodloc8,tr12,180).
routeCost(prodloc49,prodloc8,tr14,240).
routeCost(prodloc49,prodloc8,tr15,1504).
routeCost(prodloc49,prodloc8,tr2,180).
routeCost(prodloc49,prodloc8,tr4,240).
routeCost(prodloc49,prodloc8,tr9,120).
routeCost(prodloc5,harbor0,tr12,39).
routeCost(prodloc5,harbor0,tr14,52).
routeCost(prodloc5,harbor0,tr2,39).
routeCost(prodloc5,harbor0,tr4,52).
routeCost(prodloc5,harbor0,tr9,26).
routeCost(prodloc5,harbor11,tr12,4218).
routeCost(prodloc5,harbor11,tr14,5624).
routeCost(prodloc5,harbor11,tr2,4218).
routeCost(prodloc5,harbor11,tr4,5624).
routeCost(prodloc5,harbor16,tr12,2088).
routeCost(prodloc5,harbor16,tr14,2784).
routeCost(prodloc5,harbor16,tr2,2088).
routeCost(prodloc5,harbor16,tr4,2784).
routeCost(prodloc5,harbor2,tr12,8235).
routeCost(prodloc5,harbor2,tr14,10980).
routeCost(prodloc5,harbor2,tr2,8235).
routeCost(prodloc5,harbor2,tr4,10980).
routeCost(prodloc5,harbor3,tr12,135).
routeCost(prodloc5,harbor3,tr14,180).
routeCost(prodloc5,harbor3,tr2,135).
routeCost(prodloc5,harbor3,tr4,180).
routeCost(prodloc5,harbor3,tr9,90).
routeCost(prodloc5,harbor5,tr12,3906).
routeCost(prodloc5,harbor5,tr14,5208).
routeCost(prodloc5,harbor5,tr2,3906).
routeCost(prodloc5,harbor5,tr4,5208).
routeCost(prodloc5,harbor6,tr12,7215).
routeCost(prodloc5,harbor6,tr14,9620).
routeCost(prodloc5,harbor6,tr2,7215).
routeCost(prodloc5,harbor6,tr4,9620).
routeCost(prodloc5,harbor9,tr12,5583).
routeCost(prodloc5,harbor9,tr14,7444).
routeCost(prodloc5,harbor9,tr2,5583).
routeCost(prodloc5,harbor9,tr4,7444).
routeCost(prodloc5,prodloc12,tr12,2229).
routeCost(prodloc5,prodloc12,tr14,2972).
routeCost(prodloc5,prodloc12,tr2,2229).
routeCost(prodloc5,prodloc12,tr4,2972).
routeCost(prodloc5,prodloc16,tr12,2481).
routeCost(prodloc5,prodloc16,tr14,3308).
routeCost(prodloc5,prodloc16,tr2,2481).
routeCost(prodloc5,prodloc16,tr4,3308).
routeCost(prodloc5,prodloc17,tr12,8085).
routeCost(prodloc5,prodloc17,tr14,10780).
routeCost(prodloc5,prodloc17,tr2,8085).
routeCost(prodloc5,prodloc17,tr4,10780).
routeCost(prodloc5,prodloc18,tr12,300).
routeCost(prodloc5,prodloc18,tr14,400).
routeCost(prodloc5,prodloc18,tr2,300).
routeCost(prodloc5,prodloc18,tr4,400).
routeCost(prodloc5,prodloc18,tr9,200).
routeCost(prodloc5,prodloc2,tr12,4653).
routeCost(prodloc5,prodloc2,tr14,6204).
routeCost(prodloc5,prodloc2,tr2,4653).
routeCost(prodloc5,prodloc2,tr4,6204).
routeCost(prodloc5,prodloc20,tr12,1779).
routeCost(prodloc5,prodloc20,tr14,2372).
routeCost(prodloc5,prodloc20,tr2,1779).
routeCost(prodloc5,prodloc20,tr4,2372).
routeCost(prodloc5,prodloc21,tr12,6405).
routeCost(prodloc5,prodloc21,tr14,8540).
routeCost(prodloc5,prodloc21,tr2,6405).
routeCost(prodloc5,prodloc21,tr4,8540).
routeCost(prodloc5,prodloc22,tr12,4017).
routeCost(prodloc5,prodloc22,tr14,5356).
routeCost(prodloc5,prodloc22,tr2,4017).
routeCost(prodloc5,prodloc22,tr4,5356).
routeCost(prodloc5,prodloc24,tr12,90).
routeCost(prodloc5,prodloc24,tr14,120).
routeCost(prodloc5,prodloc24,tr2,90).
routeCost(prodloc5,prodloc24,tr4,120).
routeCost(prodloc5,prodloc24,tr9,60).
routeCost(prodloc5,prodloc26,tr12,5568).
routeCost(prodloc5,prodloc26,tr14,7424).
routeCost(prodloc5,prodloc26,tr2,5568).
routeCost(prodloc5,prodloc26,tr4,7424).
routeCost(prodloc5,prodloc27,tr12,2151).
routeCost(prodloc5,prodloc27,tr14,2868).
routeCost(prodloc5,prodloc27,tr2,2151).
routeCost(prodloc5,prodloc27,tr4,2868).
routeCost(prodloc5,prodloc3,tr12,3906).
routeCost(prodloc5,prodloc3,tr14,5208).
routeCost(prodloc5,prodloc3,tr2,3906).
routeCost(prodloc5,prodloc3,tr4,5208).
routeCost(prodloc5,prodloc31,tr12,5496).
routeCost(prodloc5,prodloc31,tr14,7328).
routeCost(prodloc5,prodloc31,tr2,5496).
routeCost(prodloc5,prodloc31,tr4,7328).
routeCost(prodloc5,prodloc32,tr12,7113).
routeCost(prodloc5,prodloc32,tr14,9484).
routeCost(prodloc5,prodloc32,tr2,7113).
routeCost(prodloc5,prodloc32,tr4,9484).
routeCost(prodloc5,prodloc33,tr12,2268).
routeCost(prodloc5,prodloc33,tr14,3024).
routeCost(prodloc5,prodloc33,tr2,2268).
routeCost(prodloc5,prodloc33,tr4,3024).
routeCost(prodloc5,prodloc34,tr12,1323).
routeCost(prodloc5,prodloc34,tr14,1764).
routeCost(prodloc5,prodloc34,tr2,1323).
routeCost(prodloc5,prodloc34,tr4,1764).
routeCost(prodloc5,prodloc40,tr12,681).
routeCost(prodloc5,prodloc40,tr14,908).
routeCost(prodloc5,prodloc40,tr2,681).
routeCost(prodloc5,prodloc40,tr4,908).
routeCost(prodloc5,prodloc44,tr12,8544).
routeCost(prodloc5,prodloc44,tr14,11392).
routeCost(prodloc5,prodloc44,tr2,8544).
routeCost(prodloc5,prodloc44,tr4,11392).
routeCost(prodloc5,prodloc46,tr12,5298).
routeCost(prodloc5,prodloc46,tr14,7064).
routeCost(prodloc5,prodloc46,tr2,5298).
routeCost(prodloc5,prodloc46,tr4,7064).
routeCost(prodloc5,prodloc47,tr12,2238).
routeCost(prodloc5,prodloc47,tr14,2984).
routeCost(prodloc5,prodloc47,tr2,2238).
routeCost(prodloc5,prodloc47,tr4,2984).
routeCost(prodloc5,prodloc49,tr12,3789).
routeCost(prodloc5,prodloc49,tr14,5052).
routeCost(prodloc5,prodloc49,tr2,3789).
routeCost(prodloc5,prodloc49,tr4,5052).
routeCost(prodloc5,prodloc6,tr12,306).
routeCost(prodloc5,prodloc6,tr14,408).
routeCost(prodloc5,prodloc6,tr2,306).
routeCost(prodloc5,prodloc6,tr4,408).
routeCost(prodloc5,prodloc6,tr9,204).
routeCost(prodloc5,prodloc7,tr12,6456).
routeCost(prodloc5,prodloc7,tr14,8608).
routeCost(prodloc5,prodloc7,tr2,6456).
routeCost(prodloc5,prodloc7,tr4,8608).
routeCost(prodloc5,prodloc8,tr12,3906).
routeCost(prodloc5,prodloc8,tr14,5208).
routeCost(prodloc5,prodloc8,tr2,3906).
routeCost(prodloc5,prodloc8,tr4,5208).
routeCost(prodloc6,harbor0,tr12,300).
routeCost(prodloc6,harbor0,tr14,400).
routeCost(prodloc6,harbor0,tr2,300).
routeCost(prodloc6,harbor0,tr4,400).
routeCost(prodloc6,harbor0,tr9,200).
routeCost(prodloc6,harbor11,tr12,3933).
routeCost(prodloc6,harbor11,tr14,5244).
routeCost(prodloc6,harbor11,tr2,3933).
routeCost(prodloc6,harbor11,tr4,5244).
routeCost(prodloc6,harbor16,tr12,1803).
routeCost(prodloc6,harbor16,tr14,2404).
routeCost(prodloc6,harbor16,tr2,1803).
routeCost(prodloc6,harbor16,tr4,2404).
routeCost(prodloc6,harbor2,tr12,7950).
routeCost(prodloc6,harbor2,tr14,10600).
routeCost(prodloc6,harbor2,tr2,7950).
routeCost(prodloc6,harbor2,tr4,10600).
routeCost(prodloc6,harbor3,tr12,345).
routeCost(prodloc6,harbor3,tr14,460).
routeCost(prodloc6,harbor3,tr2,345).
routeCost(prodloc6,harbor3,tr4,460).
routeCost(prodloc6,harbor3,tr9,230).
routeCost(prodloc6,harbor5,tr12,3621).
routeCost(prodloc6,harbor5,tr14,4828).
routeCost(prodloc6,harbor5,tr2,3621).
routeCost(prodloc6,harbor5,tr4,4828).
routeCost(prodloc6,harbor6,tr12,6930).
routeCost(prodloc6,harbor6,tr14,9240).
routeCost(prodloc6,harbor6,tr2,6930).
routeCost(prodloc6,harbor6,tr4,9240).
routeCost(prodloc6,harbor9,tr12,5427).
routeCost(prodloc6,harbor9,tr14,7236).
routeCost(prodloc6,harbor9,tr2,5427).
routeCost(prodloc6,harbor9,tr4,7236).
routeCost(prodloc6,prodloc1,tr15,81376).
routeCost(prodloc6,prodloc11,tr15,294752).
routeCost(prodloc6,prodloc12,tr12,1947).
routeCost(prodloc6,prodloc12,tr14,2596).
routeCost(prodloc6,prodloc12,tr15,17344).
routeCost(prodloc6,prodloc12,tr2,1947).
routeCost(prodloc6,prodloc12,tr4,2596).
routeCost(prodloc6,prodloc16,tr12,2439).
routeCost(prodloc6,prodloc16,tr14,3252).
routeCost(prodloc6,prodloc16,tr2,2439).
routeCost(prodloc6,prodloc16,tr4,3252).
routeCost(prodloc6,prodloc17,tr12,7800).
routeCost(prodloc6,prodloc17,tr14,10400).
routeCost(prodloc6,prodloc17,tr2,7800).
routeCost(prodloc6,prodloc17,tr4,10400).
routeCost(prodloc6,prodloc18,tr12,219).
routeCost(prodloc6,prodloc18,tr14,292).
routeCost(prodloc6,prodloc18,tr2,219).
routeCost(prodloc6,prodloc18,tr4,292).
routeCost(prodloc6,prodloc18,tr9,146).
routeCost(prodloc6,prodloc2,tr12,4368).
routeCost(prodloc6,prodloc2,tr14,5824).
routeCost(prodloc6,prodloc2,tr15,37856).
routeCost(prodloc6,prodloc2,tr2,4368).
routeCost(prodloc6,prodloc2,tr4,5824).
routeCost(prodloc6,prodloc20,tr12,1464).
routeCost(prodloc6,prodloc20,tr14,1956).
routeCost(prodloc6,prodloc20,tr15,13312).
routeCost(prodloc6,prodloc20,tr2,1467).
routeCost(prodloc6,prodloc20,tr4,1956).
routeCost(prodloc6,prodloc21,tr12,6120).
routeCost(prodloc6,prodloc21,tr14,8160).
routeCost(prodloc6,prodloc21,tr15,54496).
routeCost(prodloc6,prodloc21,tr2,6120).
routeCost(prodloc6,prodloc21,tr4,8160).
routeCost(prodloc6,prodloc22,tr12,3732).
routeCost(prodloc6,prodloc22,tr14,4976).
routeCost(prodloc6,prodloc22,tr2,3732).
routeCost(prodloc6,prodloc22,tr4,4976).
routeCost(prodloc6,prodloc24,tr12,318).
routeCost(prodloc6,prodloc24,tr14,424).
routeCost(prodloc6,prodloc24,tr15,2816).
routeCost(prodloc6,prodloc24,tr2,318).
routeCost(prodloc6,prodloc24,tr4,424).
routeCost(prodloc6,prodloc24,tr9,212).
routeCost(prodloc6,prodloc26,tr12,5409).
routeCost(prodloc6,prodloc26,tr14,7212).
routeCost(prodloc6,prodloc26,tr2,5409).
routeCost(prodloc6,prodloc26,tr4,7212).
routeCost(prodloc6,prodloc27,tr12,1995).
routeCost(prodloc6,prodloc27,tr14,2660).
routeCost(prodloc6,prodloc27,tr2,1995).
routeCost(prodloc6,prodloc27,tr4,2660).
routeCost(prodloc6,prodloc3,tr12,3621).
routeCost(prodloc6,prodloc3,tr14,4828).
routeCost(prodloc6,prodloc3,tr15,32160).
routeCost(prodloc6,prodloc3,tr2,3621).
routeCost(prodloc6,prodloc3,tr4,4828).
routeCost(prodloc6,prodloc30,tr15,246112).
routeCost(prodloc6,prodloc31,tr12,5457).
routeCost(prodloc6,prodloc31,tr14,7276).
routeCost(prodloc6,prodloc31,tr15,46624).
routeCost(prodloc6,prodloc31,tr2,5457).
routeCost(prodloc6,prodloc31,tr4,7276).
routeCost(prodloc6,prodloc32,tr12,6831).
routeCost(prodloc6,prodloc32,tr14,9108).
routeCost(prodloc6,prodloc32,tr2,6831).
routeCost(prodloc6,prodloc32,tr4,9108).
routeCost(prodloc6,prodloc33,tr12,2142).
routeCost(prodloc6,prodloc33,tr14,2856).
routeCost(prodloc6,prodloc33,tr15,18528).
routeCost(prodloc6,prodloc33,tr2,2142).
routeCost(prodloc6,prodloc33,tr4,2856).
routeCost(prodloc6,prodloc34,tr12,1281).
routeCost(prodloc6,prodloc34,tr14,1708).
routeCost(prodloc6,prodloc34,tr2,1281).
routeCost(prodloc6,prodloc34,tr4,1708).
routeCost(prodloc6,prodloc36,tr15,244832).
routeCost(prodloc6,prodloc40,tr12,873).
routeCost(prodloc6,prodloc40,tr14,1164).
routeCost(prodloc6,prodloc40,tr2,873).
routeCost(prodloc6,prodloc40,tr4,1164).
routeCost(prodloc6,prodloc40,tr9,582).
routeCost(prodloc6,prodloc41,tr15,248288).
routeCost(prodloc6,prodloc44,tr12,8502).
routeCost(prodloc6,prodloc44,tr14,11336).
routeCost(prodloc6,prodloc44,tr15,73696).
routeCost(prodloc6,prodloc44,tr2,8502).
routeCost(prodloc6,prodloc44,tr4,11336).
routeCost(prodloc6,prodloc46,tr12,5013).
routeCost(prodloc6,prodloc46,tr14,6684).
routeCost(prodloc6,prodloc46,tr2,5013).
routeCost(prodloc6,prodloc46,tr4,6684).
routeCost(prodloc6,prodloc47,tr12,2430).
routeCost(prodloc6,prodloc47,tr14,3240).
routeCost(prodloc6,prodloc47,tr2,2430).
routeCost(prodloc6,prodloc47,tr4,3240).
routeCost(prodloc6,prodloc49,tr12,3504).
routeCost(prodloc6,prodloc49,tr14,4672).
routeCost(prodloc6,prodloc49,tr15,31552).
routeCost(prodloc6,prodloc49,tr2,3504).
routeCost(prodloc6,prodloc49,tr4,4672).
routeCost(prodloc6,prodloc5,tr12,309).
routeCost(prodloc6,prodloc5,tr14,412).
routeCost(prodloc6,prodloc5,tr2,309).
routeCost(prodloc6,prodloc5,tr4,412).
routeCost(prodloc6,prodloc5,tr9,206).
routeCost(prodloc6,prodloc7,tr12,6171).
routeCost(prodloc6,prodloc7,tr14,8228).
routeCost(prodloc6,prodloc7,tr2,6171).
routeCost(prodloc6,prodloc7,tr4,8228).
routeCost(prodloc6,prodloc8,tr12,3621).
routeCost(prodloc6,prodloc8,tr14,4828).
routeCost(prodloc6,prodloc8,tr15,32192).
routeCost(prodloc6,prodloc8,tr2,3621).
routeCost(prodloc6,prodloc8,tr4,4828).
routeCost(prodloc7,harbor0,tr12,6426).
routeCost(prodloc7,harbor0,tr14,8568).
routeCost(prodloc7,harbor0,tr2,6426).
routeCost(prodloc7,harbor0,tr4,8568).
routeCost(prodloc7,harbor11,tr12,3267).
routeCost(prodloc7,harbor11,tr14,4356).
routeCost(prodloc7,harbor11,tr2,3267).
routeCost(prodloc7,harbor11,tr4,4356).
routeCost(prodloc7,harbor16,tr12,4698).
routeCost(prodloc7,harbor16,tr14,6264).
routeCost(prodloc7,harbor16,tr2,4698).
routeCost(prodloc7,harbor16,tr4,6264).
routeCost(prodloc7,harbor2,tr12,1842).
routeCost(prodloc7,harbor2,tr14,2456).
routeCost(prodloc7,harbor2,tr2,1842).
routeCost(prodloc7,harbor2,tr4,2456).
routeCost(prodloc7,harbor3,tr12,6474).
routeCost(prodloc7,harbor3,tr14,8632).
routeCost(prodloc7,harbor3,tr2,6474).
routeCost(prodloc7,harbor3,tr4,8632).
routeCost(prodloc7,harbor5,tr12,3261).
routeCost(prodloc7,harbor5,tr14,4348).
routeCost(prodloc7,harbor5,tr2,3261).
routeCost(prodloc7,harbor5,tr4,4348).
routeCost(prodloc7,harbor6,tr12,1755).
routeCost(prodloc7,harbor6,tr14,2340).
routeCost(prodloc7,harbor6,tr2,1755).
routeCost(prodloc7,harbor6,tr4,2340).
routeCost(prodloc7,harbor9,tr12,6426).
routeCost(prodloc7,harbor9,tr14,8568).
routeCost(prodloc7,harbor9,tr2,6426).
routeCost(prodloc7,harbor9,tr4,8568).
routeCost(prodloc7,prodloc12,tr12,4269).
routeCost(prodloc7,prodloc12,tr14,5692).
routeCost(prodloc7,prodloc12,tr2,4269).
routeCost(prodloc7,prodloc12,tr4,5692).
routeCost(prodloc7,prodloc16,tr12,6204).
routeCost(prodloc7,prodloc16,tr14,8272).
routeCost(prodloc7,prodloc16,tr2,6204).
routeCost(prodloc7,prodloc16,tr4,8272).
routeCost(prodloc7,prodloc17,tr12,1689).
routeCost(prodloc7,prodloc17,tr14,2252).
routeCost(prodloc7,prodloc17,tr2,1689).
routeCost(prodloc7,prodloc17,tr4,2252).
routeCost(prodloc7,prodloc18,tr12,6273).
routeCost(prodloc7,prodloc18,tr14,8364).
routeCost(prodloc7,prodloc18,tr2,6273).
routeCost(prodloc7,prodloc18,tr4,8364).
routeCost(prodloc7,prodloc2,tr12,2181).
routeCost(prodloc7,prodloc2,tr14,2908).
routeCost(prodloc7,prodloc2,tr2,2181).
routeCost(prodloc7,prodloc2,tr4,2908).
routeCost(prodloc7,prodloc20,tr12,5208).
routeCost(prodloc7,prodloc20,tr14,6944).
routeCost(prodloc7,prodloc20,tr2,5208).
routeCost(prodloc7,prodloc20,tr4,6944).
routeCost(prodloc7,prodloc21,tr12,72).
routeCost(prodloc7,prodloc21,tr14,96).
routeCost(prodloc7,prodloc21,tr2,72).
routeCost(prodloc7,prodloc21,tr4,96).
routeCost(prodloc7,prodloc21,tr9,48).
routeCost(prodloc7,prodloc22,tr12,2613).
routeCost(prodloc7,prodloc22,tr14,3484).
routeCost(prodloc7,prodloc22,tr2,2613).
routeCost(prodloc7,prodloc22,tr4,3484).
routeCost(prodloc7,prodloc24,tr12,6447).
routeCost(prodloc7,prodloc24,tr14,8596).
routeCost(prodloc7,prodloc24,tr2,6447).
routeCost(prodloc7,prodloc24,tr4,8596).
routeCost(prodloc7,prodloc26,tr12,6411).
routeCost(prodloc7,prodloc26,tr14,8548).
routeCost(prodloc7,prodloc26,tr2,6411).
routeCost(prodloc7,prodloc26,tr4,8548).
routeCost(prodloc7,prodloc27,tr12,5658).
routeCost(prodloc7,prodloc27,tr14,7544).
routeCost(prodloc7,prodloc27,tr2,5658).
routeCost(prodloc7,prodloc27,tr4,7544).
routeCost(prodloc7,prodloc3,tr12,3261).
routeCost(prodloc7,prodloc3,tr14,4348).
routeCost(prodloc7,prodloc3,tr2,3261).
routeCost(prodloc7,prodloc3,tr4,4348).
routeCost(prodloc7,prodloc31,tr12,9246).
routeCost(prodloc7,prodloc31,tr14,12328).
routeCost(prodloc7,prodloc31,tr2,9246).
routeCost(prodloc7,prodloc31,tr4,12328).
routeCost(prodloc7,prodloc32,tr12,1707).
routeCost(prodloc7,prodloc32,tr14,2276).
routeCost(prodloc7,prodloc32,tr2,1707).
routeCost(prodloc7,prodloc32,tr4,2276).
routeCost(prodloc7,prodloc33,tr12,5667).
routeCost(prodloc7,prodloc33,tr14,7556).
routeCost(prodloc7,prodloc33,tr2,5667).
routeCost(prodloc7,prodloc33,tr4,7556).
routeCost(prodloc7,prodloc34,tr12,6660).
routeCost(prodloc7,prodloc34,tr14,8880).
routeCost(prodloc7,prodloc34,tr2,6660).
routeCost(prodloc7,prodloc34,tr4,8880).
routeCost(prodloc7,prodloc40,tr12,7002).
routeCost(prodloc7,prodloc40,tr14,9336).
routeCost(prodloc7,prodloc40,tr2,7002).
routeCost(prodloc7,prodloc40,tr4,9336).
routeCost(prodloc7,prodloc44,tr12,11742).
routeCost(prodloc7,prodloc44,tr14,15656).
routeCost(prodloc7,prodloc44,tr2,11742).
routeCost(prodloc7,prodloc44,tr4,15656).
routeCost(prodloc7,prodloc46,tr12,1158).
routeCost(prodloc7,prodloc46,tr14,1544).
routeCost(prodloc7,prodloc46,tr2,1158).
routeCost(prodloc7,prodloc46,tr4,1544).
routeCost(prodloc7,prodloc47,tr12,8454).
routeCost(prodloc7,prodloc47,tr14,11272).
routeCost(prodloc7,prodloc47,tr2,8454).
routeCost(prodloc7,prodloc47,tr4,11272).
routeCost(prodloc7,prodloc49,tr12,3090).
routeCost(prodloc7,prodloc49,tr14,4120).
routeCost(prodloc7,prodloc49,tr2,3090).
routeCost(prodloc7,prodloc49,tr4,4120).
routeCost(prodloc7,prodloc5,tr12,6435).
routeCost(prodloc7,prodloc5,tr14,8580).
routeCost(prodloc7,prodloc5,tr2,6435).
routeCost(prodloc7,prodloc5,tr4,8580).
routeCost(prodloc7,prodloc6,tr12,6153).
routeCost(prodloc7,prodloc6,tr14,8204).
routeCost(prodloc7,prodloc6,tr2,6153).
routeCost(prodloc7,prodloc6,tr4,8204).
routeCost(prodloc7,prodloc8,tr12,3261).
routeCost(prodloc7,prodloc8,tr14,4348).
routeCost(prodloc7,prodloc8,tr2,3261).
routeCost(prodloc7,prodloc8,tr4,4348).
routeCost(prodloc8,harbor0,tr12,3876).
routeCost(prodloc8,harbor0,tr14,5168).
routeCost(prodloc8,harbor0,tr2,3876).
routeCost(prodloc8,harbor0,tr4,5168).
routeCost(prodloc8,harbor1,tr11,24879).
routeCost(prodloc8,harbor1,tr13,149274).
routeCost(prodloc8,harbor10,tr11,8388).
routeCost(prodloc8,harbor10,tr13,50328).
routeCost(prodloc8,harbor11,tr11,3138).
routeCost(prodloc8,harbor11,tr12,3018).
routeCost(prodloc8,harbor11,tr13,18828).
routeCost(prodloc8,harbor11,tr14,4024).
routeCost(prodloc8,harbor11,tr2,3018).
routeCost(prodloc8,harbor11,tr4,4024).
routeCost(prodloc8,harbor12,tr11,25565).
routeCost(prodloc8,harbor12,tr13,153390).
routeCost(prodloc8,harbor13,tr11,26123).
routeCost(prodloc8,harbor13,tr13,156738).
routeCost(prodloc8,harbor14,tr11,1855).
routeCost(prodloc8,harbor14,tr13,11130).
routeCost(prodloc8,harbor15,tr11,3346).
routeCost(prodloc8,harbor15,tr13,20076).
routeCost(prodloc8,harbor16,tr11,2596).
routeCost(prodloc8,harbor16,tr12,2034).
routeCost(prodloc8,harbor16,tr13,15576).
routeCost(prodloc8,harbor16,tr14,2712).
routeCost(prodloc8,harbor16,tr2,2034).
routeCost(prodloc8,harbor16,tr4,2712).
routeCost(prodloc8,harbor2,tr11,1856).
routeCost(prodloc8,harbor2,tr12,5040).
routeCost(prodloc8,harbor2,tr13,11136).
routeCost(prodloc8,harbor2,tr14,6720).
routeCost(prodloc8,harbor2,tr2,5040).
routeCost(prodloc8,harbor2,tr4,6720).
routeCost(prodloc8,harbor3,tr11,2678).
routeCost(prodloc8,harbor3,tr12,3921).
routeCost(prodloc8,harbor3,tr13,16068).
routeCost(prodloc8,harbor3,tr14,5228).
routeCost(prodloc8,harbor3,tr2,3921).
routeCost(prodloc8,harbor3,tr4,5228).
routeCost(prodloc8,harbor4,tr11,8953).
routeCost(prodloc8,harbor4,tr13,53718).
routeCost(prodloc8,harbor6,tr11,975).
routeCost(prodloc8,harbor6,tr12,4017).
routeCost(prodloc8,harbor6,tr13,5850).
routeCost(prodloc8,harbor6,tr14,5356).
routeCost(prodloc8,harbor6,tr2,4017).
routeCost(prodloc8,harbor6,tr4,5356).
routeCost(prodloc8,harbor7,tr11,24198).
routeCost(prodloc8,harbor7,tr13,145188).
routeCost(prodloc8,harbor8,tr11,6800).
routeCost(prodloc8,harbor8,tr13,40800).
routeCost(prodloc8,harbor9,tr11,3687).
routeCost(prodloc8,harbor9,tr12,5559).
routeCost(prodloc8,harbor9,tr13,22122).
routeCost(prodloc8,harbor9,tr14,7412).
routeCost(prodloc8,harbor9,tr2,5559).
routeCost(prodloc8,harbor9,tr4,7412).
routeCost(prodloc8,prodloc1,tr15,51616).
routeCost(prodloc8,prodloc11,tr15,326880).
routeCost(prodloc8,prodloc12,tr12,1716).
routeCost(prodloc8,prodloc12,tr14,2288).
routeCost(prodloc8,prodloc12,tr15,14816).
routeCost(prodloc8,prodloc12,tr2,1716).
routeCost(prodloc8,prodloc12,tr4,2288).
routeCost(prodloc8,prodloc16,tr12,4167).
routeCost(prodloc8,prodloc16,tr14,5556).
routeCost(prodloc8,prodloc16,tr2,4167).
routeCost(prodloc8,prodloc16,tr4,5556).
routeCost(prodloc8,prodloc17,tr11,1735).
routeCost(prodloc8,prodloc17,tr12,4890).
routeCost(prodloc8,prodloc17,tr14,6520).
routeCost(prodloc8,prodloc17,tr2,4890).
routeCost(prodloc8,prodloc17,tr4,6520).
routeCost(prodloc8,prodloc18,tr11,2594).
routeCost(prodloc8,prodloc18,tr12,3723).
routeCost(prodloc8,prodloc18,tr13,15564).
routeCost(prodloc8,prodloc18,tr14,4964).
routeCost(prodloc8,prodloc18,tr2,3723).
routeCost(prodloc8,prodloc18,tr4,4964).
routeCost(prodloc8,prodloc2,tr12,1830).
routeCost(prodloc8,prodloc2,tr14,2440).
routeCost(prodloc8,prodloc2,tr15,15808).
routeCost(prodloc8,prodloc2,tr2,1830).
routeCost(prodloc8,prodloc2,tr4,2440).
routeCost(prodloc8,prodloc20,tr12,2829).
routeCost(prodloc8,prodloc20,tr14,3772).
routeCost(prodloc8,prodloc20,tr15,26080).
routeCost(prodloc8,prodloc20,tr2,2829).
routeCost(prodloc8,prodloc20,tr4,3772).
routeCost(prodloc8,prodloc21,tr12,3207).
routeCost(prodloc8,prodloc21,tr14,4276).
routeCost(prodloc8,prodloc21,tr15,25248).
routeCost(prodloc8,prodloc21,tr2,3207).
routeCost(prodloc8,prodloc21,tr4,4276).
routeCost(prodloc8,prodloc22,tr12,660).
routeCost(prodloc8,prodloc22,tr14,880).
routeCost(prodloc8,prodloc22,tr2,660).
routeCost(prodloc8,prodloc22,tr4,880).
routeCost(prodloc8,prodloc24,tr11,2674).
routeCost(prodloc8,prodloc24,tr12,3894).
routeCost(prodloc8,prodloc24,tr13,16044).
routeCost(prodloc8,prodloc24,tr14,5192).
routeCost(prodloc8,prodloc24,tr15,35008).
routeCost(prodloc8,prodloc24,tr2,3894).
routeCost(prodloc8,prodloc24,tr4,5192).
routeCost(prodloc8,prodloc26,tr12,5544).
routeCost(prodloc8,prodloc26,tr14,7392).
routeCost(prodloc8,prodloc26,tr2,5544).
routeCost(prodloc8,prodloc26,tr4,7392).
routeCost(prodloc8,prodloc27,tr12,3540).
routeCost(prodloc8,prodloc27,tr14,4720).
routeCost(prodloc8,prodloc27,tr2,3540).
routeCost(prodloc8,prodloc27,tr4,4720).
routeCost(prodloc8,prodloc3,tr12,9).
routeCost(prodloc8,prodloc3,tr14,12).
routeCost(prodloc8,prodloc3,tr15,64).
routeCost(prodloc8,prodloc3,tr2,9).
routeCost(prodloc8,prodloc3,tr4,12).
routeCost(prodloc8,prodloc3,tr9,6).
routeCost(prodloc8,prodloc30,tr15,278272).
routeCost(prodloc8,prodloc31,tr12,7758).
routeCost(prodloc8,prodloc31,tr14,10344).
routeCost(prodloc8,prodloc31,tr15,67712).
routeCost(prodloc8,prodloc31,tr2,7758).
routeCost(prodloc8,prodloc31,tr4,10344).
routeCost(prodloc8,prodloc32,tr12,3918).
routeCost(prodloc8,prodloc32,tr14,5224).
routeCost(prodloc8,prodloc32,tr2,3918).
routeCost(prodloc8,prodloc32,tr4,5224).
routeCost(prodloc8,prodloc33,tr12,3687).
routeCost(prodloc8,prodloc33,tr14,4916).
routeCost(prodloc8,prodloc33,tr15,32288).
routeCost(prodloc8,prodloc33,tr2,3687).
routeCost(prodloc8,prodloc33,tr4,4916).
routeCost(prodloc8,prodloc34,tr12,4239).
routeCost(prodloc8,prodloc34,tr14,5652).
routeCost(prodloc8,prodloc34,tr2,4239).
routeCost(prodloc8,prodloc34,tr4,5652).
routeCost(prodloc8,prodloc36,tr15,276384).
routeCost(prodloc8,prodloc40,tr11,2862).
routeCost(prodloc8,prodloc40,tr12,4449).
routeCost(prodloc8,prodloc40,tr13,17172).
routeCost(prodloc8,prodloc40,tr14,5932).
routeCost(prodloc8,prodloc40,tr2,4449).
routeCost(prodloc8,prodloc40,tr4,5932).
routeCost(prodloc8,prodloc41,tr15,232672).
routeCost(prodloc8,prodloc44,tr12,10350).
routeCost(prodloc8,prodloc44,tr14,13800).
routeCost(prodloc8,prodloc44,tr15,92192).
routeCost(prodloc8,prodloc44,tr2,10350).
routeCost(prodloc8,prodloc44,tr4,13800).
routeCost(prodloc8,prodloc46,tr12,2100).
routeCost(prodloc8,prodloc46,tr14,2800).
routeCost(prodloc8,prodloc46,tr2,2100).
routeCost(prodloc8,prodloc46,tr4,2800).
routeCost(prodloc8,prodloc47,tr11,3284).
routeCost(prodloc8,prodloc47,tr12,5904).
routeCost(prodloc8,prodloc47,tr13,19704).
routeCost(prodloc8,prodloc47,tr14,7872).
routeCost(prodloc8,prodloc47,tr2,5904).
routeCost(prodloc8,prodloc47,tr4,7872).
routeCost(prodloc8,prodloc49,tr12,177).
routeCost(prodloc8,prodloc49,tr14,236).
routeCost(prodloc8,prodloc49,tr15,1504).
routeCost(prodloc8,prodloc49,tr2,177).
routeCost(prodloc8,prodloc49,tr4,236).
routeCost(prodloc8,prodloc49,tr9,118).
routeCost(prodloc8,prodloc5,tr12,3885).
routeCost(prodloc8,prodloc5,tr14,5180).
routeCost(prodloc8,prodloc5,tr2,3885).
routeCost(prodloc8,prodloc5,tr4,5180).
routeCost(prodloc8,prodloc6,tr12,3603).
routeCost(prodloc8,prodloc6,tr14,4804).
routeCost(prodloc8,prodloc6,tr15,32192).
routeCost(prodloc8,prodloc6,tr2,3603).
routeCost(prodloc8,prodloc6,tr4,4804).
routeCost(prodloc8,prodloc7,tr12,3258).
routeCost(prodloc8,prodloc7,tr14,4344).
routeCost(prodloc8,prodloc7,tr2,3258).
routeCost(prodloc8,prodloc7,tr4,4344).