% Multibatching benchmark instance
% Source: instances.lp
% seed=7  harbors=6  prodlocs=15  hubs=4  disruptions=2

% ---- locations ----
location(harbor0).
location(harbor1).
location(harbor2).
location(harbor3).
location(harbor4).
location(harbor5).
location(prodloc0).
location(prodloc1).
location(prodloc2).
location(prodloc3).
location(prodloc4).
location(prodloc5).
location(prodloc6).
location(prodloc7).
location(prodloc8).
location(prodloc9).
location(prodloc10).
location(prodloc11).
location(prodloc12).
location(prodloc13).
location(prodloc14).

% ---- transport resources ----
transportCapacity(tr0,1800).
transportCO2(tr0,1680).
transportCost(tr0,26).
transportSpeed(tr0,12).
transportCapacity(tr1,65).
transportCO2(tr1,90).
transportCost(tr1,1).
transportSpeed(tr1,35).
transportCapacity(tr10,1).
transportCO2(tr10,700).
transportCost(tr10,4).
transportSpeed(tr10,40).
transportCapacity(tr11,65).
transportCO2(tr11,62).
transportCost(tr11,1).
transportSpeed(tr11,25).
transportCapacity(tr12,65).
transportCO2(tr12,709).
transportCost(tr12,3).
transportSpeed(tr12,55).
transportCapacity(tr13,68).
transportCO2(tr13,160).
transportCost(tr13,6).
transportSpeed(tr13,25).
transportCapacity(tr14,146).
transportCO2(tr14,780).
transportCost(tr14,4).
transportSpeed(tr14,50).
transportCapacity(tr15,2217).
transportCO2(tr15,49470).
transportCost(tr15,32).
transportSpeed(tr15,625).
transportCapacity(tr2,96).
transportCO2(tr2,709).
transportCost(tr2,3).
transportSpeed(tr2,55).
transportCapacity(tr3,1).
transportCO2(tr3,6250).
transportCost(tr3,108).
transportSpeed(tr3,25).
transportCapacity(tr4,148).
transportCO2(tr4,780).
transportCost(tr4,4).
transportSpeed(tr4,50).
transportCapacity(tr5,65).
transportCO2(tr5,780).
transportCost(tr5,3).
transportSpeed(tr5,50).
transportCapacity(tr6,1).
transportCO2(tr6,100).
transportCost(tr6,40).
transportSpeed(tr6,25).
transportCapacity(tr7,1).
transportCO2(tr7,18000).
transportCost(tr7,278).
transportSpeed(tr7,10).
transportCapacity(tr8,1).
transportCO2(tr8,14400).
transportCost(tr8,107).
transportSpeed(tr8,25).
transportCapacity(tr9,65).
transportCO2(tr9,708).
transportCost(tr9,2).
transportSpeed(tr9,60).

% ---- parts ----
part(part0).
partSize(part0,21).
valid_transport(part0,tr0).
valid_transport(part0,tr15).
valid_transport(part0,tr14).
valid_transport(part0,tr13).
valid_transport(part0,tr4).
part(part1).
partSize(part1,1).
valid_transport(part1,tr0).
valid_transport(part1,tr2).
valid_transport(part1,tr15).
valid_transport(part1,tr9).
valid_transport(part1,tr12).
valid_transport(part1,tr13).
valid_transport(part1,tr11).
part(part10).
partSize(part10,1).
valid_transport(part10,tr0).
valid_transport(part10,tr2).
valid_transport(part10,tr15).
valid_transport(part10,tr9).
valid_transport(part10,tr12).
valid_transport(part10,tr13).
valid_transport(part10,tr11).
part(part11).
partSize(part11,83).
valid_transport(part11,tr0).
valid_transport(part11,tr7).
valid_transport(part11,tr8).
valid_transport(part11,tr15).
valid_transport(part11,tr3).
valid_transport(part11,tr13).
part(part12).
partSize(part12,273).
valid_transport(part12,tr0).
valid_transport(part12,tr7).
valid_transport(part12,tr8).
valid_transport(part12,tr15).
valid_transport(part12,tr3).
valid_transport(part12,tr13).
part(part13).
partSize(part13,1).
valid_transport(part13,tr0).
valid_transport(part13,tr2).
valid_transport(part13,tr15).
valid_transport(part13,tr9).
valid_transport(part13,tr12).
valid_transport(part13,tr13).
valid_transport(part13,tr11).
part(part14).
partSize(part14,68).
valid_transport(part14,tr0).
valid_transport(part14,tr15).
valid_transport(part14,tr13).
part(part15).
partSize(part15,4).
valid_transport(part15,tr0).
valid_transport(part15,tr2).
valid_transport(part15,tr15).
valid_transport(part15,tr9).
valid_transport(part15,tr12).
valid_transport(part15,tr13).
valid_transport(part15,tr11).
part(part16).
partSize(part16,4).
valid_transport(part16,tr0).
valid_transport(part16,tr2).
valid_transport(part16,tr15).
valid_transport(part16,tr9).
valid_transport(part16,tr12).
valid_transport(part16,tr13).
valid_transport(part16,tr11).
part(part17).
partSize(part17,8).
valid_transport(part17,tr0).
valid_transport(part17,tr15).
valid_transport(part17,tr14).
valid_transport(part17,tr13).
valid_transport(part17,tr4).
part(part18).
partSize(part18,24).
valid_transport(part18,tr0).
valid_transport(part18,tr15).
valid_transport(part18,tr14).
valid_transport(part18,tr13).
valid_transport(part18,tr4).
part(part19).
partSize(part19,6).
valid_transport(part19,tr0).
valid_transport(part19,tr2).
valid_transport(part19,tr15).
valid_transport(part19,tr9).
valid_transport(part19,tr12).
valid_transport(part19,tr13).
valid_transport(part19,tr11).
part(part2).
partSize(part2,19).
valid_transport(part2,tr0).
valid_transport(part2,tr15).
valid_transport(part2,tr14).
valid_transport(part2,tr13).
valid_transport(part2,tr4).
part(part20).
partSize(part20,128).
valid_transport(part20,tr0).
valid_transport(part20,tr7).
valid_transport(part20,tr8).
valid_transport(part20,tr15).
valid_transport(part20,tr3).
valid_transport(part20,tr13).
part(part21).
partSize(part21,25).
valid_transport(part21,tr0).
valid_transport(part21,tr15).
valid_transport(part21,tr14).
valid_transport(part21,tr13).
valid_transport(part21,tr4).
part(part22).
partSize(part22,7).
valid_transport(part22,tr0).
valid_transport(part22,tr2).
valid_transport(part22,tr15).
valid_transport(part22,tr9).
valid_transport(part22,tr12).
valid_transport(part22,tr13).
valid_transport(part22,tr11).
part(part23).
partSize(part23,5).
valid_transport(part23,tr0).
valid_transport(part23,tr15).
valid_transport(part23,tr14).
valid_transport(part23,tr13).
valid_transport(part23,tr4).
part(part24).
partSize(part24,55).
valid_transport(part24,tr0).
valid_transport(part24,tr7).
valid_transport(part24,tr8).
valid_transport(part24,tr15).
valid_transport(part24,tr3).
valid_transport(part24,tr13).
part(part25).
partSize(part25,5).
valid_transport(part25,tr0).
valid_transport(part25,tr4).
valid_transport(part25,tr2).
valid_transport(part25,tr15).
valid_transport(part25,tr13).
part(part26).
partSize(part26,32).
valid_transport(part26,tr0).
valid_transport(part26,tr7).
valid_transport(part26,tr8).
valid_transport(part26,tr15).
valid_transport(part26,tr3).
valid_transport(part26,tr13).
part(part27).
partSize(part27,5).
valid_transport(part27,tr0).
valid_transport(part27,tr2).
valid_transport(part27,tr15).
valid_transport(part27,tr9).
valid_transport(part27,tr12).
valid_transport(part27,tr13).
valid_transport(part27,tr11).
part(part28).
partSize(part28,3).
valid_transport(part28,tr0).
valid_transport(part28,tr4).
valid_transport(part28,tr2).
valid_transport(part28,tr15).
valid_transport(part28,tr14).
valid_transport(part28,tr13).
part(part29).
partSize(part29,627).
part(part3).
partSize(part3,48).
valid_transport(part3,tr0).
valid_transport(part3,tr7).
valid_transport(part3,tr8).
valid_transport(part3,tr15).
valid_transport(part3,tr3).
valid_transport(part3,tr13).
part(part30).
partSize(part30,2).
valid_transport(part30,tr0).
valid_transport(part30,tr2).
valid_transport(part30,tr15).
valid_transport(part30,tr9).
valid_transport(part30,tr12).
valid_transport(part30,tr13).
valid_transport(part30,tr11).
part(part31).
partSize(part31,144).
valid_transport(part31,tr0).
valid_transport(part31,tr7).
valid_transport(part31,tr8).
valid_transport(part31,tr15).
valid_transport(part31,tr3).
valid_transport(part31,tr13).
part(part32).
partSize(part32,16).
valid_transport(part32,tr0).
valid_transport(part32,tr4).
valid_transport(part32,tr2).
valid_transport(part32,tr15).
valid_transport(part32,tr14).
valid_transport(part32,tr13).
part(part33).
partSize(part33,7).
valid_transport(part33,tr0).
valid_transport(part33,tr2).
valid_transport(part33,tr15).
valid_transport(part33,tr9).
valid_transport(part33,tr12).
valid_transport(part33,tr13).
valid_transport(part33,tr11).
part(part3345).
partSize(part3345,353).
valid_transport(part3345,tr0).
valid_transport(part3345,tr7).
valid_transport(part3345,tr8).
valid_transport(part3345,tr15).
valid_transport(part3345,tr3).
valid_transport(part3345,tr13).
part(part34).
partSize(part34,2).
valid_transport(part34,tr0).
valid_transport(part34,tr2).
valid_transport(part34,tr15).
valid_transport(part34,tr9).
valid_transport(part34,tr12).
valid_transport(part34,tr13).
valid_transport(part34,tr11).
part(part4).
partSize(part4,2).
valid_transport(part4,tr0).
valid_transport(part4,tr2).
valid_transport(part4,tr15).
valid_transport(part4,tr9).
valid_transport(part4,tr12).
valid_transport(part4,tr13).
valid_transport(part4,tr11).
part(part5).
partSize(part5,2).
valid_transport(part5,tr0).
valid_transport(part5,tr2).
valid_transport(part5,tr15).
valid_transport(part5,tr9).
valid_transport(part5,tr12).
valid_transport(part5,tr14).
valid_transport(part5,tr13).
valid_transport(part5,tr11).
part(part6).
partSize(part6,111).
valid_transport(part6,tr0).
valid_transport(part6,tr7).
valid_transport(part6,tr8).
valid_transport(part6,tr15).
valid_transport(part6,tr3).
valid_transport(part6,tr13).
part(part8).
partSize(part8,163).
valid_transport(part8,tr0).
valid_transport(part8,tr7).
valid_transport(part8,tr8).
valid_transport(part8,tr15).
valid_transport(part8,tr3).
valid_transport(part8,tr13).
part(part9).
partSize(part9,2).
valid_transport(part9,tr0).
valid_transport(part9,tr2).
valid_transport(part9,tr15).
valid_transport(part9,tr9).
valid_transport(part9,tr12).
valid_transport(part9,tr13).
valid_transport(part9,tr11).

% ---- demand ----
demandOffer(part0,prodloc5,40).
demandOffer(part0,prodloc2,40).
demandOffer(part0,prodloc6,-27).
demandOffer(part0,prodloc10,-53).
demandOffer(part1,prodloc0,20).
demandOffer(part1,prodloc1,20).
demandOffer(part1,prodloc8,-20).
demandOffer(part1,prodloc13,-20).
demandOffer(part10,prodloc5,20).
demandOffer(part10,prodloc9,20).
demandOffer(part10,prodloc0,-20).
demandOffer(part10,prodloc8,-20).
demandOffer(part12,prodloc3,10).
demandOffer(part12,prodloc0,20).
demandOffer(part12,prodloc1,-10).
demandOffer(part12,prodloc6,-10).
demandOffer(part12,prodloc11,-10).
demandOffer(part13,prodloc1,20).
demandOffer(part13,prodloc3,20).
demandOffer(part13,prodloc14,-20).
demandOffer(part13,prodloc8,-20).
demandOffer(part14,prodloc6,26).
demandOffer(part14,prodloc0,-26).
demandOffer(part15,prodloc13,53).
demandOffer(part15,prodloc9,27).
demandOffer(part15,prodloc1,-53).
demandOffer(part15,prodloc3,-27).
demandOffer(part16,prodloc10,53).
demandOffer(part16,prodloc14,27).
demandOffer(part16,prodloc9,-53).
demandOffer(part16,prodloc0,-27).
demandOffer(part17,prodloc9,20).
demandOffer(part17,prodloc14,-20).
demandOffer(part18,prodloc6,40).
demandOffer(part18,prodloc0,40).
demandOffer(part18,prodloc3,-27).
demandOffer(part18,prodloc13,-53).
demandOffer(part19,prodloc8,26).
demandOffer(part19,prodloc13,-26).
demandOffer(part2,prodloc2,40).
demandOffer(part2,prodloc4,40).
demandOffer(part2,prodloc6,-27).
demandOffer(part2,prodloc14,-53).
demandOffer(part20,prodloc8,53).
demandOffer(part20,prodloc1,27).
demandOffer(part20,prodloc9,-14).
demandOffer(part20,prodloc4,-46).
demandOffer(part20,prodloc14,-20).
demandOffer(part21,prodloc13,26).
demandOffer(part21,prodloc10,-26).
demandOffer(part22,prodloc2,53).
demandOffer(part22,prodloc1,27).
demandOffer(part22,prodloc9,-53).
demandOffer(part22,prodloc12,-27).
demandOffer(part23,prodloc10,20).
demandOffer(part23,prodloc3,20).
demandOffer(part23,prodloc5,-20).
demandOffer(part23,prodloc1,-20).
demandOffer(part25,prodloc8,20).
demandOffer(part25,prodloc11,-20).
demandOffer(part26,prodloc1,20).
demandOffer(part26,prodloc9,20).
demandOffer(part26,prodloc0,-14).
demandOffer(part26,prodloc13,-26).
demandOffer(part27,prodloc3,53).
demandOffer(part27,prodloc7,27).
demandOffer(part27,prodloc10,-53).
demandOffer(part27,prodloc8,-27).
demandOffer(part28,prodloc6,20).
demandOffer(part28,prodloc12,20).
demandOffer(part28,prodloc5,-20).
demandOffer(part28,prodloc7,-20).
demandOffer(part3,prodloc9,40).
demandOffer(part3,prodloc7,-14).
demandOffer(part3,prodloc5,-26).
demandOffer(part30,prodloc4,40).
demandOffer(part30,prodloc3,40).
demandOffer(part30,prodloc12,-27).
demandOffer(part30,prodloc2,-53).
demandOffer(part31,prodloc11,7).
demandOffer(part31,prodloc12,7).
demandOffer(part31,prodloc3,-14).
demandOffer(part32,prodloc1,53).
demandOffer(part32,prodloc9,27).
demandOffer(part32,prodloc4,-53).
demandOffer(part32,prodloc8,-27).
demandOffer(part33,prodloc7,53).
demandOffer(part33,prodloc5,27).
demandOffer(part33,prodloc11,-53).
demandOffer(part33,prodloc14,-27).
demandOffer(part34,prodloc4,20).
demandOffer(part34,prodloc9,-20).
demandOffer(part4,prodloc1,26).
demandOffer(part4,prodloc14,-26).
demandOffer(part5,prodloc8,20).
demandOffer(part5,prodloc6,-20).
demandOffer(part6,prodloc2,27).
demandOffer(part6,prodloc12,53).
demandOffer(part6,prodloc5,-24).
demandOffer(part6,prodloc14,-36).
demandOffer(part6,prodloc7,-10).
demandOffer(part6,prodloc6,-10).
demandOffer(part8,prodloc0,3).
demandOffer(part8,prodloc10,17).
demandOffer(part8,prodloc1,-10).
demandOffer(part8,prodloc8,-10).
demandOffer(part9,prodloc9,20).
demandOffer(part9,prodloc12,-20).

% ---- network (ASP-generated) ----
route(harbor0,harbor1,tr13,28717,172302).
route(harbor0,harbor1,tr2,28717,86151).
route(harbor0,harbor2,tr13,26845,161070).
route(harbor0,harbor2,tr2,26845,80535).
route(harbor0,harbor3,tr13,10310,61860).
route(harbor0,harbor3,tr2,10310,30930).
route(harbor0,harbor4,tr13,11175,67050).
route(harbor0,harbor4,tr2,11175,33525).
route(harbor0,harbor5,tr13,22813,136878).
route(harbor0,harbor5,tr2,22813,68439).
route(harbor0,prodloc0,tr0,11476,298376).
route(harbor0,prodloc0,tr13,11476,68856).
route(harbor0,prodloc1,tr0,19478,506428).
route(harbor0,prodloc1,tr13,19478,116868).
route(harbor0,prodloc2,tr0,16277,423202).
route(harbor0,prodloc2,tr13,16277,97662).
route(harbor0,prodloc3,tr0,19004,494104).
route(harbor0,prodloc3,tr13,19004,114024).
route(harbor0,prodloc4,tr0,26114,678964).
route(harbor0,prodloc4,tr13,26114,156684).
route(harbor0,prodloc5,tr0,14950,388700).
route(harbor0,prodloc5,tr13,14950,89700).
route(harbor0,prodloc6,tr0,2255,58630).
route(harbor0,prodloc6,tr13,2255,13530).
route(harbor0,prodloc7,tr0,27526,715676).
route(harbor0,prodloc7,tr13,27526,165156).
route(harbor0,prodloc8,tr0,3068,79768).
route(harbor0,prodloc8,tr13,3068,18408).
route(harbor0,prodloc9,tr0,8847,230022).
route(harbor0,prodloc9,tr13,8847,53082).
route(harbor0,prodloc10,tr0,15537,403962).
route(harbor0,prodloc10,tr13,15537,93222).
route(harbor0,prodloc11,tr0,22842,593892).
route(harbor0,prodloc11,tr13,22842,137052).
route(harbor0,prodloc12,tr0,21764,565864).
route(harbor0,prodloc12,tr13,21764,130584).
route(harbor0,prodloc13,tr0,2131,55406).
route(harbor0,prodloc13,tr13,2131,12786).
route(harbor0,prodloc14,tr0,1990,51740).
route(harbor0,prodloc14,tr13,1990,11940).
route(harbor1,harbor0,tr13,23988,143928).
route(harbor1,harbor0,tr2,23988,71964).
route(harbor1,harbor2,tr13,23016,138096).
route(harbor1,harbor2,tr2,23016,69048).
route(harbor1,harbor3,tr13,10175,61050).
route(harbor1,harbor3,tr2,10175,30525).
route(harbor1,harbor4,tr13,21235,127410).
route(harbor1,harbor4,tr2,21235,63705).
route(harbor1,harbor5,tr13,18968,113808).
route(harbor1,harbor5,tr2,18968,56904).
route(harbor1,prodloc0,tr0,22324,580424).
route(harbor1,prodloc0,tr13,22324,133944).
route(harbor1,prodloc1,tr0,26934,700284).
route(harbor1,prodloc1,tr13,26934,161604).
route(harbor1,prodloc2,tr0,14604,379704).
route(harbor1,prodloc2,tr13,14604,87624).
route(harbor1,prodloc3,tr0,9327,242502).
route(harbor1,prodloc3,tr13,9327,55962).
route(harbor1,prodloc4,tr0,23484,610584).
route(harbor1,prodloc4,tr13,23484,140904).
route(harbor1,prodloc5,tr0,12643,328718).
route(harbor1,prodloc5,tr13,12643,75858).
route(harbor1,prodloc6,tr0,21912,569712).
route(harbor1,prodloc6,tr13,21912,131472).
route(harbor1,prodloc7,tr0,11372,295672).
route(harbor1,prodloc7,tr13,11372,68232).
route(harbor1,prodloc8,tr0,741,19266).
route(harbor1,prodloc8,tr13,741,4446).
route(harbor1,prodloc9,tr0,15130,393380).
route(harbor1,prodloc9,tr13,15130,90780).
route(harbor1,prodloc10,tr0,11649,302874).
route(harbor1,prodloc10,tr13,11649,69894).
route(harbor1,prodloc11,tr0,5508,143208).
route(harbor1,prodloc11,tr13,5508,33048).
route(harbor1,prodloc12,tr0,20020,520520).
route(harbor1,prodloc12,tr13,20020,120120).
route(harbor1,prodloc13,tr0,3838,99788).
route(harbor1,prodloc13,tr13,3838,23028).
route(harbor1,prodloc14,tr0,16179,420654).
route(harbor1,prodloc14,tr13,16179,97074).
route(harbor2,harbor0,tr13,1961,11766).
route(harbor2,harbor0,tr2,1961,5883).
route(harbor2,harbor1,tr13,7180,43080).
route(harbor2,harbor1,tr2,7180,21540).
route(harbor2,harbor3,tr13,25203,151218).
route(harbor2,harbor3,tr2,25203,75609).
route(harbor2,harbor4,tr13,9448,56688).
route(harbor2,harbor4,tr2,9448,28344).
route(harbor2,harbor5,tr13,4268,25608).
route(harbor2,harbor5,tr2,4268,12804).
route(harbor2,prodloc0,tr0,24196,629096).
route(harbor2,prodloc0,tr13,24196,145176).
route(harbor2,prodloc1,tr0,8115,210990).
route(harbor2,prodloc1,tr13,8115,48690).
route(harbor2,prodloc2,tr0,13040,339040).
route(harbor2,prodloc2,tr13,13040,78240).
route(harbor2,prodloc3,tr0,12812,333112).
route(harbor2,prodloc3,tr13,12812,76872).
route(harbor2,prodloc4,tr0,28556,742456).
route(harbor2,prodloc4,tr13,28556,171336).
route(harbor2,prodloc5,tr0,16271,423046).
route(harbor2,prodloc5,tr13,16271,97626).
route(harbor2,prodloc6,tr0,2642,68692).
route(harbor2,prodloc6,tr13,2642,15852).
route(harbor2,prodloc7,tr0,5453,141778).
route(harbor2,prodloc7,tr13,5453,32718).
route(harbor2,prodloc8,tr0,14720,382720).
route(harbor2,prodloc8,tr13,14720,88320).
route(harbor2,prodloc9,tr0,13163,342238).
route(harbor2,prodloc9,tr13,13163,78978).
route(harbor2,prodloc10,tr0,18006,468156).
route(harbor2,prodloc10,tr13,18006,108036).
route(harbor2,prodloc11,tr0,9106,236756).
route(harbor2,prodloc11,tr13,9106,54636).
route(harbor2,prodloc12,tr0,28948,752648).
route(harbor2,prodloc12,tr13,28948,173688).
route(harbor2,prodloc13,tr0,4488,116688).
route(harbor2,prodloc13,tr13,4488,26928).
route(harbor2,prodloc14,tr0,26848,698048).
route(harbor2,prodloc14,tr13,26848,161088).
route(harbor3,harbor0,tr13,14137,84822).
route(harbor3,harbor0,tr2,14137,42411).
route(harbor3,harbor1,tr13,28341,170046).
route(harbor3,harbor1,tr2,28341,85023).
route(harbor3,harbor2,tr13,18059,108354).
route(harbor3,harbor2,tr2,18059,54177).
route(harbor3,harbor4,tr13,9153,54918).
route(harbor3,harbor4,tr2,9153,27459).
route(harbor3,harbor5,tr13,23177,139062).
route(harbor3,harbor5,tr2,23177,69531).
route(harbor3,prodloc0,tr0,13610,353860).
route(harbor3,prodloc0,tr13,13610,81660).
route(harbor3,prodloc1,tr0,11758,305708).
route(harbor3,prodloc1,tr13,11758,70548).
route(harbor3,prodloc2,tr0,22373,581698).
route(harbor3,prodloc2,tr13,22373,134238).
route(harbor3,prodloc3,tr0,12468,324168).
route(harbor3,prodloc3,tr13,12468,74808).
route(harbor3,prodloc4,tr0,7563,196638).
route(harbor3,prodloc4,tr13,7563,45378).
route(harbor3,prodloc5,tr0,4947,128622).
route(harbor3,prodloc5,tr13,4947,29682).
route(harbor3,prodloc6,tr0,2721,70746).
route(harbor3,prodloc6,tr13,2721,16326).
route(harbor3,prodloc7,tr0,5776,150176).
route(harbor3,prodloc7,tr13,5776,34656).
route(harbor3,prodloc8,tr0,4959,128934).
route(harbor3,prodloc8,tr13,4959,29754).
route(harbor3,prodloc9,tr0,7602,197652).
route(harbor3,prodloc9,tr13,7602,45612).
route(harbor3,prodloc10,tr0,21580,561080).
route(harbor3,prodloc10,tr13,21580,129480).
route(harbor3,prodloc11,tr0,7647,198822).
route(harbor3,prodloc11,tr13,7647,45882).
route(harbor3,prodloc12,tr0,397,10322).
route(harbor3,prodloc12,tr13,397,2382).
route(harbor3,prodloc13,tr0,15893,413218).
route(harbor3,prodloc13,tr13,15893,95358).
route(harbor3,prodloc14,tr0,27235,708110).
route(harbor3,prodloc14,tr13,27235,163410).
route(harbor4,harbor0,tr13,19334,116004).
route(harbor4,harbor0,tr2,19334,58002).
route(harbor4,harbor1,tr13,6005,36030).
route(harbor4,harbor1,tr2,6005,18015).
route(harbor4,harbor2,tr13,8639,51834).
route(harbor4,harbor2,tr2,8639,25917).
route(harbor4,harbor3,tr13,9268,55608).
route(harbor4,harbor3,tr2,9268,27804).
route(harbor4,harbor5,tr13,164,984).
route(harbor4,harbor5,tr2,164,492).
route(harbor4,prodloc0,tr0,4775,124150).
route(harbor4,prodloc0,tr13,4775,28650).
route(harbor4,prodloc1,tr0,13730,356980).
route(harbor4,prodloc1,tr13,13730,82380).
route(harbor4,prodloc2,tr0,17519,455494).
route(harbor4,prodloc2,tr13,17519,105114).
route(harbor4,prodloc3,tr0,12101,314626).
route(harbor4,prodloc3,tr13,12101,72606).
route(harbor4,prodloc4,tr0,19984,519584).
route(harbor4,prodloc4,tr13,19984,119904).
route(harbor4,prodloc5,tr0,18559,482534).
route(harbor4,prodloc5,tr13,18559,111354).
route(harbor4,prodloc6,tr0,10442,271492).
route(harbor4,prodloc6,tr13,10442,62652).
route(harbor4,prodloc7,tr0,4114,106964).
route(harbor4,prodloc7,tr13,4114,24684).
route(harbor4,prodloc8,tr0,22628,588328).
route(harbor4,prodloc8,tr13,22628,135768).
route(harbor4,prodloc9,tr0,28156,732056).
route(harbor4,prodloc9,tr13,28156,168936).
route(harbor4,prodloc10,tr0,16893,439218).
route(harbor4,prodloc10,tr13,16893,101358).
route(harbor4,prodloc11,tr0,20239,526214).
route(harbor4,prodloc11,tr13,20239,121434).
route(harbor4,prodloc12,tr0,21463,558038).
route(harbor4,prodloc12,tr13,21463,128778).
route(harbor4,prodloc13,tr0,22159,576134).
route(harbor4,prodloc13,tr13,22159,132954).
route(harbor4,prodloc14,tr0,24243,630318).
route(harbor4,prodloc14,tr13,24243,145458).
route(harbor5,harbor0,tr13,1799,10794).
route(harbor5,harbor0,tr2,1799,5397).
route(harbor5,harbor1,tr13,14993,89958).
route(harbor5,harbor1,tr2,14993,44979).
route(harbor5,harbor2,tr13,28570,171420).
route(harbor5,harbor2,tr2,28570,85710).
route(harbor5,harbor3,tr13,25588,153528).
route(harbor5,harbor3,tr2,25588,76764).
route(harbor5,harbor4,tr13,28686,172116).
route(harbor5,harbor4,tr2,28686,86058).
route(harbor5,prodloc0,tr0,22303,579878).
route(harbor5,prodloc0,tr13,22303,133818).
route(harbor5,prodloc1,tr0,26146,679796).
route(harbor5,prodloc1,tr13,26146,156876).
route(harbor5,prodloc2,tr0,18328,476528).
route(harbor5,prodloc2,tr13,18328,109968).
route(harbor5,prodloc3,tr0,12859,334334).
route(harbor5,prodloc3,tr13,12859,77154).
route(harbor5,prodloc4,tr0,13045,339170).
route(harbor5,prodloc4,tr13,13045,78270).
route(harbor5,prodloc5,tr0,13075,339950).
route(harbor5,prodloc5,tr13,13075,78450).
route(harbor5,prodloc6,tr0,12916,335816).
route(harbor5,prodloc6,tr13,12916,77496).
route(harbor5,prodloc7,tr0,3394,88244).
route(harbor5,prodloc7,tr13,3394,20364).
route(harbor5,prodloc8,tr0,15780,410280).
route(harbor5,prodloc8,tr13,15780,94680).
route(harbor5,prodloc9,tr0,20786,540436).
route(harbor5,prodloc9,tr13,20786,124716).
route(harbor5,prodloc10,tr0,13123,341198).
route(harbor5,prodloc10,tr13,13123,78738).
route(harbor5,prodloc11,tr0,2041,53066).
route(harbor5,prodloc11,tr13,2041,12246).
route(harbor5,prodloc12,tr0,6247,162422).
route(harbor5,prodloc12,tr13,6247,37482).
route(harbor5,prodloc13,tr0,2208,57408).
route(harbor5,prodloc13,tr13,2208,13248).
route(harbor5,prodloc14,tr0,6842,177892).
route(harbor5,prodloc14,tr13,6842,41052).
route(prodloc0,harbor0,tr0,14440,375440).
route(prodloc0,harbor0,tr13,14440,86640).
route(prodloc0,harbor1,tr0,5320,138320).
route(prodloc0,harbor1,tr13,5320,31920).
route(prodloc0,harbor2,tr0,3604,93704).
route(prodloc0,harbor2,tr13,3604,21624).
route(prodloc0,harbor3,tr0,11144,289744).
route(prodloc0,harbor3,tr13,11144,66864).
route(prodloc0,harbor4,tr0,19686,511836).
route(prodloc0,harbor4,tr13,19686,118116).
route(prodloc0,harbor5,tr0,1724,44824).
route(prodloc0,harbor5,tr13,1724,10344).
route(prodloc0,prodloc1,tr0,3356,87256).
route(prodloc0,prodloc1,tr13,3356,20136).
route(prodloc0,prodloc2,tr0,9,234).
route(prodloc0,prodloc2,tr13,9,54).
route(prodloc0,prodloc3,tr0,18574,482924).
route(prodloc0,prodloc3,tr13,18574,111444).
route(prodloc0,prodloc4,tr0,4958,128908).
route(prodloc0,prodloc4,tr13,4958,29748).
route(prodloc0,prodloc5,tr0,17585,457210).
route(prodloc0,prodloc5,tr13,17585,105510).
route(prodloc0,prodloc6,tr0,3326,86476).
route(prodloc0,prodloc6,tr13,3326,19956).
route(prodloc0,prodloc7,tr0,11916,309816).
route(prodloc0,prodloc7,tr13,11916,71496).
route(prodloc0,prodloc8,tr0,20112,522912).
route(prodloc0,prodloc8,tr13,20112,120672).
route(prodloc0,prodloc9,tr0,837,21762).
route(prodloc0,prodloc9,tr13,837,5022).
route(prodloc0,prodloc10,tr0,2306,59956).
route(prodloc0,prodloc10,tr13,2306,13836).
route(prodloc0,prodloc11,tr0,28652,744952).
route(prodloc0,prodloc11,tr13,28652,171912).
route(prodloc0,prodloc12,tr0,6816,177216).
route(prodloc0,prodloc12,tr13,6816,40896).
route(prodloc0,prodloc13,tr0,20123,523198).
route(prodloc0,prodloc13,tr15,20123,643936).
route(prodloc0,prodloc14,tr0,12330,320580).
route(prodloc0,prodloc14,tr13,12330,73980).
route(prodloc1,harbor0,tr0,4869,126594).
route(prodloc1,harbor0,tr13,4869,29214).
route(prodloc1,harbor1,tr0,20790,540540).
route(prodloc1,harbor1,tr13,20790,124740).
route(prodloc1,harbor2,tr0,8267,214942).
route(prodloc1,harbor2,tr13,8267,49602).
route(prodloc1,harbor3,tr0,11385,296010).
route(prodloc1,harbor3,tr13,11385,68310).
route(prodloc1,harbor4,tr0,19737,513162).
route(prodloc1,harbor4,tr13,19737,118422).
route(prodloc1,harbor5,tr0,11934,310284).
route(prodloc1,harbor5,tr13,11934,71604).
route(prodloc1,prodloc0,tr0,15538,403988).
route(prodloc1,prodloc0,tr13,15538,93228).
route(prodloc1,prodloc2,tr0,4027,104702).
route(prodloc1,prodloc2,tr13,4027,24162).
route(prodloc1,prodloc3,tr0,3781,98306).
route(prodloc1,prodloc3,tr13,3781,22686).
route(prodloc1,prodloc4,tr0,27819,723294).
route(prodloc1,prodloc4,tr13,27819,166914).
route(prodloc1,prodloc5,tr0,15995,415870).
route(prodloc1,prodloc5,tr13,15995,95970).
route(prodloc1,prodloc6,tr0,15271,397046).
route(prodloc1,prodloc6,tr13,15271,91626).
route(prodloc1,prodloc7,tr0,15743,409318).
route(prodloc1,prodloc7,tr13,15743,94458).
route(prodloc1,prodloc8,tr13,15856,95136).
route(prodloc1,prodloc8,tr15,15856,507392).
route(prodloc1,prodloc9,tr0,10220,265720).
route(prodloc1,prodloc9,tr15,10220,327040).
route(prodloc1,prodloc10,tr0,2816,73216).
route(prodloc1,prodloc10,tr13,2816,16896).
route(prodloc1,prodloc11,tr0,4724,122824).
route(prodloc1,prodloc11,tr13,4724,28344).
route(prodloc1,prodloc12,tr0,3350,87100).
route(prodloc1,prodloc12,tr13,3350,20100).
route(prodloc1,prodloc13,tr0,24567,638742).
route(prodloc1,prodloc13,tr13,24567,147402).
route(prodloc2,harbor0,tr0,24261,630786).
route(prodloc2,harbor0,tr13,24261,145566).
route(prodloc2,harbor1,tr0,8677,225602).
route(prodloc2,harbor1,tr13,8677,52062).
route(prodloc2,harbor2,tr0,15685,407810).
route(prodloc2,harbor2,tr13,15685,94110).
route(prodloc2,harbor3,tr0,27161,706186).
route(prodloc2,harbor3,tr13,27161,162966).
route(prodloc2,harbor4,tr0,22679,589654).
route(prodloc2,harbor4,tr13,22679,136074).
route(prodloc2,harbor5,tr0,5292,137592).
route(prodloc2,harbor5,tr13,5292,31752).
route(prodloc2,prodloc0,tr0,16921,439946).
route(prodloc2,prodloc0,tr13,16921,101526).
route(prodloc2,prodloc1,tr0,758,19708).
route(prodloc2,prodloc1,tr13,758,4548).
route(prodloc2,prodloc3,tr0,6726,174876).
route(prodloc2,prodloc3,tr13,6726,40356).
route(prodloc2,prodloc4,tr0,17311,450086).
route(prodloc2,prodloc4,tr13,17311,103866).
route(prodloc2,prodloc5,tr0,11855,308230).
route(prodloc2,prodloc5,tr13,11855,71130).
route(prodloc2,prodloc7,tr13,22614,135684).
route(prodloc2,prodloc7,tr15,22614,723648).
route(prodloc2,prodloc8,tr0,17800,462800).
route(prodloc2,prodloc8,tr13,17800,106800).
route(prodloc2,prodloc9,tr0,888,23088).
route(prodloc2,prodloc9,tr15,888,28416).
route(prodloc2,prodloc10,tr0,24844,645944).
route(prodloc2,prodloc10,tr13,24844,149064).
route(prodloc2,prodloc11,tr0,17307,449982).
route(prodloc2,prodloc11,tr13,17307,103842).
route(prodloc2,prodloc12,tr0,9769,253994).
route(prodloc2,prodloc12,tr15,9769,312608).
route(prodloc2,prodloc13,tr0,21069,547794).
route(prodloc2,prodloc13,tr13,21069,126414).
route(prodloc2,prodloc14,tr0,28291,735566).
route(prodloc2,prodloc14,tr13,28291,169746).
route(prodloc3,harbor0,tr0,2984,77584).
route(prodloc3,harbor0,tr13,2984,17904).
route(prodloc3,harbor1,tr0,22814,593164).
route(prodloc3,harbor1,tr13,22814,136884).
route(prodloc3,harbor2,tr0,27705,720330).
route(prodloc3,harbor2,tr13,27705,166230).
route(prodloc3,harbor3,tr0,8558,222508).
route(prodloc3,harbor3,tr13,8558,51348).
route(prodloc3,harbor4,tr0,16988,441688).
route(prodloc3,harbor4,tr13,16988,101928).
route(prodloc3,harbor5,tr0,12018,312468).
route(prodloc3,harbor5,tr13,12018,72108).
route(prodloc3,prodloc0,tr0,5475,142350).
route(prodloc3,prodloc0,tr13,5475,32850).
route(prodloc3,prodloc1,tr0,11657,303082).
route(prodloc3,prodloc1,tr13,11657,69942).
route(prodloc3,prodloc2,tr0,25296,657696).
route(prodloc3,prodloc2,tr15,25296,809472).
route(prodloc3,prodloc4,tr0,7302,189852).
route(prodloc3,prodloc4,tr13,7302,43812).
route(prodloc3,prodloc5,tr13,17453,104718).
route(prodloc3,prodloc5,tr15,17453,558496).
route(prodloc3,prodloc6,tr0,17748,461448).
route(prodloc3,prodloc6,tr15,17748,567936).
route(prodloc3,prodloc7,tr0,25530,663780).
route(prodloc3,prodloc7,tr13,25530,153180).
route(prodloc3,prodloc8,tr0,16474,428324).
route(prodloc3,prodloc8,tr13,16474,98844).
route(prodloc3,prodloc9,tr0,10804,280904).
route(prodloc3,prodloc9,tr13,10804,64824).
route(prodloc3,prodloc10,tr0,20856,542256).
route(prodloc3,prodloc10,tr13,20856,125136).
route(prodloc3,prodloc11,tr13,7310,43860).
route(prodloc3,prodloc11,tr15,7310,233920).
route(prodloc3,prodloc12,tr13,20096,120576).
route(prodloc3,prodloc12,tr15,20096,643072).
route(prodloc3,prodloc13,tr0,26593,691418).
route(prodloc3,prodloc13,tr13,26593,159558).
route(prodloc3,prodloc14,tr0,25836,671736).
route(prodloc3,prodloc14,tr13,25836,155016).
route(prodloc4,harbor0,tr0,24850,646100).
route(prodloc4,harbor0,tr13,24850,149100).
route(prodloc4,harbor1,tr0,27940,726440).
route(prodloc4,harbor1,tr13,27940,167640).
route(prodloc4,harbor2,tr0,6396,166296).
route(prodloc4,harbor2,tr13,6396,38376).
route(prodloc4,harbor3,tr0,26415,686790).
route(prodloc4,harbor3,tr13,26415,158490).
route(prodloc4,harbor4,tr0,7846,203996).
route(prodloc4,harbor4,tr13,7846,47076).
route(prodloc4,harbor5,tr0,26817,697242).
route(prodloc4,harbor5,tr13,26817,160902).
route(prodloc4,prodloc0,tr0,13131,341406).
route(prodloc4,prodloc0,tr13,13131,78786).
route(prodloc4,prodloc1,tr0,24246,630396).
route(prodloc4,prodloc1,tr13,24246,145476).
route(prodloc4,prodloc2,tr0,26325,684450).
route(prodloc4,prodloc2,tr13,26325,157950).
route(prodloc4,prodloc3,tr0,7431,193206).
route(prodloc4,prodloc3,tr13,7431,44586).
route(prodloc4,prodloc5,tr0,6552,170352).
route(prodloc4,prodloc5,tr13,6552,39312).
route(prodloc4,prodloc6,tr13,16963,101778).
route(prodloc4,prodloc6,tr15,16963,542816).
route(prodloc4,prodloc7,tr0,16149,419874).
route(prodloc4,prodloc7,tr13,16149,96894).
route(prodloc4,prodloc8,tr0,11653,302978).
route(prodloc4,prodloc8,tr13,11653,69918).
route(prodloc4,prodloc9,tr0,23955,622830).
route(prodloc4,prodloc9,tr15,23955,766560).
route(prodloc4,prodloc10,tr0,951,24726).
route(prodloc4,prodloc10,tr13,951,5706).
route(prodloc4,prodloc11,tr0,917,23842).
route(prodloc4,prodloc11,tr13,917,5502).
route(prodloc4,prodloc12,tr13,25892,155352).
route(prodloc4,prodloc12,tr15,25892,828544).
route(prodloc4,prodloc13,tr0,9157,238082).
route(prodloc4,prodloc13,tr13,9157,54942).
route(prodloc4,prodloc14,tr0,15476,402376).
route(prodloc4,prodloc14,tr13,15476,92856).
route(prodloc5,harbor0,tr0,8494,220844).
route(prodloc5,harbor0,tr13,8494,50964).
route(prodloc5,harbor1,tr0,6347,165022).
route(prodloc5,harbor1,tr13,6347,38082).
route(prodloc5,harbor2,tr0,22694,590044).
route(prodloc5,harbor2,tr13,22694,136164).
route(prodloc5,harbor3,tr0,19831,515606).
route(prodloc5,harbor3,tr13,19831,118986).
route(prodloc5,harbor4,tr0,11283,293358).
route(prodloc5,harbor4,tr13,11283,67698).
route(prodloc5,harbor5,tr0,14656,381056).
route(prodloc5,harbor5,tr13,14656,87936).
route(prodloc5,prodloc0,tr0,26497,688922).
route(prodloc5,prodloc0,tr13,26497,158982).
route(prodloc5,prodloc1,tr0,23697,616122).
route(prodloc5,prodloc1,tr13,23697,142182).
route(prodloc5,prodloc2,tr0,11455,297830).
route(prodloc5,prodloc2,tr13,11455,68730).
route(prodloc5,prodloc3,tr0,11950,310700).
route(prodloc5,prodloc3,tr13,11950,71700).
route(prodloc5,prodloc4,tr0,2641,68666).
route(prodloc5,prodloc4,tr13,2641,15846).
route(prodloc5,prodloc6,tr13,7226,43356).
route(prodloc5,prodloc6,tr15,7226,231232).
route(prodloc5,prodloc7,tr0,3349,87074).
route(prodloc5,prodloc7,tr13,3349,20094).
route(prodloc5,prodloc8,tr0,7435,193310).
route(prodloc5,prodloc8,tr13,7435,44610).
route(prodloc5,prodloc9,tr0,15405,400530).
route(prodloc5,prodloc9,tr13,15405,92430).
route(prodloc5,prodloc10,tr0,6447,167622).
route(prodloc5,prodloc10,tr13,6447,38682).
route(prodloc5,prodloc11,tr0,11068,287768).
route(prodloc5,prodloc11,tr13,11068,66408).
route(prodloc5,prodloc12,tr0,6698,174148).
route(prodloc5,prodloc12,tr13,6698,40188).
route(prodloc5,prodloc13,tr0,15817,411242).
route(prodloc5,prodloc13,tr13,15817,94902).
route(prodloc5,prodloc14,tr0,20451,531726).
route(prodloc5,prodloc14,tr13,20451,122706).
route(prodloc6,harbor0,tr0,19999,519974).
route(prodloc6,harbor0,tr13,19999,119994).
route(prodloc6,harbor1,tr0,27541,716066).
route(prodloc6,harbor1,tr13,27541,165246).
route(prodloc6,harbor2,tr0,64,1664).
route(prodloc6,harbor2,tr13,64,384).
route(prodloc6,harbor3,tr0,15713,408538).
route(prodloc6,harbor3,tr13,15713,94278).
route(prodloc6,harbor4,tr0,21398,556348).
route(prodloc6,harbor4,tr13,21398,128388).
route(prodloc6,harbor5,tr0,11274,293124).
route(prodloc6,harbor5,tr13,11274,67644).
route(prodloc6,prodloc0,tr0,26204,681304).
route(prodloc6,prodloc0,tr13,26204,157224).
route(prodloc6,prodloc1,tr0,21076,547976).
route(prodloc6,prodloc1,tr13,21076,126456).
route(prodloc6,prodloc2,tr0,2780,72280).
route(prodloc6,prodloc2,tr13,2780,16680).
route(prodloc6,prodloc3,tr0,27351,711126).
route(prodloc6,prodloc3,tr13,27351,164106).
route(prodloc6,prodloc4,tr0,21648,562848).
route(prodloc6,prodloc4,tr13,21648,129888).
route(prodloc6,prodloc5,tr13,3931,23586).
route(prodloc6,prodloc5,tr15,3931,125792).
route(prodloc6,prodloc7,tr0,12733,331058).
route(prodloc6,prodloc7,tr13,12733,76398).
route(prodloc6,prodloc8,tr0,25636,666536).
route(prodloc6,prodloc8,tr13,25636,153816).
route(prodloc6,prodloc9,tr0,23316,606216).
route(prodloc6,prodloc9,tr13,23316,139896).
route(prodloc6,prodloc10,tr0,24582,639132).
route(prodloc6,prodloc10,tr13,24582,147492).
route(prodloc6,prodloc11,tr0,6533,169858).
route(prodloc6,prodloc11,tr13,6533,39198).
route(prodloc6,prodloc12,tr0,15666,407316).
route(prodloc6,prodloc12,tr13,15666,93996).
route(prodloc6,prodloc13,tr0,5851,152126).
route(prodloc6,prodloc13,tr15,5851,187232).
route(prodloc6,prodloc14,tr0,14220,369720).
route(prodloc6,prodloc14,tr13,14220,85320).
route(prodloc7,harbor0,tr0,25860,672360).
route(prodloc7,harbor0,tr13,25860,155160).
route(prodloc7,harbor1,tr0,20837,541762).
route(prodloc7,harbor1,tr13,20837,125022).
route(prodloc7,harbor2,tr0,10897,283322).
route(prodloc7,harbor2,tr13,10897,65382).
route(prodloc7,harbor3,tr0,2844,73944).
route(prodloc7,harbor3,tr13,2844,17064).
route(prodloc7,harbor4,tr0,26243,682318).
route(prodloc7,harbor4,tr13,26243,157458).
route(prodloc7,harbor5,tr0,23654,615004).
route(prodloc7,harbor5,tr13,23654,141924).
route(prodloc7,prodloc0,tr0,12972,337272).
route(prodloc7,prodloc0,tr13,12972,77832).
route(prodloc7,prodloc1,tr0,15178,394628).
route(prodloc7,prodloc1,tr13,15178,91068).
route(prodloc7,prodloc2,tr0,13154,342004).
route(prodloc7,prodloc2,tr13,13154,78924).
route(prodloc7,prodloc3,tr0,24360,633360).
route(prodloc7,prodloc3,tr13,24360,146160).
route(prodloc7,prodloc4,tr0,2784,72384).
route(prodloc7,prodloc4,tr13,2784,16704).
route(prodloc7,prodloc5,tr0,23752,617552).
route(prodloc7,prodloc5,tr13,23752,142512).
route(prodloc7,prodloc6,tr0,5207,135382).
route(prodloc7,prodloc6,tr13,5207,31242).
route(prodloc7,prodloc8,tr0,5572,144872).
route(prodloc7,prodloc8,tr13,5572,33432).
route(prodloc7,prodloc9,tr0,4164,108264).
route(prodloc7,prodloc9,tr13,4164,24984).
route(prodloc7,prodloc10,tr0,904,23504).
route(prodloc7,prodloc10,tr13,904,5424).
route(prodloc7,prodloc11,tr13,4954,29724).
route(prodloc7,prodloc11,tr15,4954,158528).
route(prodloc7,prodloc12,tr0,19361,503386).
route(prodloc7,prodloc12,tr13,19361,116166).
route(prodloc7,prodloc13,tr0,15250,396500).
route(prodloc7,prodloc13,tr13,15250,91500).
route(prodloc7,prodloc14,tr0,26429,687154).
route(prodloc7,prodloc14,tr13,26429,158574).
route(prodloc8,harbor0,tr0,21493,558818).
route(prodloc8,harbor0,tr13,21493,128958).
route(prodloc8,harbor1,tr0,4791,124566).
route(prodloc8,harbor1,tr13,4791,28746).
route(prodloc8,harbor2,tr0,20042,521092).
route(prodloc8,harbor2,tr13,20042,120252).
route(prodloc8,harbor3,tr0,27085,704210).
route(prodloc8,harbor3,tr13,27085,162510).
route(prodloc8,harbor4,tr0,19527,507702).
route(prodloc8,harbor4,tr13,19527,117162).
route(prodloc8,harbor5,tr0,15545,404170).
route(prodloc8,harbor5,tr13,15545,93270).
route(prodloc8,prodloc0,tr0,21539,560014).
route(prodloc8,prodloc0,tr13,21539,129234).
route(prodloc8,prodloc1,tr0,11484,298584).
route(prodloc8,prodloc1,tr13,11484,68904).
route(prodloc8,prodloc2,tr0,5110,132860).
route(prodloc8,prodloc2,tr13,5110,30660).
route(prodloc8,prodloc3,tr0,17980,467480).
route(prodloc8,prodloc3,tr13,17980,107880).
route(prodloc8,prodloc4,tr0,17968,467168).
route(prodloc8,prodloc4,tr13,17968,107808).
route(prodloc8,prodloc5,tr0,4294,111644).
route(prodloc8,prodloc5,tr13,4294,25764).
route(prodloc8,prodloc6,tr0,703,18278).
route(prodloc8,prodloc6,tr13,703,4218).
route(prodloc8,prodloc7,tr0,468,12168).
route(prodloc8,prodloc7,tr13,468,2808).
route(prodloc8,prodloc9,tr0,26195,681070).
route(prodloc8,prodloc9,tr15,26195,838240).
route(prodloc8,prodloc10,tr0,23803,618878).
route(prodloc8,prodloc10,tr13,23803,142818).
route(prodloc8,prodloc11,tr0,21290,553540).
route(prodloc8,prodloc11,tr13,21290,127740).
route(prodloc8,prodloc12,tr0,3369,87594).
route(prodloc8,prodloc12,tr13,3369,20214).
route(prodloc8,prodloc13,tr0,17257,448682).
route(prodloc8,prodloc13,tr15,17257,552224).
route(prodloc8,prodloc14,tr0,24561,638586).
route(prodloc8,prodloc14,tr13,24561,147366).
route(prodloc9,harbor0,tr0,4564,118664).
route(prodloc9,harbor0,tr13,4564,27384).
route(prodloc9,harbor1,tr0,14217,369642).
route(prodloc9,harbor1,tr13,14217,85302).
route(prodloc9,harbor2,tr0,28567,742742).
route(prodloc9,harbor2,tr13,28567,171402).
route(prodloc9,harbor3,tr0,6385,166010).
route(prodloc9,harbor3,tr13,6385,38310).
route(prodloc9,harbor4,tr0,27073,703898).
route(prodloc9,harbor4,tr13,27073,162438).
route(prodloc9,harbor5,tr0,28638,744588).
route(prodloc9,harbor5,tr13,28638,171828).
route(prodloc9,prodloc0,tr0,6917,179842).
route(prodloc9,prodloc0,tr13,6917,41502).
route(prodloc9,prodloc1,tr0,919,23894).
route(prodloc9,prodloc1,tr15,919,29408).
route(prodloc9,prodloc2,tr0,8254,214604).
route(prodloc9,prodloc2,tr13,8254,49524).
route(prodloc9,prodloc3,tr0,6974,181324).
route(prodloc9,prodloc3,tr13,6974,41844).
route(prodloc9,prodloc4,tr13,9601,57606).
route(prodloc9,prodloc4,tr15,9601,307232).
route(prodloc9,prodloc5,tr13,16424,98544).
route(prodloc9,prodloc5,tr15,16424,525568).
route(prodloc9,prodloc6,tr0,7883,204958).
route(prodloc9,prodloc6,tr13,7883,47298).
route(prodloc9,prodloc7,tr13,25026,150156).
route(prodloc9,prodloc7,tr15,25026,800832).
route(prodloc9,prodloc8,tr13,19218,115308).
route(prodloc9,prodloc8,tr15,19218,614976).
route(prodloc9,prodloc10,tr0,10684,277784).
route(prodloc9,prodloc10,tr13,10684,64104).
route(prodloc9,prodloc11,tr0,8500,221000).
route(prodloc9,prodloc11,tr13,8500,51000).
route(prodloc9,prodloc12,tr0,17839,463814).
route(prodloc9,prodloc12,tr13,17839,107034).
route(prodloc9,prodloc13,tr0,13732,357032).
route(prodloc9,prodloc13,tr13,13732,82392).
route(prodloc9,prodloc14,tr13,27336,164016).
route(prodloc9,prodloc14,tr15,27336,874752).
route(prodloc10,harbor0,tr0,4297,111722).
route(prodloc10,harbor0,tr13,4297,25782).
route(prodloc10,harbor1,tr0,1997,51922).
route(prodloc10,harbor1,tr13,1997,11982).
route(prodloc10,harbor2,tr0,24247,630422).
route(prodloc10,harbor2,tr13,24247,145482).
route(prodloc10,harbor3,tr0,11594,301444).
route(prodloc10,harbor3,tr13,11594,69564).
route(prodloc10,harbor4,tr0,15015,390390).
route(prodloc10,harbor4,tr13,15015,90090).
route(prodloc10,harbor5,tr0,21709,564434).
route(prodloc10,harbor5,tr13,21709,130254).
route(prodloc10,prodloc0,tr0,19117,497042).
route(prodloc10,prodloc0,tr13,19117,114702).
route(prodloc10,prodloc1,tr0,26709,694434).
route(prodloc10,prodloc1,tr13,26709,160254).
route(prodloc10,prodloc2,tr0,16935,440310).
route(prodloc10,prodloc2,tr13,16935,101610).
route(prodloc10,prodloc3,tr0,13785,358410).
route(prodloc10,prodloc3,tr13,13785,82710).
route(prodloc10,prodloc4,tr0,27105,704730).
route(prodloc10,prodloc4,tr13,27105,162630).
route(prodloc10,prodloc5,tr0,28777,748202).
route(prodloc10,prodloc5,tr15,28777,920864).
route(prodloc10,prodloc6,tr0,16440,427440).
route(prodloc10,prodloc6,tr13,16440,98640).
route(prodloc10,prodloc7,tr0,4286,111436).
route(prodloc10,prodloc7,tr13,4286,25716).
route(prodloc10,prodloc8,tr0,17428,453128).
route(prodloc10,prodloc8,tr15,17428,557696).
route(prodloc10,prodloc9,tr0,4977,129402).
route(prodloc10,prodloc9,tr13,4977,29862).
route(prodloc10,prodloc11,tr0,17156,446056).
route(prodloc10,prodloc11,tr13,17156,102936).
route(prodloc10,prodloc12,tr0,16731,435006).
route(prodloc10,prodloc12,tr13,16731,100386).
route(prodloc10,prodloc13,tr0,614,15964).
route(prodloc10,prodloc13,tr13,614,3684).
route(prodloc10,prodloc14,tr0,28602,743652).
route(prodloc10,prodloc14,tr13,28602,171612).
route(prodloc11,harbor0,tr0,14424,375024).
route(prodloc11,harbor0,tr13,14424,86544).
route(prodloc11,harbor1,tr0,25446,661596).
route(prodloc11,harbor1,tr13,25446,152676).
route(prodloc11,harbor2,tr0,6002,156052).
route(prodloc11,harbor2,tr13,6002,36012).
route(prodloc11,harbor3,tr0,19943,518518).
route(prodloc11,harbor3,tr13,19943,119658).
route(prodloc11,harbor4,tr0,130,3380).
route(prodloc11,harbor4,tr13,130,780).
route(prodloc11,harbor5,tr0,25431,661206).
route(prodloc11,harbor5,tr13,25431,152586).
route(prodloc11,prodloc0,tr0,26189,680914).
route(prodloc11,prodloc0,tr13,26189,157134).
route(prodloc11,prodloc1,tr0,4910,127660).
route(prodloc11,prodloc1,tr13,4910,29460).
route(prodloc11,prodloc2,tr0,5649,146874).
route(prodloc11,prodloc2,tr13,5649,33894).
route(prodloc11,prodloc3,tr0,4640,120640).
route(prodloc11,prodloc3,tr13,4640,27840).
route(prodloc11,prodloc4,tr0,15517,403442).
route(prodloc11,prodloc4,tr13,15517,93102).
route(prodloc11,prodloc5,tr0,20288,527488).
route(prodloc11,prodloc5,tr13,20288,121728).
route(prodloc11,prodloc6,tr0,23765,617890).
route(prodloc11,prodloc6,tr13,23765,142590).
route(prodloc11,prodloc7,tr0,3945,102570).
route(prodloc11,prodloc7,tr13,3945,23670).
route(prodloc11,prodloc8,tr0,18236,474136).
route(prodloc11,prodloc8,tr13,18236,109416).
route(prodloc11,prodloc9,tr0,2025,52650).
route(prodloc11,prodloc9,tr13,2025,12150).
route(prodloc11,prodloc10,tr0,10683,277758).
route(prodloc11,prodloc10,tr13,10683,64098).
route(prodloc11,prodloc12,tr0,22360,581360).
route(prodloc11,prodloc12,tr13,22360,134160).
route(prodloc11,prodloc13,tr0,16987,441662).
route(prodloc11,prodloc13,tr13,16987,101922).
route(prodloc11,prodloc14,tr0,17392,452192).
route(prodloc11,prodloc14,tr13,17392,104352).
route(prodloc12,harbor0,tr0,18202,473252).
route(prodloc12,harbor0,tr13,18202,109212).
route(prodloc12,harbor1,tr0,15812,411112).
route(prodloc12,harbor1,tr13,15812,94872).
route(prodloc12,harbor2,tr0,25701,668226).
route(prodloc12,harbor2,tr13,25701,154206).
route(prodloc12,harbor3,tr0,25446,661596).
route(prodloc12,harbor3,tr13,25446,152676).
route(prodloc12,harbor4,tr0,3478,90428).
route(prodloc12,harbor4,tr13,3478,20868).
route(prodloc12,harbor5,tr0,28943,752518).
route(prodloc12,harbor5,tr13,28943,173658).
route(prodloc12,prodloc0,tr0,18361,477386).
route(prodloc12,prodloc0,tr13,18361,110166).
route(prodloc12,prodloc1,tr0,1863,48438).
route(prodloc12,prodloc1,tr13,1863,11178).
route(prodloc12,prodloc2,tr0,8144,211744).
route(prodloc12,prodloc2,tr13,8144,48864).
route(prodloc12,prodloc3,tr0,6270,163020).
route(prodloc12,prodloc3,tr13,6270,37620).
route(prodloc12,prodloc4,tr0,9076,235976).
route(prodloc12,prodloc4,tr13,9076,54456).
route(prodloc12,prodloc5,tr13,1384,8304).
route(prodloc12,prodloc5,tr15,1384,44288).
route(prodloc12,prodloc6,tr13,25307,151842).
route(prodloc12,prodloc6,tr15,25307,809824).
route(prodloc12,prodloc7,tr0,3204,83304).
route(prodloc12,prodloc7,tr13,3204,19224).
route(prodloc12,prodloc8,tr0,16638,432588).
route(prodloc12,prodloc8,tr13,16638,99828).
route(prodloc12,prodloc9,tr0,14818,385268).
route(prodloc12,prodloc9,tr13,14818,88908).
route(prodloc12,prodloc10,tr0,18408,478608).
route(prodloc12,prodloc10,tr13,18408,110448).
route(prodloc12,prodloc11,tr0,915,23790).
route(prodloc12,prodloc11,tr13,915,5490).
route(prodloc12,prodloc13,tr0,24905,647530).
route(prodloc12,prodloc13,tr13,24905,149430).
route(prodloc12,prodloc14,tr0,2078,54028).
route(prodloc12,prodloc14,tr13,2078,12468).
route(prodloc13,harbor0,tr0,14526,377676).
route(prodloc13,harbor0,tr13,14526,87156).
route(prodloc13,harbor1,tr0,10671,277446).
route(prodloc13,harbor1,tr13,10671,64026).
route(prodloc13,harbor2,tr0,20073,521898).
route(prodloc13,harbor2,tr13,20073,120438).
route(prodloc13,harbor3,tr0,16567,430742).
route(prodloc13,harbor3,tr13,16567,99402).
route(prodloc13,harbor4,tr0,19863,516438).
route(prodloc13,harbor4,tr13,19863,119178).
route(prodloc13,harbor5,tr0,16784,436384).
route(prodloc13,harbor5,tr13,16784,100704).
route(prodloc13,prodloc0,tr0,6536,169936).
route(prodloc13,prodloc0,tr13,6536,39216).
route(prodloc13,prodloc1,tr13,22701,136206).
route(prodloc13,prodloc1,tr15,22701,726432).
route(prodloc13,prodloc2,tr0,9084,236184).
route(prodloc13,prodloc2,tr13,9084,54504).
route(prodloc13,prodloc3,tr0,14824,385424).
route(prodloc13,prodloc3,tr13,14824,88944).
route(prodloc13,prodloc4,tr0,16653,432978).
route(prodloc13,prodloc4,tr13,16653,99918).
route(prodloc13,prodloc5,tr0,17476,454376).
route(prodloc13,prodloc5,tr13,17476,104856).
route(prodloc13,prodloc6,tr0,26457,687882).
route(prodloc13,prodloc6,tr13,26457,158742).
route(prodloc13,prodloc7,tr0,15666,407316).
route(prodloc13,prodloc7,tr13,15666,93996).
route(prodloc13,prodloc8,tr0,16640,432640).
route(prodloc13,prodloc8,tr13,16640,99840).
route(prodloc13,prodloc9,tr0,8117,211042).
route(prodloc13,prodloc9,tr13,8117,48702).
route(prodloc13,prodloc10,tr0,22913,595738).
route(prodloc13,prodloc10,tr13,22913,137478).
route(prodloc13,prodloc11,tr0,17146,445796).
route(prodloc13,prodloc11,tr13,17146,102876).
route(prodloc13,prodloc12,tr0,28724,746824).
route(prodloc13,prodloc12,tr13,28724,172344).
route(prodloc13,prodloc14,tr0,28706,746356).
route(prodloc13,prodloc14,tr13,28706,172236).
route(prodloc14,harbor0,tr0,8508,221208).
route(prodloc14,harbor0,tr13,8508,51048).
route(prodloc14,harbor1,tr0,18336,476736).
route(prodloc14,harbor1,tr13,18336,110016).
route(prodloc14,harbor2,tr0,6640,172640).
route(prodloc14,harbor2,tr13,6640,39840).
route(prodloc14,harbor3,tr0,27527,715702).
route(prodloc14,harbor3,tr13,27527,165162).
route(prodloc14,harbor4,tr0,14666,381316).
route(prodloc14,harbor4,tr13,14666,87996).
route(prodloc14,harbor5,tr0,4495,116870).
route(prodloc14,harbor5,tr13,4495,26970).
route(prodloc14,prodloc0,tr0,13654,355004).
route(prodloc14,prodloc0,tr13,13654,81924).
route(prodloc14,prodloc1,tr0,3987,103662).
route(prodloc14,prodloc1,tr13,3987,23922).
route(prodloc14,prodloc2,tr0,12858,334308).
route(prodloc14,prodloc2,tr13,12858,77148).
route(prodloc14,prodloc3,tr0,14489,376714).
route(prodloc14,prodloc3,tr13,14489,86934).
route(prodloc14,prodloc4,tr0,10356,269256).
route(prodloc14,prodloc4,tr13,10356,62136).
route(prodloc14,prodloc5,tr0,2379,61854).
route(prodloc14,prodloc5,tr13,2379,14274).
route(prodloc14,prodloc6,tr0,21994,571844).
route(prodloc14,prodloc6,tr13,21994,131964).
route(prodloc14,prodloc7,tr0,7887,205062).
route(prodloc14,prodloc7,tr13,7887,47322).
route(prodloc14,prodloc8,tr0,14037,364962).
route(prodloc14,prodloc8,tr13,14037,84222).
route(prodloc14,prodloc9,tr0,2398,62348).
route(prodloc14,prodloc9,tr13,2398,14388).
route(prodloc14,prodloc10,tr0,6971,181246).
route(prodloc14,prodloc10,tr13,6971,41826).
route(prodloc14,prodloc11,tr0,21939,570414).
route(prodloc14,prodloc11,tr13,21939,131634).
route(prodloc14,prodloc12,tr0,9923,257998).
route(prodloc14,prodloc12,tr13,9923,59538).
route(prodloc14,prodloc13,tr0,25690,667940).
route(prodloc14,prodloc13,tr13,25690,154140).
hub(harbor3).
hub(prodloc1).
hub(prodloc2).
hub(prodloc6).
