% Multibatching benchmark instance
% Source: instances.lp
% seed=8  harbors=6  prodlocs=15  hubs=4  disruptions=2

% ---- locations ----
location(harbor0).
location(harbor1).
location(harbor2).
location(harbor3).
location(harbor4).
location(harbor5).
location(prodloc0).
location(prodloc1).
location(prodloc2).
location(prodloc3).
location(prodloc4).
location(prodloc5).
location(prodloc6).
location(prodloc7).
location(prodloc8).
location(prodloc9).
location(prodloc10).
location(prodloc11).
location(prodloc12).
location(prodloc13).
location(prodloc14).

% ---- transport resources ----
transportCapacity(tr0,1800).
transportCO2(tr0,1680).
transportCost(tr0,26).
transportSpeed(tr0,12).
transportCapacity(tr1,65).
transportCO2(tr1,90).
transportCost(tr1,1).
transportSpeed(tr1,35).
transportCapacity(tr10,1).
transportCO2(tr10,700).
transportCost(tr10,4).
transportSpeed(tr10,40).
transportCapacity(tr11,65).
transportCO2(tr11,62).
transportCost(tr11,1).
transportSpeed(tr11,25).
transportCapacity(tr12,65).
transportCO2(tr12,709).
transportCost(tr12,3).
transportSpeed(tr12,55).
transportCapacity(tr13,68).
transportCO2(tr13,160).
transportCost(tr13,6).
transportSpeed(tr13,25).
transportCapacity(tr14,146).
transportCO2(tr14,780).
transportCost(tr14,4).
transportSpeed(tr14,50).
transportCapacity(tr15,2217).
transportCO2(tr15,49470).
transportCost(tr15,32).
transportSpeed(tr15,625).
transportCapacity(tr2,96).
transportCO2(tr2,709).
transportCost(tr2,3).
transportSpeed(tr2,55).
transportCapacity(tr3,1).
transportCO2(tr3,6250).
transportCost(tr3,108).
transportSpeed(tr3,25).
transportCapacity(tr4,148).
transportCO2(tr4,780).
transportCost(tr4,4).
transportSpeed(tr4,50).
transportCapacity(tr5,65).
transportCO2(tr5,780).
transportCost(tr5,3).
transportSpeed(tr5,50).
transportCapacity(tr6,1).
transportCO2(tr6,100).
transportCost(tr6,40).
transportSpeed(tr6,25).
transportCapacity(tr7,1).
transportCO2(tr7,18000).
transportCost(tr7,278).
transportSpeed(tr7,10).
transportCapacity(tr8,1).
transportCO2(tr8,14400).
transportCost(tr8,107).
transportSpeed(tr8,25).
transportCapacity(tr9,65).
transportCO2(tr9,708).
transportCost(tr9,2).
transportSpeed(tr9,60).

% ---- parts ----
part(part0).
partSize(part0,21).
valid_transport(part0,tr0).
valid_transport(part0,tr15).
valid_transport(part0,tr14).
valid_transport(part0,tr13).
valid_transport(part0,tr4).
part(part1).
partSize(part1,1).
valid_transport(part1,tr0).
valid_transport(part1,tr2).
valid_transport(part1,tr15).
valid_transport(part1,tr9).
valid_transport(part1,tr12).
valid_transport(part1,tr13).
valid_transport(part1,tr11).
part(part10).
partSize(part10,1).
valid_transport(part10,tr0).
valid_transport(part10,tr2).
valid_transport(part10,tr15).
valid_transport(part10,tr9).
valid_transport(part10,tr12).
valid_transport(part10,tr13).
valid_transport(part10,tr11).
part(part11).
partSize(part11,83).
valid_transport(part11,tr0).
valid_transport(part11,tr7).
valid_transport(part11,tr8).
valid_transport(part11,tr15).
valid_transport(part11,tr3).
valid_transport(part11,tr13).
part(part12).
partSize(part12,273).
valid_transport(part12,tr0).
valid_transport(part12,tr7).
valid_transport(part12,tr8).
valid_transport(part12,tr15).
valid_transport(part12,tr3).
valid_transport(part12,tr13).
part(part13).
partSize(part13,1).
valid_transport(part13,tr0).
valid_transport(part13,tr2).
valid_transport(part13,tr15).
valid_transport(part13,tr9).
valid_transport(part13,tr12).
valid_transport(part13,tr13).
valid_transport(part13,tr11).
part(part14).
partSize(part14,68).
valid_transport(part14,tr0).
valid_transport(part14,tr15).
valid_transport(part14,tr13).
part(part15).
partSize(part15,4).
valid_transport(part15,tr0).
valid_transport(part15,tr2).
valid_transport(part15,tr15).
valid_transport(part15,tr9).
valid_transport(part15,tr12).
valid_transport(part15,tr13).
valid_transport(part15,tr11).
part(part16).
partSize(part16,4).
valid_transport(part16,tr0).
valid_transport(part16,tr2).
valid_transport(part16,tr15).
valid_transport(part16,tr9).
valid_transport(part16,tr12).
valid_transport(part16,tr13).
valid_transport(part16,tr11).
part(part17).
partSize(part17,8).
valid_transport(part17,tr0).
valid_transport(part17,tr15).
valid_transport(part17,tr14).
valid_transport(part17,tr13).
valid_transport(part17,tr4).
part(part18).
partSize(part18,24).
valid_transport(part18,tr0).
valid_transport(part18,tr15).
valid_transport(part18,tr14).
valid_transport(part18,tr13).
valid_transport(part18,tr4).
part(part19).
partSize(part19,6).
valid_transport(part19,tr0).
valid_transport(part19,tr2).
valid_transport(part19,tr15).
valid_transport(part19,tr9).
valid_transport(part19,tr12).
valid_transport(part19,tr13).
valid_transport(part19,tr11).
part(part2).
partSize(part2,19).
valid_transport(part2,tr0).
valid_transport(part2,tr15).
valid_transport(part2,tr14).
valid_transport(part2,tr13).
valid_transport(part2,tr4).
part(part20).
partSize(part20,128).
valid_transport(part20,tr0).
valid_transport(part20,tr7).
valid_transport(part20,tr8).
valid_transport(part20,tr15).
valid_transport(part20,tr3).
valid_transport(part20,tr13).
part(part21).
partSize(part21,25).
valid_transport(part21,tr0).
valid_transport(part21,tr15).
valid_transport(part21,tr14).
valid_transport(part21,tr13).
valid_transport(part21,tr4).
part(part22).
partSize(part22,7).
valid_transport(part22,tr0).
valid_transport(part22,tr2).
valid_transport(part22,tr15).
valid_transport(part22,tr9).
valid_transport(part22,tr12).
valid_transport(part22,tr13).
valid_transport(part22,tr11).
part(part23).
partSize(part23,5).
valid_transport(part23,tr0).
valid_transport(part23,tr15).
valid_transport(part23,tr14).
valid_transport(part23,tr13).
valid_transport(part23,tr4).
part(part24).
partSize(part24,55).
valid_transport(part24,tr0).
valid_transport(part24,tr7).
valid_transport(part24,tr8).
valid_transport(part24,tr15).
valid_transport(part24,tr3).
valid_transport(part24,tr13).
part(part25).
partSize(part25,5).
valid_transport(part25,tr0).
valid_transport(part25,tr4).
valid_transport(part25,tr2).
valid_transport(part25,tr15).
valid_transport(part25,tr13).
part(part26).
partSize(part26,32).
valid_transport(part26,tr0).
valid_transport(part26,tr7).
valid_transport(part26,tr8).
valid_transport(part26,tr15).
valid_transport(part26,tr3).
valid_transport(part26,tr13).
part(part27).
partSize(part27,5).
valid_transport(part27,tr0).
valid_transport(part27,tr2).
valid_transport(part27,tr15).
valid_transport(part27,tr9).
valid_transport(part27,tr12).
valid_transport(part27,tr13).
valid_transport(part27,tr11).
part(part28).
partSize(part28,3).
valid_transport(part28,tr0).
valid_transport(part28,tr4).
valid_transport(part28,tr2).
valid_transport(part28,tr15).
valid_transport(part28,tr14).
valid_transport(part28,tr13).
part(part29).
partSize(part29,627).
part(part3).
partSize(part3,48).
valid_transport(part3,tr0).
valid_transport(part3,tr7).
valid_transport(part3,tr8).
valid_transport(part3,tr15).
valid_transport(part3,tr3).
valid_transport(part3,tr13).
part(part30).
partSize(part30,2).
valid_transport(part30,tr0).
valid_transport(part30,tr2).
valid_transport(part30,tr15).
valid_transport(part30,tr9).
valid_transport(part30,tr12).
valid_transport(part30,tr13).
valid_transport(part30,tr11).
part(part31).
partSize(part31,144).
valid_transport(part31,tr0).
valid_transport(part31,tr7).
valid_transport(part31,tr8).
valid_transport(part31,tr15).
valid_transport(part31,tr3).
valid_transport(part31,tr13).
part(part32).
partSize(part32,16).
valid_transport(part32,tr0).
valid_transport(part32,tr4).
valid_transport(part32,tr2).
valid_transport(part32,tr15).
valid_transport(part32,tr14).
valid_transport(part32,tr13).
part(part33).
partSize(part33,7).
valid_transport(part33,tr0).
valid_transport(part33,tr2).
valid_transport(part33,tr15).
valid_transport(part33,tr9).
valid_transport(part33,tr12).
valid_transport(part33,tr13).
valid_transport(part33,tr11).
part(part3345).
partSize(part3345,353).
valid_transport(part3345,tr0).
valid_transport(part3345,tr7).
valid_transport(part3345,tr8).
valid_transport(part3345,tr15).
valid_transport(part3345,tr3).
valid_transport(part3345,tr13).
part(part34).
partSize(part34,2).
valid_transport(part34,tr0).
valid_transport(part34,tr2).
valid_transport(part34,tr15).
valid_transport(part34,tr9).
valid_transport(part34,tr12).
valid_transport(part34,tr13).
valid_transport(part34,tr11).
part(part4).
partSize(part4,2).
valid_transport(part4,tr0).
valid_transport(part4,tr2).
valid_transport(part4,tr15).
valid_transport(part4,tr9).
valid_transport(part4,tr12).
valid_transport(part4,tr13).
valid_transport(part4,tr11).
part(part5).
partSize(part5,2).
valid_transport(part5,tr0).
valid_transport(part5,tr2).
valid_transport(part5,tr15).
valid_transport(part5,tr9).
valid_transport(part5,tr12).
valid_transport(part5,tr14).
valid_transport(part5,tr13).
valid_transport(part5,tr11).
part(part6).
partSize(part6,111).
valid_transport(part6,tr0).
valid_transport(part6,tr7).
valid_transport(part6,tr8).
valid_transport(part6,tr15).
valid_transport(part6,tr3).
valid_transport(part6,tr13).
part(part8).
partSize(part8,163).
valid_transport(part8,tr0).
valid_transport(part8,tr7).
valid_transport(part8,tr8).
valid_transport(part8,tr15).
valid_transport(part8,tr3).
valid_transport(part8,tr13).
part(part9).
partSize(part9,2).
valid_transport(part9,tr0).
valid_transport(part9,tr2).
valid_transport(part9,tr15).
valid_transport(part9,tr9).
valid_transport(part9,tr12).
valid_transport(part9,tr13).
valid_transport(part9,tr11).

% ---- demand ----
demandOffer(part0,prodloc3,40).
demandOffer(part0,prodloc5,40).
demandOffer(part0,prodloc6,-27).
demandOffer(part0,prodloc2,-53).
demandOffer(part1,prodloc3,20).
demandOffer(part1,prodloc11,20).
demandOffer(part1,prodloc0,-20).
demandOffer(part1,prodloc1,-20).
demandOffer(part10,prodloc2,20).
demandOffer(part10,prodloc3,20).
demandOffer(part10,prodloc12,-20).
demandOffer(part10,prodloc8,-20).
demandOffer(part12,prodloc3,10).
demandOffer(part12,prodloc6,20).
demandOffer(part12,prodloc10,-10).
demandOffer(part12,prodloc0,-10).
demandOffer(part12,prodloc7,-10).
demandOffer(part13,prodloc7,20).
demandOffer(part13,prodloc14,20).
demandOffer(part13,prodloc6,-20).
demandOffer(part13,prodloc13,-20).
demandOffer(part14,prodloc9,26).
demandOffer(part14,prodloc3,-26).
demandOffer(part15,prodloc14,53).
demandOffer(part15,prodloc13,27).
demandOffer(part15,prodloc6,-53).
demandOffer(part15,prodloc1,-27).
demandOffer(part16,prodloc7,53).
demandOffer(part16,prodloc3,27).
demandOffer(part16,prodloc12,-53).
demandOffer(part16,prodloc0,-27).
demandOffer(part17,prodloc11,20).
demandOffer(part17,prodloc4,-20).
demandOffer(part18,prodloc8,40).
demandOffer(part18,prodloc6,40).
demandOffer(part18,prodloc7,-27).
demandOffer(part18,prodloc13,-53).
demandOffer(part19,prodloc11,26).
demandOffer(part19,prodloc1,-26).
demandOffer(part2,prodloc10,40).
demandOffer(part2,prodloc4,40).
demandOffer(part2,prodloc1,-27).
demandOffer(part2,prodloc12,-53).
demandOffer(part20,prodloc6,53).
demandOffer(part20,prodloc9,27).
demandOffer(part20,prodloc14,-14).
demandOffer(part20,prodloc1,-46).
demandOffer(part20,prodloc10,-20).
demandOffer(part21,prodloc0,26).
demandOffer(part21,prodloc5,-26).
demandOffer(part22,prodloc3,53).
demandOffer(part22,prodloc11,27).
demandOffer(part22,prodloc1,-53).
demandOffer(part22,prodloc7,-27).
demandOffer(part23,prodloc14,20).
demandOffer(part23,prodloc10,20).
demandOffer(part23,prodloc8,-20).
demandOffer(part23,prodloc3,-20).
demandOffer(part25,prodloc9,20).
demandOffer(part25,prodloc12,-20).
demandOffer(part26,prodloc2,20).
demandOffer(part26,prodloc9,20).
demandOffer(part26,prodloc1,-14).
demandOffer(part26,prodloc8,-26).
demandOffer(part27,prodloc0,53).
demandOffer(part27,prodloc7,27).
demandOffer(part27,prodloc11,-53).
demandOffer(part27,prodloc3,-27).
demandOffer(part28,prodloc2,20).
demandOffer(part28,prodloc13,20).
demandOffer(part28,prodloc9,-20).
demandOffer(part28,prodloc7,-20).
demandOffer(part3,prodloc11,40).
demandOffer(part3,prodloc9,-14).
demandOffer(part3,prodloc7,-26).
demandOffer(part30,prodloc4,40).
demandOffer(part30,prodloc8,40).
demandOffer(part30,prodloc5,-27).
demandOffer(part30,prodloc6,-53).
demandOffer(part31,prodloc2,7).
demandOffer(part31,prodloc14,7).
demandOffer(part31,prodloc12,-14).
demandOffer(part32,prodloc9,53).
demandOffer(part32,prodloc1,27).
demandOffer(part32,prodloc8,-53).
demandOffer(part32,prodloc11,-27).
demandOffer(part33,prodloc5,53).
demandOffer(part33,prodloc11,27).
demandOffer(part33,prodloc14,-53).
demandOffer(part33,prodloc10,-27).
demandOffer(part34,prodloc13,20).
demandOffer(part34,prodloc7,-20).
demandOffer(part4,prodloc8,26).
demandOffer(part4,prodloc9,-26).
demandOffer(part5,prodloc3,20).
demandOffer(part5,prodloc4,-20).
demandOffer(part6,prodloc2,27).
demandOffer(part6,prodloc5,53).
demandOffer(part6,prodloc8,-24).
demandOffer(part6,prodloc4,-36).
demandOffer(part6,prodloc12,-10).
demandOffer(part6,prodloc1,-10).
demandOffer(part8,prodloc12,3).
demandOffer(part8,prodloc13,17).
demandOffer(part8,prodloc8,-10).
demandOffer(part8,prodloc11,-10).
demandOffer(part9,prodloc8,20).
demandOffer(part9,prodloc3,-20).

% ---- network (ASP-generated) ----
route(harbor0,harbor1,tr13,11308,67848).
route(harbor0,harbor1,tr2,11308,33924).
route(harbor0,harbor2,tr13,8021,48126).
route(harbor0,harbor2,tr2,8021,24063).
route(harbor0,harbor3,tr13,420,2520).
route(harbor0,harbor3,tr2,420,1260).
route(harbor0,harbor4,tr13,9719,58314).
route(harbor0,harbor4,tr2,9719,29157).
route(harbor0,harbor5,tr13,11277,67662).
route(harbor0,harbor5,tr2,11277,33831).
route(harbor0,prodloc0,tr0,7204,187304).
route(harbor0,prodloc0,tr13,7204,43224).
route(harbor0,prodloc1,tr0,8745,227370).
route(harbor0,prodloc1,tr13,8745,52470).
route(harbor0,prodloc2,tr0,1104,28704).
route(harbor0,prodloc2,tr13,1104,6624).
route(harbor0,prodloc3,tr0,13876,360776).
route(harbor0,prodloc3,tr13,13876,83256).
route(harbor0,prodloc4,tr0,8350,217100).
route(harbor0,prodloc4,tr13,8350,50100).
route(harbor0,prodloc5,tr0,12353,321178).
route(harbor0,prodloc5,tr13,12353,74118).
route(harbor0,prodloc6,tr0,9778,254228).
route(harbor0,prodloc6,tr13,9778,58668).
route(harbor0,prodloc7,tr0,27340,710840).
route(harbor0,prodloc7,tr13,27340,164040).
route(harbor0,prodloc8,tr0,23116,601016).
route(harbor0,prodloc8,tr13,23116,138696).
route(harbor0,prodloc9,tr0,13663,355238).
route(harbor0,prodloc9,tr13,13663,81978).
route(harbor0,prodloc10,tr0,5744,149344).
route(harbor0,prodloc10,tr13,5744,34464).
route(harbor0,prodloc11,tr0,21545,560170).
route(harbor0,prodloc11,tr13,21545,129270).
route(harbor0,prodloc12,tr0,12986,337636).
route(harbor0,prodloc12,tr13,12986,77916).
route(harbor0,prodloc13,tr0,3811,99086).
route(harbor0,prodloc13,tr13,3811,22866).
route(harbor0,prodloc14,tr0,5447,141622).
route(harbor0,prodloc14,tr13,5447,32682).
route(harbor1,harbor0,tr13,21760,130560).
route(harbor1,harbor0,tr2,21760,65280).
route(harbor1,harbor2,tr13,27951,167706).
route(harbor1,harbor2,tr2,27951,83853).
route(harbor1,harbor3,tr13,869,5214).
route(harbor1,harbor3,tr2,869,2607).
route(harbor1,harbor4,tr13,6642,39852).
route(harbor1,harbor4,tr2,6642,19926).
route(harbor1,harbor5,tr13,25145,150870).
route(harbor1,harbor5,tr2,25145,75435).
route(harbor1,prodloc0,tr0,5267,136942).
route(harbor1,prodloc0,tr13,5267,31602).
route(harbor1,prodloc1,tr0,9833,255658).
route(harbor1,prodloc1,tr13,9833,58998).
route(harbor1,prodloc2,tr0,3818,99268).
route(harbor1,prodloc2,tr13,3818,22908).
route(harbor1,prodloc3,tr0,435,11310).
route(harbor1,prodloc3,tr13,435,2610).
route(harbor1,prodloc4,tr0,26099,678574).
route(harbor1,prodloc4,tr13,26099,156594).
route(harbor1,prodloc5,tr0,25046,651196).
route(harbor1,prodloc5,tr13,25046,150276).
route(harbor1,prodloc6,tr0,12468,324168).
route(harbor1,prodloc6,tr13,12468,74808).
route(harbor1,prodloc7,tr0,11202,291252).
route(harbor1,prodloc7,tr13,11202,67212).
route(harbor1,prodloc8,tr0,27409,712634).
route(harbor1,prodloc8,tr13,27409,164454).
route(harbor1,prodloc9,tr0,5577,145002).
route(harbor1,prodloc9,tr13,5577,33462).
route(harbor1,prodloc10,tr0,18651,484926).
route(harbor1,prodloc10,tr13,18651,111906).
route(harbor1,prodloc11,tr0,14275,371150).
route(harbor1,prodloc11,tr13,14275,85650).
route(harbor1,prodloc12,tr0,7594,197444).
route(harbor1,prodloc12,tr13,7594,45564).
route(harbor1,prodloc13,tr0,4558,118508).
route(harbor1,prodloc13,tr13,4558,27348).
route(harbor1,prodloc14,tr0,13440,349440).
route(harbor1,prodloc14,tr13,13440,80640).
route(harbor2,harbor0,tr13,18511,111066).
route(harbor2,harbor0,tr2,18511,55533).
route(harbor2,harbor1,tr13,14646,87876).
route(harbor2,harbor1,tr2,14646,43938).
route(harbor2,harbor3,tr13,13371,80226).
route(harbor2,harbor3,tr2,13371,40113).
route(harbor2,harbor4,tr13,13725,82350).
route(harbor2,harbor4,tr2,13725,41175).
route(harbor2,harbor5,tr13,2656,15936).
route(harbor2,harbor5,tr2,2656,7968).
route(harbor2,prodloc0,tr0,19286,501436).
route(harbor2,prodloc0,tr13,19286,115716).
route(harbor2,prodloc1,tr0,2294,59644).
route(harbor2,prodloc1,tr13,2294,13764).
route(harbor2,prodloc2,tr0,9463,246038).
route(harbor2,prodloc2,tr13,9463,56778).
route(harbor2,prodloc3,tr0,23491,610766).
route(harbor2,prodloc3,tr13,23491,140946).
route(harbor2,prodloc4,tr0,3118,81068).
route(harbor2,prodloc4,tr13,3118,18708).
route(harbor2,prodloc5,tr0,1117,29042).
route(harbor2,prodloc5,tr13,1117,6702).
route(harbor2,prodloc6,tr0,2795,72670).
route(harbor2,prodloc6,tr13,2795,16770).
route(harbor2,prodloc7,tr0,21734,565084).
route(harbor2,prodloc7,tr13,21734,130404).
route(harbor2,prodloc8,tr0,3492,90792).
route(harbor2,prodloc8,tr13,3492,20952).
route(harbor2,prodloc9,tr0,25045,651170).
route(harbor2,prodloc9,tr13,25045,150270).
route(harbor2,prodloc10,tr0,17072,443872).
route(harbor2,prodloc10,tr13,17072,102432).
route(harbor2,prodloc11,tr0,17280,449280).
route(harbor2,prodloc11,tr13,17280,103680).
route(harbor2,prodloc12,tr0,11803,306878).
route(harbor2,prodloc12,tr13,11803,70818).
route(harbor2,prodloc13,tr0,5037,130962).
route(harbor2,prodloc13,tr13,5037,30222).
route(harbor2,prodloc14,tr0,26468,688168).
route(harbor2,prodloc14,tr13,26468,158808).
route(harbor3,harbor0,tr13,16575,99450).
route(harbor3,harbor0,tr2,16575,49725).
route(harbor3,harbor1,tr13,16028,96168).
route(harbor3,harbor1,tr2,16028,48084).
route(harbor3,harbor2,tr13,23235,139410).
route(harbor3,harbor2,tr2,23235,69705).
route(harbor3,harbor4,tr13,4897,29382).
route(harbor3,harbor4,tr2,4897,14691).
route(harbor3,harbor5,tr13,19836,119016).
route(harbor3,harbor5,tr2,19836,59508).
route(harbor3,prodloc0,tr0,2065,53690).
route(harbor3,prodloc0,tr13,2065,12390).
route(harbor3,prodloc1,tr0,6217,161642).
route(harbor3,prodloc1,tr13,6217,37302).
route(harbor3,prodloc2,tr0,557,14482).
route(harbor3,prodloc2,tr13,557,3342).
route(harbor3,prodloc3,tr0,4602,119652).
route(harbor3,prodloc3,tr13,4602,27612).
route(harbor3,prodloc4,tr0,11169,290394).
route(harbor3,prodloc4,tr13,11169,67014).
route(harbor3,prodloc5,tr0,12661,329186).
route(harbor3,prodloc5,tr13,12661,75966).
route(harbor3,prodloc6,tr0,21570,560820).
route(harbor3,prodloc6,tr13,21570,129420).
route(harbor3,prodloc7,tr0,18800,488800).
route(harbor3,prodloc7,tr13,18800,112800).
route(harbor3,prodloc8,tr0,3958,102908).
route(harbor3,prodloc8,tr13,3958,23748).
route(harbor3,prodloc9,tr0,24373,633698).
route(harbor3,prodloc9,tr13,24373,146238).
route(harbor3,prodloc10,tr0,9813,255138).
route(harbor3,prodloc10,tr13,9813,58878).
route(harbor3,prodloc11,tr0,11518,299468).
route(harbor3,prodloc11,tr13,11518,69108).
route(harbor3,prodloc12,tr0,10665,277290).
route(harbor3,prodloc12,tr13,10665,63990).
route(harbor3,prodloc13,tr0,11996,311896).
route(harbor3,prodloc13,tr13,11996,71976).
route(harbor3,prodloc14,tr0,98,2548).
route(harbor3,prodloc14,tr13,98,588).
route(harbor4,harbor0,tr13,21193,127158).
route(harbor4,harbor0,tr2,21193,63579).
route(harbor4,harbor1,tr13,27413,164478).
route(harbor4,harbor1,tr2,27413,82239).
route(harbor4,harbor2,tr13,16381,98286).
route(harbor4,harbor2,tr2,16381,49143).
route(harbor4,harbor3,tr13,6913,41478).
route(harbor4,harbor3,tr2,6913,20739).
route(harbor4,harbor5,tr13,2017,12102).
route(harbor4,harbor5,tr2,2017,6051).
route(harbor4,prodloc0,tr0,28679,745654).
route(harbor4,prodloc0,tr13,28679,172074).
route(harbor4,prodloc1,tr0,20228,525928).
route(harbor4,prodloc1,tr13,20228,121368).
route(harbor4,prodloc2,tr0,1087,28262).
route(harbor4,prodloc2,tr13,1087,6522).
route(harbor4,prodloc3,tr0,28933,752258).
route(harbor4,prodloc3,tr13,28933,173598).
route(harbor4,prodloc4,tr0,28474,740324).
route(harbor4,prodloc4,tr13,28474,170844).
route(harbor4,prodloc5,tr0,24885,647010).
route(harbor4,prodloc5,tr13,24885,149310).
route(harbor4,prodloc6,tr0,26495,688870).
route(harbor4,prodloc6,tr13,26495,158970).
route(harbor4,prodloc7,tr0,26755,695630).
route(harbor4,prodloc7,tr13,26755,160530).
route(harbor4,prodloc8,tr0,19007,494182).
route(harbor4,prodloc8,tr13,19007,114042).
route(harbor4,prodloc9,tr0,5637,146562).
route(harbor4,prodloc9,tr13,5637,33822).
route(harbor4,prodloc10,tr0,5828,151528).
route(harbor4,prodloc10,tr13,5828,34968).
route(harbor4,prodloc11,tr0,11061,287586).
route(harbor4,prodloc11,tr13,11061,66366).
route(harbor4,prodloc12,tr0,14126,367276).
route(harbor4,prodloc12,tr13,14126,84756).
route(harbor4,prodloc13,tr0,14469,376194).
route(harbor4,prodloc13,tr13,14469,86814).
route(harbor4,prodloc14,tr0,3965,103090).
route(harbor4,prodloc14,tr13,3965,23790).
route(harbor5,harbor0,tr13,2761,16566).
route(harbor5,harbor0,tr2,2761,8283).
route(harbor5,harbor1,tr13,6598,39588).
route(harbor5,harbor1,tr2,6598,19794).
route(harbor5,harbor2,tr13,19867,119202).
route(harbor5,harbor2,tr2,19867,59601).
route(harbor5,harbor3,tr13,7369,44214).
route(harbor5,harbor3,tr2,7369,22107).
route(harbor5,harbor4,tr13,16322,97932).
route(harbor5,harbor4,tr2,16322,48966).
route(harbor5,prodloc0,tr0,26589,691314).
route(harbor5,prodloc0,tr13,26589,159534).
route(harbor5,prodloc1,tr0,15507,403182).
route(harbor5,prodloc1,tr13,15507,93042).
route(harbor5,prodloc2,tr0,25895,673270).
route(harbor5,prodloc2,tr13,25895,155370).
route(harbor5,prodloc3,tr0,5065,131690).
route(harbor5,prodloc3,tr13,5065,30390).
route(harbor5,prodloc4,tr0,12489,324714).
route(harbor5,prodloc4,tr13,12489,74934).
route(harbor5,prodloc5,tr0,4000,104000).
route(harbor5,prodloc5,tr13,4000,24000).
route(harbor5,prodloc6,tr0,3556,92456).
route(harbor5,prodloc6,tr13,3556,21336).
route(harbor5,prodloc7,tr0,19031,494806).
route(harbor5,prodloc7,tr13,19031,114186).
route(harbor5,prodloc8,tr0,23626,614276).
route(harbor5,prodloc8,tr13,23626,141756).
route(harbor5,prodloc9,tr0,14835,385710).
route(harbor5,prodloc9,tr13,14835,89010).
route(harbor5,prodloc10,tr0,21232,552032).
route(harbor5,prodloc10,tr13,21232,127392).
route(harbor5,prodloc11,tr0,4145,107770).
route(harbor5,prodloc11,tr13,4145,24870).
route(harbor5,prodloc12,tr0,23573,612898).
route(harbor5,prodloc12,tr13,23573,141438).
route(harbor5,prodloc13,tr0,14402,374452).
route(harbor5,prodloc13,tr13,14402,86412).
route(harbor5,prodloc14,tr0,16860,438360).
route(harbor5,prodloc14,tr13,16860,101160).
route(prodloc0,harbor0,tr0,23775,618150).
route(prodloc0,harbor0,tr13,23775,142650).
route(prodloc0,harbor1,tr0,2965,77090).
route(prodloc0,harbor1,tr13,2965,17790).
route(prodloc0,harbor2,tr0,23447,609622).
route(prodloc0,harbor2,tr13,23447,140682).
route(prodloc0,harbor3,tr0,15445,401570).
route(prodloc0,harbor3,tr13,15445,92670).
route(prodloc0,harbor4,tr0,18478,480428).
route(prodloc0,harbor4,tr13,18478,110868).
route(prodloc0,harbor5,tr0,12904,335504).
route(prodloc0,harbor5,tr13,12904,77424).
route(prodloc0,prodloc1,tr0,26755,695630).
route(prodloc0,prodloc1,tr13,26755,160530).
route(prodloc0,prodloc2,tr0,11824,307424).
route(prodloc0,prodloc2,tr13,11824,70944).
route(prodloc0,prodloc3,tr0,14922,387972).
route(prodloc0,prodloc3,tr13,14922,89532).
route(prodloc0,prodloc4,tr0,7391,192166).
route(prodloc0,prodloc4,tr13,7391,44346).
route(prodloc0,prodloc5,tr0,1670,43420).
route(prodloc0,prodloc5,tr13,1670,10020).
route(prodloc0,prodloc6,tr0,6473,168298).
route(prodloc0,prodloc6,tr13,6473,38838).
route(prodloc0,prodloc7,tr0,1605,41730).
route(prodloc0,prodloc7,tr13,1605,9630).
route(prodloc0,prodloc8,tr0,14623,380198).
route(prodloc0,prodloc8,tr13,14623,87738).
route(prodloc0,prodloc9,tr0,3652,94952).
route(prodloc0,prodloc9,tr13,3652,21912).
route(prodloc0,prodloc10,tr0,3546,92196).
route(prodloc0,prodloc10,tr13,3546,21276).
route(prodloc0,prodloc11,tr0,6923,179998).
route(prodloc0,prodloc11,tr13,6923,41538).
route(prodloc0,prodloc12,tr0,23763,617838).
route(prodloc0,prodloc12,tr13,23763,142578).
route(prodloc0,prodloc13,tr0,152,3952).
route(prodloc0,prodloc13,tr13,152,912).
route(prodloc0,prodloc14,tr0,23212,603512).
route(prodloc0,prodloc14,tr13,23212,139272).
route(prodloc1,harbor0,tr0,19683,511758).
route(prodloc1,harbor0,tr13,19683,118098).
route(prodloc1,harbor1,tr0,20040,521040).
route(prodloc1,harbor1,tr13,20040,120240).
route(prodloc1,harbor2,tr0,743,19318).
route(prodloc1,harbor2,tr13,743,4458).
route(prodloc1,harbor3,tr0,21471,558246).
route(prodloc1,harbor3,tr13,21471,128826).
route(prodloc1,harbor4,tr0,11932,310232).
route(prodloc1,harbor4,tr13,11932,71592).
route(prodloc1,harbor5,tr0,27175,706550).
route(prodloc1,harbor5,tr13,27175,163050).
route(prodloc1,prodloc0,tr0,14171,368446).
route(prodloc1,prodloc0,tr13,14171,85026).
route(prodloc1,prodloc2,tr0,17299,449774).
route(prodloc1,prodloc2,tr13,17299,103794).
route(prodloc1,prodloc3,tr0,3060,79560).
route(prodloc1,prodloc3,tr13,3060,18360).
route(prodloc1,prodloc4,tr0,24544,638144).
route(prodloc1,prodloc4,tr13,24544,147264).
route(prodloc1,prodloc5,tr0,24762,643812).
route(prodloc1,prodloc5,tr13,24762,148572).
route(prodloc1,prodloc6,tr0,19669,511394).
route(prodloc1,prodloc6,tr13,19669,118014).
route(prodloc1,prodloc7,tr0,16470,428220).
route(prodloc1,prodloc7,tr13,16470,98820).
route(prodloc1,prodloc8,tr13,26847,161082).
route(prodloc1,prodloc8,tr15,26847,859104).
route(prodloc1,prodloc9,tr0,23109,600834).
route(prodloc1,prodloc9,tr13,23109,138654).
route(prodloc1,prodloc10,tr0,18646,484796).
route(prodloc1,prodloc10,tr13,18646,111876).
route(prodloc1,prodloc11,tr0,6577,171002).
route(prodloc1,prodloc11,tr13,6577,39462).
route(prodloc1,prodloc12,tr0,16436,427336).
route(prodloc1,prodloc12,tr13,16436,98616).
route(prodloc1,prodloc13,tr0,7520,195520).
route(prodloc1,prodloc13,tr13,7520,45120).
route(prodloc1,prodloc14,tr0,10622,276172).
route(prodloc1,prodloc14,tr13,10622,63732).
route(prodloc2,harbor0,tr0,17229,447954).
route(prodloc2,harbor0,tr13,17229,103374).
route(prodloc2,harbor1,tr0,12588,327288).
route(prodloc2,harbor1,tr13,12588,75528).
route(prodloc2,harbor2,tr0,24379,633854).
route(prodloc2,harbor2,tr13,24379,146274).
route(prodloc2,harbor3,tr0,17034,442884).
route(prodloc2,harbor3,tr13,17034,102204).
route(prodloc2,harbor4,tr0,21211,551486).
route(prodloc2,harbor4,tr13,21211,127266).
route(prodloc2,harbor5,tr0,6430,167180).
route(prodloc2,harbor5,tr13,6430,38580).
route(prodloc2,prodloc0,tr0,221,5746).
route(prodloc2,prodloc0,tr13,221,1326).
route(prodloc2,prodloc1,tr0,9490,246740).
route(prodloc2,prodloc1,tr13,9490,56940).
route(prodloc2,prodloc3,tr0,20094,522444).
route(prodloc2,prodloc3,tr13,20094,120564).
route(prodloc2,prodloc4,tr0,9717,252642).
route(prodloc2,prodloc4,tr13,9717,58302).
route(prodloc2,prodloc5,tr0,2619,68094).
route(prodloc2,prodloc5,tr13,2619,15714).
route(prodloc2,prodloc6,tr0,24358,633308).
route(prodloc2,prodloc6,tr13,24358,146148).
route(prodloc2,prodloc7,tr0,10521,273546).
route(prodloc2,prodloc7,tr13,10521,63126).
route(prodloc2,prodloc8,tr0,13203,343278).
route(prodloc2,prodloc8,tr13,13203,79218).
route(prodloc2,prodloc9,tr0,7331,190606).
route(prodloc2,prodloc9,tr13,7331,43986).
route(prodloc2,prodloc10,tr0,20722,538772).
route(prodloc2,prodloc10,tr13,20722,124332).
route(prodloc2,prodloc11,tr0,9715,252590).
route(prodloc2,prodloc11,tr13,9715,58290).
route(prodloc2,prodloc13,tr0,17937,466362).
route(prodloc2,prodloc13,tr13,17937,107622).
route(prodloc2,prodloc14,tr0,13747,357422).
route(prodloc2,prodloc14,tr13,13747,82482).
route(prodloc3,harbor0,tr0,24388,634088).
route(prodloc3,harbor0,tr13,24388,146328).
route(prodloc3,harbor1,tr0,12101,314626).
route(prodloc3,harbor1,tr13,12101,72606).
route(prodloc3,harbor2,tr0,26438,687388).
route(prodloc3,harbor2,tr13,26438,158628).
route(prodloc3,harbor3,tr0,24275,631150).
route(prodloc3,harbor3,tr13,24275,145650).
route(prodloc3,harbor4,tr0,27870,724620).
route(prodloc3,harbor4,tr13,27870,167220).
route(prodloc3,harbor5,tr0,10514,273364).
route(prodloc3,harbor5,tr13,10514,63084).
route(prodloc3,prodloc1,tr0,9903,257478).
route(prodloc3,prodloc1,tr13,9903,59418).
route(prodloc3,prodloc2,tr0,20485,532610).
route(prodloc3,prodloc2,tr13,20485,122910).
route(prodloc3,prodloc4,tr0,27240,708240).
route(prodloc3,prodloc4,tr13,27240,163440).
route(prodloc3,prodloc5,tr0,11695,304070).
route(prodloc3,prodloc5,tr13,11695,70170).
route(prodloc3,prodloc6,tr0,25668,667368).
route(prodloc3,prodloc6,tr13,25668,154008).
route(prodloc3,prodloc7,tr0,9695,252070).
route(prodloc3,prodloc7,tr13,9695,58170).
route(prodloc3,prodloc8,tr13,21346,128076).
route(prodloc3,prodloc8,tr15,21346,683072).
route(prodloc3,prodloc9,tr0,27714,720564).
route(prodloc3,prodloc9,tr13,27714,166284).
route(prodloc3,prodloc10,tr0,3583,93158).
route(prodloc3,prodloc10,tr13,3583,21498).
route(prodloc3,prodloc11,tr0,6416,166816).
route(prodloc3,prodloc11,tr13,6416,38496).
route(prodloc3,prodloc12,tr13,15901,95406).
route(prodloc3,prodloc12,tr15,15901,508832).
route(prodloc3,prodloc13,tr0,12125,315250).
route(prodloc3,prodloc13,tr13,12125,72750).
route(prodloc3,prodloc14,tr0,12407,322582).
route(prodloc3,prodloc14,tr13,12407,74442).
route(prodloc4,harbor0,tr0,19170,498420).
route(prodloc4,harbor0,tr13,19170,115020).
route(prodloc4,harbor1,tr0,27758,721708).
route(prodloc4,harbor1,tr13,27758,166548).
route(prodloc4,harbor2,tr0,10225,265850).
route(prodloc4,harbor2,tr13,10225,61350).
route(prodloc4,harbor3,tr0,6727,174902).
route(prodloc4,harbor3,tr13,6727,40362).
route(prodloc4,harbor4,tr0,9520,247520).
route(prodloc4,harbor4,tr13,9520,57120).
route(prodloc4,harbor5,tr0,13011,338286).
route(prodloc4,harbor5,tr13,13011,78066).
route(prodloc4,prodloc0,tr0,20089,522314).
route(prodloc4,prodloc0,tr13,20089,120534).
route(prodloc4,prodloc1,tr0,12567,326742).
route(prodloc4,prodloc1,tr13,12567,75402).
route(prodloc4,prodloc2,tr0,27613,717938).
route(prodloc4,prodloc2,tr13,27613,165678).
route(prodloc4,prodloc3,tr0,22426,583076).
route(prodloc4,prodloc3,tr13,22426,134556).
route(prodloc4,prodloc5,tr0,17161,446186).
route(prodloc4,prodloc5,tr13,17161,102966).
route(prodloc4,prodloc6,tr13,22632,135792).
route(prodloc4,prodloc6,tr15,22632,724224).
route(prodloc4,prodloc7,tr0,23858,620308).
route(prodloc4,prodloc7,tr13,23858,143148).
route(prodloc4,prodloc8,tr0,11660,303160).
route(prodloc4,prodloc8,tr13,11660,69960).
route(prodloc4,prodloc9,tr0,26901,699426).
route(prodloc4,prodloc9,tr13,26901,161406).
route(prodloc4,prodloc10,tr0,22153,575978).
route(prodloc4,prodloc10,tr13,22153,132918).
route(prodloc4,prodloc11,tr0,19824,515424).
route(prodloc4,prodloc11,tr13,19824,118944).
route(prodloc4,prodloc12,tr13,19175,115050).
route(prodloc4,prodloc12,tr15,19175,613600).
route(prodloc4,prodloc13,tr0,11870,308620).
route(prodloc4,prodloc13,tr13,11870,71220).
route(prodloc4,prodloc14,tr0,22057,573482).
route(prodloc4,prodloc14,tr13,22057,132342).
route(prodloc5,harbor0,tr0,14010,364260).
route(prodloc5,harbor0,tr13,14010,84060).
route(prodloc5,harbor1,tr0,6420,166920).
route(prodloc5,harbor1,tr13,6420,38520).
route(prodloc5,harbor2,tr0,16056,417456).
route(prodloc5,harbor2,tr13,16056,96336).
route(prodloc5,harbor3,tr0,26959,700934).
route(prodloc5,harbor3,tr13,26959,161754).
route(prodloc5,harbor4,tr0,17334,450684).
route(prodloc5,harbor4,tr13,17334,104004).
route(prodloc5,harbor5,tr0,16625,432250).
route(prodloc5,harbor5,tr13,16625,99750).
route(prodloc5,prodloc0,tr0,27467,714142).
route(prodloc5,prodloc0,tr13,27467,164802).
route(prodloc5,prodloc1,tr0,2688,69888).
route(prodloc5,prodloc1,tr15,2688,86016).
route(prodloc5,prodloc2,tr0,8811,229086).
route(prodloc5,prodloc2,tr15,8811,281952).
route(prodloc5,prodloc3,tr0,5357,139282).
route(prodloc5,prodloc3,tr13,5357,32142).
route(prodloc5,prodloc4,tr13,2250,13500).
route(prodloc5,prodloc4,tr15,2250,72000).
route(prodloc5,prodloc6,tr13,16328,97968).
route(prodloc5,prodloc6,tr15,16328,522496).
route(prodloc5,prodloc7,tr0,24025,624650).
route(prodloc5,prodloc7,tr13,24025,144150).
route(prodloc5,prodloc8,tr0,28392,738192).
route(prodloc5,prodloc8,tr13,28392,170352).
route(prodloc5,prodloc9,tr0,8878,230828).
route(prodloc5,prodloc9,tr13,8878,53268).
route(prodloc5,prodloc10,tr0,13755,357630).
route(prodloc5,prodloc10,tr13,13755,82530).
route(prodloc5,prodloc11,tr0,25563,664638).
route(prodloc5,prodloc11,tr13,25563,153378).
route(prodloc5,prodloc12,tr13,3837,23022).
route(prodloc5,prodloc12,tr15,3837,122784).
route(prodloc5,prodloc13,tr0,20467,532142).
route(prodloc5,prodloc13,tr13,20467,122802).
route(prodloc5,prodloc14,tr0,27177,706602).
route(prodloc5,prodloc14,tr13,27177,163062).
route(prodloc6,harbor0,tr0,27034,702884).
route(prodloc6,harbor0,tr13,27034,162204).
route(prodloc6,harbor1,tr0,8978,233428).
route(prodloc6,harbor1,tr13,8978,53868).
route(prodloc6,harbor2,tr0,9558,248508).
route(prodloc6,harbor2,tr13,9558,57348).
route(prodloc6,harbor3,tr0,8983,233558).
route(prodloc6,harbor3,tr13,8983,53898).
route(prodloc6,harbor4,tr0,26354,685204).
route(prodloc6,harbor4,tr13,26354,158124).
route(prodloc6,harbor5,tr0,27046,703196).
route(prodloc6,harbor5,tr13,27046,162276).
route(prodloc6,prodloc0,tr0,16524,429624).
route(prodloc6,prodloc0,tr13,16524,99144).
route(prodloc6,prodloc1,tr0,8803,228878).
route(prodloc6,prodloc1,tr13,8803,52818).
route(prodloc6,prodloc2,tr0,9089,236314).
route(prodloc6,prodloc2,tr13,9089,54534).
route(prodloc6,prodloc3,tr0,20717,538642).
route(prodloc6,prodloc3,tr13,20717,124302).
route(prodloc6,prodloc4,tr0,13495,350870).
route(prodloc6,prodloc4,tr13,13495,80970).
route(prodloc6,prodloc5,tr0,8015,208390).
route(prodloc6,prodloc5,tr13,8015,48090).
route(prodloc6,prodloc7,tr0,11843,307918).
route(prodloc6,prodloc7,tr13,11843,71058).
route(prodloc6,prodloc8,tr0,8055,209430).
route(prodloc6,prodloc8,tr13,8055,48330).
route(prodloc6,prodloc9,tr0,8128,211328).
route(prodloc6,prodloc9,tr13,8128,48768).
route(prodloc6,prodloc10,tr0,25894,673244).
route(prodloc6,prodloc10,tr15,25894,828608).
route(prodloc6,prodloc11,tr0,16540,430040).
route(prodloc6,prodloc11,tr13,16540,99240).
route(prodloc6,prodloc12,tr0,24492,636792).
route(prodloc6,prodloc12,tr13,24492,146952).
route(prodloc6,prodloc13,tr0,15007,390182).
route(prodloc6,prodloc13,tr13,15007,90042).
route(prodloc6,prodloc14,tr0,8190,212940).
route(prodloc6,prodloc14,tr13,8190,49140).
route(prodloc7,harbor0,tr0,7677,199602).
route(prodloc7,harbor0,tr13,7677,46062).
route(prodloc7,harbor1,tr0,26651,692926).
route(prodloc7,harbor1,tr13,26651,159906).
route(prodloc7,harbor2,tr0,26574,690924).
route(prodloc7,harbor2,tr13,26574,159444).
route(prodloc7,harbor3,tr0,19551,508326).
route(prodloc7,harbor3,tr13,19551,117306).
route(prodloc7,harbor4,tr0,17213,447538).
route(prodloc7,harbor4,tr13,17213,103278).
route(prodloc7,harbor5,tr0,27190,706940).
route(prodloc7,harbor5,tr13,27190,163140).
route(prodloc7,prodloc0,tr0,6404,166504).
route(prodloc7,prodloc0,tr13,6404,38424).
route(prodloc7,prodloc1,tr0,12058,313508).
route(prodloc7,prodloc1,tr13,12058,72348).
route(prodloc7,prodloc2,tr0,16276,423176).
route(prodloc7,prodloc2,tr13,16276,97656).
route(prodloc7,prodloc3,tr0,25586,665236).
route(prodloc7,prodloc3,tr13,25586,153516).
route(prodloc7,prodloc4,tr0,3467,90142).
route(prodloc7,prodloc4,tr13,3467,20802).
route(prodloc7,prodloc5,tr0,26001,676026).
route(prodloc7,prodloc5,tr13,26001,156006).
route(prodloc7,prodloc6,tr0,3659,95134).
route(prodloc7,prodloc6,tr13,3659,21954).
route(prodloc7,prodloc8,tr0,12714,330564).
route(prodloc7,prodloc8,tr13,12714,76284).
route(prodloc7,prodloc9,tr0,2761,71786).
route(prodloc7,prodloc9,tr13,2761,16566).
route(prodloc7,prodloc10,tr0,21454,557804).
route(prodloc7,prodloc10,tr13,21454,128724).
route(prodloc7,prodloc11,tr0,5595,145470).
route(prodloc7,prodloc11,tr15,5595,179040).
route(prodloc7,prodloc12,tr0,25568,664768).
route(prodloc7,prodloc12,tr13,25568,153408).
route(prodloc7,prodloc13,tr0,18573,482898).
route(prodloc7,prodloc13,tr15,18573,594336).
route(prodloc7,prodloc14,tr0,14012,364312).
route(prodloc7,prodloc14,tr13,14012,84072).
route(prodloc8,harbor0,tr0,1481,38506).
route(prodloc8,harbor0,tr13,1481,8886).
route(prodloc8,harbor1,tr0,25765,669890).
route(prodloc8,harbor1,tr13,25765,154590).
route(prodloc8,harbor2,tr0,4484,116584).
route(prodloc8,harbor2,tr13,4484,26904).
route(prodloc8,harbor3,tr0,725,18850).
route(prodloc8,harbor3,tr13,725,4350).
route(prodloc8,harbor4,tr0,19999,519974).
route(prodloc8,harbor4,tr13,19999,119994).
route(prodloc8,harbor5,tr0,6268,162968).
route(prodloc8,harbor5,tr13,6268,37608).
route(prodloc8,prodloc0,tr0,22449,583674).
route(prodloc8,prodloc0,tr13,22449,134694).
route(prodloc8,prodloc1,tr0,8673,225498).
route(prodloc8,prodloc1,tr13,8673,52038).
route(prodloc8,prodloc2,tr0,2854,74204).
route(prodloc8,prodloc2,tr13,2854,17124).
route(prodloc8,prodloc3,tr0,3129,81354).
route(prodloc8,prodloc3,tr13,3129,18774).
route(prodloc8,prodloc4,tr0,15163,394238).
route(prodloc8,prodloc4,tr13,15163,90978).
route(prodloc8,prodloc5,tr13,15066,90396).
route(prodloc8,prodloc5,tr15,15066,482112).
route(prodloc8,prodloc6,tr0,28467,740142).
route(prodloc8,prodloc6,tr13,28467,170802).
route(prodloc8,prodloc7,tr0,21930,570180).
route(prodloc8,prodloc7,tr13,21930,131580).
route(prodloc8,prodloc9,tr0,9250,240500).
route(prodloc8,prodloc9,tr15,9250,296000).
route(prodloc8,prodloc10,tr0,18552,482352).
route(prodloc8,prodloc10,tr13,18552,111312).
route(prodloc8,prodloc11,tr0,3039,79014).
route(prodloc8,prodloc11,tr13,3039,18234).
route(prodloc8,prodloc12,tr0,4141,107666).
route(prodloc8,prodloc12,tr13,4141,24846).
route(prodloc8,prodloc13,tr0,19895,517270).
route(prodloc8,prodloc13,tr13,19895,119370).
route(prodloc8,prodloc14,tr0,11718,304668).
route(prodloc8,prodloc14,tr13,11718,70308).
route(prodloc9,harbor0,tr0,28346,736996).
route(prodloc9,harbor0,tr13,28346,170076).
route(prodloc9,harbor1,tr0,21389,556114).
route(prodloc9,harbor1,tr13,21389,128334).
route(prodloc9,harbor2,tr0,2163,56238).
route(prodloc9,harbor2,tr13,2163,12978).
route(prodloc9,harbor3,tr0,10485,272610).
route(prodloc9,harbor3,tr13,10485,62910).
route(prodloc9,harbor4,tr0,25908,673608).
route(prodloc9,harbor4,tr13,25908,155448).
route(prodloc9,harbor5,tr0,1270,33020).
route(prodloc9,harbor5,tr13,1270,7620).
route(prodloc9,prodloc0,tr0,27383,711958).
route(prodloc9,prodloc0,tr13,27383,164298).
route(prodloc9,prodloc1,tr13,2753,16518).
route(prodloc9,prodloc1,tr15,2753,88096).
route(prodloc9,prodloc2,tr0,28151,731926).
route(prodloc9,prodloc2,tr13,28151,168906).
route(prodloc9,prodloc3,tr0,4501,117026).
route(prodloc9,prodloc3,tr13,4501,27006).
route(prodloc9,prodloc4,tr0,21420,556920).
route(prodloc9,prodloc4,tr13,21420,128520).
route(prodloc9,prodloc5,tr0,26367,685542).
route(prodloc9,prodloc5,tr13,26367,158202).
route(prodloc9,prodloc6,tr0,12003,312078).
route(prodloc9,prodloc6,tr13,12003,72018).
route(prodloc9,prodloc7,tr0,27148,705848).
route(prodloc9,prodloc7,tr13,27148,162888).
route(prodloc9,prodloc8,tr13,2458,14748).
route(prodloc9,prodloc8,tr15,2458,78656).
route(prodloc9,prodloc10,tr0,26701,694226).
route(prodloc9,prodloc10,tr13,26701,160206).
route(prodloc9,prodloc11,tr0,7562,196612).
route(prodloc9,prodloc11,tr13,7562,45372).
route(prodloc9,prodloc12,tr13,23749,142494).
route(prodloc9,prodloc12,tr15,23749,759968).
route(prodloc9,prodloc13,tr0,1216,31616).
route(prodloc9,prodloc13,tr13,1216,7296).
route(prodloc9,prodloc14,tr13,19654,117924).
route(prodloc9,prodloc14,tr15,19654,628928).
route(prodloc10,harbor0,tr0,25897,673322).
route(prodloc10,harbor0,tr13,25897,155382).
route(prodloc10,harbor1,tr0,10464,272064).
route(prodloc10,harbor1,tr13,10464,62784).
route(prodloc10,harbor2,tr0,7287,189462).
route(prodloc10,harbor2,tr13,7287,43722).
route(prodloc10,harbor3,tr0,9720,252720).
route(prodloc10,harbor3,tr13,9720,58320).
route(prodloc10,harbor4,tr0,24383,633958).
route(prodloc10,harbor4,tr13,24383,146298).
route(prodloc10,harbor5,tr0,11716,304616).
route(prodloc10,harbor5,tr13,11716,70296).
route(prodloc10,prodloc0,tr0,10710,278460).
route(prodloc10,prodloc0,tr13,10710,64260).
route(prodloc10,prodloc1,tr0,2168,56368).
route(prodloc10,prodloc1,tr13,2168,13008).
route(prodloc10,prodloc2,tr0,17043,443118).
route(prodloc10,prodloc2,tr13,17043,102258).
route(prodloc10,prodloc3,tr13,3737,22422).
route(prodloc10,prodloc3,tr15,3737,119584).
route(prodloc10,prodloc4,tr0,23640,614640).
route(prodloc10,prodloc4,tr13,23640,141840).
route(prodloc10,prodloc5,tr0,19975,519350).
route(prodloc10,prodloc5,tr13,19975,119850).
route(prodloc10,prodloc6,tr0,11406,296556).
route(prodloc10,prodloc6,tr13,11406,68436).
route(prodloc10,prodloc7,tr0,14241,370266).
route(prodloc10,prodloc7,tr13,14241,85446).
route(prodloc10,prodloc8,tr0,5236,136136).
route(prodloc10,prodloc8,tr13,5236,31416).
route(prodloc10,prodloc9,tr0,5149,133874).
route(prodloc10,prodloc9,tr13,5149,30894).
route(prodloc10,prodloc11,tr0,8355,217230).
route(prodloc10,prodloc11,tr13,8355,50130).
route(prodloc10,prodloc12,tr0,12758,331708).
route(prodloc10,prodloc12,tr15,12758,408256).
route(prodloc10,prodloc13,tr0,4876,126776).
route(prodloc10,prodloc13,tr13,4876,29256).
route(prodloc10,prodloc14,tr0,14132,367432).
route(prodloc10,prodloc14,tr13,14132,84792).
route(prodloc11,harbor0,tr0,23850,620100).
route(prodloc11,harbor0,tr13,23850,143100).
route(prodloc11,harbor1,tr0,25633,666458).
route(prodloc11,harbor1,tr13,25633,153798).
route(prodloc11,harbor2,tr0,2136,55536).
route(prodloc11,harbor2,tr13,2136,12816).
route(prodloc11,harbor3,tr0,3271,85046).
route(prodloc11,harbor3,tr13,3271,19626).
route(prodloc11,harbor4,tr0,17515,455390).
route(prodloc11,harbor4,tr13,17515,105090).
route(prodloc11,harbor5,tr0,7296,189696).
route(prodloc11,harbor5,tr13,7296,43776).
route(prodloc11,prodloc0,tr0,2693,70018).
route(prodloc11,prodloc0,tr13,2693,16158).
route(prodloc11,prodloc1,tr0,9608,249808).
route(prodloc11,prodloc1,tr13,9608,57648).
route(prodloc11,prodloc2,tr0,5791,150566).
route(prodloc11,prodloc2,tr13,5791,34746).
route(prodloc11,prodloc3,tr0,11043,287118).
route(prodloc11,prodloc3,tr13,11043,66258).
route(prodloc11,prodloc4,tr13,24558,147348).
route(prodloc11,prodloc4,tr15,24558,785856).
route(prodloc11,prodloc5,tr0,6520,169520).
route(prodloc11,prodloc5,tr13,6520,39120).
route(prodloc11,prodloc6,tr0,3574,92924).
route(prodloc11,prodloc6,tr13,3574,21444).
route(prodloc11,prodloc7,tr0,1669,43394).
route(prodloc11,prodloc7,tr13,1669,10014).
route(prodloc11,prodloc8,tr0,1875,48750).
route(prodloc11,prodloc8,tr13,1875,11250).
route(prodloc11,prodloc9,tr0,18216,473616).
route(prodloc11,prodloc9,tr13,18216,109296).
route(prodloc11,prodloc10,tr13,25771,154626).
route(prodloc11,prodloc10,tr15,25771,824672).
route(prodloc11,prodloc12,tr0,24124,627224).
route(prodloc11,prodloc12,tr13,24124,144744).
route(prodloc11,prodloc13,tr0,5824,151424).
route(prodloc11,prodloc13,tr13,5824,34944).
route(prodloc11,prodloc14,tr0,27038,702988).
route(prodloc11,prodloc14,tr13,27038,162228).
route(prodloc12,harbor0,tr0,5596,145496).
route(prodloc12,harbor0,tr13,5596,33576).
route(prodloc12,harbor1,tr0,18334,476684).
route(prodloc12,harbor1,tr13,18334,110004).
route(prodloc12,harbor2,tr0,20960,544960).
route(prodloc12,harbor2,tr13,20960,125760).
route(prodloc12,harbor3,tr0,10709,278434).
route(prodloc12,harbor3,tr13,10709,64254).
route(prodloc12,harbor4,tr0,9681,251706).
route(prodloc12,harbor4,tr13,9681,58086).
route(prodloc12,harbor5,tr0,28900,751400).
route(prodloc12,harbor5,tr13,28900,173400).
route(prodloc12,prodloc0,tr0,7940,206440).
route(prodloc12,prodloc0,tr13,7940,47640).
route(prodloc12,prodloc1,tr0,24124,627224).
route(prodloc12,prodloc1,tr13,24124,144744).
route(prodloc12,prodloc2,tr0,16399,426374).
route(prodloc12,prodloc2,tr13,16399,98394).
route(prodloc12,prodloc3,tr0,15694,408044).
route(prodloc12,prodloc3,tr13,15694,94164).
route(prodloc12,prodloc4,tr0,3637,94562).
route(prodloc12,prodloc4,tr13,3637,21822).
route(prodloc12,prodloc5,tr0,18445,479570).
route(prodloc12,prodloc5,tr13,18445,110670).
route(prodloc12,prodloc6,tr0,23538,611988).
route(prodloc12,prodloc6,tr13,23538,141228).
route(prodloc12,prodloc7,tr0,2720,70720).
route(prodloc12,prodloc7,tr13,2720,16320).
route(prodloc12,prodloc8,tr0,4507,117182).
route(prodloc12,prodloc8,tr15,4507,144224).
route(prodloc12,prodloc9,tr0,24565,638690).
route(prodloc12,prodloc9,tr13,24565,147390).
route(prodloc12,prodloc10,tr0,4348,113048).
route(prodloc12,prodloc10,tr13,4348,26088).
route(prodloc12,prodloc11,tr13,7387,44322).
route(prodloc12,prodloc11,tr15,7387,236384).
route(prodloc12,prodloc13,tr0,10711,278486).
route(prodloc12,prodloc13,tr13,10711,64266).
route(prodloc12,prodloc14,tr0,7146,185796).
route(prodloc12,prodloc14,tr13,7146,42876).
route(prodloc13,harbor0,tr0,13365,347490).
route(prodloc13,harbor0,tr13,13365,80190).
route(prodloc13,harbor1,tr0,5700,148200).
route(prodloc13,harbor1,tr13,5700,34200).
route(prodloc13,harbor2,tr0,5538,143988).
route(prodloc13,harbor2,tr13,5538,33228).
route(prodloc13,harbor3,tr0,4426,115076).
route(prodloc13,harbor3,tr13,4426,26556).
route(prodloc13,harbor4,tr0,24972,649272).
route(prodloc13,harbor4,tr13,24972,149832).
route(prodloc13,harbor5,tr0,14433,375258).
route(prodloc13,harbor5,tr13,14433,86598).
route(prodloc13,prodloc0,tr0,1995,51870).
route(prodloc13,prodloc0,tr13,1995,11970).
route(prodloc13,prodloc1,tr13,22770,136620).
route(prodloc13,prodloc1,tr15,22770,728640).
route(prodloc13,prodloc2,tr0,14693,382018).
route(prodloc13,prodloc2,tr13,14693,88158).
route(prodloc13,prodloc3,tr0,19189,498914).
route(prodloc13,prodloc3,tr13,19189,115134).
route(prodloc13,prodloc4,tr0,21885,569010).
route(prodloc13,prodloc4,tr13,21885,131310).
route(prodloc13,prodloc5,tr0,20113,522938).
route(prodloc13,prodloc5,tr13,20113,120678).
route(prodloc13,prodloc6,tr0,9417,244842).
route(prodloc13,prodloc6,tr13,9417,56502).
route(prodloc13,prodloc7,tr0,13595,353470).
route(prodloc13,prodloc7,tr15,13595,435040).
route(prodloc13,prodloc8,tr13,26687,160122).
route(prodloc13,prodloc8,tr15,26687,853984).
route(prodloc13,prodloc9,tr0,14307,371982).
route(prodloc13,prodloc9,tr13,14307,85842).
route(prodloc13,prodloc10,tr0,18953,492778).
route(prodloc13,prodloc10,tr13,18953,113718).
route(prodloc13,prodloc11,tr13,22498,134988).
route(prodloc13,prodloc11,tr15,22498,719936).
route(prodloc13,prodloc12,tr0,24161,628186).
route(prodloc13,prodloc12,tr13,24161,144966).
route(prodloc13,prodloc14,tr0,12193,317018).
route(prodloc13,prodloc14,tr13,12193,73158).
route(prodloc14,harbor0,tr0,22681,589706).
route(prodloc14,harbor0,tr13,22681,136086).
route(prodloc14,harbor1,tr0,18482,480532).
route(prodloc14,harbor1,tr13,18482,110892).
route(prodloc14,harbor2,tr0,23268,604968).
route(prodloc14,harbor2,tr13,23268,139608).
route(prodloc14,harbor3,tr0,16046,417196).
route(prodloc14,harbor3,tr13,16046,96276).
route(prodloc14,harbor4,tr0,28462,740012).
route(prodloc14,harbor4,tr13,28462,170772).
route(prodloc14,harbor5,tr0,12013,312338).
route(prodloc14,harbor5,tr13,12013,72078).
route(prodloc14,prodloc0,tr0,24070,625820).
route(prodloc14,prodloc0,tr13,24070,144420).
route(prodloc14,prodloc1,tr0,27658,719108).
route(prodloc14,prodloc1,tr13,27658,165948).
route(prodloc14,prodloc2,tr0,25550,664300).
route(prodloc14,prodloc2,tr13,25550,153300).
route(prodloc14,prodloc3,tr0,17303,449878).
route(prodloc14,prodloc3,tr13,17303,103818).
route(prodloc14,prodloc4,tr0,6144,159744).
route(prodloc14,prodloc4,tr13,6144,36864).
route(prodloc14,prodloc5,tr0,10121,263146).
route(prodloc14,prodloc5,tr13,10121,60726).
route(prodloc14,prodloc6,tr0,8721,226746).
route(prodloc14,prodloc6,tr13,8721,52326).
route(prodloc14,prodloc7,tr0,22288,579488).
route(prodloc14,prodloc7,tr13,22288,133728).
route(prodloc14,prodloc8,tr13,15595,93570).
route(prodloc14,prodloc8,tr15,15595,499040).
route(prodloc14,prodloc9,tr0,27298,709748).
route(prodloc14,prodloc9,tr13,27298,163788).
route(prodloc14,prodloc10,tr0,4192,108992).
route(prodloc14,prodloc10,tr13,4192,25152).
route(prodloc14,prodloc11,tr0,27493,714818).
route(prodloc14,prodloc11,tr13,27493,164958).
route(prodloc14,prodloc12,tr0,27456,713856).
route(prodloc14,prodloc12,tr13,27456,164736).
route(prodloc14,prodloc13,tr0,9074,235924).
route(prodloc14,prodloc13,tr13,9074,54444).
hub(prodloc1).
hub(prodloc3).
hub(prodloc6).
hub(prodloc11).
