% Multibatching benchmark instance
% Source: instances.lp
% seed=16  harbors=6  prodlocs=15  hubs=4  disruptions=2

% ---- locations ----
location(harbor0).
location(harbor1).
location(harbor2).
location(harbor3).
location(harbor4).
location(harbor5).
location(prodloc0).
location(prodloc1).
location(prodloc2).
location(prodloc3).
location(prodloc4).
location(prodloc5).
location(prodloc6).
location(prodloc7).
location(prodloc8).
location(prodloc9).
location(prodloc10).
location(prodloc11).
location(prodloc12).
location(prodloc13).
location(prodloc14).

% ---- transport resources ----
transportCapacity(tr0,1800).
transportCO2(tr0,1680).
transportCost(tr0,26).
transportSpeed(tr0,12).
transportCapacity(tr1,65).
transportCO2(tr1,90).
transportCost(tr1,1).
transportSpeed(tr1,35).
transportCapacity(tr10,1).
transportCO2(tr10,700).
transportCost(tr10,4).
transportSpeed(tr10,40).
transportCapacity(tr11,65).
transportCO2(tr11,62).
transportCost(tr11,1).
transportSpeed(tr11,25).
transportCapacity(tr12,65).
transportCO2(tr12,709).
transportCost(tr12,3).
transportSpeed(tr12,55).
transportCapacity(tr13,68).
transportCO2(tr13,160).
transportCost(tr13,6).
transportSpeed(tr13,25).
transportCapacity(tr14,146).
transportCO2(tr14,780).
transportCost(tr14,4).
transportSpeed(tr14,50).
transportCapacity(tr15,2217).
transportCO2(tr15,49470).
transportCost(tr15,32).
transportSpeed(tr15,625).
transportCapacity(tr2,96).
transportCO2(tr2,709).
transportCost(tr2,3).
transportSpeed(tr2,55).
transportCapacity(tr3,1).
transportCO2(tr3,6250).
transportCost(tr3,108).
transportSpeed(tr3,25).
transportCapacity(tr4,148).
transportCO2(tr4,780).
transportCost(tr4,4).
transportSpeed(tr4,50).
transportCapacity(tr5,65).
transportCO2(tr5,780).
transportCost(tr5,3).
transportSpeed(tr5,50).
transportCapacity(tr6,1).
transportCO2(tr6,100).
transportCost(tr6,40).
transportSpeed(tr6,25).
transportCapacity(tr7,1).
transportCO2(tr7,18000).
transportCost(tr7,278).
transportSpeed(tr7,10).
transportCapacity(tr8,1).
transportCO2(tr8,14400).
transportCost(tr8,107).
transportSpeed(tr8,25).
transportCapacity(tr9,65).
transportCO2(tr9,708).
transportCost(tr9,2).
transportSpeed(tr9,60).

% ---- parts ----
part(part0).
partSize(part0,21).
valid_transport(part0,tr0).
valid_transport(part0,tr15).
valid_transport(part0,tr14).
valid_transport(part0,tr13).
valid_transport(part0,tr4).
part(part1).
partSize(part1,1).
valid_transport(part1,tr0).
valid_transport(part1,tr2).
valid_transport(part1,tr15).
valid_transport(part1,tr9).
valid_transport(part1,tr12).
valid_transport(part1,tr13).
valid_transport(part1,tr11).
part(part10).
partSize(part10,1).
valid_transport(part10,tr0).
valid_transport(part10,tr2).
valid_transport(part10,tr15).
valid_transport(part10,tr9).
valid_transport(part10,tr12).
valid_transport(part10,tr13).
valid_transport(part10,tr11).
part(part11).
partSize(part11,83).
valid_transport(part11,tr0).
valid_transport(part11,tr7).
valid_transport(part11,tr8).
valid_transport(part11,tr15).
valid_transport(part11,tr3).
valid_transport(part11,tr13).
part(part12).
partSize(part12,273).
valid_transport(part12,tr0).
valid_transport(part12,tr7).
valid_transport(part12,tr8).
valid_transport(part12,tr15).
valid_transport(part12,tr3).
valid_transport(part12,tr13).
part(part13).
partSize(part13,1).
valid_transport(part13,tr0).
valid_transport(part13,tr2).
valid_transport(part13,tr15).
valid_transport(part13,tr9).
valid_transport(part13,tr12).
valid_transport(part13,tr13).
valid_transport(part13,tr11).
part(part14).
partSize(part14,68).
valid_transport(part14,tr0).
valid_transport(part14,tr15).
valid_transport(part14,tr13).
part(part15).
partSize(part15,4).
valid_transport(part15,tr0).
valid_transport(part15,tr2).
valid_transport(part15,tr15).
valid_transport(part15,tr9).
valid_transport(part15,tr12).
valid_transport(part15,tr13).
valid_transport(part15,tr11).
part(part16).
partSize(part16,4).
valid_transport(part16,tr0).
valid_transport(part16,tr2).
valid_transport(part16,tr15).
valid_transport(part16,tr9).
valid_transport(part16,tr12).
valid_transport(part16,tr13).
valid_transport(part16,tr11).
part(part17).
partSize(part17,8).
valid_transport(part17,tr0).
valid_transport(part17,tr15).
valid_transport(part17,tr14).
valid_transport(part17,tr13).
valid_transport(part17,tr4).
part(part18).
partSize(part18,24).
valid_transport(part18,tr0).
valid_transport(part18,tr15).
valid_transport(part18,tr14).
valid_transport(part18,tr13).
valid_transport(part18,tr4).
part(part19).
partSize(part19,6).
valid_transport(part19,tr0).
valid_transport(part19,tr2).
valid_transport(part19,tr15).
valid_transport(part19,tr9).
valid_transport(part19,tr12).
valid_transport(part19,tr13).
valid_transport(part19,tr11).
part(part2).
partSize(part2,19).
valid_transport(part2,tr0).
valid_transport(part2,tr15).
valid_transport(part2,tr14).
valid_transport(part2,tr13).
valid_transport(part2,tr4).
part(part20).
partSize(part20,128).
valid_transport(part20,tr0).
valid_transport(part20,tr7).
valid_transport(part20,tr8).
valid_transport(part20,tr15).
valid_transport(part20,tr3).
valid_transport(part20,tr13).
part(part21).
partSize(part21,25).
valid_transport(part21,tr0).
valid_transport(part21,tr15).
valid_transport(part21,tr14).
valid_transport(part21,tr13).
valid_transport(part21,tr4).
part(part22).
partSize(part22,7).
valid_transport(part22,tr0).
valid_transport(part22,tr2).
valid_transport(part22,tr15).
valid_transport(part22,tr9).
valid_transport(part22,tr12).
valid_transport(part22,tr13).
valid_transport(part22,tr11).
part(part23).
partSize(part23,5).
valid_transport(part23,tr0).
valid_transport(part23,tr15).
valid_transport(part23,tr14).
valid_transport(part23,tr13).
valid_transport(part23,tr4).
part(part24).
partSize(part24,55).
valid_transport(part24,tr0).
valid_transport(part24,tr7).
valid_transport(part24,tr8).
valid_transport(part24,tr15).
valid_transport(part24,tr3).
valid_transport(part24,tr13).
part(part25).
partSize(part25,5).
valid_transport(part25,tr0).
valid_transport(part25,tr4).
valid_transport(part25,tr2).
valid_transport(part25,tr15).
valid_transport(part25,tr13).
part(part26).
partSize(part26,32).
valid_transport(part26,tr0).
valid_transport(part26,tr7).
valid_transport(part26,tr8).
valid_transport(part26,tr15).
valid_transport(part26,tr3).
valid_transport(part26,tr13).
part(part27).
partSize(part27,5).
valid_transport(part27,tr0).
valid_transport(part27,tr2).
valid_transport(part27,tr15).
valid_transport(part27,tr9).
valid_transport(part27,tr12).
valid_transport(part27,tr13).
valid_transport(part27,tr11).
part(part28).
partSize(part28,3).
valid_transport(part28,tr0).
valid_transport(part28,tr4).
valid_transport(part28,tr2).
valid_transport(part28,tr15).
valid_transport(part28,tr14).
valid_transport(part28,tr13).
part(part29).
partSize(part29,627).
part(part3).
partSize(part3,48).
valid_transport(part3,tr0).
valid_transport(part3,tr7).
valid_transport(part3,tr8).
valid_transport(part3,tr15).
valid_transport(part3,tr3).
valid_transport(part3,tr13).
part(part30).
partSize(part30,2).
valid_transport(part30,tr0).
valid_transport(part30,tr2).
valid_transport(part30,tr15).
valid_transport(part30,tr9).
valid_transport(part30,tr12).
valid_transport(part30,tr13).
valid_transport(part30,tr11).
part(part31).
partSize(part31,144).
valid_transport(part31,tr0).
valid_transport(part31,tr7).
valid_transport(part31,tr8).
valid_transport(part31,tr15).
valid_transport(part31,tr3).
valid_transport(part31,tr13).
part(part32).
partSize(part32,16).
valid_transport(part32,tr0).
valid_transport(part32,tr4).
valid_transport(part32,tr2).
valid_transport(part32,tr15).
valid_transport(part32,tr14).
valid_transport(part32,tr13).
part(part33).
partSize(part33,7).
valid_transport(part33,tr0).
valid_transport(part33,tr2).
valid_transport(part33,tr15).
valid_transport(part33,tr9).
valid_transport(part33,tr12).
valid_transport(part33,tr13).
valid_transport(part33,tr11).
part(part3345).
partSize(part3345,353).
valid_transport(part3345,tr0).
valid_transport(part3345,tr7).
valid_transport(part3345,tr8).
valid_transport(part3345,tr15).
valid_transport(part3345,tr3).
valid_transport(part3345,tr13).
part(part34).
partSize(part34,2).
valid_transport(part34,tr0).
valid_transport(part34,tr2).
valid_transport(part34,tr15).
valid_transport(part34,tr9).
valid_transport(part34,tr12).
valid_transport(part34,tr13).
valid_transport(part34,tr11).
part(part4).
partSize(part4,2).
valid_transport(part4,tr0).
valid_transport(part4,tr2).
valid_transport(part4,tr15).
valid_transport(part4,tr9).
valid_transport(part4,tr12).
valid_transport(part4,tr13).
valid_transport(part4,tr11).
part(part5).
partSize(part5,2).
valid_transport(part5,tr0).
valid_transport(part5,tr2).
valid_transport(part5,tr15).
valid_transport(part5,tr9).
valid_transport(part5,tr12).
valid_transport(part5,tr14).
valid_transport(part5,tr13).
valid_transport(part5,tr11).
part(part6).
partSize(part6,111).
valid_transport(part6,tr0).
valid_transport(part6,tr7).
valid_transport(part6,tr8).
valid_transport(part6,tr15).
valid_transport(part6,tr3).
valid_transport(part6,tr13).
part(part8).
partSize(part8,163).
valid_transport(part8,tr0).
valid_transport(part8,tr7).
valid_transport(part8,tr8).
valid_transport(part8,tr15).
valid_transport(part8,tr3).
valid_transport(part8,tr13).
part(part9).
partSize(part9,2).
valid_transport(part9,tr0).
valid_transport(part9,tr2).
valid_transport(part9,tr15).
valid_transport(part9,tr9).
valid_transport(part9,tr12).
valid_transport(part9,tr13).
valid_transport(part9,tr11).

% ---- demand ----
demandOffer(part0,prodloc5,40).
demandOffer(part0,prodloc7,40).
demandOffer(part0,prodloc13,-27).
demandOffer(part0,prodloc4,-53).
demandOffer(part1,prodloc6,20).
demandOffer(part1,prodloc3,20).
demandOffer(part1,prodloc7,-20).
demandOffer(part1,prodloc0,-20).
demandOffer(part10,prodloc6,20).
demandOffer(part10,prodloc13,20).
demandOffer(part10,prodloc10,-20).
demandOffer(part10,prodloc11,-20).
demandOffer(part12,prodloc4,10).
demandOffer(part12,prodloc3,20).
demandOffer(part12,prodloc10,-10).
demandOffer(part12,prodloc13,-10).
demandOffer(part12,prodloc0,-10).
demandOffer(part13,prodloc4,20).
demandOffer(part13,prodloc14,20).
demandOffer(part13,prodloc5,-20).
demandOffer(part13,prodloc10,-20).
demandOffer(part14,prodloc2,26).
demandOffer(part14,prodloc11,-26).
demandOffer(part15,prodloc9,53).
demandOffer(part15,prodloc4,27).
demandOffer(part15,prodloc0,-53).
demandOffer(part15,prodloc3,-27).
demandOffer(part16,prodloc9,53).
demandOffer(part16,prodloc4,27).
demandOffer(part16,prodloc0,-53).
demandOffer(part16,prodloc2,-27).
demandOffer(part17,prodloc12,20).
demandOffer(part17,prodloc9,-20).
demandOffer(part18,prodloc10,40).
demandOffer(part18,prodloc14,40).
demandOffer(part18,prodloc0,-27).
demandOffer(part18,prodloc7,-53).
demandOffer(part19,prodloc7,26).
demandOffer(part19,prodloc9,-26).
demandOffer(part2,prodloc10,40).
demandOffer(part2,prodloc11,40).
demandOffer(part2,prodloc4,-27).
demandOffer(part2,prodloc3,-53).
demandOffer(part20,prodloc12,53).
demandOffer(part20,prodloc4,27).
demandOffer(part20,prodloc5,-14).
demandOffer(part20,prodloc13,-46).
demandOffer(part20,prodloc6,-20).
demandOffer(part21,prodloc12,26).
demandOffer(part21,prodloc1,-26).
demandOffer(part22,prodloc5,53).
demandOffer(part22,prodloc7,27).
demandOffer(part22,prodloc6,-53).
demandOffer(part22,prodloc8,-27).
demandOffer(part23,prodloc10,20).
demandOffer(part23,prodloc2,20).
demandOffer(part23,prodloc9,-20).
demandOffer(part23,prodloc4,-20).
demandOffer(part25,prodloc9,20).
demandOffer(part25,prodloc0,-20).
demandOffer(part26,prodloc4,20).
demandOffer(part26,prodloc1,20).
demandOffer(part26,prodloc12,-14).
demandOffer(part26,prodloc0,-26).
demandOffer(part27,prodloc8,53).
demandOffer(part27,prodloc5,27).
demandOffer(part27,prodloc3,-53).
demandOffer(part27,prodloc7,-27).
demandOffer(part28,prodloc2,20).
demandOffer(part28,prodloc4,20).
demandOffer(part28,prodloc13,-20).
demandOffer(part28,prodloc5,-20).
demandOffer(part3,prodloc7,40).
demandOffer(part3,prodloc14,-14).
demandOffer(part3,prodloc1,-26).
demandOffer(part30,prodloc2,40).
demandOffer(part30,prodloc11,40).
demandOffer(part30,prodloc7,-27).
demandOffer(part30,prodloc13,-53).
demandOffer(part31,prodloc13,7).
demandOffer(part31,prodloc0,7).
demandOffer(part31,prodloc7,-14).
demandOffer(part32,prodloc13,53).
demandOffer(part32,prodloc14,27).
demandOffer(part32,prodloc7,-53).
demandOffer(part32,prodloc0,-27).
demandOffer(part33,prodloc14,53).
demandOffer(part33,prodloc13,27).
demandOffer(part33,prodloc7,-53).
demandOffer(part33,prodloc11,-27).
demandOffer(part34,prodloc12,20).
demandOffer(part34,prodloc1,-20).
demandOffer(part4,prodloc7,26).
demandOffer(part4,prodloc13,-26).
demandOffer(part5,prodloc9,20).
demandOffer(part5,prodloc1,-20).
demandOffer(part6,prodloc7,27).
demandOffer(part6,prodloc10,53).
demandOffer(part6,prodloc0,-24).
demandOffer(part6,prodloc2,-36).
demandOffer(part6,prodloc3,-10).
demandOffer(part6,prodloc6,-10).
demandOffer(part8,prodloc14,3).
demandOffer(part8,prodloc5,17).
demandOffer(part8,prodloc0,-10).
demandOffer(part8,prodloc8,-10).
demandOffer(part9,prodloc0,20).
demandOffer(part9,prodloc10,-20).

% ---- network (ASP-generated) ----
route(harbor0,harbor1,tr13,21334,128004).
route(harbor0,harbor1,tr2,21334,64002).
route(harbor0,harbor2,tr13,13137,78822).
route(harbor0,harbor2,tr2,13137,39411).
route(harbor0,harbor3,tr13,19815,118890).
route(harbor0,harbor3,tr2,19815,59445).
route(harbor0,harbor4,tr13,10495,62970).
route(harbor0,harbor4,tr2,10495,31485).
route(harbor0,harbor5,tr13,15675,94050).
route(harbor0,harbor5,tr2,15675,47025).
route(harbor0,prodloc0,tr0,16750,435500).
route(harbor0,prodloc0,tr13,16750,100500).
route(harbor0,prodloc1,tr0,21907,569582).
route(harbor0,prodloc1,tr13,21907,131442).
route(harbor0,prodloc2,tr0,26669,693394).
route(harbor0,prodloc2,tr13,26669,160014).
route(harbor0,prodloc3,tr0,25653,666978).
route(harbor0,prodloc3,tr13,25653,153918).
route(harbor0,prodloc4,tr0,22306,579956).
route(harbor0,prodloc4,tr13,22306,133836).
route(harbor0,prodloc5,tr0,21478,558428).
route(harbor0,prodloc5,tr13,21478,128868).
route(harbor0,prodloc6,tr0,27198,707148).
route(harbor0,prodloc6,tr13,27198,163188).
route(harbor0,prodloc7,tr0,26773,696098).
route(harbor0,prodloc7,tr13,26773,160638).
route(harbor0,prodloc8,tr0,2325,60450).
route(harbor0,prodloc8,tr13,2325,13950).
route(harbor0,prodloc9,tr0,7466,194116).
route(harbor0,prodloc9,tr13,7466,44796).
route(harbor0,prodloc10,tr0,10487,272662).
route(harbor0,prodloc10,tr13,10487,62922).
route(harbor0,prodloc11,tr0,3308,86008).
route(harbor0,prodloc11,tr13,3308,19848).
route(harbor0,prodloc12,tr0,23187,602862).
route(harbor0,prodloc12,tr13,23187,139122).
route(harbor0,prodloc13,tr0,3053,79378).
route(harbor0,prodloc13,tr13,3053,18318).
route(harbor0,prodloc14,tr0,17753,461578).
route(harbor0,prodloc14,tr13,17753,106518).
route(harbor1,harbor0,tr13,4011,24066).
route(harbor1,harbor0,tr2,4011,12033).
route(harbor1,harbor2,tr13,7996,47976).
route(harbor1,harbor2,tr2,7996,23988).
route(harbor1,harbor3,tr13,329,1974).
route(harbor1,harbor3,tr2,329,987).
route(harbor1,harbor4,tr13,12950,77700).
route(harbor1,harbor4,tr2,12950,38850).
route(harbor1,harbor5,tr13,20529,123174).
route(harbor1,harbor5,tr2,20529,61587).
route(harbor1,prodloc0,tr0,1528,39728).
route(harbor1,prodloc0,tr13,1528,9168).
route(harbor1,prodloc1,tr0,27632,718432).
route(harbor1,prodloc1,tr13,27632,165792).
route(harbor1,prodloc2,tr0,3724,96824).
route(harbor1,prodloc2,tr13,3724,22344).
route(harbor1,prodloc3,tr0,24181,628706).
route(harbor1,prodloc3,tr13,24181,145086).
route(harbor1,prodloc4,tr0,22507,585182).
route(harbor1,prodloc4,tr13,22507,135042).
route(harbor1,prodloc5,tr0,1582,41132).
route(harbor1,prodloc5,tr13,1582,9492).
route(harbor1,prodloc6,tr0,27748,721448).
route(harbor1,prodloc6,tr13,27748,166488).
route(harbor1,prodloc7,tr0,25082,652132).
route(harbor1,prodloc7,tr13,25082,150492).
route(harbor1,prodloc8,tr0,12869,334594).
route(harbor1,prodloc8,tr13,12869,77214).
route(harbor1,prodloc9,tr0,5021,130546).
route(harbor1,prodloc9,tr13,5021,30126).
route(harbor1,prodloc10,tr0,20919,543894).
route(harbor1,prodloc10,tr13,20919,125514).
route(harbor1,prodloc11,tr0,22724,590824).
route(harbor1,prodloc11,tr13,22724,136344).
route(harbor1,prodloc12,tr0,8373,217698).
route(harbor1,prodloc12,tr13,8373,50238).
route(harbor1,prodloc13,tr0,7854,204204).
route(harbor1,prodloc13,tr13,7854,47124).
route(harbor1,prodloc14,tr0,5839,151814).
route(harbor1,prodloc14,tr13,5839,35034).
route(harbor2,harbor0,tr13,19104,114624).
route(harbor2,harbor0,tr2,19104,57312).
route(harbor2,harbor1,tr13,395,2370).
route(harbor2,harbor1,tr2,395,1185).
route(harbor2,harbor3,tr13,7858,47148).
route(harbor2,harbor3,tr2,7858,23574).
route(harbor2,harbor4,tr13,17246,103476).
route(harbor2,harbor4,tr2,17246,51738).
route(harbor2,harbor5,tr13,8039,48234).
route(harbor2,harbor5,tr2,8039,24117).
route(harbor2,prodloc0,tr0,3806,98956).
route(harbor2,prodloc0,tr13,3806,22836).
route(harbor2,prodloc1,tr0,3410,88660).
route(harbor2,prodloc1,tr13,3410,20460).
route(harbor2,prodloc2,tr0,21003,546078).
route(harbor2,prodloc2,tr13,21003,126018).
route(harbor2,prodloc3,tr0,4826,125476).
route(harbor2,prodloc3,tr13,4826,28956).
route(harbor2,prodloc4,tr0,8770,228020).
route(harbor2,prodloc4,tr13,8770,52620).
route(harbor2,prodloc5,tr0,12726,330876).
route(harbor2,prodloc5,tr13,12726,76356).
route(harbor2,prodloc6,tr0,13338,346788).
route(harbor2,prodloc6,tr13,13338,80028).
route(harbor2,prodloc7,tr0,1266,32916).
route(harbor2,prodloc7,tr13,1266,7596).
route(harbor2,prodloc8,tr0,13272,345072).
route(harbor2,prodloc8,tr13,13272,79632).
route(harbor2,prodloc9,tr0,15221,395746).
route(harbor2,prodloc9,tr13,15221,91326).
route(harbor2,prodloc10,tr0,23930,622180).
route(harbor2,prodloc10,tr13,23930,143580).
route(harbor2,prodloc11,tr0,15285,397410).
route(harbor2,prodloc11,tr13,15285,91710).
route(harbor2,prodloc12,tr0,15099,392574).
route(harbor2,prodloc12,tr13,15099,90594).
route(harbor2,prodloc13,tr0,8517,221442).
route(harbor2,prodloc13,tr13,8517,51102).
route(harbor2,prodloc14,tr0,1281,33306).
route(harbor2,prodloc14,tr13,1281,7686).
route(harbor3,harbor0,tr13,1966,11796).
route(harbor3,harbor0,tr2,1966,5898).
route(harbor3,harbor1,tr13,1023,6138).
route(harbor3,harbor1,tr2,1023,3069).
route(harbor3,harbor2,tr13,23200,139200).
route(harbor3,harbor2,tr2,23200,69600).
route(harbor3,harbor4,tr13,6524,39144).
route(harbor3,harbor4,tr2,6524,19572).
route(harbor3,harbor5,tr13,14041,84246).
route(harbor3,harbor5,tr2,14041,42123).
route(harbor3,prodloc0,tr0,21863,568438).
route(harbor3,prodloc0,tr13,21863,131178).
route(harbor3,prodloc1,tr0,8369,217594).
route(harbor3,prodloc1,tr13,8369,50214).
route(harbor3,prodloc2,tr0,16479,428454).
route(harbor3,prodloc2,tr13,16479,98874).
route(harbor3,prodloc3,tr0,12592,327392).
route(harbor3,prodloc3,tr13,12592,75552).
route(harbor3,prodloc4,tr0,3386,88036).
route(harbor3,prodloc4,tr13,3386,20316).
route(harbor3,prodloc5,tr0,26614,691964).
route(harbor3,prodloc5,tr13,26614,159684).
route(harbor3,prodloc6,tr0,7077,184002).
route(harbor3,prodloc6,tr13,7077,42462).
route(harbor3,prodloc7,tr0,3727,96902).
route(harbor3,prodloc7,tr13,3727,22362).
route(harbor3,prodloc8,tr0,13631,354406).
route(harbor3,prodloc8,tr13,13631,81786).
route(harbor3,prodloc9,tr0,20729,538954).
route(harbor3,prodloc9,tr13,20729,124374).
route(harbor3,prodloc10,tr0,3548,92248).
route(harbor3,prodloc10,tr13,3548,21288).
route(harbor3,prodloc11,tr0,9300,241800).
route(harbor3,prodloc11,tr13,9300,55800).
route(harbor3,prodloc12,tr0,3799,98774).
route(harbor3,prodloc12,tr13,3799,22794).
route(harbor3,prodloc13,tr0,14936,388336).
route(harbor3,prodloc13,tr13,14936,89616).
route(harbor3,prodloc14,tr0,14223,369798).
route(harbor3,prodloc14,tr13,14223,85338).
route(harbor4,harbor0,tr13,4656,27936).
route(harbor4,harbor0,tr2,4656,13968).
route(harbor4,harbor1,tr13,27572,165432).
route(harbor4,harbor1,tr2,27572,82716).
route(harbor4,harbor2,tr13,13127,78762).
route(harbor4,harbor2,tr2,13127,39381).
route(harbor4,harbor3,tr13,7813,46878).
route(harbor4,harbor3,tr2,7813,23439).
route(harbor4,harbor5,tr13,4154,24924).
route(harbor4,harbor5,tr2,4154,12462).
route(harbor4,prodloc0,tr0,28934,752284).
route(harbor4,prodloc0,tr13,28934,173604).
route(harbor4,prodloc1,tr0,4302,111852).
route(harbor4,prodloc1,tr13,4302,25812).
route(harbor4,prodloc2,tr0,28709,746434).
route(harbor4,prodloc2,tr13,28709,172254).
route(harbor4,prodloc3,tr0,13228,343928).
route(harbor4,prodloc3,tr13,13228,79368).
route(harbor4,prodloc4,tr0,14185,368810).
route(harbor4,prodloc4,tr13,14185,85110).
route(harbor4,prodloc5,tr0,16430,427180).
route(harbor4,prodloc5,tr13,16430,98580).
route(harbor4,prodloc6,tr0,7370,191620).
route(harbor4,prodloc6,tr13,7370,44220).
route(harbor4,prodloc7,tr0,12963,337038).
route(harbor4,prodloc7,tr13,12963,77778).
route(harbor4,prodloc8,tr0,6051,157326).
route(harbor4,prodloc8,tr13,6051,36306).
route(harbor4,prodloc9,tr0,11874,308724).
route(harbor4,prodloc9,tr13,11874,71244).
route(harbor4,prodloc10,tr0,21872,568672).
route(harbor4,prodloc10,tr13,21872,131232).
route(harbor4,prodloc11,tr0,16257,422682).
route(harbor4,prodloc11,tr13,16257,97542).
route(harbor4,prodloc12,tr0,27058,703508).
route(harbor4,prodloc12,tr13,27058,162348).
route(harbor4,prodloc13,tr0,5708,148408).
route(harbor4,prodloc13,tr13,5708,34248).
route(harbor4,prodloc14,tr0,28199,733174).
route(harbor4,prodloc14,tr13,28199,169194).
route(harbor5,harbor0,tr13,13399,80394).
route(harbor5,harbor0,tr2,13399,40197).
route(harbor5,harbor1,tr13,6868,41208).
route(harbor5,harbor1,tr2,6868,20604).
route(harbor5,harbor2,tr13,21599,129594).
route(harbor5,harbor2,tr2,21599,64797).
route(harbor5,harbor3,tr13,14008,84048).
route(harbor5,harbor3,tr2,14008,42024).
route(harbor5,harbor4,tr13,27777,166662).
route(harbor5,harbor4,tr2,27777,83331).
route(harbor5,prodloc0,tr0,721,18746).
route(harbor5,prodloc0,tr13,721,4326).
route(harbor5,prodloc1,tr0,15999,415974).
route(harbor5,prodloc1,tr13,15999,95994).
route(harbor5,prodloc2,tr0,9985,259610).
route(harbor5,prodloc2,tr13,9985,59910).
route(harbor5,prodloc3,tr0,18760,487760).
route(harbor5,prodloc3,tr13,18760,112560).
route(harbor5,prodloc4,tr0,9667,251342).
route(harbor5,prodloc4,tr13,9667,58002).
route(harbor5,prodloc5,tr0,4057,105482).
route(harbor5,prodloc5,tr13,4057,24342).
route(harbor5,prodloc6,tr0,27773,722098).
route(harbor5,prodloc6,tr13,27773,166638).
route(harbor5,prodloc7,tr0,2499,64974).
route(harbor5,prodloc7,tr13,2499,14994).
route(harbor5,prodloc8,tr0,24626,640276).
route(harbor5,prodloc8,tr13,24626,147756).
route(harbor5,prodloc9,tr0,25779,670254).
route(harbor5,prodloc9,tr13,25779,154674).
route(harbor5,prodloc10,tr0,9995,259870).
route(harbor5,prodloc10,tr13,9995,59970).
route(harbor5,prodloc11,tr0,24157,628082).
route(harbor5,prodloc11,tr13,24157,144942).
route(harbor5,prodloc12,tr0,16352,425152).
route(harbor5,prodloc12,tr13,16352,98112).
route(harbor5,prodloc13,tr0,7917,205842).
route(harbor5,prodloc13,tr13,7917,47502).
route(harbor5,prodloc14,tr0,17512,455312).
route(harbor5,prodloc14,tr13,17512,105072).
route(prodloc0,harbor0,tr0,21117,549042).
route(prodloc0,harbor0,tr13,21117,126702).
route(prodloc0,harbor1,tr0,15474,402324).
route(prodloc0,harbor1,tr13,15474,92844).
route(prodloc0,harbor2,tr0,6855,178230).
route(prodloc0,harbor2,tr13,6855,41130).
route(prodloc0,harbor3,tr0,19318,502268).
route(prodloc0,harbor3,tr13,19318,115908).
route(prodloc0,harbor4,tr0,14485,376610).
route(prodloc0,harbor4,tr13,14485,86910).
route(prodloc0,harbor5,tr0,16466,428116).
route(prodloc0,harbor5,tr13,16466,98796).
route(prodloc0,prodloc1,tr0,4377,113802).
route(prodloc0,prodloc1,tr13,4377,26262).
route(prodloc0,prodloc2,tr0,16068,417768).
route(prodloc0,prodloc2,tr13,16068,96408).
route(prodloc0,prodloc3,tr0,18135,471510).
route(prodloc0,prodloc3,tr13,18135,108810).
route(prodloc0,prodloc4,tr0,2608,67808).
route(prodloc0,prodloc4,tr13,2608,15648).
route(prodloc0,prodloc5,tr0,25013,650338).
route(prodloc0,prodloc5,tr13,25013,150078).
route(prodloc0,prodloc6,tr0,20727,538902).
route(prodloc0,prodloc6,tr13,20727,124362).
route(prodloc0,prodloc7,tr0,21916,569816).
route(prodloc0,prodloc7,tr13,21916,131496).
route(prodloc0,prodloc8,tr0,3518,91468).
route(prodloc0,prodloc8,tr13,3518,21108).
route(prodloc0,prodloc9,tr0,23725,616850).
route(prodloc0,prodloc9,tr13,23725,142350).
route(prodloc0,prodloc10,tr0,21636,562536).
route(prodloc0,prodloc10,tr13,21636,129816).
route(prodloc0,prodloc11,tr0,10267,266942).
route(prodloc0,prodloc11,tr13,10267,61602).
route(prodloc0,prodloc12,tr0,1906,49556).
route(prodloc0,prodloc12,tr13,1906,11436).
route(prodloc0,prodloc13,tr0,15152,393952).
route(prodloc0,prodloc13,tr13,15152,90912).
route(prodloc0,prodloc14,tr0,2639,68614).
route(prodloc0,prodloc14,tr13,2639,15834).
route(prodloc1,harbor0,tr0,26423,686998).
route(prodloc1,harbor0,tr13,26423,158538).
route(prodloc1,harbor1,tr0,16270,423020).
route(prodloc1,harbor1,tr13,16270,97620).
route(prodloc1,harbor2,tr0,23853,620178).
route(prodloc1,harbor2,tr13,23853,143118).
route(prodloc1,harbor3,tr0,24746,643396).
route(prodloc1,harbor3,tr13,24746,148476).
route(prodloc1,harbor4,tr0,1720,44720).
route(prodloc1,harbor4,tr13,1720,10320).
route(prodloc1,harbor5,tr0,16823,437398).
route(prodloc1,harbor5,tr13,16823,100938).
route(prodloc1,prodloc0,tr0,10973,285298).
route(prodloc1,prodloc0,tr13,10973,65838).
route(prodloc1,prodloc2,tr0,17422,452972).
route(prodloc1,prodloc2,tr13,17422,104532).
route(prodloc1,prodloc3,tr0,5620,146120).
route(prodloc1,prodloc3,tr13,5620,33720).
route(prodloc1,prodloc4,tr0,3273,85098).
route(prodloc1,prodloc4,tr13,3273,19638).
route(prodloc1,prodloc5,tr0,23298,605748).
route(prodloc1,prodloc5,tr13,23298,139788).
route(prodloc1,prodloc6,tr0,11941,310466).
route(prodloc1,prodloc6,tr13,11941,71646).
route(prodloc1,prodloc7,tr0,13187,342862).
route(prodloc1,prodloc7,tr13,13187,79122).
route(prodloc1,prodloc8,tr0,9279,241254).
route(prodloc1,prodloc8,tr13,9279,55674).
route(prodloc1,prodloc9,tr0,12820,333320).
route(prodloc1,prodloc9,tr13,12820,76920).
route(prodloc1,prodloc10,tr0,2124,55224).
route(prodloc1,prodloc10,tr13,2124,12744).
route(prodloc1,prodloc11,tr0,7308,190008).
route(prodloc1,prodloc11,tr13,7308,43848).
route(prodloc1,prodloc12,tr13,6255,37530).
route(prodloc1,prodloc12,tr15,6255,200160).
route(prodloc1,prodloc13,tr0,14882,386932).
route(prodloc1,prodloc13,tr13,14882,89292).
route(prodloc1,prodloc14,tr0,6879,178854).
route(prodloc1,prodloc14,tr13,6879,41274).
route(prodloc2,harbor0,tr0,23541,612066).
route(prodloc2,harbor0,tr13,23541,141246).
route(prodloc2,harbor1,tr0,430,11180).
route(prodloc2,harbor1,tr13,430,2580).
route(prodloc2,harbor2,tr0,20680,537680).
route(prodloc2,harbor2,tr13,20680,124080).
route(prodloc2,harbor3,tr0,8,208).
route(prodloc2,harbor3,tr13,8,48).
route(prodloc2,harbor4,tr0,7264,188864).
route(prodloc2,harbor4,tr13,7264,43584).
route(prodloc2,harbor5,tr0,10918,283868).
route(prodloc2,harbor5,tr13,10918,65508).
route(prodloc2,prodloc0,tr0,12951,336726).
route(prodloc2,prodloc0,tr13,12951,77706).
route(prodloc2,prodloc1,tr0,19886,517036).
route(prodloc2,prodloc1,tr13,19886,119316).
route(prodloc2,prodloc3,tr0,20420,530920).
route(prodloc2,prodloc3,tr13,20420,122520).
route(prodloc2,prodloc4,tr0,6666,173316).
route(prodloc2,prodloc4,tr15,6666,213312).
route(prodloc2,prodloc5,tr0,1819,47294).
route(prodloc2,prodloc5,tr13,1819,10914).
route(prodloc2,prodloc6,tr0,8825,229450).
route(prodloc2,prodloc6,tr13,8825,52950).
route(prodloc2,prodloc7,tr0,20980,545480).
route(prodloc2,prodloc7,tr13,20980,125880).
route(prodloc2,prodloc8,tr0,753,19578).
route(prodloc2,prodloc8,tr13,753,4518).
route(prodloc2,prodloc9,tr0,12658,329108).
route(prodloc2,prodloc9,tr13,12658,75948).
route(prodloc2,prodloc10,tr0,20483,532558).
route(prodloc2,prodloc10,tr13,20483,122898).
route(prodloc2,prodloc11,tr0,1891,49166).
route(prodloc2,prodloc11,tr13,1891,11346).
route(prodloc2,prodloc12,tr0,4828,125528).
route(prodloc2,prodloc12,tr13,4828,28968).
route(prodloc2,prodloc13,tr0,21829,567554).
route(prodloc2,prodloc13,tr15,21829,698528).
route(prodloc2,prodloc14,tr0,17550,456300).
route(prodloc2,prodloc14,tr13,17550,105300).
route(prodloc3,harbor0,tr0,22671,589446).
route(prodloc3,harbor0,tr13,22671,136026).
route(prodloc3,harbor1,tr0,7295,189670).
route(prodloc3,harbor1,tr13,7295,43770).
route(prodloc3,harbor2,tr0,6780,176280).
route(prodloc3,harbor2,tr13,6780,40680).
route(prodloc3,harbor3,tr0,16504,429104).
route(prodloc3,harbor3,tr13,16504,99024).
route(prodloc3,harbor4,tr0,25851,672126).
route(prodloc3,harbor4,tr13,25851,155106).
route(prodloc3,harbor5,tr0,27705,720330).
route(prodloc3,harbor5,tr13,27705,166230).
route(prodloc3,prodloc0,tr0,20581,535106).
route(prodloc3,prodloc0,tr13,20581,123486).
route(prodloc3,prodloc1,tr0,27988,727688).
route(prodloc3,prodloc1,tr13,27988,167928).
route(prodloc3,prodloc2,tr0,17667,459342).
route(prodloc3,prodloc2,tr13,17667,106002).
route(prodloc3,prodloc4,tr0,21720,564720).
route(prodloc3,prodloc4,tr13,21720,130320).
route(prodloc3,prodloc5,tr0,27091,704366).
route(prodloc3,prodloc5,tr13,27091,162546).
route(prodloc3,prodloc6,tr0,20923,543998).
route(prodloc3,prodloc6,tr13,20923,125538).
route(prodloc3,prodloc7,tr0,23751,617526).
route(prodloc3,prodloc7,tr13,23751,142506).
route(prodloc3,prodloc8,tr0,24327,632502).
route(prodloc3,prodloc8,tr13,24327,145962).
route(prodloc3,prodloc9,tr0,8774,228124).
route(prodloc3,prodloc9,tr13,8774,52644).
route(prodloc3,prodloc10,tr0,16836,437736).
route(prodloc3,prodloc10,tr13,16836,101016).
route(prodloc3,prodloc11,tr0,927,24102).
route(prodloc3,prodloc11,tr13,927,5562).
route(prodloc3,prodloc12,tr0,20160,524160).
route(prodloc3,prodloc12,tr13,20160,120960).
route(prodloc3,prodloc13,tr0,20075,521950).
route(prodloc3,prodloc13,tr15,20075,642400).
route(prodloc3,prodloc14,tr0,26159,680134).
route(prodloc3,prodloc14,tr13,26159,156954).
route(prodloc4,harbor0,tr0,26352,685152).
route(prodloc4,harbor0,tr13,26352,158112).
route(prodloc4,harbor1,tr0,16736,435136).
route(prodloc4,harbor1,tr13,16736,100416).
route(prodloc4,harbor2,tr0,7167,186342).
route(prodloc4,harbor2,tr13,7167,43002).
route(prodloc4,harbor3,tr0,15452,401752).
route(prodloc4,harbor3,tr13,15452,92712).
route(prodloc4,harbor4,tr0,19024,494624).
route(prodloc4,harbor4,tr13,19024,114144).
route(prodloc4,harbor5,tr0,15768,409968).
route(prodloc4,harbor5,tr13,15768,94608).
route(prodloc4,prodloc1,tr0,4481,116506).
route(prodloc4,prodloc1,tr13,4481,26886).
route(prodloc4,prodloc2,tr0,23404,608504).
route(prodloc4,prodloc2,tr13,23404,140424).
route(prodloc4,prodloc3,tr0,15099,392574).
route(prodloc4,prodloc3,tr13,15099,90594).
route(prodloc4,prodloc6,tr0,23550,612300).
route(prodloc4,prodloc6,tr15,23550,753600).
route(prodloc4,prodloc7,tr0,5663,147238).
route(prodloc4,prodloc7,tr13,5663,33978).
route(prodloc4,prodloc8,tr0,3566,92716).
route(prodloc4,prodloc8,tr13,3566,21396).
route(prodloc4,prodloc9,tr0,6215,161590).
route(prodloc4,prodloc9,tr13,6215,37290).
route(prodloc4,prodloc10,tr0,738,19188).
route(prodloc4,prodloc10,tr13,738,4428).
route(prodloc4,prodloc11,tr0,3014,78364).
route(prodloc4,prodloc11,tr13,3014,18084).
route(prodloc4,prodloc12,tr0,12251,318526).
route(prodloc4,prodloc12,tr15,12251,392032).
route(prodloc4,prodloc13,tr0,23936,622336).
route(prodloc4,prodloc13,tr15,23936,765952).
route(prodloc4,prodloc14,tr0,9398,244348).
route(prodloc4,prodloc14,tr13,9398,56388).
route(prodloc5,harbor0,tr0,21414,556764).
route(prodloc5,harbor0,tr13,21414,128484).
route(prodloc5,harbor1,tr0,26669,693394).
route(prodloc5,harbor1,tr13,26669,160014).
route(prodloc5,harbor2,tr0,21071,547846).
route(prodloc5,harbor2,tr13,21071,126426).
route(prodloc5,harbor3,tr0,3183,82758).
route(prodloc5,harbor3,tr13,3183,19098).
route(prodloc5,harbor4,tr0,5092,132392).
route(prodloc5,harbor4,tr13,5092,30552).
route(prodloc5,harbor5,tr0,1249,32474).
route(prodloc5,harbor5,tr13,1249,7494).
route(prodloc5,prodloc0,tr0,6091,158366).
route(prodloc5,prodloc0,tr13,6091,36546).
route(prodloc5,prodloc1,tr0,20085,522210).
route(prodloc5,prodloc1,tr13,20085,120510).
route(prodloc5,prodloc2,tr0,22573,586898).
route(prodloc5,prodloc2,tr13,22573,135438).
route(prodloc5,prodloc3,tr0,24838,645788).
route(prodloc5,prodloc3,tr13,24838,149028).
route(prodloc5,prodloc4,tr0,22632,588432).
route(prodloc5,prodloc4,tr13,22632,135792).
route(prodloc5,prodloc6,tr0,3853,100178).
route(prodloc5,prodloc6,tr13,3853,23118).
route(prodloc5,prodloc7,tr0,23619,614094).
route(prodloc5,prodloc7,tr13,23619,141714).
route(prodloc5,prodloc8,tr13,24945,149670).
route(prodloc5,prodloc8,tr15,24945,798240).
route(prodloc5,prodloc9,tr0,7533,195858).
route(prodloc5,prodloc9,tr13,7533,45198).
route(prodloc5,prodloc10,tr0,11292,293592).
route(prodloc5,prodloc10,tr13,11292,67752).
route(prodloc5,prodloc11,tr0,6672,173472).
route(prodloc5,prodloc11,tr13,6672,40032).
route(prodloc5,prodloc12,tr0,18588,483288).
route(prodloc5,prodloc12,tr13,18588,111528).
route(prodloc5,prodloc13,tr0,14297,371722).
route(prodloc5,prodloc13,tr13,14297,85782).
route(prodloc5,prodloc14,tr0,2975,77350).
route(prodloc5,prodloc14,tr13,2975,17850).
route(prodloc6,harbor0,tr0,5968,155168).
route(prodloc6,harbor0,tr13,5968,35808).
route(prodloc6,harbor1,tr0,2945,76570).
route(prodloc6,harbor1,tr13,2945,17670).
route(prodloc6,harbor2,tr0,15126,393276).
route(prodloc6,harbor2,tr13,15126,90756).
route(prodloc6,harbor3,tr0,2584,67184).
route(prodloc6,harbor3,tr13,2584,15504).
route(prodloc6,harbor4,tr0,28950,752700).
route(prodloc6,harbor4,tr13,28950,173700).
route(prodloc6,harbor5,tr0,1072,27872).
route(prodloc6,harbor5,tr13,1072,6432).
route(prodloc6,prodloc0,tr0,18815,489190).
route(prodloc6,prodloc0,tr13,18815,112890).
route(prodloc6,prodloc1,tr0,4936,128336).
route(prodloc6,prodloc1,tr13,4936,29616).
route(prodloc6,prodloc2,tr0,5000,130000).
route(prodloc6,prodloc2,tr13,5000,30000).
route(prodloc6,prodloc3,tr0,22263,578838).
route(prodloc6,prodloc3,tr13,22263,133578).
route(prodloc6,prodloc4,tr0,23782,618332).
route(prodloc6,prodloc4,tr13,23782,142692).
route(prodloc6,prodloc5,tr0,25558,664508).
route(prodloc6,prodloc5,tr13,25558,153348).
route(prodloc6,prodloc7,tr0,5173,134498).
route(prodloc6,prodloc7,tr13,5173,31038).
route(prodloc6,prodloc8,tr0,25322,658372).
route(prodloc6,prodloc8,tr13,25322,151932).
route(prodloc6,prodloc9,tr0,6724,174824).
route(prodloc6,prodloc9,tr13,6724,40344).
route(prodloc6,prodloc10,tr13,13682,82092).
route(prodloc6,prodloc10,tr15,13682,437824).
route(prodloc6,prodloc11,tr0,1398,36348).
route(prodloc6,prodloc11,tr13,1398,8388).
route(prodloc6,prodloc12,tr0,24671,641446).
route(prodloc6,prodloc12,tr13,24671,148026).
route(prodloc6,prodloc13,tr0,11612,301912).
route(prodloc6,prodloc13,tr13,11612,69672).
route(prodloc6,prodloc14,tr0,3776,98176).
route(prodloc6,prodloc14,tr13,3776,22656).
route(prodloc7,harbor0,tr0,22353,581178).
route(prodloc7,harbor0,tr13,22353,134118).
route(prodloc7,harbor1,tr0,28342,736892).
route(prodloc7,harbor1,tr13,28342,170052).
route(prodloc7,harbor2,tr0,13209,343434).
route(prodloc7,harbor2,tr13,13209,79254).
route(prodloc7,harbor3,tr0,13436,349336).
route(prodloc7,harbor3,tr13,13436,80616).
route(prodloc7,harbor4,tr0,8489,220714).
route(prodloc7,harbor4,tr13,8489,50934).
route(prodloc7,harbor5,tr0,4025,104650).
route(prodloc7,harbor5,tr13,4025,24150).
route(prodloc7,prodloc0,tr0,20020,520520).
route(prodloc7,prodloc0,tr13,20020,120120).
route(prodloc7,prodloc1,tr0,12560,326560).
route(prodloc7,prodloc1,tr13,12560,75360).
route(prodloc7,prodloc2,tr0,19505,507130).
route(prodloc7,prodloc2,tr13,19505,117030).
route(prodloc7,prodloc3,tr0,6343,164918).
route(prodloc7,prodloc3,tr13,6343,38058).
route(prodloc7,prodloc4,tr0,11590,301340).
route(prodloc7,prodloc4,tr15,11590,370880).
route(prodloc7,prodloc5,tr0,24347,633022).
route(prodloc7,prodloc5,tr13,24347,146082).
route(prodloc7,prodloc6,tr0,14456,375856).
route(prodloc7,prodloc6,tr13,14456,86736).
route(prodloc7,prodloc8,tr13,12265,73590).
route(prodloc7,prodloc8,tr15,12265,392480).
route(prodloc7,prodloc9,tr13,14191,85146).
route(prodloc7,prodloc9,tr15,14191,454112).
route(prodloc7,prodloc10,tr0,557,14482).
route(prodloc7,prodloc10,tr13,557,3342).
route(prodloc7,prodloc11,tr0,11267,292942).
route(prodloc7,prodloc11,tr13,11267,67602).
route(prodloc7,prodloc12,tr0,6311,164086).
route(prodloc7,prodloc12,tr13,6311,37866).
route(prodloc7,prodloc13,tr0,27082,704132).
route(prodloc7,prodloc13,tr15,27082,866624).
route(prodloc7,prodloc14,tr13,2627,15762).
route(prodloc7,prodloc14,tr15,2627,84064).
route(prodloc8,harbor0,tr0,6968,181168).
route(prodloc8,harbor0,tr13,6968,41808).
route(prodloc8,harbor1,tr0,12573,326898).
route(prodloc8,harbor1,tr13,12573,75438).
route(prodloc8,harbor2,tr0,13474,350324).
route(prodloc8,harbor2,tr13,13474,80844).
route(prodloc8,harbor3,tr0,25674,667524).
route(prodloc8,harbor3,tr13,25674,154044).
route(prodloc8,harbor4,tr0,1795,46670).
route(prodloc8,harbor4,tr13,1795,10770).
route(prodloc8,harbor5,tr0,19451,505726).
route(prodloc8,harbor5,tr13,19451,116706).
route(prodloc8,prodloc0,tr0,6938,180388).
route(prodloc8,prodloc0,tr13,6938,41628).
route(prodloc8,prodloc1,tr0,13514,351364).
route(prodloc8,prodloc1,tr13,13514,81084).
route(prodloc8,prodloc2,tr0,25338,658788).
route(prodloc8,prodloc2,tr13,25338,152028).
route(prodloc8,prodloc3,tr0,23993,623818).
route(prodloc8,prodloc3,tr13,23993,143958).
route(prodloc8,prodloc4,tr0,21890,569140).
route(prodloc8,prodloc4,tr13,21890,131340).
route(prodloc8,prodloc5,tr0,18120,471120).
route(prodloc8,prodloc5,tr13,18120,108720).
route(prodloc8,prodloc6,tr0,11195,291070).
route(prodloc8,prodloc6,tr13,11195,67170).
route(prodloc8,prodloc7,tr0,1427,37102).
route(prodloc8,prodloc7,tr13,1427,8562).
route(prodloc8,prodloc9,tr0,16929,440154).
route(prodloc8,prodloc9,tr13,16929,101574).
route(prodloc8,prodloc10,tr0,13300,345800).
route(prodloc8,prodloc10,tr13,13300,79800).
route(prodloc8,prodloc11,tr0,11433,297258).
route(prodloc8,prodloc11,tr13,11433,68598).
route(prodloc8,prodloc12,tr0,698,18148).
route(prodloc8,prodloc12,tr13,698,4188).
route(prodloc8,prodloc13,tr0,21357,555282).
route(prodloc8,prodloc13,tr13,21357,128142).
route(prodloc8,prodloc14,tr0,4809,125034).
route(prodloc8,prodloc14,tr13,4809,28854).
route(prodloc9,harbor0,tr0,13664,355264).
route(prodloc9,harbor0,tr13,13664,81984).
route(prodloc9,harbor1,tr0,7726,200876).
route(prodloc9,harbor1,tr13,7726,46356).
route(prodloc9,harbor2,tr0,10550,274300).
route(prodloc9,harbor2,tr13,10550,63300).
route(prodloc9,harbor3,tr0,5473,142298).
route(prodloc9,harbor3,tr13,5473,32838).
route(prodloc9,harbor4,tr0,13254,344604).
route(prodloc9,harbor4,tr13,13254,79524).
route(prodloc9,harbor5,tr0,1848,48048).
route(prodloc9,harbor5,tr13,1848,11088).
route(prodloc9,prodloc0,tr0,12327,320502).
route(prodloc9,prodloc0,tr13,12327,73962).
route(prodloc9,prodloc1,tr0,1396,36296).
route(prodloc9,prodloc1,tr15,1396,44672).
route(prodloc9,prodloc2,tr0,28448,739648).
route(prodloc9,prodloc2,tr13,28448,170688).
route(prodloc9,prodloc3,tr0,13113,340938).
route(prodloc9,prodloc3,tr13,13113,78678).
route(prodloc9,prodloc4,tr0,20905,543530).
route(prodloc9,prodloc4,tr13,20905,125430).
route(prodloc9,prodloc5,tr0,27797,722722).
route(prodloc9,prodloc5,tr13,27797,166782).
route(prodloc9,prodloc6,tr0,24572,638872).
route(prodloc9,prodloc6,tr13,24572,147432).
route(prodloc9,prodloc7,tr0,14663,381238).
route(prodloc9,prodloc7,tr13,14663,87978).
route(prodloc9,prodloc8,tr0,21355,555230).
route(prodloc9,prodloc8,tr13,21355,128130).
route(prodloc9,prodloc10,tr0,1189,30914).
route(prodloc9,prodloc10,tr13,1189,7134).
route(prodloc9,prodloc11,tr0,4690,121940).
route(prodloc9,prodloc11,tr13,4690,28140).
route(prodloc9,prodloc12,tr0,2,52).
route(prodloc9,prodloc12,tr13,2,12).
route(prodloc9,prodloc13,tr0,5495,142870).
route(prodloc9,prodloc13,tr13,5495,32970).
route(prodloc9,prodloc14,tr0,24128,627328).
route(prodloc9,prodloc14,tr13,24128,144768).
route(prodloc10,harbor0,tr0,6392,166192).
route(prodloc10,harbor0,tr13,6392,38352).
route(prodloc10,harbor1,tr0,21823,567398).
route(prodloc10,harbor1,tr13,21823,130938).
route(prodloc10,harbor2,tr0,19085,496210).
route(prodloc10,harbor2,tr13,19085,114510).
route(prodloc10,harbor3,tr0,9646,250796).
route(prodloc10,harbor3,tr13,9646,57876).
route(prodloc10,harbor4,tr0,20124,523224).
route(prodloc10,harbor4,tr13,20124,120744).
route(prodloc10,harbor5,tr0,21894,569244).
route(prodloc10,harbor5,tr13,21894,131364).
route(prodloc10,prodloc0,tr0,19332,502632).
route(prodloc10,prodloc0,tr13,19332,115992).
route(prodloc10,prodloc1,tr0,13503,351078).
route(prodloc10,prodloc1,tr13,13503,81018).
route(prodloc10,prodloc2,tr0,27601,717626).
route(prodloc10,prodloc2,tr13,27601,165606).
route(prodloc10,prodloc3,tr0,859,22334).
route(prodloc10,prodloc3,tr13,859,5154).
route(prodloc10,prodloc4,tr0,1685,43810).
route(prodloc10,prodloc4,tr13,1685,10110).
route(prodloc10,prodloc5,tr0,3844,99944).
route(prodloc10,prodloc5,tr13,3844,23064).
route(prodloc10,prodloc6,tr0,26962,701012).
route(prodloc10,prodloc6,tr13,26962,161772).
route(prodloc10,prodloc7,tr0,16992,441792).
route(prodloc10,prodloc7,tr13,16992,101952).
route(prodloc10,prodloc8,tr0,26731,695006).
route(prodloc10,prodloc8,tr13,26731,160386).
route(prodloc10,prodloc9,tr0,17605,457730).
route(prodloc10,prodloc9,tr13,17605,105630).
route(prodloc10,prodloc11,tr0,36,936).
route(prodloc10,prodloc11,tr13,36,216).
route(prodloc10,prodloc12,tr0,4106,106756).
route(prodloc10,prodloc12,tr13,4106,24636).
route(prodloc10,prodloc13,tr0,10286,267436).
route(prodloc10,prodloc13,tr13,10286,61716).
route(prodloc10,prodloc14,tr0,19869,516594).
route(prodloc10,prodloc14,tr13,19869,119214).
route(prodloc11,harbor0,tr0,20129,523354).
route(prodloc11,harbor0,tr13,20129,120774).
route(prodloc11,harbor1,tr0,2621,68146).
route(prodloc11,harbor1,tr13,2621,15726).
route(prodloc11,harbor2,tr0,19224,499824).
route(prodloc11,harbor2,tr13,19224,115344).
route(prodloc11,harbor3,tr0,17506,455156).
route(prodloc11,harbor3,tr13,17506,105036).
route(prodloc11,harbor4,tr0,9917,257842).
route(prodloc11,harbor4,tr13,9917,59502).
route(prodloc11,harbor5,tr0,14646,380796).
route(prodloc11,harbor5,tr13,14646,87876).
route(prodloc11,prodloc0,tr0,4806,124956).
route(prodloc11,prodloc0,tr13,4806,28836).
route(prodloc11,prodloc1,tr0,19570,508820).
route(prodloc11,prodloc1,tr13,19570,117420).
route(prodloc11,prodloc2,tr0,14067,365742).
route(prodloc11,prodloc2,tr13,14067,84402).
route(prodloc11,prodloc3,tr0,9272,241072).
route(prodloc11,prodloc3,tr13,9272,55632).
route(prodloc11,prodloc4,tr13,18447,110682).
route(prodloc11,prodloc4,tr15,18447,590304).
route(prodloc11,prodloc5,tr0,19988,519688).
route(prodloc11,prodloc5,tr13,19988,119928).
route(prodloc11,prodloc6,tr0,26404,686504).
route(prodloc11,prodloc6,tr13,26404,158424).
route(prodloc11,prodloc7,tr0,13388,348088).
route(prodloc11,prodloc7,tr13,13388,80328).
route(prodloc11,prodloc8,tr0,17521,455546).
route(prodloc11,prodloc8,tr13,17521,105126).
route(prodloc11,prodloc9,tr0,2699,70174).
route(prodloc11,prodloc9,tr13,2699,16194).
route(prodloc11,prodloc10,tr0,22598,587548).
route(prodloc11,prodloc10,tr13,22598,135588).
route(prodloc11,prodloc12,tr0,25367,659542).
route(prodloc11,prodloc12,tr13,25367,152202).
route(prodloc11,prodloc13,tr0,4861,126386).
route(prodloc11,prodloc13,tr15,4861,155552).
route(prodloc11,prodloc14,tr0,20216,525616).
route(prodloc11,prodloc14,tr13,20216,121296).
route(prodloc12,harbor0,tr0,1397,36322).
route(prodloc12,harbor0,tr13,1397,8382).
route(prodloc12,harbor1,tr0,9758,253708).
route(prodloc12,harbor1,tr13,9758,58548).
route(prodloc12,harbor2,tr0,8605,223730).
route(prodloc12,harbor2,tr13,8605,51630).
route(prodloc12,harbor3,tr0,9934,258284).
route(prodloc12,harbor3,tr13,9934,59604).
route(prodloc12,harbor4,tr0,21391,556166).
route(prodloc12,harbor4,tr13,21391,128346).
route(prodloc12,harbor5,tr0,22857,594282).
route(prodloc12,harbor5,tr13,22857,137142).
route(prodloc12,prodloc0,tr0,14558,378508).
route(prodloc12,prodloc0,tr13,14558,87348).
route(prodloc12,prodloc1,tr0,23753,617578).
route(prodloc12,prodloc1,tr13,23753,142518).
route(prodloc12,prodloc2,tr0,10352,269152).
route(prodloc12,prodloc2,tr13,10352,62112).
route(prodloc12,prodloc3,tr0,2445,63570).
route(prodloc12,prodloc3,tr13,2445,14670).
route(prodloc12,prodloc4,tr0,26672,693472).
route(prodloc12,prodloc4,tr13,26672,160032).
route(prodloc12,prodloc5,tr0,26825,697450).
route(prodloc12,prodloc5,tr13,26825,160950).
route(prodloc12,prodloc6,tr0,20595,535470).
route(prodloc12,prodloc6,tr13,20595,123570).
route(prodloc12,prodloc7,tr0,8546,222196).
route(prodloc12,prodloc7,tr13,8546,51276).
route(prodloc12,prodloc8,tr0,12366,321516).
route(prodloc12,prodloc8,tr13,12366,74196).
route(prodloc12,prodloc9,tr0,10060,261560).
route(prodloc12,prodloc9,tr13,10060,60360).
route(prodloc12,prodloc10,tr0,28431,739206).
route(prodloc12,prodloc10,tr13,28431,170586).
route(prodloc12,prodloc11,tr0,21306,553956).
route(prodloc12,prodloc11,tr13,21306,127836).
route(prodloc12,prodloc13,tr0,18502,481052).
route(prodloc12,prodloc13,tr15,18502,592064).
route(prodloc12,prodloc14,tr0,25761,669786).
route(prodloc12,prodloc14,tr13,25761,154566).
route(prodloc13,harbor0,tr0,15645,406770).
route(prodloc13,harbor0,tr13,15645,93870).
route(prodloc13,harbor1,tr0,716,18616).
route(prodloc13,harbor1,tr13,716,4296).
route(prodloc13,harbor2,tr0,4071,105846).
route(prodloc13,harbor2,tr13,4071,24426).
route(prodloc13,harbor3,tr0,3768,97968).
route(prodloc13,harbor3,tr13,3768,22608).
route(prodloc13,harbor4,tr0,10966,285116).
route(prodloc13,harbor4,tr13,10966,65796).
route(prodloc13,harbor5,tr0,13169,342394).
route(prodloc13,harbor5,tr13,13169,79014).
route(prodloc13,prodloc0,tr0,8947,232622).
route(prodloc13,prodloc0,tr13,8947,53682).
route(prodloc13,prodloc1,tr0,28361,737386).
route(prodloc13,prodloc1,tr13,28361,170166).
route(prodloc13,prodloc2,tr0,14738,383188).
route(prodloc13,prodloc2,tr13,14738,88428).
route(prodloc13,prodloc3,tr0,9493,246818).
route(prodloc13,prodloc3,tr13,9493,56958).
route(prodloc13,prodloc4,tr0,27369,711594).
route(prodloc13,prodloc4,tr13,27369,164214).
route(prodloc13,prodloc5,tr0,25676,667576).
route(prodloc13,prodloc5,tr13,25676,154056).
route(prodloc13,prodloc6,tr0,7156,186056).
route(prodloc13,prodloc6,tr13,7156,42936).
route(prodloc13,prodloc7,tr0,8918,231868).
route(prodloc13,prodloc7,tr15,8918,285376).
route(prodloc13,prodloc8,tr0,467,12142).
route(prodloc13,prodloc8,tr13,467,2802).
route(prodloc13,prodloc9,tr0,15549,404274).
route(prodloc13,prodloc9,tr13,15549,93294).
route(prodloc13,prodloc10,tr0,22936,596336).
route(prodloc13,prodloc10,tr13,22936,137616).
route(prodloc13,prodloc11,tr13,136,816).
route(prodloc13,prodloc11,tr15,136,4352).
route(prodloc13,prodloc12,tr0,23576,612976).
route(prodloc13,prodloc12,tr13,23576,141456).
route(prodloc13,prodloc14,tr0,6484,168584).
route(prodloc13,prodloc14,tr13,6484,38904).
route(prodloc14,harbor0,tr0,28604,743704).
route(prodloc14,harbor0,tr13,28604,171624).
route(prodloc14,harbor1,tr0,2702,70252).
route(prodloc14,harbor1,tr13,2702,16212).
route(prodloc14,harbor2,tr0,26177,680602).
route(prodloc14,harbor2,tr13,26177,157062).
route(prodloc14,harbor3,tr0,13724,356824).
route(prodloc14,harbor3,tr13,13724,82344).
route(prodloc14,harbor4,tr0,5101,132626).
route(prodloc14,harbor4,tr13,5101,30606).
route(prodloc14,harbor5,tr0,19429,505154).
route(prodloc14,harbor5,tr13,19429,116574).
route(prodloc14,prodloc0,tr0,7337,190762).
route(prodloc14,prodloc0,tr13,7337,44022).
route(prodloc14,prodloc1,tr0,11010,286260).
route(prodloc14,prodloc1,tr13,11010,66060).
route(prodloc14,prodloc2,tr0,13397,348322).
route(prodloc14,prodloc2,tr13,13397,80382).
route(prodloc14,prodloc3,tr0,18733,487058).
route(prodloc14,prodloc3,tr13,18733,112398).
route(prodloc14,prodloc4,tr0,25210,655460).
route(prodloc14,prodloc4,tr13,25210,151260).
route(prodloc14,prodloc5,tr0,3545,92170).
route(prodloc14,prodloc5,tr15,3545,113440).
route(prodloc14,prodloc6,tr0,24351,633126).
route(prodloc14,prodloc6,tr13,24351,146106).
route(prodloc14,prodloc7,tr0,27254,708604).
route(prodloc14,prodloc7,tr13,27254,163524).
route(prodloc14,prodloc8,tr13,8759,52554).
route(prodloc14,prodloc8,tr15,8759,280288).
route(prodloc14,prodloc9,tr0,27293,709618).
route(prodloc14,prodloc9,tr13,27293,163758).
route(prodloc14,prodloc10,tr0,26095,678470).
route(prodloc14,prodloc10,tr13,26095,156570).
route(prodloc14,prodloc11,tr0,25052,651352).
route(prodloc14,prodloc11,tr15,25052,801664).
route(prodloc14,prodloc12,tr0,359,9334).
route(prodloc14,prodloc12,tr13,359,2154).
route(prodloc14,prodloc13,tr0,10400,270400).
route(prodloc14,prodloc13,tr13,10400,62400).
hub(harbor4).
hub(harbor5).
hub(prodloc1).
hub(prodloc14).
