% Multibatching benchmark instance
% Source: instances.lp
% seed=18  harbors=6  prodlocs=15  hubs=4  disruptions=2

% ---- locations ----
location(harbor0).
location(harbor1).
location(harbor2).
location(harbor3).
location(harbor4).
location(harbor5).
location(prodloc0).
location(prodloc1).
location(prodloc2).
location(prodloc3).
location(prodloc4).
location(prodloc5).
location(prodloc6).
location(prodloc7).
location(prodloc8).
location(prodloc9).
location(prodloc10).
location(prodloc11).
location(prodloc12).
location(prodloc13).
location(prodloc14).

% ---- transport resources ----
transportCapacity(tr0,1800).
transportCO2(tr0,1680).
transportCost(tr0,26).
transportSpeed(tr0,12).
transportCapacity(tr1,65).
transportCO2(tr1,90).
transportCost(tr1,1).
transportSpeed(tr1,35).
transportCapacity(tr10,1).
transportCO2(tr10,700).
transportCost(tr10,4).
transportSpeed(tr10,40).
transportCapacity(tr11,65).
transportCO2(tr11,62).
transportCost(tr11,1).
transportSpeed(tr11,25).
transportCapacity(tr12,65).
transportCO2(tr12,709).
transportCost(tr12,3).
transportSpeed(tr12,55).
transportCapacity(tr13,68).
transportCO2(tr13,160).
transportCost(tr13,6).
transportSpeed(tr13,25).
transportCapacity(tr14,146).
transportCO2(tr14,780).
transportCost(tr14,4).
transportSpeed(tr14,50).
transportCapacity(tr15,2217).
transportCO2(tr15,49470).
transportCost(tr15,32).
transportSpeed(tr15,625).
transportCapacity(tr2,96).
transportCO2(tr2,709).
transportCost(tr2,3).
transportSpeed(tr2,55).
transportCapacity(tr3,1).
transportCO2(tr3,6250).
transportCost(tr3,108).
transportSpeed(tr3,25).
transportCapacity(tr4,148).
transportCO2(tr4,780).
transportCost(tr4,4).
transportSpeed(tr4,50).
transportCapacity(tr5,65).
transportCO2(tr5,780).
transportCost(tr5,3).
transportSpeed(tr5,50).
transportCapacity(tr6,1).
transportCO2(tr6,100).
transportCost(tr6,40).
transportSpeed(tr6,25).
transportCapacity(tr7,1).
transportCO2(tr7,18000).
transportCost(tr7,278).
transportSpeed(tr7,10).
transportCapacity(tr8,1).
transportCO2(tr8,14400).
transportCost(tr8,107).
transportSpeed(tr8,25).
transportCapacity(tr9,65).
transportCO2(tr9,708).
transportCost(tr9,2).
transportSpeed(tr9,60).

% ---- parts ----
part(part0).
partSize(part0,21).
valid_transport(part0,tr0).
valid_transport(part0,tr15).
valid_transport(part0,tr14).
valid_transport(part0,tr13).
valid_transport(part0,tr4).
part(part1).
partSize(part1,1).
valid_transport(part1,tr0).
valid_transport(part1,tr2).
valid_transport(part1,tr15).
valid_transport(part1,tr9).
valid_transport(part1,tr12).
valid_transport(part1,tr13).
valid_transport(part1,tr11).
part(part10).
partSize(part10,1).
valid_transport(part10,tr0).
valid_transport(part10,tr2).
valid_transport(part10,tr15).
valid_transport(part10,tr9).
valid_transport(part10,tr12).
valid_transport(part10,tr13).
valid_transport(part10,tr11).
part(part11).
partSize(part11,83).
valid_transport(part11,tr0).
valid_transport(part11,tr7).
valid_transport(part11,tr8).
valid_transport(part11,tr15).
valid_transport(part11,tr3).
valid_transport(part11,tr13).
part(part12).
partSize(part12,273).
valid_transport(part12,tr0).
valid_transport(part12,tr7).
valid_transport(part12,tr8).
valid_transport(part12,tr15).
valid_transport(part12,tr3).
valid_transport(part12,tr13).
part(part13).
partSize(part13,1).
valid_transport(part13,tr0).
valid_transport(part13,tr2).
valid_transport(part13,tr15).
valid_transport(part13,tr9).
valid_transport(part13,tr12).
valid_transport(part13,tr13).
valid_transport(part13,tr11).
part(part14).
partSize(part14,68).
valid_transport(part14,tr0).
valid_transport(part14,tr15).
valid_transport(part14,tr13).
part(part15).
partSize(part15,4).
valid_transport(part15,tr0).
valid_transport(part15,tr2).
valid_transport(part15,tr15).
valid_transport(part15,tr9).
valid_transport(part15,tr12).
valid_transport(part15,tr13).
valid_transport(part15,tr11).
part(part16).
partSize(part16,4).
valid_transport(part16,tr0).
valid_transport(part16,tr2).
valid_transport(part16,tr15).
valid_transport(part16,tr9).
valid_transport(part16,tr12).
valid_transport(part16,tr13).
valid_transport(part16,tr11).
part(part17).
partSize(part17,8).
valid_transport(part17,tr0).
valid_transport(part17,tr15).
valid_transport(part17,tr14).
valid_transport(part17,tr13).
valid_transport(part17,tr4).
part(part18).
partSize(part18,24).
valid_transport(part18,tr0).
valid_transport(part18,tr15).
valid_transport(part18,tr14).
valid_transport(part18,tr13).
valid_transport(part18,tr4).
part(part19).
partSize(part19,6).
valid_transport(part19,tr0).
valid_transport(part19,tr2).
valid_transport(part19,tr15).
valid_transport(part19,tr9).
valid_transport(part19,tr12).
valid_transport(part19,tr13).
valid_transport(part19,tr11).
part(part2).
partSize(part2,19).
valid_transport(part2,tr0).
valid_transport(part2,tr15).
valid_transport(part2,tr14).
valid_transport(part2,tr13).
valid_transport(part2,tr4).
part(part20).
partSize(part20,128).
valid_transport(part20,tr0).
valid_transport(part20,tr7).
valid_transport(part20,tr8).
valid_transport(part20,tr15).
valid_transport(part20,tr3).
valid_transport(part20,tr13).
part(part21).
partSize(part21,25).
valid_transport(part21,tr0).
valid_transport(part21,tr15).
valid_transport(part21,tr14).
valid_transport(part21,tr13).
valid_transport(part21,tr4).
part(part22).
partSize(part22,7).
valid_transport(part22,tr0).
valid_transport(part22,tr2).
valid_transport(part22,tr15).
valid_transport(part22,tr9).
valid_transport(part22,tr12).
valid_transport(part22,tr13).
valid_transport(part22,tr11).
part(part23).
partSize(part23,5).
valid_transport(part23,tr0).
valid_transport(part23,tr15).
valid_transport(part23,tr14).
valid_transport(part23,tr13).
valid_transport(part23,tr4).
part(part24).
partSize(part24,55).
valid_transport(part24,tr0).
valid_transport(part24,tr7).
valid_transport(part24,tr8).
valid_transport(part24,tr15).
valid_transport(part24,tr3).
valid_transport(part24,tr13).
part(part25).
partSize(part25,5).
valid_transport(part25,tr0).
valid_transport(part25,tr4).
valid_transport(part25,tr2).
valid_transport(part25,tr15).
valid_transport(part25,tr13).
part(part26).
partSize(part26,32).
valid_transport(part26,tr0).
valid_transport(part26,tr7).
valid_transport(part26,tr8).
valid_transport(part26,tr15).
valid_transport(part26,tr3).
valid_transport(part26,tr13).
part(part27).
partSize(part27,5).
valid_transport(part27,tr0).
valid_transport(part27,tr2).
valid_transport(part27,tr15).
valid_transport(part27,tr9).
valid_transport(part27,tr12).
valid_transport(part27,tr13).
valid_transport(part27,tr11).
part(part28).
partSize(part28,3).
valid_transport(part28,tr0).
valid_transport(part28,tr4).
valid_transport(part28,tr2).
valid_transport(part28,tr15).
valid_transport(part28,tr14).
valid_transport(part28,tr13).
part(part29).
partSize(part29,627).
part(part3).
partSize(part3,48).
valid_transport(part3,tr0).
valid_transport(part3,tr7).
valid_transport(part3,tr8).
valid_transport(part3,tr15).
valid_transport(part3,tr3).
valid_transport(part3,tr13).
part(part30).
partSize(part30,2).
valid_transport(part30,tr0).
valid_transport(part30,tr2).
valid_transport(part30,tr15).
valid_transport(part30,tr9).
valid_transport(part30,tr12).
valid_transport(part30,tr13).
valid_transport(part30,tr11).
part(part31).
partSize(part31,144).
valid_transport(part31,tr0).
valid_transport(part31,tr7).
valid_transport(part31,tr8).
valid_transport(part31,tr15).
valid_transport(part31,tr3).
valid_transport(part31,tr13).
part(part32).
partSize(part32,16).
valid_transport(part32,tr0).
valid_transport(part32,tr4).
valid_transport(part32,tr2).
valid_transport(part32,tr15).
valid_transport(part32,tr14).
valid_transport(part32,tr13).
part(part33).
partSize(part33,7).
valid_transport(part33,tr0).
valid_transport(part33,tr2).
valid_transport(part33,tr15).
valid_transport(part33,tr9).
valid_transport(part33,tr12).
valid_transport(part33,tr13).
valid_transport(part33,tr11).
part(part3345).
partSize(part3345,353).
valid_transport(part3345,tr0).
valid_transport(part3345,tr7).
valid_transport(part3345,tr8).
valid_transport(part3345,tr15).
valid_transport(part3345,tr3).
valid_transport(part3345,tr13).
part(part34).
partSize(part34,2).
valid_transport(part34,tr0).
valid_transport(part34,tr2).
valid_transport(part34,tr15).
valid_transport(part34,tr9).
valid_transport(part34,tr12).
valid_transport(part34,tr13).
valid_transport(part34,tr11).
part(part4).
partSize(part4,2).
valid_transport(part4,tr0).
valid_transport(part4,tr2).
valid_transport(part4,tr15).
valid_transport(part4,tr9).
valid_transport(part4,tr12).
valid_transport(part4,tr13).
valid_transport(part4,tr11).
part(part5).
partSize(part5,2).
valid_transport(part5,tr0).
valid_transport(part5,tr2).
valid_transport(part5,tr15).
valid_transport(part5,tr9).
valid_transport(part5,tr12).
valid_transport(part5,tr14).
valid_transport(part5,tr13).
valid_transport(part5,tr11).
part(part6).
partSize(part6,111).
valid_transport(part6,tr0).
valid_transport(part6,tr7).
valid_transport(part6,tr8).
valid_transport(part6,tr15).
valid_transport(part6,tr3).
valid_transport(part6,tr13).
part(part8).
partSize(part8,163).
valid_transport(part8,tr0).
valid_transport(part8,tr7).
valid_transport(part8,tr8).
valid_transport(part8,tr15).
valid_transport(part8,tr3).
valid_transport(part8,tr13).
part(part9).
partSize(part9,2).
valid_transport(part9,tr0).
valid_transport(part9,tr2).
valid_transport(part9,tr15).
valid_transport(part9,tr9).
valid_transport(part9,tr12).
valid_transport(part9,tr13).
valid_transport(part9,tr11).

% ---- demand ----
demandOffer(part0,prodloc2,40).
demandOffer(part0,prodloc1,40).
demandOffer(part0,prodloc10,-27).
demandOffer(part0,prodloc7,-53).
demandOffer(part1,prodloc5,20).
demandOffer(part1,prodloc3,20).
demandOffer(part1,prodloc13,-20).
demandOffer(part1,prodloc7,-20).
demandOffer(part10,prodloc10,20).
demandOffer(part10,prodloc7,20).
demandOffer(part10,prodloc2,-20).
demandOffer(part10,prodloc13,-20).
demandOffer(part12,prodloc4,10).
demandOffer(part12,prodloc7,20).
demandOffer(part12,prodloc14,-10).
demandOffer(part12,prodloc3,-10).
demandOffer(part12,prodloc12,-10).
demandOffer(part13,prodloc14,20).
demandOffer(part13,prodloc11,20).
demandOffer(part13,prodloc1,-20).
demandOffer(part13,prodloc5,-20).
demandOffer(part14,prodloc8,26).
demandOffer(part14,prodloc10,-26).
demandOffer(part15,prodloc12,53).
demandOffer(part15,prodloc14,27).
demandOffer(part15,prodloc2,-53).
demandOffer(part15,prodloc3,-27).
demandOffer(part16,prodloc2,53).
demandOffer(part16,prodloc3,27).
demandOffer(part16,prodloc13,-53).
demandOffer(part16,prodloc11,-27).
demandOffer(part17,prodloc5,20).
demandOffer(part17,prodloc9,-20).
demandOffer(part18,prodloc8,40).
demandOffer(part18,prodloc3,40).
demandOffer(part18,prodloc12,-27).
demandOffer(part18,prodloc10,-53).
demandOffer(part19,prodloc14,26).
demandOffer(part19,prodloc13,-26).
demandOffer(part2,prodloc12,40).
demandOffer(part2,prodloc13,40).
demandOffer(part2,prodloc7,-27).
demandOffer(part2,prodloc3,-53).
demandOffer(part20,prodloc11,53).
demandOffer(part20,prodloc4,27).
demandOffer(part20,prodloc13,-14).
demandOffer(part20,prodloc0,-46).
demandOffer(part20,prodloc5,-20).
demandOffer(part21,prodloc6,26).
demandOffer(part21,prodloc3,-26).
demandOffer(part22,prodloc12,53).
demandOffer(part22,prodloc11,27).
demandOffer(part22,prodloc6,-53).
demandOffer(part22,prodloc8,-27).
demandOffer(part23,prodloc5,20).
demandOffer(part23,prodloc9,20).
demandOffer(part23,prodloc13,-20).
demandOffer(part23,prodloc8,-20).
demandOffer(part25,prodloc4,20).
demandOffer(part25,prodloc13,-20).
demandOffer(part26,prodloc4,20).
demandOffer(part26,prodloc9,20).
demandOffer(part26,prodloc11,-14).
demandOffer(part26,prodloc14,-26).
demandOffer(part27,prodloc8,53).
demandOffer(part27,prodloc1,27).
demandOffer(part27,prodloc4,-53).
demandOffer(part27,prodloc7,-27).
demandOffer(part28,prodloc9,20).
demandOffer(part28,prodloc8,20).
demandOffer(part28,prodloc2,-20).
demandOffer(part28,prodloc7,-20).
demandOffer(part3,prodloc10,40).
demandOffer(part3,prodloc12,-14).
demandOffer(part3,prodloc14,-26).
demandOffer(part30,prodloc12,40).
demandOffer(part30,prodloc2,40).
demandOffer(part30,prodloc3,-27).
demandOffer(part30,prodloc14,-53).
demandOffer(part31,prodloc10,7).
demandOffer(part31,prodloc14,7).
demandOffer(part31,prodloc12,-14).
demandOffer(part32,prodloc6,53).
demandOffer(part32,prodloc2,27).
demandOffer(part32,prodloc14,-53).
demandOffer(part32,prodloc8,-27).
demandOffer(part33,prodloc7,53).
demandOffer(part33,prodloc9,27).
demandOffer(part33,prodloc1,-53).
demandOffer(part33,prodloc11,-27).
demandOffer(part34,prodloc3,20).
demandOffer(part34,prodloc9,-20).
demandOffer(part4,prodloc4,26).
demandOffer(part4,prodloc8,-26).
demandOffer(part5,prodloc13,20).
demandOffer(part5,prodloc5,-20).
demandOffer(part6,prodloc12,27).
demandOffer(part6,prodloc14,53).
demandOffer(part6,prodloc10,-24).
demandOffer(part6,prodloc8,-36).
demandOffer(part6,prodloc7,-10).
demandOffer(part6,prodloc1,-10).
demandOffer(part8,prodloc7,3).
demandOffer(part8,prodloc2,17).
demandOffer(part8,prodloc14,-10).
demandOffer(part8,prodloc13,-10).
demandOffer(part9,prodloc7,20).
demandOffer(part9,prodloc1,-20).

% ---- network (ASP-generated) ----
route(harbor0,harbor1,tr13,8207,49242).
route(harbor0,harbor1,tr2,8207,24621).
route(harbor0,harbor2,tr13,21273,127638).
route(harbor0,harbor2,tr2,21273,63819).
route(harbor0,harbor3,tr13,3064,18384).
route(harbor0,harbor3,tr2,3064,9192).
route(harbor0,harbor4,tr13,17838,107028).
route(harbor0,harbor4,tr2,17838,53514).
route(harbor0,harbor5,tr13,11578,69468).
route(harbor0,harbor5,tr2,11578,34734).
route(harbor0,prodloc0,tr0,6682,173732).
route(harbor0,prodloc0,tr13,6682,40092).
route(harbor0,prodloc1,tr0,25679,667654).
route(harbor0,prodloc1,tr13,25679,154074).
route(harbor0,prodloc2,tr0,20638,536588).
route(harbor0,prodloc2,tr13,20638,123828).
route(harbor0,prodloc3,tr0,12890,335140).
route(harbor0,prodloc3,tr13,12890,77340).
route(harbor0,prodloc4,tr0,25959,674934).
route(harbor0,prodloc4,tr13,25959,155754).
route(harbor0,prodloc5,tr0,18969,493194).
route(harbor0,prodloc5,tr13,18969,113814).
route(harbor0,prodloc6,tr0,26807,696982).
route(harbor0,prodloc6,tr13,26807,160842).
route(harbor0,prodloc7,tr0,17456,453856).
route(harbor0,prodloc7,tr13,17456,104736).
route(harbor0,prodloc8,tr0,22334,580684).
route(harbor0,prodloc8,tr13,22334,134004).
route(harbor0,prodloc9,tr0,24847,646022).
route(harbor0,prodloc9,tr13,24847,149082).
route(harbor0,prodloc10,tr0,17263,448838).
route(harbor0,prodloc10,tr13,17263,103578).
route(harbor0,prodloc11,tr0,208,5408).
route(harbor0,prodloc11,tr13,208,1248).
route(harbor0,prodloc12,tr0,4356,113256).
route(harbor0,prodloc12,tr13,4356,26136).
route(harbor0,prodloc13,tr0,25332,658632).
route(harbor0,prodloc13,tr13,25332,151992).
route(harbor0,prodloc14,tr0,22588,587288).
route(harbor0,prodloc14,tr13,22588,135528).
route(harbor1,harbor0,tr13,27799,166794).
route(harbor1,harbor0,tr2,27799,83397).
route(harbor1,harbor2,tr13,29004,174024).
route(harbor1,harbor2,tr2,29004,87012).
route(harbor1,harbor3,tr13,2886,17316).
route(harbor1,harbor3,tr2,2886,8658).
route(harbor1,harbor4,tr13,15705,94230).
route(harbor1,harbor4,tr2,15705,47115).
route(harbor1,harbor5,tr13,13143,78858).
route(harbor1,harbor5,tr2,13143,39429).
route(harbor1,prodloc0,tr0,26779,696254).
route(harbor1,prodloc0,tr13,26779,160674).
route(harbor1,prodloc1,tr0,13264,344864).
route(harbor1,prodloc1,tr13,13264,79584).
route(harbor1,prodloc2,tr0,5944,154544).
route(harbor1,prodloc2,tr13,5944,35664).
route(harbor1,prodloc3,tr0,12628,328328).
route(harbor1,prodloc3,tr13,12628,75768).
route(harbor1,prodloc4,tr0,13641,354666).
route(harbor1,prodloc4,tr13,13641,81846).
route(harbor1,prodloc5,tr0,4237,110162).
route(harbor1,prodloc5,tr13,4237,25422).
route(harbor1,prodloc6,tr0,8878,230828).
route(harbor1,prodloc6,tr13,8878,53268).
route(harbor1,prodloc7,tr0,23183,602758).
route(harbor1,prodloc7,tr13,23183,139098).
route(harbor1,prodloc8,tr0,13009,338234).
route(harbor1,prodloc8,tr13,13009,78054).
route(harbor1,prodloc9,tr0,22282,579332).
route(harbor1,prodloc9,tr13,22282,133692).
route(harbor1,prodloc10,tr0,23001,598026).
route(harbor1,prodloc10,tr13,23001,138006).
route(harbor1,prodloc11,tr0,11818,307268).
route(harbor1,prodloc11,tr13,11818,70908).
route(harbor1,prodloc12,tr0,4705,122330).
route(harbor1,prodloc12,tr13,4705,28230).
route(harbor1,prodloc13,tr0,10998,285948).
route(harbor1,prodloc13,tr13,10998,65988).
route(harbor1,prodloc14,tr0,11092,288392).
route(harbor1,prodloc14,tr13,11092,66552).
route(harbor2,harbor0,tr13,23958,143748).
route(harbor2,harbor0,tr2,23958,71874).
route(harbor2,harbor1,tr13,27753,166518).
route(harbor2,harbor1,tr2,27753,83259).
route(harbor2,harbor3,tr13,20060,120360).
route(harbor2,harbor3,tr2,20060,60180).
route(harbor2,harbor4,tr13,9906,59436).
route(harbor2,harbor4,tr2,9906,29718).
route(harbor2,harbor5,tr13,4160,24960).
route(harbor2,harbor5,tr2,4160,12480).
route(harbor2,prodloc0,tr0,14220,369720).
route(harbor2,prodloc0,tr13,14220,85320).
route(harbor2,prodloc1,tr0,22898,595348).
route(harbor2,prodloc1,tr13,22898,137388).
route(harbor2,prodloc2,tr0,17734,461084).
route(harbor2,prodloc2,tr13,17734,106404).
route(harbor2,prodloc3,tr0,28299,735774).
route(harbor2,prodloc3,tr13,28299,169794).
route(harbor2,prodloc4,tr0,595,15470).
route(harbor2,prodloc4,tr13,595,3570).
route(harbor2,prodloc5,tr0,18722,486772).
route(harbor2,prodloc5,tr13,18722,112332).
route(harbor2,prodloc6,tr0,13882,360932).
route(harbor2,prodloc6,tr13,13882,83292).
route(harbor2,prodloc7,tr0,4787,124462).
route(harbor2,prodloc7,tr13,4787,28722).
route(harbor2,prodloc8,tr0,25183,654758).
route(harbor2,prodloc8,tr13,25183,151098).
route(harbor2,prodloc9,tr0,5336,138736).
route(harbor2,prodloc9,tr13,5336,32016).
route(harbor2,prodloc10,tr0,20167,524342).
route(harbor2,prodloc10,tr13,20167,121002).
route(harbor2,prodloc11,tr0,24209,629434).
route(harbor2,prodloc11,tr13,24209,145254).
route(harbor2,prodloc12,tr0,26459,687934).
route(harbor2,prodloc12,tr13,26459,158754).
route(harbor2,prodloc13,tr0,21372,555672).
route(harbor2,prodloc13,tr13,21372,128232).
route(harbor2,prodloc14,tr0,13973,363298).
route(harbor2,prodloc14,tr13,13973,83838).
route(harbor3,harbor0,tr13,217,1302).
route(harbor3,harbor0,tr2,217,651).
route(harbor3,harbor1,tr13,16886,101316).
route(harbor3,harbor1,tr2,16886,50658).
route(harbor3,harbor2,tr13,18257,109542).
route(harbor3,harbor2,tr2,18257,54771).
route(harbor3,harbor4,tr13,18336,110016).
route(harbor3,harbor4,tr2,18336,55008).
route(harbor3,harbor5,tr13,27143,162858).
route(harbor3,harbor5,tr2,27143,81429).
route(harbor3,prodloc0,tr0,15040,391040).
route(harbor3,prodloc0,tr13,15040,90240).
route(harbor3,prodloc1,tr0,17975,467350).
route(harbor3,prodloc1,tr13,17975,107850).
route(harbor3,prodloc2,tr0,3318,86268).
route(harbor3,prodloc2,tr13,3318,19908).
route(harbor3,prodloc3,tr0,288,7488).
route(harbor3,prodloc3,tr13,288,1728).
route(harbor3,prodloc4,tr0,25189,654914).
route(harbor3,prodloc4,tr13,25189,151134).
route(harbor3,prodloc5,tr0,19893,517218).
route(harbor3,prodloc5,tr13,19893,119358).
route(harbor3,prodloc6,tr0,25244,656344).
route(harbor3,prodloc6,tr13,25244,151464).
route(harbor3,prodloc7,tr0,8435,219310).
route(harbor3,prodloc7,tr13,8435,50610).
route(harbor3,prodloc8,tr0,13830,359580).
route(harbor3,prodloc8,tr13,13830,82980).
route(harbor3,prodloc9,tr0,24341,632866).
route(harbor3,prodloc9,tr13,24341,146046).
route(harbor3,prodloc10,tr0,13237,344162).
route(harbor3,prodloc10,tr13,13237,79422).
route(harbor3,prodloc11,tr0,15718,408668).
route(harbor3,prodloc11,tr13,15718,94308).
route(harbor3,prodloc12,tr0,20005,520130).
route(harbor3,prodloc12,tr13,20005,120030).
route(harbor3,prodloc13,tr0,18298,475748).
route(harbor3,prodloc13,tr13,18298,109788).
route(harbor3,prodloc14,tr0,15467,402142).
route(harbor3,prodloc14,tr13,15467,92802).
route(harbor4,harbor0,tr13,28499,170994).
route(harbor4,harbor0,tr2,28499,85497).
route(harbor4,harbor1,tr13,13639,81834).
route(harbor4,harbor1,tr2,13639,40917).
route(harbor4,harbor2,tr13,27430,164580).
route(harbor4,harbor2,tr2,27430,82290).
route(harbor4,harbor3,tr13,28739,172434).
route(harbor4,harbor3,tr2,28739,86217).
route(harbor4,harbor5,tr13,27536,165216).
route(harbor4,harbor5,tr2,27536,82608).
route(harbor4,prodloc0,tr0,25959,674934).
route(harbor4,prodloc0,tr13,25959,155754).
route(harbor4,prodloc1,tr0,4945,128570).
route(harbor4,prodloc1,tr13,4945,29670).
route(harbor4,prodloc2,tr0,7376,191776).
route(harbor4,prodloc2,tr13,7376,44256).
route(harbor4,prodloc3,tr0,5643,146718).
route(harbor4,prodloc3,tr13,5643,33858).
route(harbor4,prodloc4,tr0,27984,727584).
route(harbor4,prodloc4,tr13,27984,167904).
route(harbor4,prodloc5,tr0,25709,668434).
route(harbor4,prodloc5,tr13,25709,154254).
route(harbor4,prodloc6,tr0,5764,149864).
route(harbor4,prodloc6,tr13,5764,34584).
route(harbor4,prodloc7,tr0,12077,314002).
route(harbor4,prodloc7,tr13,12077,72462).
route(harbor4,prodloc8,tr0,23931,622206).
route(harbor4,prodloc8,tr13,23931,143586).
route(harbor4,prodloc9,tr0,20589,535314).
route(harbor4,prodloc9,tr13,20589,123534).
route(harbor4,prodloc10,tr0,9730,252980).
route(harbor4,prodloc10,tr13,9730,58380).
route(harbor4,prodloc11,tr0,16245,422370).
route(harbor4,prodloc11,tr13,16245,97470).
route(harbor4,prodloc12,tr0,1920,49920).
route(harbor4,prodloc12,tr13,1920,11520).
route(harbor4,prodloc13,tr0,25559,664534).
route(harbor4,prodloc13,tr13,25559,153354).
route(harbor4,prodloc14,tr0,27112,704912).
route(harbor4,prodloc14,tr13,27112,162672).
route(harbor5,harbor0,tr13,3098,18588).
route(harbor5,harbor0,tr2,3098,9294).
route(harbor5,harbor1,tr13,11566,69396).
route(harbor5,harbor1,tr2,11566,34698).
route(harbor5,harbor2,tr13,24888,149328).
route(harbor5,harbor2,tr2,24888,74664).
route(harbor5,harbor3,tr13,17728,106368).
route(harbor5,harbor3,tr2,17728,53184).
route(harbor5,harbor4,tr13,24146,144876).
route(harbor5,harbor4,tr2,24146,72438).
route(harbor5,prodloc0,tr0,5853,152178).
route(harbor5,prodloc0,tr13,5853,35118).
route(harbor5,prodloc1,tr0,28126,731276).
route(harbor5,prodloc1,tr13,28126,168756).
route(harbor5,prodloc2,tr0,17162,446212).
route(harbor5,prodloc2,tr13,17162,102972).
route(harbor5,prodloc3,tr0,4951,128726).
route(harbor5,prodloc3,tr13,4951,29706).
route(harbor5,prodloc4,tr0,6928,180128).
route(harbor5,prodloc4,tr13,6928,41568).
route(harbor5,prodloc5,tr0,8595,223470).
route(harbor5,prodloc5,tr13,8595,51570).
route(harbor5,prodloc6,tr0,2505,65130).
route(harbor5,prodloc6,tr13,2505,15030).
route(harbor5,prodloc7,tr0,5349,139074).
route(harbor5,prodloc7,tr13,5349,32094).
route(harbor5,prodloc8,tr0,27509,715234).
route(harbor5,prodloc8,tr13,27509,165054).
route(harbor5,prodloc9,tr0,18754,487604).
route(harbor5,prodloc9,tr13,18754,112524).
route(harbor5,prodloc10,tr0,22895,595270).
route(harbor5,prodloc10,tr13,22895,137370).
route(harbor5,prodloc11,tr0,26100,678600).
route(harbor5,prodloc11,tr13,26100,156600).
route(harbor5,prodloc12,tr0,7559,196534).
route(harbor5,prodloc12,tr13,7559,45354).
route(harbor5,prodloc13,tr0,4272,111072).
route(harbor5,prodloc13,tr13,4272,25632).
route(harbor5,prodloc14,tr0,9834,255684).
route(harbor5,prodloc14,tr13,9834,59004).
route(prodloc0,harbor0,tr0,3485,90610).
route(prodloc0,harbor0,tr13,3485,20910).
route(prodloc0,harbor1,tr0,19245,500370).
route(prodloc0,harbor1,tr13,19245,115470).
route(prodloc0,harbor2,tr0,12253,318578).
route(prodloc0,harbor2,tr13,12253,73518).
route(prodloc0,harbor3,tr0,2118,55068).
route(prodloc0,harbor3,tr13,2118,12708).
route(prodloc0,harbor4,tr0,11719,304694).
route(prodloc0,harbor4,tr13,11719,70314).
route(prodloc0,harbor5,tr0,10766,279916).
route(prodloc0,harbor5,tr13,10766,64596).
route(prodloc0,prodloc1,tr0,2912,75712).
route(prodloc0,prodloc1,tr13,2912,17472).
route(prodloc0,prodloc2,tr0,19760,513760).
route(prodloc0,prodloc2,tr13,19760,118560).
route(prodloc0,prodloc3,tr0,8740,227240).
route(prodloc0,prodloc3,tr13,8740,52440).
route(prodloc0,prodloc4,tr0,11390,296140).
route(prodloc0,prodloc4,tr13,11390,68340).
route(prodloc0,prodloc5,tr0,23573,612898).
route(prodloc0,prodloc5,tr13,23573,141438).
route(prodloc0,prodloc6,tr0,5598,145548).
route(prodloc0,prodloc6,tr13,5598,33588).
route(prodloc0,prodloc7,tr0,12997,337922).
route(prodloc0,prodloc7,tr13,12997,77982).
route(prodloc0,prodloc8,tr0,22908,595608).
route(prodloc0,prodloc8,tr13,22908,137448).
route(prodloc0,prodloc9,tr0,13368,347568).
route(prodloc0,prodloc9,tr13,13368,80208).
route(prodloc0,prodloc10,tr0,27149,705874).
route(prodloc0,prodloc10,tr13,27149,162894).
route(prodloc0,prodloc11,tr0,16807,436982).
route(prodloc0,prodloc11,tr13,16807,100842).
route(prodloc0,prodloc12,tr0,13414,348764).
route(prodloc0,prodloc12,tr13,13414,80484).
route(prodloc0,prodloc13,tr0,24297,631722).
route(prodloc0,prodloc13,tr13,24297,145782).
route(prodloc0,prodloc14,tr0,17102,444652).
route(prodloc0,prodloc14,tr13,17102,102612).
route(prodloc1,harbor0,tr0,23230,603980).
route(prodloc1,harbor0,tr13,23230,139380).
route(prodloc1,harbor1,tr0,363,9438).
route(prodloc1,harbor1,tr13,363,2178).
route(prodloc1,harbor2,tr0,8954,232804).
route(prodloc1,harbor2,tr13,8954,53724).
route(prodloc1,harbor3,tr0,14234,370084).
route(prodloc1,harbor3,tr13,14234,85404).
route(prodloc1,harbor4,tr0,26301,683826).
route(prodloc1,harbor4,tr13,26301,157806).
route(prodloc1,harbor5,tr0,24451,635726).
route(prodloc1,harbor5,tr13,24451,146706).
route(prodloc1,prodloc0,tr0,1499,38974).
route(prodloc1,prodloc0,tr13,1499,8994).
route(prodloc1,prodloc2,tr0,18517,481442).
route(prodloc1,prodloc2,tr13,18517,111102).
route(prodloc1,prodloc3,tr0,8401,218426).
route(prodloc1,prodloc3,tr13,8401,50406).
route(prodloc1,prodloc4,tr0,13182,342732).
route(prodloc1,prodloc4,tr13,13182,79092).
route(prodloc1,prodloc5,tr0,8964,233064).
route(prodloc1,prodloc5,tr13,8964,53784).
route(prodloc1,prodloc6,tr0,2939,76414).
route(prodloc1,prodloc6,tr13,2939,17634).
route(prodloc1,prodloc7,tr0,7065,183690).
route(prodloc1,prodloc7,tr13,7065,42390).
route(prodloc1,prodloc8,tr0,9310,242060).
route(prodloc1,prodloc8,tr13,9310,55860).
route(prodloc1,prodloc9,tr0,5320,138320).
route(prodloc1,prodloc9,tr13,5320,31920).
route(prodloc1,prodloc10,tr0,12260,318760).
route(prodloc1,prodloc10,tr13,12260,73560).
route(prodloc1,prodloc11,tr0,4470,116220).
route(prodloc1,prodloc11,tr13,4470,26820).
route(prodloc1,prodloc12,tr0,22753,591578).
route(prodloc1,prodloc12,tr13,22753,136518).
route(prodloc1,prodloc13,tr0,22150,575900).
route(prodloc1,prodloc13,tr13,22150,132900).
route(prodloc1,prodloc14,tr0,21228,551928).
route(prodloc1,prodloc14,tr13,21228,127368).
route(prodloc2,harbor0,tr0,14348,373048).
route(prodloc2,harbor0,tr13,14348,86088).
route(prodloc2,harbor1,tr0,2930,76180).
route(prodloc2,harbor1,tr13,2930,17580).
route(prodloc2,harbor2,tr0,3510,91260).
route(prodloc2,harbor2,tr13,3510,21060).
route(prodloc2,harbor3,tr0,24799,644774).
route(prodloc2,harbor3,tr13,24799,148794).
route(prodloc2,harbor4,tr0,27638,718588).
route(prodloc2,harbor4,tr13,27638,165828).
route(prodloc2,harbor5,tr0,10724,278824).
route(prodloc2,harbor5,tr13,10724,64344).
route(prodloc2,prodloc0,tr0,27368,711568).
route(prodloc2,prodloc0,tr13,27368,164208).
route(prodloc2,prodloc1,tr0,22432,583232).
route(prodloc2,prodloc1,tr13,22432,134592).
route(prodloc2,prodloc3,tr0,8526,221676).
route(prodloc2,prodloc3,tr13,8526,51156).
route(prodloc2,prodloc4,tr0,25511,663286).
route(prodloc2,prodloc4,tr13,25511,153066).
route(prodloc2,prodloc5,tr0,27190,706940).
route(prodloc2,prodloc5,tr13,27190,163140).
route(prodloc2,prodloc6,tr0,18274,475124).
route(prodloc2,prodloc6,tr13,18274,109644).
route(prodloc2,prodloc7,tr0,25420,660920).
route(prodloc2,prodloc7,tr13,25420,152520).
route(prodloc2,prodloc8,tr0,15271,397046).
route(prodloc2,prodloc8,tr13,15271,91626).
route(prodloc2,prodloc9,tr0,17376,451776).
route(prodloc2,prodloc9,tr13,17376,104256).
route(prodloc2,prodloc10,tr0,18768,487968).
route(prodloc2,prodloc10,tr13,18768,112608).
route(prodloc2,prodloc11,tr0,2882,74932).
route(prodloc2,prodloc11,tr13,2882,17292).
route(prodloc2,prodloc12,tr0,7176,186576).
route(prodloc2,prodloc12,tr13,7176,43056).
route(prodloc2,prodloc13,tr0,23234,604084).
route(prodloc2,prodloc13,tr13,23234,139404).
route(prodloc3,harbor0,tr0,28661,745186).
route(prodloc3,harbor0,tr13,28661,171966).
route(prodloc3,harbor1,tr0,15322,398372).
route(prodloc3,harbor1,tr13,15322,91932).
route(prodloc3,harbor2,tr0,25502,663052).
route(prodloc3,harbor2,tr13,25502,153012).
route(prodloc3,harbor3,tr0,10336,268736).
route(prodloc3,harbor3,tr13,10336,62016).
route(prodloc3,harbor4,tr0,5321,138346).
route(prodloc3,harbor4,tr13,5321,31926).
route(prodloc3,harbor5,tr0,24883,646958).
route(prodloc3,harbor5,tr13,24883,149298).
route(prodloc3,prodloc0,tr0,23679,615654).
route(prodloc3,prodloc0,tr13,23679,142074).
route(prodloc3,prodloc1,tr0,3066,79716).
route(prodloc3,prodloc1,tr13,3066,18396).
route(prodloc3,prodloc2,tr0,7222,187772).
route(prodloc3,prodloc2,tr13,7222,43332).
route(prodloc3,prodloc4,tr0,11920,309920).
route(prodloc3,prodloc4,tr13,11920,71520).
route(prodloc3,prodloc5,tr0,28243,734318).
route(prodloc3,prodloc5,tr13,28243,169458).
route(prodloc3,prodloc6,tr0,17662,459212).
route(prodloc3,prodloc6,tr13,17662,105972).
route(prodloc3,prodloc7,tr0,20937,544362).
route(prodloc3,prodloc7,tr13,20937,125622).
route(prodloc3,prodloc8,tr0,16094,418444).
route(prodloc3,prodloc8,tr13,16094,96564).
route(prodloc3,prodloc9,tr0,17357,451282).
route(prodloc3,prodloc9,tr13,17357,104142).
route(prodloc3,prodloc10,tr0,25259,656734).
route(prodloc3,prodloc10,tr13,25259,151554).
route(prodloc3,prodloc11,tr0,16613,431938).
route(prodloc3,prodloc11,tr13,16613,99678).
route(prodloc3,prodloc12,tr0,25380,659880).
route(prodloc3,prodloc12,tr13,25380,152280).
route(prodloc3,prodloc13,tr0,12466,324116).
route(prodloc3,prodloc13,tr15,12466,398912).
route(prodloc3,prodloc14,tr0,28151,731926).
route(prodloc3,prodloc14,tr13,28151,168906).
route(prodloc4,harbor0,tr0,13213,343538).
route(prodloc4,harbor0,tr13,13213,79278).
route(prodloc4,harbor1,tr0,22176,576576).
route(prodloc4,harbor1,tr13,22176,133056).
route(prodloc4,harbor2,tr0,10100,262600).
route(prodloc4,harbor2,tr13,10100,60600).
route(prodloc4,harbor3,tr0,14926,388076).
route(prodloc4,harbor3,tr13,14926,89556).
route(prodloc4,harbor4,tr0,24828,645528).
route(prodloc4,harbor4,tr13,24828,148968).
route(prodloc4,harbor5,tr0,677,17602).
route(prodloc4,harbor5,tr13,677,4062).
route(prodloc4,prodloc0,tr0,16676,433576).
route(prodloc4,prodloc0,tr13,16676,100056).
route(prodloc4,prodloc1,tr0,21201,551226).
route(prodloc4,prodloc1,tr13,21201,127206).
route(prodloc4,prodloc2,tr0,27324,710424).
route(prodloc4,prodloc2,tr13,27324,163944).
route(prodloc4,prodloc3,tr0,6240,162240).
route(prodloc4,prodloc3,tr13,6240,37440).
route(prodloc4,prodloc5,tr0,21524,559624).
route(prodloc4,prodloc5,tr13,21524,129144).
route(prodloc4,prodloc6,tr0,6680,173680).
route(prodloc4,prodloc6,tr13,6680,40080).
route(prodloc4,prodloc7,tr0,577,15002).
route(prodloc4,prodloc7,tr13,577,3462).
route(prodloc4,prodloc8,tr13,2728,16368).
route(prodloc4,prodloc8,tr15,2728,87296).
route(prodloc4,prodloc9,tr0,13014,338364).
route(prodloc4,prodloc9,tr13,13014,78084).
route(prodloc4,prodloc10,tr0,21671,563446).
route(prodloc4,prodloc10,tr13,21671,130026).
route(prodloc4,prodloc11,tr0,24606,639756).
route(prodloc4,prodloc11,tr13,24606,147636).
route(prodloc4,prodloc12,tr13,11968,71808).
route(prodloc4,prodloc12,tr15,11968,382976).
route(prodloc4,prodloc13,tr0,23380,607880).
route(prodloc4,prodloc13,tr13,23380,140280).
route(prodloc4,prodloc14,tr0,2167,56342).
route(prodloc4,prodloc14,tr13,2167,13002).
route(prodloc5,harbor0,tr0,18920,491920).
route(prodloc5,harbor0,tr13,18920,113520).
route(prodloc5,harbor1,tr0,424,11024).
route(prodloc5,harbor1,tr13,424,2544).
route(prodloc5,harbor2,tr0,9192,238992).
route(prodloc5,harbor2,tr13,9192,55152).
route(prodloc5,harbor3,tr0,6997,181922).
route(prodloc5,harbor3,tr13,6997,41982).
route(prodloc5,harbor4,tr0,8076,209976).
route(prodloc5,harbor4,tr13,8076,48456).
route(prodloc5,harbor5,tr0,17657,459082).
route(prodloc5,harbor5,tr13,17657,105942).
route(prodloc5,prodloc0,tr0,4589,119314).
route(prodloc5,prodloc0,tr13,4589,27534).
route(prodloc5,prodloc1,tr0,23362,607412).
route(prodloc5,prodloc1,tr13,23362,140172).
route(prodloc5,prodloc2,tr0,21138,549588).
route(prodloc5,prodloc2,tr13,21138,126828).
route(prodloc5,prodloc3,tr0,10291,267566).
route(prodloc5,prodloc3,tr13,10291,61746).
route(prodloc5,prodloc4,tr0,602,15652).
route(prodloc5,prodloc4,tr13,602,3612).
route(prodloc5,prodloc6,tr0,4236,110136).
route(prodloc5,prodloc6,tr13,4236,25416).
route(prodloc5,prodloc7,tr0,7538,195988).
route(prodloc5,prodloc7,tr13,7538,45228).
route(prodloc5,prodloc8,tr0,23496,610896).
route(prodloc5,prodloc8,tr13,23496,140976).
route(prodloc5,prodloc9,tr13,23264,139584).
route(prodloc5,prodloc9,tr15,23264,744448).
route(prodloc5,prodloc10,tr0,14628,380328).
route(prodloc5,prodloc10,tr13,14628,87768).
route(prodloc5,prodloc11,tr0,9029,234754).
route(prodloc5,prodloc11,tr13,9029,54174).
route(prodloc5,prodloc12,tr0,564,14664).
route(prodloc5,prodloc12,tr13,564,3384).
route(prodloc5,prodloc13,tr0,17264,448864).
route(prodloc5,prodloc13,tr13,17264,103584).
route(prodloc5,prodloc14,tr0,13908,361608).
route(prodloc5,prodloc14,tr13,13908,83448).
route(prodloc6,harbor0,tr0,22095,574470).
route(prodloc6,harbor0,tr13,22095,132570).
route(prodloc6,harbor1,tr0,24405,634530).
route(prodloc6,harbor1,tr13,24405,146430).
route(prodloc6,harbor2,tr0,16771,436046).
route(prodloc6,harbor2,tr13,16771,100626).
route(prodloc6,harbor3,tr0,5462,142012).
route(prodloc6,harbor3,tr13,5462,32772).
route(prodloc6,harbor4,tr0,8800,228800).
route(prodloc6,harbor4,tr13,8800,52800).
route(prodloc6,harbor5,tr0,13591,353366).
route(prodloc6,harbor5,tr13,13591,81546).
route(prodloc6,prodloc0,tr0,4485,116610).
route(prodloc6,prodloc0,tr13,4485,26910).
route(prodloc6,prodloc1,tr0,16366,425516).
route(prodloc6,prodloc1,tr13,16366,98196).
route(prodloc6,prodloc2,tr0,20078,522028).
route(prodloc6,prodloc2,tr13,20078,120468).
route(prodloc6,prodloc3,tr0,7944,206544).
route(prodloc6,prodloc3,tr13,7944,47664).
route(prodloc6,prodloc4,tr0,20129,523354).
route(prodloc6,prodloc4,tr13,20129,120774).
route(prodloc6,prodloc5,tr0,9010,234260).
route(prodloc6,prodloc5,tr13,9010,54060).
route(prodloc6,prodloc7,tr0,15559,404534).
route(prodloc6,prodloc7,tr13,15559,93354).
route(prodloc6,prodloc8,tr0,2001,52026).
route(prodloc6,prodloc8,tr13,2001,12006).
route(prodloc6,prodloc9,tr0,17243,448318).
route(prodloc6,prodloc9,tr13,17243,103458).
route(prodloc6,prodloc10,tr0,19867,516542).
route(prodloc6,prodloc10,tr13,19867,119202).
route(prodloc6,prodloc11,tr0,23126,601276).
route(prodloc6,prodloc11,tr13,23126,138756).
route(prodloc6,prodloc12,tr0,26003,676078).
route(prodloc6,prodloc12,tr13,26003,156018).
route(prodloc6,prodloc13,tr0,11485,298610).
route(prodloc6,prodloc13,tr13,11485,68910).
route(prodloc6,prodloc14,tr0,16599,431574).
route(prodloc6,prodloc14,tr13,16599,99594).
route(prodloc7,harbor0,tr0,1832,47632).
route(prodloc7,harbor0,tr13,1832,10992).
route(prodloc7,harbor1,tr0,20056,521456).
route(prodloc7,harbor1,tr13,20056,120336).
route(prodloc7,harbor2,tr0,14888,387088).
route(prodloc7,harbor2,tr13,14888,89328).
route(prodloc7,harbor3,tr0,9581,249106).
route(prodloc7,harbor3,tr13,9581,57486).
route(prodloc7,harbor4,tr0,26218,681668).
route(prodloc7,harbor4,tr13,26218,157308).
route(prodloc7,harbor5,tr0,22611,587886).
route(prodloc7,harbor5,tr13,22611,135666).
route(prodloc7,prodloc0,tr0,9401,244426).
route(prodloc7,prodloc0,tr13,9401,56406).
route(prodloc7,prodloc1,tr0,23215,603590).
route(prodloc7,prodloc1,tr13,23215,139290).
route(prodloc7,prodloc2,tr0,20263,526838).
route(prodloc7,prodloc2,tr13,20263,121578).
route(prodloc7,prodloc3,tr0,466,12116).
route(prodloc7,prodloc3,tr13,466,2796).
route(prodloc7,prodloc4,tr0,6233,162058).
route(prodloc7,prodloc4,tr13,6233,37398).
route(prodloc7,prodloc5,tr0,21654,563004).
route(prodloc7,prodloc5,tr13,21654,129924).
route(prodloc7,prodloc6,tr0,20862,542412).
route(prodloc7,prodloc6,tr13,20862,125172).
route(prodloc7,prodloc8,tr0,28520,741520).
route(prodloc7,prodloc8,tr13,28520,171120).
route(prodloc7,prodloc9,tr0,17046,443196).
route(prodloc7,prodloc9,tr13,17046,102276).
route(prodloc7,prodloc10,tr0,18652,484952).
route(prodloc7,prodloc10,tr13,18652,111912).
route(prodloc7,prodloc11,tr0,7079,184054).
route(prodloc7,prodloc11,tr15,7079,226528).
route(prodloc7,prodloc12,tr0,744,19344).
route(prodloc7,prodloc12,tr13,744,4464).
route(prodloc7,prodloc13,tr0,5493,142818).
route(prodloc7,prodloc13,tr15,5493,175776).
route(prodloc7,prodloc14,tr0,9742,253292).
route(prodloc7,prodloc14,tr13,9742,58452).
route(prodloc8,harbor0,tr0,27494,714844).
route(prodloc8,harbor0,tr13,27494,164964).
route(prodloc8,harbor1,tr0,7736,201136).
route(prodloc8,harbor1,tr13,7736,46416).
route(prodloc8,harbor2,tr0,6176,160576).
route(prodloc8,harbor2,tr13,6176,37056).
route(prodloc8,harbor3,tr0,13500,351000).
route(prodloc8,harbor3,tr13,13500,81000).
route(prodloc8,harbor4,tr0,2186,56836).
route(prodloc8,harbor4,tr13,2186,13116).
route(prodloc8,harbor5,tr0,27142,705692).
route(prodloc8,harbor5,tr13,27142,162852).
route(prodloc8,prodloc0,tr0,18066,469716).
route(prodloc8,prodloc0,tr13,18066,108396).
route(prodloc8,prodloc1,tr0,28421,738946).
route(prodloc8,prodloc1,tr13,28421,170526).
route(prodloc8,prodloc2,tr0,5788,150488).
route(prodloc8,prodloc2,tr13,5788,34728).
route(prodloc8,prodloc3,tr0,960,24960).
route(prodloc8,prodloc3,tr13,960,5760).
route(prodloc8,prodloc4,tr0,14874,386724).
route(prodloc8,prodloc4,tr13,14874,89244).
route(prodloc8,prodloc5,tr0,17858,464308).
route(prodloc8,prodloc5,tr13,17858,107148).
route(prodloc8,prodloc6,tr0,20494,532844).
route(prodloc8,prodloc6,tr13,20494,122964).
route(prodloc8,prodloc7,tr0,8165,212290).
route(prodloc8,prodloc7,tr13,8165,48990).
route(prodloc8,prodloc9,tr0,15059,391534).
route(prodloc8,prodloc9,tr13,15059,90354).
route(prodloc8,prodloc10,tr0,2743,71318).
route(prodloc8,prodloc10,tr13,2743,16458).
route(prodloc8,prodloc11,tr0,24089,626314).
route(prodloc8,prodloc11,tr13,24089,144534).
route(prodloc8,prodloc12,tr0,22700,590200).
route(prodloc8,prodloc12,tr13,22700,136200).
route(prodloc8,prodloc13,tr0,27279,709254).
route(prodloc8,prodloc13,tr13,27279,163674).
route(prodloc8,prodloc14,tr0,15950,414700).
route(prodloc8,prodloc14,tr13,15950,95700).
route(prodloc9,harbor0,tr0,15718,408668).
route(prodloc9,harbor0,tr13,15718,94308).
route(prodloc9,harbor1,tr0,6835,177710).
route(prodloc9,harbor1,tr13,6835,41010).
route(prodloc9,harbor2,tr0,6186,160836).
route(prodloc9,harbor2,tr13,6186,37116).
route(prodloc9,harbor3,tr0,24900,647400).
route(prodloc9,harbor3,tr13,24900,149400).
route(prodloc9,harbor4,tr0,14566,378716).
route(prodloc9,harbor4,tr13,14566,87396).
route(prodloc9,harbor5,tr0,10574,274924).
route(prodloc9,harbor5,tr13,10574,63444).
route(prodloc9,prodloc0,tr0,20927,544102).
route(prodloc9,prodloc0,tr13,20927,125562).
route(prodloc9,prodloc1,tr0,8631,224406).
route(prodloc9,prodloc1,tr13,8631,51786).
route(prodloc9,prodloc2,tr0,14199,369174).
route(prodloc9,prodloc2,tr15,14199,454368).
route(prodloc9,prodloc3,tr0,9792,254592).
route(prodloc9,prodloc3,tr13,9792,58752).
route(prodloc9,prodloc4,tr0,4354,113204).
route(prodloc9,prodloc4,tr13,4354,26124).
route(prodloc9,prodloc5,tr0,6430,167180).
route(prodloc9,prodloc5,tr13,6430,38580).
route(prodloc9,prodloc6,tr0,12394,322244).
route(prodloc9,prodloc6,tr13,12394,74364).
route(prodloc9,prodloc7,tr13,27616,165696).
route(prodloc9,prodloc7,tr15,27616,883712).
route(prodloc9,prodloc8,tr13,20624,123744).
route(prodloc9,prodloc8,tr15,20624,659968).
route(prodloc9,prodloc10,tr0,10799,280774).
route(prodloc9,prodloc10,tr13,10799,64794).
route(prodloc9,prodloc11,tr0,24098,626548).
route(prodloc9,prodloc11,tr13,24098,144588).
route(prodloc9,prodloc12,tr0,22895,595270).
route(prodloc9,prodloc12,tr13,22895,137370).
route(prodloc9,prodloc13,tr0,22516,585416).
route(prodloc9,prodloc13,tr13,22516,135096).
route(prodloc9,prodloc14,tr13,18121,108726).
route(prodloc9,prodloc14,tr15,18121,579872).
route(prodloc10,harbor0,tr0,17659,459134).
route(prodloc10,harbor0,tr13,17659,105954).
route(prodloc10,harbor1,tr0,8597,223522).
route(prodloc10,harbor1,tr13,8597,51582).
route(prodloc10,harbor2,tr0,12222,317772).
route(prodloc10,harbor2,tr13,12222,73332).
route(prodloc10,harbor3,tr0,7026,182676).
route(prodloc10,harbor3,tr13,7026,42156).
route(prodloc10,harbor4,tr0,1161,30186).
route(prodloc10,harbor4,tr13,1161,6966).
route(prodloc10,harbor5,tr0,21673,563498).
route(prodloc10,harbor5,tr13,21673,130038).
route(prodloc10,prodloc0,tr0,21505,559130).
route(prodloc10,prodloc0,tr13,21505,129030).
route(prodloc10,prodloc1,tr0,24517,637442).
route(prodloc10,prodloc1,tr13,24517,147102).
route(prodloc10,prodloc2,tr0,2074,53924).
route(prodloc10,prodloc2,tr13,2074,12444).
route(prodloc10,prodloc3,tr0,20262,526812).
route(prodloc10,prodloc3,tr13,20262,121572).
route(prodloc10,prodloc4,tr0,4742,123292).
route(prodloc10,prodloc4,tr13,4742,28452).
route(prodloc10,prodloc5,tr0,12823,333398).
route(prodloc10,prodloc5,tr13,12823,76938).
route(prodloc10,prodloc6,tr0,2189,56914).
route(prodloc10,prodloc6,tr13,2189,13134).
route(prodloc10,prodloc7,tr0,2946,76596).
route(prodloc10,prodloc7,tr13,2946,17676).
route(prodloc10,prodloc8,tr0,16153,419978).
route(prodloc10,prodloc8,tr13,16153,96918).
route(prodloc10,prodloc9,tr0,8471,220246).
route(prodloc10,prodloc9,tr13,8471,50826).
route(prodloc10,prodloc11,tr0,11442,297492).
route(prodloc10,prodloc11,tr13,11442,68652).
route(prodloc10,prodloc12,tr0,6962,181012).
route(prodloc10,prodloc12,tr15,6962,222784).
route(prodloc10,prodloc13,tr0,15635,406510).
route(prodloc10,prodloc13,tr13,15635,93810).
route(prodloc10,prodloc14,tr0,2254,58604).
route(prodloc10,prodloc14,tr13,2254,13524).
route(prodloc11,harbor0,tr0,2346,60996).
route(prodloc11,harbor0,tr13,2346,14076).
route(prodloc11,harbor1,tr0,28650,744900).
route(prodloc11,harbor1,tr13,28650,171900).
route(prodloc11,harbor2,tr0,11800,306800).
route(prodloc11,harbor2,tr13,11800,70800).
route(prodloc11,harbor3,tr0,4986,129636).
route(prodloc11,harbor3,tr13,4986,29916).
route(prodloc11,harbor4,tr0,11160,290160).
route(prodloc11,harbor4,tr13,11160,66960).
route(prodloc11,harbor5,tr0,10954,284804).
route(prodloc11,harbor5,tr13,10954,65724).
route(prodloc11,prodloc0,tr0,466,12116).
route(prodloc11,prodloc0,tr13,466,2796).
route(prodloc11,prodloc1,tr0,14126,367276).
route(prodloc11,prodloc1,tr13,14126,84756).
route(prodloc11,prodloc2,tr0,11480,298480).
route(prodloc11,prodloc2,tr13,11480,68880).
route(prodloc11,prodloc3,tr0,6542,170092).
route(prodloc11,prodloc3,tr13,6542,39252).
route(prodloc11,prodloc4,tr0,1208,31408).
route(prodloc11,prodloc4,tr13,1208,7248).
route(prodloc11,prodloc5,tr13,9463,56778).
route(prodloc11,prodloc5,tr15,9463,302816).
route(prodloc11,prodloc6,tr0,6872,178672).
route(prodloc11,prodloc6,tr13,6872,41232).
route(prodloc11,prodloc7,tr0,26686,693836).
route(prodloc11,prodloc7,tr13,26686,160116).
route(prodloc11,prodloc8,tr13,7742,46452).
route(prodloc11,prodloc8,tr15,7742,247744).
route(prodloc11,prodloc9,tr0,5983,155558).
route(prodloc11,prodloc9,tr13,5983,35898).
route(prodloc11,prodloc10,tr0,20147,523822).
route(prodloc11,prodloc10,tr13,20147,120882).
route(prodloc11,prodloc12,tr0,4960,128960).
route(prodloc11,prodloc12,tr13,4960,29760).
route(prodloc11,prodloc13,tr0,11309,294034).
route(prodloc11,prodloc13,tr15,11309,361888).
route(prodloc11,prodloc14,tr0,26643,692718).
route(prodloc11,prodloc14,tr13,26643,159858).
route(prodloc12,harbor0,tr0,20678,537628).
route(prodloc12,harbor0,tr13,20678,124068).
route(prodloc12,harbor1,tr0,6641,172666).
route(prodloc12,harbor1,tr13,6641,39846).
route(prodloc12,harbor2,tr0,680,17680).
route(prodloc12,harbor2,tr13,680,4080).
route(prodloc12,harbor3,tr0,19312,502112).
route(prodloc12,harbor3,tr13,19312,115872).
route(prodloc12,harbor4,tr0,1157,30082).
route(prodloc12,harbor4,tr13,1157,6942).
route(prodloc12,harbor5,tr0,4116,107016).
route(prodloc12,harbor5,tr13,4116,24696).
route(prodloc12,prodloc0,tr0,18371,477646).
route(prodloc12,prodloc0,tr13,18371,110226).
route(prodloc12,prodloc1,tr0,26585,691210).
route(prodloc12,prodloc1,tr13,26585,159510).
route(prodloc12,prodloc2,tr0,25708,668408).
route(prodloc12,prodloc2,tr15,25708,822656).
route(prodloc12,prodloc4,tr0,4922,127972).
route(prodloc12,prodloc4,tr13,4922,29532).
route(prodloc12,prodloc5,tr0,1806,46956).
route(prodloc12,prodloc5,tr13,1806,10836).
route(prodloc12,prodloc6,tr0,7907,205582).
route(prodloc12,prodloc6,tr13,7907,47442).
route(prodloc12,prodloc7,tr0,21947,570622).
route(prodloc12,prodloc7,tr13,21947,131682).
route(prodloc12,prodloc8,tr0,25941,674466).
route(prodloc12,prodloc8,tr15,25941,830112).
route(prodloc12,prodloc9,tr0,23823,619398).
route(prodloc12,prodloc9,tr13,23823,142938).
route(prodloc12,prodloc10,tr0,5290,137540).
route(prodloc12,prodloc10,tr13,5290,31740).
route(prodloc12,prodloc11,tr0,11105,288730).
route(prodloc12,prodloc11,tr13,11105,66630).
route(prodloc12,prodloc13,tr0,9958,258908).
route(prodloc12,prodloc13,tr13,9958,59748).
route(prodloc12,prodloc14,tr0,22584,587184).
route(prodloc12,prodloc14,tr13,22584,135504).
route(prodloc13,harbor0,tr0,18117,471042).
route(prodloc13,harbor0,tr13,18117,108702).
route(prodloc13,harbor1,tr0,10557,274482).
route(prodloc13,harbor1,tr13,10557,63342).
route(prodloc13,harbor2,tr0,25476,662376).
route(prodloc13,harbor2,tr13,25476,152856).
route(prodloc13,harbor3,tr0,19156,498056).
route(prodloc13,harbor3,tr13,19156,114936).
route(prodloc13,harbor4,tr0,10545,274170).
route(prodloc13,harbor4,tr13,10545,63270).
route(prodloc13,harbor5,tr0,27925,726050).
route(prodloc13,harbor5,tr13,27925,167550).
route(prodloc13,prodloc0,tr0,17014,442364).
route(prodloc13,prodloc0,tr13,17014,102084).
route(prodloc13,prodloc1,tr0,27064,703664).
route(prodloc13,prodloc1,tr13,27064,162384).
route(prodloc13,prodloc2,tr0,19092,496392).
route(prodloc13,prodloc2,tr13,19092,114552).
route(prodloc13,prodloc3,tr0,10884,282984).
route(prodloc13,prodloc3,tr13,10884,65304).
route(prodloc13,prodloc4,tr0,28184,732784).
route(prodloc13,prodloc4,tr13,28184,169104).
route(prodloc13,prodloc5,tr13,8487,50922).
route(prodloc13,prodloc5,tr15,8487,271584).
route(prodloc13,prodloc6,tr0,9321,242346).
route(prodloc13,prodloc6,tr13,9321,55926).
route(prodloc13,prodloc7,tr0,11671,303446).
route(prodloc13,prodloc7,tr15,11671,373472).
route(prodloc13,prodloc8,tr0,7659,199134).
route(prodloc13,prodloc8,tr13,7659,45954).
route(prodloc13,prodloc9,tr0,15467,402142).
route(prodloc13,prodloc9,tr13,15467,92802).
route(prodloc13,prodloc10,tr0,12059,313534).
route(prodloc13,prodloc10,tr13,12059,72354).
route(prodloc13,prodloc11,tr0,13695,356070).
route(prodloc13,prodloc11,tr13,13695,82170).
route(prodloc13,prodloc12,tr0,13680,355680).
route(prodloc13,prodloc12,tr13,13680,82080).
route(prodloc13,prodloc14,tr0,11958,310908).
route(prodloc13,prodloc14,tr13,11958,71748).
route(prodloc14,harbor0,tr0,26500,689000).
route(prodloc14,harbor0,tr13,26500,159000).
route(prodloc14,harbor1,tr0,17515,455390).
route(prodloc14,harbor1,tr13,17515,105090).
route(prodloc14,harbor2,tr0,25711,668486).
route(prodloc14,harbor2,tr13,25711,154266).
route(prodloc14,harbor3,tr0,3822,99372).
route(prodloc14,harbor3,tr13,3822,22932).
route(prodloc14,harbor4,tr0,8983,233558).
route(prodloc14,harbor4,tr13,8983,53898).
route(prodloc14,harbor5,tr0,15245,396370).
route(prodloc14,harbor5,tr13,15245,91470).
route(prodloc14,prodloc0,tr0,5011,130286).
route(prodloc14,prodloc0,tr13,5011,30066).
route(prodloc14,prodloc1,tr0,22040,573040).
route(prodloc14,prodloc1,tr13,22040,132240).
route(prodloc14,prodloc2,tr0,27802,722852).
route(prodloc14,prodloc2,tr13,27802,166812).
route(prodloc14,prodloc3,tr0,6785,176410).
route(prodloc14,prodloc3,tr13,6785,40710).
route(prodloc14,prodloc4,tr0,16070,417820).
route(prodloc14,prodloc4,tr13,16070,96420).
route(prodloc14,prodloc5,tr0,11827,307502).
route(prodloc14,prodloc5,tr15,11827,378464).
route(prodloc14,prodloc6,tr0,7557,196482).
route(prodloc14,prodloc6,tr13,7557,45342).
route(prodloc14,prodloc7,tr0,15334,398684).
route(prodloc14,prodloc7,tr13,15334,92004).
route(prodloc14,prodloc8,tr13,9264,55584).
route(prodloc14,prodloc8,tr15,9264,296448).
route(prodloc14,prodloc9,tr0,26617,692042).
route(prodloc14,prodloc9,tr13,26617,159702).
route(prodloc14,prodloc10,tr0,6258,162708).
route(prodloc14,prodloc10,tr13,6258,37548).
route(prodloc14,prodloc11,tr0,15646,406796).
route(prodloc14,prodloc11,tr13,15646,93876).
route(prodloc14,prodloc12,tr0,4807,124982).
route(prodloc14,prodloc12,tr13,4807,28842).
route(prodloc14,prodloc13,tr0,8478,220428).
route(prodloc14,prodloc13,tr13,8478,50868).
hub(harbor0).
hub(prodloc0).
hub(prodloc3).
hub(prodloc8).
