% Multibatching benchmark instance
% Source: instances.lp
% seed=9  harbors=6  prodlocs=15  hubs=4  disruptions=2

% ---- locations ----
location(harbor0).
location(harbor1).
location(harbor2).
location(harbor3).
location(harbor4).
location(harbor5).
location(prodloc0).
location(prodloc1).
location(prodloc2).
location(prodloc3).
location(prodloc4).
location(prodloc5).
location(prodloc6).
location(prodloc7).
location(prodloc8).
location(prodloc9).
location(prodloc10).
location(prodloc11).
location(prodloc12).
location(prodloc13).
location(prodloc14).

% ---- transport resources ----
transportCapacity(tr0,1800).
transportCO2(tr0,1680).
transportCost(tr0,26).
transportSpeed(tr0,12).
transportCapacity(tr1,65).
transportCO2(tr1,90).
transportCost(tr1,1).
transportSpeed(tr1,35).
transportCapacity(tr10,1).
transportCO2(tr10,700).
transportCost(tr10,4).
transportSpeed(tr10,40).
transportCapacity(tr11,65).
transportCO2(tr11,62).
transportCost(tr11,1).
transportSpeed(tr11,25).
transportCapacity(tr12,65).
transportCO2(tr12,709).
transportCost(tr12,3).
transportSpeed(tr12,55).
transportCapacity(tr13,68).
transportCO2(tr13,160).
transportCost(tr13,6).
transportSpeed(tr13,25).
transportCapacity(tr14,146).
transportCO2(tr14,780).
transportCost(tr14,4).
transportSpeed(tr14,50).
transportCapacity(tr15,2217).
transportCO2(tr15,49470).
transportCost(tr15,32).
transportSpeed(tr15,625).
transportCapacity(tr2,96).
transportCO2(tr2,709).
transportCost(tr2,3).
transportSpeed(tr2,55).
transportCapacity(tr3,1).
transportCO2(tr3,6250).
transportCost(tr3,108).
transportSpeed(tr3,25).
transportCapacity(tr4,148).
transportCO2(tr4,780).
transportCost(tr4,4).
transportSpeed(tr4,50).
transportCapacity(tr5,65).
transportCO2(tr5,780).
transportCost(tr5,3).
transportSpeed(tr5,50).
transportCapacity(tr6,1).
transportCO2(tr6,100).
transportCost(tr6,40).
transportSpeed(tr6,25).
transportCapacity(tr7,1).
transportCO2(tr7,18000).
transportCost(tr7,278).
transportSpeed(tr7,10).
transportCapacity(tr8,1).
transportCO2(tr8,14400).
transportCost(tr8,107).
transportSpeed(tr8,25).
transportCapacity(tr9,65).
transportCO2(tr9,708).
transportCost(tr9,2).
transportSpeed(tr9,60).

% ---- parts ----
part(part0).
partSize(part0,21).
valid_transport(part0,tr0).
valid_transport(part0,tr15).
valid_transport(part0,tr14).
valid_transport(part0,tr13).
valid_transport(part0,tr4).
part(part1).
partSize(part1,1).
valid_transport(part1,tr0).
valid_transport(part1,tr2).
valid_transport(part1,tr15).
valid_transport(part1,tr9).
valid_transport(part1,tr12).
valid_transport(part1,tr13).
valid_transport(part1,tr11).
part(part10).
partSize(part10,1).
valid_transport(part10,tr0).
valid_transport(part10,tr2).
valid_transport(part10,tr15).
valid_transport(part10,tr9).
valid_transport(part10,tr12).
valid_transport(part10,tr13).
valid_transport(part10,tr11).
part(part11).
partSize(part11,83).
valid_transport(part11,tr0).
valid_transport(part11,tr7).
valid_transport(part11,tr8).
valid_transport(part11,tr15).
valid_transport(part11,tr3).
valid_transport(part11,tr13).
part(part12).
partSize(part12,273).
valid_transport(part12,tr0).
valid_transport(part12,tr7).
valid_transport(part12,tr8).
valid_transport(part12,tr15).
valid_transport(part12,tr3).
valid_transport(part12,tr13).
part(part13).
partSize(part13,1).
valid_transport(part13,tr0).
valid_transport(part13,tr2).
valid_transport(part13,tr15).
valid_transport(part13,tr9).
valid_transport(part13,tr12).
valid_transport(part13,tr13).
valid_transport(part13,tr11).
part(part14).
partSize(part14,68).
valid_transport(part14,tr0).
valid_transport(part14,tr15).
valid_transport(part14,tr13).
part(part15).
partSize(part15,4).
valid_transport(part15,tr0).
valid_transport(part15,tr2).
valid_transport(part15,tr15).
valid_transport(part15,tr9).
valid_transport(part15,tr12).
valid_transport(part15,tr13).
valid_transport(part15,tr11).
part(part16).
partSize(part16,4).
valid_transport(part16,tr0).
valid_transport(part16,tr2).
valid_transport(part16,tr15).
valid_transport(part16,tr9).
valid_transport(part16,tr12).
valid_transport(part16,tr13).
valid_transport(part16,tr11).
part(part17).
partSize(part17,8).
valid_transport(part17,tr0).
valid_transport(part17,tr15).
valid_transport(part17,tr14).
valid_transport(part17,tr13).
valid_transport(part17,tr4).
part(part18).
partSize(part18,24).
valid_transport(part18,tr0).
valid_transport(part18,tr15).
valid_transport(part18,tr14).
valid_transport(part18,tr13).
valid_transport(part18,tr4).
part(part19).
partSize(part19,6).
valid_transport(part19,tr0).
valid_transport(part19,tr2).
valid_transport(part19,tr15).
valid_transport(part19,tr9).
valid_transport(part19,tr12).
valid_transport(part19,tr13).
valid_transport(part19,tr11).
part(part2).
partSize(part2,19).
valid_transport(part2,tr0).
valid_transport(part2,tr15).
valid_transport(part2,tr14).
valid_transport(part2,tr13).
valid_transport(part2,tr4).
part(part20).
partSize(part20,128).
valid_transport(part20,tr0).
valid_transport(part20,tr7).
valid_transport(part20,tr8).
valid_transport(part20,tr15).
valid_transport(part20,tr3).
valid_transport(part20,tr13).
part(part21).
partSize(part21,25).
valid_transport(part21,tr0).
valid_transport(part21,tr15).
valid_transport(part21,tr14).
valid_transport(part21,tr13).
valid_transport(part21,tr4).
part(part22).
partSize(part22,7).
valid_transport(part22,tr0).
valid_transport(part22,tr2).
valid_transport(part22,tr15).
valid_transport(part22,tr9).
valid_transport(part22,tr12).
valid_transport(part22,tr13).
valid_transport(part22,tr11).
part(part23).
partSize(part23,5).
valid_transport(part23,tr0).
valid_transport(part23,tr15).
valid_transport(part23,tr14).
valid_transport(part23,tr13).
valid_transport(part23,tr4).
part(part24).
partSize(part24,55).
valid_transport(part24,tr0).
valid_transport(part24,tr7).
valid_transport(part24,tr8).
valid_transport(part24,tr15).
valid_transport(part24,tr3).
valid_transport(part24,tr13).
part(part25).
partSize(part25,5).
valid_transport(part25,tr0).
valid_transport(part25,tr4).
valid_transport(part25,tr2).
valid_transport(part25,tr15).
valid_transport(part25,tr13).
part(part26).
partSize(part26,32).
valid_transport(part26,tr0).
valid_transport(part26,tr7).
valid_transport(part26,tr8).
valid_transport(part26,tr15).
valid_transport(part26,tr3).
valid_transport(part26,tr13).
part(part27).
partSize(part27,5).
valid_transport(part27,tr0).
valid_transport(part27,tr2).
valid_transport(part27,tr15).
valid_transport(part27,tr9).
valid_transport(part27,tr12).
valid_transport(part27,tr13).
valid_transport(part27,tr11).
part(part28).
partSize(part28,3).
valid_transport(part28,tr0).
valid_transport(part28,tr4).
valid_transport(part28,tr2).
valid_transport(part28,tr15).
valid_transport(part28,tr14).
valid_transport(part28,tr13).
part(part29).
partSize(part29,627).
part(part3).
partSize(part3,48).
valid_transport(part3,tr0).
valid_transport(part3,tr7).
valid_transport(part3,tr8).
valid_transport(part3,tr15).
valid_transport(part3,tr3).
valid_transport(part3,tr13).
part(part30).
partSize(part30,2).
valid_transport(part30,tr0).
valid_transport(part30,tr2).
valid_transport(part30,tr15).
valid_transport(part30,tr9).
valid_transport(part30,tr12).
valid_transport(part30,tr13).
valid_transport(part30,tr11).
part(part31).
partSize(part31,144).
valid_transport(part31,tr0).
valid_transport(part31,tr7).
valid_transport(part31,tr8).
valid_transport(part31,tr15).
valid_transport(part31,tr3).
valid_transport(part31,tr13).
part(part32).
partSize(part32,16).
valid_transport(part32,tr0).
valid_transport(part32,tr4).
valid_transport(part32,tr2).
valid_transport(part32,tr15).
valid_transport(part32,tr14).
valid_transport(part32,tr13).
part(part33).
partSize(part33,7).
valid_transport(part33,tr0).
valid_transport(part33,tr2).
valid_transport(part33,tr15).
valid_transport(part33,tr9).
valid_transport(part33,tr12).
valid_transport(part33,tr13).
valid_transport(part33,tr11).
part(part3345).
partSize(part3345,353).
valid_transport(part3345,tr0).
valid_transport(part3345,tr7).
valid_transport(part3345,tr8).
valid_transport(part3345,tr15).
valid_transport(part3345,tr3).
valid_transport(part3345,tr13).
part(part34).
partSize(part34,2).
valid_transport(part34,tr0).
valid_transport(part34,tr2).
valid_transport(part34,tr15).
valid_transport(part34,tr9).
valid_transport(part34,tr12).
valid_transport(part34,tr13).
valid_transport(part34,tr11).
part(part4).
partSize(part4,2).
valid_transport(part4,tr0).
valid_transport(part4,tr2).
valid_transport(part4,tr15).
valid_transport(part4,tr9).
valid_transport(part4,tr12).
valid_transport(part4,tr13).
valid_transport(part4,tr11).
part(part5).
partSize(part5,2).
valid_transport(part5,tr0).
valid_transport(part5,tr2).
valid_transport(part5,tr15).
valid_transport(part5,tr9).
valid_transport(part5,tr12).
valid_transport(part5,tr14).
valid_transport(part5,tr13).
valid_transport(part5,tr11).
part(part6).
partSize(part6,111).
valid_transport(part6,tr0).
valid_transport(part6,tr7).
valid_transport(part6,tr8).
valid_transport(part6,tr15).
valid_transport(part6,tr3).
valid_transport(part6,tr13).
part(part8).
partSize(part8,163).
valid_transport(part8,tr0).
valid_transport(part8,tr7).
valid_transport(part8,tr8).
valid_transport(part8,tr15).
valid_transport(part8,tr3).
valid_transport(part8,tr13).
part(part9).
partSize(part9,2).
valid_transport(part9,tr0).
valid_transport(part9,tr2).
valid_transport(part9,tr15).
valid_transport(part9,tr9).
valid_transport(part9,tr12).
valid_transport(part9,tr13).
valid_transport(part9,tr11).

% ---- demand ----
demandOffer(part0,prodloc7,40).
demandOffer(part0,prodloc9,40).
demandOffer(part0,prodloc5,-27).
demandOffer(part0,prodloc4,-53).
demandOffer(part1,prodloc2,20).
demandOffer(part1,prodloc14,20).
demandOffer(part1,prodloc10,-20).
demandOffer(part1,prodloc0,-20).
demandOffer(part10,prodloc5,20).
demandOffer(part10,prodloc8,20).
demandOffer(part10,prodloc7,-20).
demandOffer(part10,prodloc9,-20).
demandOffer(part12,prodloc1,10).
demandOffer(part12,prodloc5,20).
demandOffer(part12,prodloc8,-10).
demandOffer(part12,prodloc9,-10).
demandOffer(part12,prodloc0,-10).
demandOffer(part13,prodloc11,20).
demandOffer(part13,prodloc6,20).
demandOffer(part13,prodloc2,-20).
demandOffer(part13,prodloc14,-20).
demandOffer(part14,prodloc7,26).
demandOffer(part14,prodloc11,-26).
demandOffer(part15,prodloc6,53).
demandOffer(part15,prodloc2,27).
demandOffer(part15,prodloc13,-53).
demandOffer(part15,prodloc3,-27).
demandOffer(part16,prodloc0,53).
demandOffer(part16,prodloc1,27).
demandOffer(part16,prodloc2,-53).
demandOffer(part16,prodloc8,-27).
demandOffer(part17,prodloc13,20).
demandOffer(part17,prodloc9,-20).
demandOffer(part18,prodloc1,40).
demandOffer(part18,prodloc12,40).
demandOffer(part18,prodloc11,-27).
demandOffer(part18,prodloc6,-53).
demandOffer(part19,prodloc12,26).
demandOffer(part19,prodloc11,-26).
demandOffer(part2,prodloc14,40).
demandOffer(part2,prodloc1,40).
demandOffer(part2,prodloc4,-27).
demandOffer(part2,prodloc3,-53).
demandOffer(part20,prodloc10,53).
demandOffer(part20,prodloc3,27).
demandOffer(part20,prodloc11,-14).
demandOffer(part20,prodloc6,-46).
demandOffer(part20,prodloc1,-20).
demandOffer(part21,prodloc12,26).
demandOffer(part21,prodloc4,-26).
demandOffer(part22,prodloc14,53).
demandOffer(part22,prodloc3,27).
demandOffer(part22,prodloc6,-53).
demandOffer(part22,prodloc4,-27).
demandOffer(part23,prodloc5,20).
demandOffer(part23,prodloc12,20).
demandOffer(part23,prodloc0,-20).
demandOffer(part23,prodloc3,-20).
demandOffer(part25,prodloc11,20).
demandOffer(part25,prodloc0,-20).
demandOffer(part26,prodloc14,20).
demandOffer(part26,prodloc6,20).
demandOffer(part26,prodloc0,-14).
demandOffer(part26,prodloc13,-26).
demandOffer(part27,prodloc13,53).
demandOffer(part27,prodloc7,27).
demandOffer(part27,prodloc2,-53).
demandOffer(part27,prodloc0,-27).
demandOffer(part28,prodloc3,20).
demandOffer(part28,prodloc6,20).
demandOffer(part28,prodloc11,-20).
demandOffer(part28,prodloc1,-20).
demandOffer(part3,prodloc9,40).
demandOffer(part3,prodloc0,-14).
demandOffer(part3,prodloc1,-26).
demandOffer(part30,prodloc12,40).
demandOffer(part30,prodloc9,40).
demandOffer(part30,prodloc3,-27).
demandOffer(part30,prodloc14,-53).
demandOffer(part31,prodloc5,7).
demandOffer(part31,prodloc0,7).
demandOffer(part31,prodloc1,-14).
demandOffer(part32,prodloc2,53).
demandOffer(part32,prodloc8,27).
demandOffer(part32,prodloc0,-53).
demandOffer(part32,prodloc13,-27).
demandOffer(part33,prodloc1,53).
demandOffer(part33,prodloc9,27).
demandOffer(part33,prodloc7,-53).
demandOffer(part33,prodloc8,-27).
demandOffer(part34,prodloc14,20).
demandOffer(part34,prodloc3,-20).
demandOffer(part4,prodloc6,26).
demandOffer(part4,prodloc1,-26).
demandOffer(part5,prodloc6,20).
demandOffer(part5,prodloc3,-20).
demandOffer(part6,prodloc10,27).
demandOffer(part6,prodloc12,53).
demandOffer(part6,prodloc1,-24).
demandOffer(part6,prodloc11,-36).
demandOffer(part6,prodloc9,-10).
demandOffer(part6,prodloc2,-10).
demandOffer(part8,prodloc2,3).
demandOffer(part8,prodloc9,17).
demandOffer(part8,prodloc11,-10).
demandOffer(part8,prodloc0,-10).
demandOffer(part9,prodloc0,20).
demandOffer(part9,prodloc4,-20).

% ---- network (ASP-generated) ----
route(harbor0,harbor1,tr13,18218,109308).
route(harbor0,harbor1,tr2,18218,54654).
route(harbor0,harbor2,tr13,22417,134502).
route(harbor0,harbor2,tr2,22417,67251).
route(harbor0,harbor3,tr13,19899,119394).
route(harbor0,harbor3,tr2,19899,59697).
route(harbor0,harbor4,tr13,27947,167682).
route(harbor0,harbor4,tr2,27947,83841).
route(harbor0,harbor5,tr13,4922,29532).
route(harbor0,harbor5,tr2,4922,14766).
route(harbor0,prodloc0,tr0,24419,634894).
route(harbor0,prodloc0,tr13,24419,146514).
route(harbor0,prodloc1,tr0,8794,228644).
route(harbor0,prodloc1,tr13,8794,52764).
route(harbor0,prodloc2,tr0,24148,627848).
route(harbor0,prodloc2,tr13,24148,144888).
route(harbor0,prodloc3,tr0,18852,490152).
route(harbor0,prodloc3,tr13,18852,113112).
route(harbor0,prodloc4,tr0,1123,29198).
route(harbor0,prodloc4,tr13,1123,6738).
route(harbor0,prodloc5,tr0,3977,103402).
route(harbor0,prodloc5,tr13,3977,23862).
route(harbor0,prodloc6,tr0,28466,740116).
route(harbor0,prodloc6,tr13,28466,170796).
route(harbor0,prodloc7,tr0,23118,601068).
route(harbor0,prodloc7,tr13,23118,138708).
route(harbor0,prodloc8,tr0,13186,342836).
route(harbor0,prodloc8,tr13,13186,79116).
route(harbor0,prodloc9,tr0,7761,201786).
route(harbor0,prodloc9,tr13,7761,46566).
route(harbor0,prodloc10,tr0,5301,137826).
route(harbor0,prodloc10,tr13,5301,31806).
route(harbor0,prodloc11,tr0,20027,520702).
route(harbor0,prodloc11,tr13,20027,120162).
route(harbor0,prodloc12,tr0,16546,430196).
route(harbor0,prodloc12,tr13,16546,99276).
route(harbor0,prodloc13,tr0,1412,36712).
route(harbor0,prodloc13,tr13,1412,8472).
route(harbor0,prodloc14,tr0,24119,627094).
route(harbor0,prodloc14,tr13,24119,144714).
route(harbor1,harbor0,tr13,12021,72126).
route(harbor1,harbor0,tr2,12021,36063).
route(harbor1,harbor2,tr13,27740,166440).
route(harbor1,harbor2,tr2,27740,83220).
route(harbor1,harbor3,tr13,22119,132714).
route(harbor1,harbor3,tr2,22119,66357).
route(harbor1,harbor4,tr13,17136,102816).
route(harbor1,harbor4,tr2,17136,51408).
route(harbor1,harbor5,tr13,19371,116226).
route(harbor1,harbor5,tr2,19371,58113).
route(harbor1,prodloc0,tr0,18523,481598).
route(harbor1,prodloc0,tr13,18523,111138).
route(harbor1,prodloc1,tr0,25384,659984).
route(harbor1,prodloc1,tr13,25384,152304).
route(harbor1,prodloc2,tr0,22537,585962).
route(harbor1,prodloc2,tr13,22537,135222).
route(harbor1,prodloc3,tr0,2844,73944).
route(harbor1,prodloc3,tr13,2844,17064).
route(harbor1,prodloc4,tr0,28424,739024).
route(harbor1,prodloc4,tr13,28424,170544).
route(harbor1,prodloc5,tr0,11378,295828).
route(harbor1,prodloc5,tr13,11378,68268).
route(harbor1,prodloc6,tr0,3605,93730).
route(harbor1,prodloc6,tr13,3605,21630).
route(harbor1,prodloc7,tr0,28314,736164).
route(harbor1,prodloc7,tr13,28314,169884).
route(harbor1,prodloc8,tr0,28893,751218).
route(harbor1,prodloc8,tr13,28893,173358).
route(harbor1,prodloc9,tr0,19143,497718).
route(harbor1,prodloc9,tr13,19143,114858).
route(harbor1,prodloc10,tr0,11980,311480).
route(harbor1,prodloc10,tr13,11980,71880).
route(harbor1,prodloc11,tr0,14790,384540).
route(harbor1,prodloc11,tr13,14790,88740).
route(harbor1,prodloc12,tr0,6884,178984).
route(harbor1,prodloc12,tr13,6884,41304).
route(harbor1,prodloc13,tr0,13180,342680).
route(harbor1,prodloc13,tr13,13180,79080).
route(harbor1,prodloc14,tr0,6515,169390).
route(harbor1,prodloc14,tr13,6515,39090).
route(harbor2,harbor0,tr13,18853,113118).
route(harbor2,harbor0,tr2,18853,56559).
route(harbor2,harbor1,tr13,24465,146790).
route(harbor2,harbor1,tr2,24465,73395).
route(harbor2,harbor3,tr13,631,3786).
route(harbor2,harbor3,tr2,631,1893).
route(harbor2,harbor4,tr13,12447,74682).
route(harbor2,harbor4,tr2,12447,37341).
route(harbor2,harbor5,tr13,26223,157338).
route(harbor2,harbor5,tr2,26223,78669).
route(harbor2,prodloc0,tr0,19916,517816).
route(harbor2,prodloc0,tr13,19916,119496).
route(harbor2,prodloc1,tr0,10773,280098).
route(harbor2,prodloc1,tr13,10773,64638).
route(harbor2,prodloc2,tr0,22,572).
route(harbor2,prodloc2,tr13,22,132).
route(harbor2,prodloc3,tr0,14209,369434).
route(harbor2,prodloc3,tr13,14209,85254).
route(harbor2,prodloc4,tr0,3662,95212).
route(harbor2,prodloc4,tr13,3662,21972).
route(harbor2,prodloc5,tr0,6995,181870).
route(harbor2,prodloc5,tr13,6995,41970).
route(harbor2,prodloc6,tr0,7266,188916).
route(harbor2,prodloc6,tr13,7266,43596).
route(harbor2,prodloc7,tr0,14551,378326).
route(harbor2,prodloc7,tr13,14551,87306).
route(harbor2,prodloc8,tr0,8837,229762).
route(harbor2,prodloc8,tr13,8837,53022).
route(harbor2,prodloc9,tr0,10642,276692).
route(harbor2,prodloc9,tr13,10642,63852).
route(harbor2,prodloc10,tr0,26698,694148).
route(harbor2,prodloc10,tr13,26698,160188).
route(harbor2,prodloc11,tr0,2912,75712).
route(harbor2,prodloc11,tr13,2912,17472).
route(harbor2,prodloc12,tr0,10066,261716).
route(harbor2,prodloc12,tr13,10066,60396).
route(harbor2,prodloc13,tr0,20629,536354).
route(harbor2,prodloc13,tr13,20629,123774).
route(harbor2,prodloc14,tr0,9337,242762).
route(harbor2,prodloc14,tr13,9337,56022).
route(harbor3,harbor0,tr13,3407,20442).
route(harbor3,harbor0,tr2,3407,10221).
route(harbor3,harbor1,tr13,16987,101922).
route(harbor3,harbor1,tr2,16987,50961).
route(harbor3,harbor2,tr13,25723,154338).
route(harbor3,harbor2,tr2,25723,77169).
route(harbor3,harbor4,tr13,1837,11022).
route(harbor3,harbor4,tr2,1837,5511).
route(harbor3,harbor5,tr13,862,5172).
route(harbor3,harbor5,tr2,862,2586).
route(harbor3,prodloc0,tr0,12499,324974).
route(harbor3,prodloc0,tr13,12499,74994).
route(harbor3,prodloc1,tr0,25584,665184).
route(harbor3,prodloc1,tr13,25584,153504).
route(harbor3,prodloc2,tr0,18366,477516).
route(harbor3,prodloc2,tr13,18366,110196).
route(harbor3,prodloc3,tr0,26463,688038).
route(harbor3,prodloc3,tr13,26463,158778).
route(harbor3,prodloc4,tr0,14047,365222).
route(harbor3,prodloc4,tr13,14047,84282).
route(harbor3,prodloc5,tr0,16298,423748).
route(harbor3,prodloc5,tr13,16298,97788).
route(harbor3,prodloc6,tr0,11342,294892).
route(harbor3,prodloc6,tr13,11342,68052).
route(harbor3,prodloc7,tr0,23249,604474).
route(harbor3,prodloc7,tr13,23249,139494).
route(harbor3,prodloc8,tr0,25488,662688).
route(harbor3,prodloc8,tr13,25488,152928).
route(harbor3,prodloc9,tr0,8137,211562).
route(harbor3,prodloc9,tr13,8137,48822).
route(harbor3,prodloc10,tr0,18549,482274).
route(harbor3,prodloc10,tr13,18549,111294).
route(harbor3,prodloc11,tr0,24172,628472).
route(harbor3,prodloc11,tr13,24172,145032).
route(harbor3,prodloc12,tr0,2173,56498).
route(harbor3,prodloc12,tr13,2173,13038).
route(harbor3,prodloc13,tr0,13928,362128).
route(harbor3,prodloc13,tr13,13928,83568).
route(harbor3,prodloc14,tr0,21230,551980).
route(harbor3,prodloc14,tr13,21230,127380).
route(harbor4,harbor0,tr13,7597,45582).
route(harbor4,harbor0,tr2,7597,22791).
route(harbor4,harbor1,tr13,3168,19008).
route(harbor4,harbor1,tr2,3168,9504).
route(harbor4,harbor2,tr13,24957,149742).
route(harbor4,harbor2,tr2,24957,74871).
route(harbor4,harbor3,tr13,13166,78996).
route(harbor4,harbor3,tr2,13166,39498).
route(harbor4,harbor5,tr13,16737,100422).
route(harbor4,harbor5,tr2,16737,50211).
route(harbor4,prodloc0,tr0,12223,317798).
route(harbor4,prodloc0,tr13,12223,73338).
route(harbor4,prodloc1,tr0,28179,732654).
route(harbor4,prodloc1,tr13,28179,169074).
route(harbor4,prodloc2,tr0,18367,477542).
route(harbor4,prodloc2,tr13,18367,110202).
route(harbor4,prodloc3,tr0,12105,314730).
route(harbor4,prodloc3,tr13,12105,72630).
route(harbor4,prodloc4,tr0,4561,118586).
route(harbor4,prodloc4,tr13,4561,27366).
route(harbor4,prodloc5,tr0,21874,568724).
route(harbor4,prodloc5,tr13,21874,131244).
route(harbor4,prodloc6,tr0,9514,247364).
route(harbor4,prodloc6,tr13,9514,57084).
route(harbor4,prodloc7,tr0,5607,145782).
route(harbor4,prodloc7,tr13,5607,33642).
route(harbor4,prodloc8,tr0,22698,590148).
route(harbor4,prodloc8,tr13,22698,136188).
route(harbor4,prodloc9,tr0,27634,718484).
route(harbor4,prodloc9,tr13,27634,165804).
route(harbor4,prodloc10,tr0,28690,745940).
route(harbor4,prodloc10,tr13,28690,172140).
route(harbor4,prodloc11,tr0,8486,220636).
route(harbor4,prodloc11,tr13,8486,50916).
route(harbor4,prodloc12,tr0,964,25064).
route(harbor4,prodloc12,tr13,964,5784).
route(harbor4,prodloc13,tr0,1656,43056).
route(harbor4,prodloc13,tr13,1656,9936).
route(harbor4,prodloc14,tr0,26530,689780).
route(harbor4,prodloc14,tr13,26530,159180).
route(harbor5,harbor0,tr13,5690,34140).
route(harbor5,harbor0,tr2,5690,17070).
route(harbor5,harbor1,tr13,8646,51876).
route(harbor5,harbor1,tr2,8646,25938).
route(harbor5,harbor2,tr13,5410,32460).
route(harbor5,harbor2,tr2,5410,16230).
route(harbor5,harbor3,tr13,3970,23820).
route(harbor5,harbor3,tr2,3970,11910).
route(harbor5,harbor4,tr13,19905,119430).
route(harbor5,harbor4,tr2,19905,59715).
route(harbor5,prodloc0,tr0,4862,126412).
route(harbor5,prodloc0,tr13,4862,29172).
route(harbor5,prodloc1,tr0,391,10166).
route(harbor5,prodloc1,tr13,391,2346).
route(harbor5,prodloc2,tr0,1601,41626).
route(harbor5,prodloc2,tr13,1601,9606).
route(harbor5,prodloc3,tr0,1997,51922).
route(harbor5,prodloc3,tr13,1997,11982).
route(harbor5,prodloc4,tr0,14761,383786).
route(harbor5,prodloc4,tr13,14761,88566).
route(harbor5,prodloc5,tr0,6837,177762).
route(harbor5,prodloc5,tr13,6837,41022).
route(harbor5,prodloc6,tr0,25776,670176).
route(harbor5,prodloc6,tr13,25776,154656).
route(harbor5,prodloc7,tr0,12744,331344).
route(harbor5,prodloc7,tr13,12744,76464).
route(harbor5,prodloc8,tr0,9643,250718).
route(harbor5,prodloc8,tr13,9643,57858).
route(harbor5,prodloc9,tr0,20041,521066).
route(harbor5,prodloc9,tr13,20041,120246).
route(harbor5,prodloc10,tr0,486,12636).
route(harbor5,prodloc10,tr13,486,2916).
route(harbor5,prodloc11,tr0,26173,680498).
route(harbor5,prodloc11,tr13,26173,157038).
route(harbor5,prodloc12,tr0,11619,302094).
route(harbor5,prodloc12,tr13,11619,69714).
route(harbor5,prodloc13,tr0,9341,242866).
route(harbor5,prodloc13,tr13,9341,56046).
route(harbor5,prodloc14,tr0,4610,119860).
route(harbor5,prodloc14,tr13,4610,27660).
route(prodloc0,harbor0,tr0,15760,409760).
route(prodloc0,harbor0,tr13,15760,94560).
route(prodloc0,harbor1,tr0,18415,478790).
route(prodloc0,harbor1,tr13,18415,110490).
route(prodloc0,harbor2,tr0,9102,236652).
route(prodloc0,harbor2,tr13,9102,54612).
route(prodloc0,harbor3,tr0,4501,117026).
route(prodloc0,harbor3,tr13,4501,27006).
route(prodloc0,harbor4,tr0,2839,73814).
route(prodloc0,harbor4,tr13,2839,17034).
route(prodloc0,harbor5,tr0,24496,636896).
route(prodloc0,harbor5,tr13,24496,146976).
route(prodloc0,prodloc1,tr13,18219,109314).
route(prodloc0,prodloc1,tr15,18219,583008).
route(prodloc0,prodloc2,tr0,9701,252226).
route(prodloc0,prodloc2,tr13,9701,58206).
route(prodloc0,prodloc3,tr0,22808,593008).
route(prodloc0,prodloc3,tr13,22808,136848).
route(prodloc0,prodloc4,tr0,3866,100516).
route(prodloc0,prodloc4,tr13,3866,23196).
route(prodloc0,prodloc5,tr0,2151,55926).
route(prodloc0,prodloc5,tr13,2151,12906).
route(prodloc0,prodloc6,tr0,13762,357812).
route(prodloc0,prodloc6,tr13,13762,82572).
route(prodloc0,prodloc7,tr0,14793,384618).
route(prodloc0,prodloc7,tr13,14793,88758).
route(prodloc0,prodloc8,tr0,4672,121472).
route(prodloc0,prodloc8,tr13,4672,28032).
route(prodloc0,prodloc9,tr0,23065,599690).
route(prodloc0,prodloc9,tr13,23065,138390).
route(prodloc0,prodloc10,tr0,18415,478790).
route(prodloc0,prodloc10,tr13,18415,110490).
route(prodloc0,prodloc11,tr0,25042,651092).
route(prodloc0,prodloc11,tr13,25042,150252).
route(prodloc0,prodloc12,tr0,26048,677248).
route(prodloc0,prodloc12,tr13,26048,156288).
route(prodloc0,prodloc13,tr0,12552,326352).
route(prodloc0,prodloc13,tr13,12552,75312).
route(prodloc0,prodloc14,tr0,19275,501150).
route(prodloc0,prodloc14,tr13,19275,115650).
route(prodloc1,harbor0,tr0,26306,683956).
route(prodloc1,harbor0,tr13,26306,157836).
route(prodloc1,harbor1,tr0,5542,144092).
route(prodloc1,harbor1,tr13,5542,33252).
route(prodloc1,harbor2,tr0,21733,565058).
route(prodloc1,harbor2,tr13,21733,130398).
route(prodloc1,harbor3,tr0,23446,609596).
route(prodloc1,harbor3,tr13,23446,140676).
route(prodloc1,harbor4,tr0,8985,233610).
route(prodloc1,harbor4,tr13,8985,53910).
route(prodloc1,harbor5,tr0,25289,657514).
route(prodloc1,harbor5,tr13,25289,151734).
route(prodloc1,prodloc0,tr0,19573,508898).
route(prodloc1,prodloc0,tr13,19573,117438).
route(prodloc1,prodloc2,tr0,28846,749996).
route(prodloc1,prodloc2,tr13,28846,173076).
route(prodloc1,prodloc3,tr0,19940,518440).
route(prodloc1,prodloc3,tr13,19940,119640).
route(prodloc1,prodloc4,tr0,16203,421278).
route(prodloc1,prodloc4,tr13,16203,97218).
route(prodloc1,prodloc5,tr0,11433,297258).
route(prodloc1,prodloc5,tr13,11433,68598).
route(prodloc1,prodloc6,tr0,3253,84578).
route(prodloc1,prodloc6,tr13,3253,19518).
route(prodloc1,prodloc7,tr0,1589,41314).
route(prodloc1,prodloc7,tr13,1589,9534).
route(prodloc1,prodloc9,tr0,17330,450580).
route(prodloc1,prodloc9,tr15,17330,554560).
route(prodloc1,prodloc10,tr0,4207,109382).
route(prodloc1,prodloc10,tr13,4207,25242).
route(prodloc1,prodloc11,tr0,5681,147706).
route(prodloc1,prodloc11,tr13,5681,34086).
route(prodloc1,prodloc12,tr0,26164,680264).
route(prodloc1,prodloc12,tr13,26164,156984).
route(prodloc1,prodloc13,tr0,20635,536510).
route(prodloc1,prodloc13,tr13,20635,123810).
route(prodloc1,prodloc14,tr0,26884,698984).
route(prodloc1,prodloc14,tr13,26884,161304).
route(prodloc2,harbor0,tr0,2763,71838).
route(prodloc2,harbor0,tr13,2763,16578).
route(prodloc2,harbor1,tr0,5317,138242).
route(prodloc2,harbor1,tr13,5317,31902).
route(prodloc2,harbor2,tr0,25565,664690).
route(prodloc2,harbor2,tr13,25565,153390).
route(prodloc2,harbor3,tr0,25877,672802).
route(prodloc2,harbor3,tr13,25877,155262).
route(prodloc2,harbor4,tr0,7289,189514).
route(prodloc2,harbor4,tr13,7289,43734).
route(prodloc2,harbor5,tr0,28153,731978).
route(prodloc2,harbor5,tr13,28153,168918).
route(prodloc2,prodloc1,tr0,6650,172900).
route(prodloc2,prodloc1,tr13,6650,39900).
route(prodloc2,prodloc3,tr0,5764,149864).
route(prodloc2,prodloc3,tr13,5764,34584).
route(prodloc2,prodloc4,tr0,15522,403572).
route(prodloc2,prodloc4,tr13,15522,93132).
route(prodloc2,prodloc5,tr0,14967,389142).
route(prodloc2,prodloc5,tr13,14967,89802).
route(prodloc2,prodloc6,tr0,19385,504010).
route(prodloc2,prodloc6,tr13,19385,116310).
route(prodloc2,prodloc7,tr0,18327,476502).
route(prodloc2,prodloc7,tr13,18327,109962).
route(prodloc2,prodloc8,tr0,17877,464802).
route(prodloc2,prodloc8,tr13,17877,107262).
route(prodloc2,prodloc9,tr0,12725,330850).
route(prodloc2,prodloc9,tr13,12725,76350).
route(prodloc2,prodloc10,tr0,2728,70928).
route(prodloc2,prodloc10,tr13,2728,16368).
route(prodloc2,prodloc11,tr0,5672,147472).
route(prodloc2,prodloc11,tr13,5672,34032).
route(prodloc2,prodloc12,tr0,17979,467454).
route(prodloc2,prodloc12,tr13,17979,107874).
route(prodloc2,prodloc13,tr0,15798,410748).
route(prodloc2,prodloc13,tr15,15798,505536).
route(prodloc2,prodloc14,tr0,19431,505206).
route(prodloc2,prodloc14,tr13,19431,116586).
route(prodloc3,harbor0,tr0,8601,223626).
route(prodloc3,harbor0,tr13,8601,51606).
route(prodloc3,harbor1,tr0,17546,456196).
route(prodloc3,harbor1,tr13,17546,105276).
route(prodloc3,harbor2,tr0,2183,56758).
route(prodloc3,harbor2,tr13,2183,13098).
route(prodloc3,harbor3,tr0,21336,554736).
route(prodloc3,harbor3,tr13,21336,128016).
route(prodloc3,harbor4,tr0,944,24544).
route(prodloc3,harbor4,tr13,944,5664).
route(prodloc3,harbor5,tr0,19040,495040).
route(prodloc3,harbor5,tr13,19040,114240).
route(prodloc3,prodloc0,tr0,19179,498654).
route(prodloc3,prodloc0,tr13,19179,115074).
route(prodloc3,prodloc1,tr0,14280,371280).
route(prodloc3,prodloc1,tr13,14280,85680).
route(prodloc3,prodloc2,tr0,17839,463814).
route(prodloc3,prodloc2,tr13,17839,107034).
route(prodloc3,prodloc4,tr0,10119,263094).
route(prodloc3,prodloc4,tr13,10119,60714).
route(prodloc3,prodloc5,tr0,17155,446030).
route(prodloc3,prodloc5,tr13,17155,102930).
route(prodloc3,prodloc6,tr0,17270,449020).
route(prodloc3,prodloc6,tr15,17270,552640).
route(prodloc3,prodloc7,tr0,17602,457652).
route(prodloc3,prodloc7,tr13,17602,105612).
route(prodloc3,prodloc8,tr0,21026,546676).
route(prodloc3,prodloc8,tr13,21026,126156).
route(prodloc3,prodloc9,tr0,26089,678314).
route(prodloc3,prodloc9,tr13,26089,156534).
route(prodloc3,prodloc10,tr0,2150,55900).
route(prodloc3,prodloc10,tr13,2150,12900).
route(prodloc3,prodloc11,tr13,28753,172518).
route(prodloc3,prodloc11,tr15,28753,920096).
route(prodloc3,prodloc12,tr0,21065,547690).
route(prodloc3,prodloc12,tr13,21065,126390).
route(prodloc3,prodloc13,tr0,18806,488956).
route(prodloc3,prodloc13,tr13,18806,112836).
route(prodloc3,prodloc14,tr0,17767,461942).
route(prodloc3,prodloc14,tr13,17767,106602).
route(prodloc4,harbor0,tr0,9842,255892).
route(prodloc4,harbor0,tr13,9842,59052).
route(prodloc4,harbor1,tr0,2109,54834).
route(prodloc4,harbor1,tr13,2109,12654).
route(prodloc4,harbor2,tr0,23756,617656).
route(prodloc4,harbor2,tr13,23756,142536).
route(prodloc4,harbor3,tr0,7351,191126).
route(prodloc4,harbor3,tr13,7351,44106).
route(prodloc4,harbor4,tr0,23617,614042).
route(prodloc4,harbor4,tr13,23617,141702).
route(prodloc4,harbor5,tr0,4506,117156).
route(prodloc4,harbor5,tr13,4506,27036).
route(prodloc4,prodloc0,tr0,3383,87958).
route(prodloc4,prodloc0,tr13,3383,20298).
route(prodloc4,prodloc1,tr0,3266,84916).
route(prodloc4,prodloc1,tr13,3266,19596).
route(prodloc4,prodloc2,tr0,22923,595998).
route(prodloc4,prodloc2,tr13,22923,137538).
route(prodloc4,prodloc3,tr0,16112,418912).
route(prodloc4,prodloc3,tr13,16112,96672).
route(prodloc4,prodloc5,tr0,14863,386438).
route(prodloc4,prodloc5,tr13,14863,89178).
route(prodloc4,prodloc6,tr0,1982,51532).
route(prodloc4,prodloc6,tr13,1982,11892).
route(prodloc4,prodloc7,tr0,16065,417690).
route(prodloc4,prodloc7,tr13,16065,96390).
route(prodloc4,prodloc8,tr0,20867,542542).
route(prodloc4,prodloc8,tr13,20867,125202).
route(prodloc4,prodloc9,tr0,23840,619840).
route(prodloc4,prodloc9,tr13,23840,143040).
route(prodloc4,prodloc10,tr0,1737,45162).
route(prodloc4,prodloc10,tr13,1737,10422).
route(prodloc4,prodloc11,tr0,22244,578344).
route(prodloc4,prodloc11,tr13,22244,133464).
route(prodloc4,prodloc12,tr0,19758,513708).
route(prodloc4,prodloc12,tr13,19758,118548).
route(prodloc4,prodloc13,tr0,958,24908).
route(prodloc4,prodloc13,tr13,958,5748).
route(prodloc4,prodloc14,tr0,12229,317954).
route(prodloc4,prodloc14,tr13,12229,73374).
route(prodloc5,harbor0,tr0,7985,207610).
route(prodloc5,harbor0,tr13,7985,47910).
route(prodloc5,harbor1,tr0,28796,748696).
route(prodloc5,harbor1,tr13,28796,172776).
route(prodloc5,harbor2,tr0,15030,390780).
route(prodloc5,harbor2,tr13,15030,90180).
route(prodloc5,harbor3,tr0,7574,196924).
route(prodloc5,harbor3,tr13,7574,45444).
route(prodloc5,harbor4,tr0,12166,316316).
route(prodloc5,harbor4,tr13,12166,72996).
route(prodloc5,harbor5,tr0,26974,701324).
route(prodloc5,harbor5,tr13,26974,161844).
route(prodloc5,prodloc0,tr0,23909,621634).
route(prodloc5,prodloc0,tr13,23909,143454).
route(prodloc5,prodloc1,tr13,18783,112698).
route(prodloc5,prodloc1,tr15,18783,601056).
route(prodloc5,prodloc2,tr0,20481,532506).
route(prodloc5,prodloc2,tr13,20481,122886).
route(prodloc5,prodloc3,tr0,16252,422552).
route(prodloc5,prodloc3,tr13,16252,97512).
route(prodloc5,prodloc4,tr0,28701,746226).
route(prodloc5,prodloc4,tr13,28701,172206).
route(prodloc5,prodloc6,tr0,7968,207168).
route(prodloc5,prodloc6,tr13,7968,47808).
route(prodloc5,prodloc7,tr0,1181,30706).
route(prodloc5,prodloc7,tr13,1181,7086).
route(prodloc5,prodloc8,tr0,20398,530348).
route(prodloc5,prodloc8,tr13,20398,122388).
route(prodloc5,prodloc9,tr13,19563,117378).
route(prodloc5,prodloc9,tr15,19563,626016).
route(prodloc5,prodloc10,tr0,2775,72150).
route(prodloc5,prodloc10,tr13,2775,16650).
route(prodloc5,prodloc11,tr0,20097,522522).
route(prodloc5,prodloc11,tr13,20097,120582).
route(prodloc5,prodloc12,tr0,1539,40014).
route(prodloc5,prodloc12,tr13,1539,9234).
route(prodloc5,prodloc13,tr0,22220,577720).
route(prodloc5,prodloc13,tr13,22220,133320).
route(prodloc5,prodloc14,tr0,13429,349154).
route(prodloc5,prodloc14,tr13,13429,80574).
route(prodloc6,harbor0,tr0,13327,346502).
route(prodloc6,harbor0,tr13,13327,79962).
route(prodloc6,harbor1,tr0,19287,501462).
route(prodloc6,harbor1,tr13,19287,115722).
route(prodloc6,harbor2,tr0,2261,58786).
route(prodloc6,harbor2,tr13,2261,13566).
route(prodloc6,harbor3,tr0,2647,68822).
route(prodloc6,harbor3,tr13,2647,15882).
route(prodloc6,harbor4,tr0,6198,161148).
route(prodloc6,harbor4,tr13,6198,37188).
route(prodloc6,harbor5,tr0,1119,29094).
route(prodloc6,harbor5,tr13,1119,6714).
route(prodloc6,prodloc0,tr0,19928,518128).
route(prodloc6,prodloc0,tr13,19928,119568).
route(prodloc6,prodloc1,tr0,24664,641264).
route(prodloc6,prodloc1,tr13,24664,147984).
route(prodloc6,prodloc2,tr0,5943,154518).
route(prodloc6,prodloc2,tr13,5943,35658).
route(prodloc6,prodloc3,tr0,2768,71968).
route(prodloc6,prodloc3,tr13,2768,16608).
route(prodloc6,prodloc4,tr0,2127,55302).
route(prodloc6,prodloc4,tr13,2127,12762).
route(prodloc6,prodloc5,tr0,980,25480).
route(prodloc6,prodloc5,tr13,980,5880).
route(prodloc6,prodloc7,tr0,11627,302302).
route(prodloc6,prodloc7,tr13,11627,69762).
route(prodloc6,prodloc8,tr0,20468,532168).
route(prodloc6,prodloc8,tr13,20468,122808).
route(prodloc6,prodloc9,tr0,15410,400660).
route(prodloc6,prodloc9,tr13,15410,92460).
route(prodloc6,prodloc10,tr0,17926,466076).
route(prodloc6,prodloc10,tr13,17926,107556).
route(prodloc6,prodloc11,tr0,17551,456326).
route(prodloc6,prodloc11,tr13,17551,105306).
route(prodloc6,prodloc12,tr0,15554,404404).
route(prodloc6,prodloc12,tr13,15554,93324).
route(prodloc6,prodloc13,tr0,853,22178).
route(prodloc6,prodloc13,tr15,853,27296).
route(prodloc6,prodloc14,tr0,23055,599430).
route(prodloc6,prodloc14,tr13,23055,138330).
route(prodloc7,harbor0,tr0,25416,660816).
route(prodloc7,harbor0,tr13,25416,152496).
route(prodloc7,harbor1,tr0,2469,64194).
route(prodloc7,harbor1,tr13,2469,14814).
route(prodloc7,harbor2,tr0,10940,284440).
route(prodloc7,harbor2,tr13,10940,65640).
route(prodloc7,harbor3,tr0,2774,72124).
route(prodloc7,harbor3,tr13,2774,16644).
route(prodloc7,harbor4,tr0,25653,666978).
route(prodloc7,harbor4,tr13,25653,153918).
route(prodloc7,harbor5,tr0,10536,273936).
route(prodloc7,harbor5,tr13,10536,63216).
route(prodloc7,prodloc0,tr0,282,7332).
route(prodloc7,prodloc0,tr13,282,1692).
route(prodloc7,prodloc1,tr0,15201,395226).
route(prodloc7,prodloc1,tr13,15201,91206).
route(prodloc7,prodloc2,tr0,14719,382694).
route(prodloc7,prodloc2,tr15,14719,471008).
route(prodloc7,prodloc3,tr0,19343,502918).
route(prodloc7,prodloc3,tr13,19343,116058).
route(prodloc7,prodloc4,tr0,4870,126620).
route(prodloc7,prodloc4,tr15,4870,155840).
route(prodloc7,prodloc5,tr13,12653,75918).
route(prodloc7,prodloc5,tr15,12653,404896).
route(prodloc7,prodloc6,tr0,15672,407472).
route(prodloc7,prodloc6,tr13,15672,94032).
route(prodloc7,prodloc8,tr0,27290,709540).
route(prodloc7,prodloc8,tr13,27290,163740).
route(prodloc7,prodloc9,tr0,4520,117520).
route(prodloc7,prodloc9,tr13,4520,27120).
route(prodloc7,prodloc10,tr0,3483,90558).
route(prodloc7,prodloc10,tr13,3483,20898).
route(prodloc7,prodloc11,tr13,11430,68580).
route(prodloc7,prodloc11,tr15,11430,365760).
route(prodloc7,prodloc12,tr0,21997,571922).
route(prodloc7,prodloc12,tr13,21997,131982).
route(prodloc7,prodloc13,tr0,7581,197106).
route(prodloc7,prodloc13,tr13,7581,45486).
route(prodloc7,prodloc14,tr0,14796,384696).
route(prodloc7,prodloc14,tr13,14796,88776).
route(prodloc8,harbor0,tr0,25560,664560).
route(prodloc8,harbor0,tr13,25560,153360).
route(prodloc8,harbor1,tr0,4242,110292).
route(prodloc8,harbor1,tr13,4242,25452).
route(prodloc8,harbor2,tr0,6298,163748).
route(prodloc8,harbor2,tr13,6298,37788).
route(prodloc8,harbor3,tr0,7248,188448).
route(prodloc8,harbor3,tr13,7248,43488).
route(prodloc8,harbor4,tr0,3566,92716).
route(prodloc8,harbor4,tr13,3566,21396).
route(prodloc8,harbor5,tr0,3626,94276).
route(prodloc8,harbor5,tr13,3626,21756).
route(prodloc8,prodloc0,tr13,1729,10374).
route(prodloc8,prodloc0,tr15,1729,55328).
route(prodloc8,prodloc1,tr0,3937,102362).
route(prodloc8,prodloc1,tr13,3937,23622).
route(prodloc8,prodloc2,tr0,2447,63622).
route(prodloc8,prodloc2,tr13,2447,14682).
route(prodloc8,prodloc3,tr0,21147,549822).
route(prodloc8,prodloc3,tr13,21147,126882).
route(prodloc8,prodloc4,tr0,2707,70382).
route(prodloc8,prodloc4,tr13,2707,16242).
route(prodloc8,prodloc5,tr0,12205,317330).
route(prodloc8,prodloc5,tr13,12205,73230).
route(prodloc8,prodloc6,tr0,3397,88322).
route(prodloc8,prodloc6,tr13,3397,20382).
route(prodloc8,prodloc7,tr0,24284,631384).
route(prodloc8,prodloc7,tr13,24284,145704).
route(prodloc8,prodloc9,tr0,770,20020).
route(prodloc8,prodloc9,tr15,770,24640).
route(prodloc8,prodloc10,tr0,15321,398346).
route(prodloc8,prodloc10,tr13,15321,91926).
route(prodloc8,prodloc11,tr0,20532,533832).
route(prodloc8,prodloc11,tr13,20532,123192).
route(prodloc8,prodloc12,tr0,17107,444782).
route(prodloc8,prodloc12,tr13,17107,102642).
route(prodloc8,prodloc13,tr0,6577,171002).
route(prodloc8,prodloc13,tr13,6577,39462).
route(prodloc8,prodloc14,tr0,12109,314834).
route(prodloc8,prodloc14,tr13,12109,72654).
route(prodloc9,harbor0,tr0,28651,744926).
route(prodloc9,harbor0,tr13,28651,171906).
route(prodloc9,harbor1,tr0,20800,540800).
route(prodloc9,harbor1,tr13,20800,124800).
route(prodloc9,harbor2,tr0,2660,69160).
route(prodloc9,harbor2,tr13,2660,15960).
route(prodloc9,harbor3,tr0,7740,201240).
route(prodloc9,harbor3,tr13,7740,46440).
route(prodloc9,harbor4,tr0,181,4706).
route(prodloc9,harbor4,tr13,181,1086).
route(prodloc9,harbor5,tr0,8402,218452).
route(prodloc9,harbor5,tr13,8402,50412).
route(prodloc9,prodloc0,tr0,25015,650390).
route(prodloc9,prodloc0,tr13,25015,150090).
route(prodloc9,prodloc1,tr0,16970,441220).
route(prodloc9,prodloc1,tr15,16970,543040).
route(prodloc9,prodloc2,tr0,22375,581750).
route(prodloc9,prodloc2,tr13,22375,134250).
route(prodloc9,prodloc3,tr0,6469,168194).
route(prodloc9,prodloc3,tr13,6469,38814).
route(prodloc9,prodloc4,tr13,509,3054).
route(prodloc9,prodloc4,tr15,509,16288).
route(prodloc9,prodloc5,tr13,14395,86370).
route(prodloc9,prodloc5,tr15,14395,460640).
route(prodloc9,prodloc6,tr0,8300,215800).
route(prodloc9,prodloc6,tr13,8300,49800).
route(prodloc9,prodloc7,tr13,20015,120090).
route(prodloc9,prodloc7,tr15,20015,640480).
route(prodloc9,prodloc8,tr13,730,4380).
route(prodloc9,prodloc8,tr15,730,23360).
route(prodloc9,prodloc10,tr0,3385,88010).
route(prodloc9,prodloc10,tr13,3385,20310).
route(prodloc9,prodloc11,tr0,17023,442598).
route(prodloc9,prodloc11,tr13,17023,102138).
route(prodloc9,prodloc12,tr0,26215,681590).
route(prodloc9,prodloc12,tr13,26215,157290).
route(prodloc9,prodloc13,tr0,13671,355446).
route(prodloc9,prodloc13,tr13,13671,82026).
route(prodloc9,prodloc14,tr13,1896,11376).
route(prodloc9,prodloc14,tr15,1896,60672).
route(prodloc10,harbor0,tr0,8234,214084).
route(prodloc10,harbor0,tr13,8234,49404).
route(prodloc10,harbor1,tr0,15585,405210).
route(prodloc10,harbor1,tr13,15585,93510).
route(prodloc10,harbor2,tr0,27908,725608).
route(prodloc10,harbor2,tr13,27908,167448).
route(prodloc10,harbor3,tr0,10327,268502).
route(prodloc10,harbor3,tr13,10327,61962).
route(prodloc10,harbor4,tr0,19834,515684).
route(prodloc10,harbor4,tr13,19834,119004).
route(prodloc10,harbor5,tr0,28668,745368).
route(prodloc10,harbor5,tr13,28668,172008).
route(prodloc10,prodloc0,tr0,7233,188058).
route(prodloc10,prodloc0,tr13,7233,43398).
route(prodloc10,prodloc1,tr0,20938,544388).
route(prodloc10,prodloc1,tr13,20938,125628).
route(prodloc10,prodloc2,tr0,1922,49972).
route(prodloc10,prodloc2,tr13,1922,11532).
route(prodloc10,prodloc3,tr0,22323,580398).
route(prodloc10,prodloc3,tr13,22323,133938).
route(prodloc10,prodloc4,tr0,9019,234494).
route(prodloc10,prodloc4,tr13,9019,54114).
route(prodloc10,prodloc5,tr0,4334,112684).
route(prodloc10,prodloc5,tr13,4334,26004).
route(prodloc10,prodloc6,tr0,9837,255762).
route(prodloc10,prodloc6,tr13,9837,59022).
route(prodloc10,prodloc7,tr0,1276,33176).
route(prodloc10,prodloc7,tr13,1276,7656).
route(prodloc10,prodloc8,tr0,26225,681850).
route(prodloc10,prodloc8,tr13,26225,157350).
route(prodloc10,prodloc9,tr0,6119,159094).
route(prodloc10,prodloc9,tr13,6119,36714).
route(prodloc10,prodloc11,tr0,11583,301158).
route(prodloc10,prodloc11,tr13,11583,69498).
route(prodloc10,prodloc12,tr0,25767,669942).
route(prodloc10,prodloc12,tr13,25767,154602).
route(prodloc10,prodloc13,tr0,13214,343564).
route(prodloc10,prodloc13,tr13,13214,79284).
route(prodloc10,prodloc14,tr0,239,6214).
route(prodloc10,prodloc14,tr13,239,1434).
route(prodloc11,harbor0,tr0,28725,746850).
route(prodloc11,harbor0,tr13,28725,172350).
route(prodloc11,harbor1,tr0,9921,257946).
route(prodloc11,harbor1,tr13,9921,59526).
route(prodloc11,harbor2,tr0,28154,732004).
route(prodloc11,harbor2,tr13,28154,168924).
route(prodloc11,harbor3,tr0,3095,80470).
route(prodloc11,harbor3,tr13,3095,18570).
route(prodloc11,harbor4,tr0,967,25142).
route(prodloc11,harbor4,tr13,967,5802).
route(prodloc11,harbor5,tr0,10411,270686).
route(prodloc11,harbor5,tr13,10411,62466).
route(prodloc11,prodloc0,tr0,14397,374322).
route(prodloc11,prodloc0,tr13,14397,86382).
route(prodloc11,prodloc1,tr0,8101,210626).
route(prodloc11,prodloc1,tr13,8101,48606).
route(prodloc11,prodloc2,tr0,13652,354952).
route(prodloc11,prodloc2,tr15,13652,436864).
route(prodloc11,prodloc3,tr0,19799,514774).
route(prodloc11,prodloc3,tr13,19799,118794).
route(prodloc11,prodloc4,tr0,10545,274170).
route(prodloc11,prodloc4,tr13,10545,63270).
route(prodloc11,prodloc5,tr0,16114,418964).
route(prodloc11,prodloc5,tr13,16114,96684).
route(prodloc11,prodloc6,tr0,18463,480038).
route(prodloc11,prodloc6,tr13,18463,110778).
route(prodloc11,prodloc7,tr0,11370,295620).
route(prodloc11,prodloc7,tr13,11370,68220).
route(prodloc11,prodloc8,tr0,28864,750464).
route(prodloc11,prodloc8,tr13,28864,173184).
route(prodloc11,prodloc9,tr0,27432,713232).
route(prodloc11,prodloc9,tr13,27432,164592).
route(prodloc11,prodloc10,tr0,13079,340054).
route(prodloc11,prodloc10,tr13,13079,78474).
route(prodloc11,prodloc12,tr0,14094,366444).
route(prodloc11,prodloc12,tr13,14094,84564).
route(prodloc11,prodloc13,tr0,6848,178048).
route(prodloc11,prodloc13,tr13,6848,41088).
route(prodloc11,prodloc14,tr0,2576,66976).
route(prodloc11,prodloc14,tr13,2576,15456).
route(prodloc12,harbor0,tr0,9058,235508).
route(prodloc12,harbor0,tr13,9058,54348).
route(prodloc12,harbor1,tr0,9861,256386).
route(prodloc12,harbor1,tr13,9861,59166).
route(prodloc12,harbor2,tr0,15132,393432).
route(prodloc12,harbor2,tr13,15132,90792).
route(prodloc12,harbor3,tr0,15291,397566).
route(prodloc12,harbor3,tr13,15291,91746).
route(prodloc12,harbor4,tr0,20005,520130).
route(prodloc12,harbor4,tr13,20005,120030).
route(prodloc12,harbor5,tr0,18628,484328).
route(prodloc12,harbor5,tr13,18628,111768).
route(prodloc12,prodloc0,tr0,14941,388466).
route(prodloc12,prodloc0,tr13,14941,89646).
route(prodloc12,prodloc1,tr0,14417,374842).
route(prodloc12,prodloc1,tr13,14417,86502).
route(prodloc12,prodloc2,tr0,12618,328068).
route(prodloc12,prodloc2,tr13,12618,75708).
route(prodloc12,prodloc3,tr0,6107,158782).
route(prodloc12,prodloc3,tr13,6107,36642).
route(prodloc12,prodloc4,tr0,10798,280748).
route(prodloc12,prodloc4,tr13,10798,64788).
route(prodloc12,prodloc5,tr0,13180,342680).
route(prodloc12,prodloc5,tr13,13180,79080).
route(prodloc12,prodloc6,tr0,1931,50206).
route(prodloc12,prodloc6,tr13,1931,11586).
route(prodloc12,prodloc7,tr0,10652,276952).
route(prodloc12,prodloc7,tr13,10652,63912).
route(prodloc12,prodloc8,tr0,3010,78260).
route(prodloc12,prodloc8,tr13,3010,18060).
route(prodloc12,prodloc9,tr0,5591,145366).
route(prodloc12,prodloc9,tr13,5591,33546).
route(prodloc12,prodloc10,tr0,10406,270556).
route(prodloc12,prodloc10,tr13,10406,62436).
route(prodloc12,prodloc11,tr13,17823,106938).
route(prodloc12,prodloc11,tr15,17823,570336).
route(prodloc12,prodloc13,tr0,882,22932).
route(prodloc12,prodloc13,tr13,882,5292).
route(prodloc12,prodloc14,tr0,6180,160680).
route(prodloc12,prodloc14,tr13,6180,37080).
route(prodloc13,harbor0,tr0,6919,179894).
route(prodloc13,harbor0,tr13,6919,41514).
route(prodloc13,harbor1,tr0,23319,606294).
route(prodloc13,harbor1,tr13,23319,139914).
route(prodloc13,harbor2,tr0,11949,310674).
route(prodloc13,harbor2,tr13,11949,71694).
route(prodloc13,harbor3,tr0,21588,561288).
route(prodloc13,harbor3,tr13,21588,129528).
route(prodloc13,harbor4,tr0,4513,117338).
route(prodloc13,harbor4,tr13,4513,27078).
route(prodloc13,harbor5,tr0,20494,532844).
route(prodloc13,harbor5,tr13,20494,122964).
route(prodloc13,prodloc0,tr0,2817,73242).
route(prodloc13,prodloc0,tr13,2817,16902).
route(prodloc13,prodloc1,tr0,11072,287872).
route(prodloc13,prodloc1,tr13,11072,66432).
route(prodloc13,prodloc2,tr0,14651,380926).
route(prodloc13,prodloc2,tr15,14651,468832).
route(prodloc13,prodloc3,tr0,19877,516802).
route(prodloc13,prodloc3,tr13,19877,119262).
route(prodloc13,prodloc4,tr0,19646,510796).
route(prodloc13,prodloc4,tr13,19646,117876).
route(prodloc13,prodloc5,tr0,24958,648908).
route(prodloc13,prodloc5,tr13,24958,149748).
route(prodloc13,prodloc6,tr0,21964,571064).
route(prodloc13,prodloc6,tr13,21964,131784).
route(prodloc13,prodloc7,tr0,24038,624988).
route(prodloc13,prodloc7,tr13,24038,144228).
route(prodloc13,prodloc8,tr0,12613,327938).
route(prodloc13,prodloc8,tr13,12613,75678).
route(prodloc13,prodloc9,tr0,6923,179998).
route(prodloc13,prodloc9,tr13,6923,41538).
route(prodloc13,prodloc10,tr0,22841,593866).
route(prodloc13,prodloc10,tr13,22841,137046).
route(prodloc13,prodloc11,tr0,17760,461760).
route(prodloc13,prodloc11,tr13,17760,106560).
route(prodloc13,prodloc12,tr0,25278,657228).
route(prodloc13,prodloc12,tr13,25278,151668).
route(prodloc13,prodloc14,tr0,10991,285766).
route(prodloc13,prodloc14,tr13,10991,65946).
route(prodloc14,harbor0,tr0,2487,64662).
route(prodloc14,harbor0,tr13,2487,14922).
route(prodloc14,harbor1,tr0,628,16328).
route(prodloc14,harbor1,tr13,628,3768).
route(prodloc14,harbor2,tr0,21949,570674).
route(prodloc14,harbor2,tr13,21949,131694).
route(prodloc14,harbor3,tr0,18105,470730).
route(prodloc14,harbor3,tr13,18105,108630).
route(prodloc14,harbor4,tr0,13824,359424).
route(prodloc14,harbor4,tr13,13824,82944).
route(prodloc14,harbor5,tr0,15422,400972).
route(prodloc14,harbor5,tr13,15422,92532).
route(prodloc14,prodloc0,tr0,7451,193726).
route(prodloc14,prodloc0,tr13,7451,44706).
route(prodloc14,prodloc1,tr0,28408,738608).
route(prodloc14,prodloc1,tr13,28408,170448).
route(prodloc14,prodloc2,tr0,23832,619632).
route(prodloc14,prodloc2,tr13,23832,142992).
route(prodloc14,prodloc3,tr0,10608,275808).
route(prodloc14,prodloc3,tr13,10608,63648).
route(prodloc14,prodloc4,tr0,25035,650910).
route(prodloc14,prodloc4,tr13,25035,150210).
route(prodloc14,prodloc5,tr0,27316,710216).
route(prodloc14,prodloc5,tr13,27316,163896).
route(prodloc14,prodloc6,tr0,26189,680914).
route(prodloc14,prodloc6,tr13,26189,157134).
route(prodloc14,prodloc7,tr0,16849,438074).
route(prodloc14,prodloc7,tr13,16849,101094).
route(prodloc14,prodloc8,tr0,16462,428012).
route(prodloc14,prodloc8,tr13,16462,98772).
route(prodloc14,prodloc9,tr0,3249,84474).
route(prodloc14,prodloc9,tr13,3249,19494).
route(prodloc14,prodloc10,tr0,15181,394706).
route(prodloc14,prodloc10,tr13,15181,91086).
route(prodloc14,prodloc11,tr0,23493,610818).
route(prodloc14,prodloc11,tr13,23493,140958).
route(prodloc14,prodloc12,tr0,106,2756).
route(prodloc14,prodloc12,tr13,106,636).
route(prodloc14,prodloc13,tr0,9329,242554).
route(prodloc14,prodloc13,tr13,9329,55974).
hub(harbor3).
hub(prodloc8).
hub(prodloc12).
hub(prodloc14).
