% Multibatching benchmark instance
% Source: instances.lp
% seed=11  harbors=6  prodlocs=15  hubs=4  disruptions=2

% ---- locations ----
location(harbor0).
location(harbor1).
location(harbor2).
location(harbor3).
location(harbor4).
location(harbor5).
location(prodloc0).
location(prodloc1).
location(prodloc2).
location(prodloc3).
location(prodloc4).
location(prodloc5).
location(prodloc6).
location(prodloc7).
location(prodloc8).
location(prodloc9).
location(prodloc10).
location(prodloc11).
location(prodloc12).
location(prodloc13).
location(prodloc14).

% ---- transport resources ----
transportCapacity(tr0,1800).
transportCO2(tr0,1680).
transportCost(tr0,26).
transportSpeed(tr0,12).
transportCapacity(tr1,65).
transportCO2(tr1,90).
transportCost(tr1,1).
transportSpeed(tr1,35).
transportCapacity(tr10,1).
transportCO2(tr10,700).
transportCost(tr10,4).
transportSpeed(tr10,40).
transportCapacity(tr11,65).
transportCO2(tr11,62).
transportCost(tr11,1).
transportSpeed(tr11,25).
transportCapacity(tr12,65).
transportCO2(tr12,709).
transportCost(tr12,3).
transportSpeed(tr12,55).
transportCapacity(tr13,68).
transportCO2(tr13,160).
transportCost(tr13,6).
transportSpeed(tr13,25).
transportCapacity(tr14,146).
transportCO2(tr14,780).
transportCost(tr14,4).
transportSpeed(tr14,50).
transportCapacity(tr15,2217).
transportCO2(tr15,49470).
transportCost(tr15,32).
transportSpeed(tr15,625).
transportCapacity(tr2,96).
transportCO2(tr2,709).
transportCost(tr2,3).
transportSpeed(tr2,55).
transportCapacity(tr3,1).
transportCO2(tr3,6250).
transportCost(tr3,108).
transportSpeed(tr3,25).
transportCapacity(tr4,148).
transportCO2(tr4,780).
transportCost(tr4,4).
transportSpeed(tr4,50).
transportCapacity(tr5,65).
transportCO2(tr5,780).
transportCost(tr5,3).
transportSpeed(tr5,50).
transportCapacity(tr6,1).
transportCO2(tr6,100).
transportCost(tr6,40).
transportSpeed(tr6,25).
transportCapacity(tr7,1).
transportCO2(tr7,18000).
transportCost(tr7,278).
transportSpeed(tr7,10).
transportCapacity(tr8,1).
transportCO2(tr8,14400).
transportCost(tr8,107).
transportSpeed(tr8,25).
transportCapacity(tr9,65).
transportCO2(tr9,708).
transportCost(tr9,2).
transportSpeed(tr9,60).

% ---- parts ----
part(part0).
partSize(part0,21).
valid_transport(part0,tr0).
valid_transport(part0,tr15).
valid_transport(part0,tr14).
valid_transport(part0,tr13).
valid_transport(part0,tr4).
part(part1).
partSize(part1,1).
valid_transport(part1,tr0).
valid_transport(part1,tr2).
valid_transport(part1,tr15).
valid_transport(part1,tr9).
valid_transport(part1,tr12).
valid_transport(part1,tr13).
valid_transport(part1,tr11).
part(part10).
partSize(part10,1).
valid_transport(part10,tr0).
valid_transport(part10,tr2).
valid_transport(part10,tr15).
valid_transport(part10,tr9).
valid_transport(part10,tr12).
valid_transport(part10,tr13).
valid_transport(part10,tr11).
part(part11).
partSize(part11,83).
valid_transport(part11,tr0).
valid_transport(part11,tr7).
valid_transport(part11,tr8).
valid_transport(part11,tr15).
valid_transport(part11,tr3).
valid_transport(part11,tr13).
part(part12).
partSize(part12,273).
valid_transport(part12,tr0).
valid_transport(part12,tr7).
valid_transport(part12,tr8).
valid_transport(part12,tr15).
valid_transport(part12,tr3).
valid_transport(part12,tr13).
part(part13).
partSize(part13,1).
valid_transport(part13,tr0).
valid_transport(part13,tr2).
valid_transport(part13,tr15).
valid_transport(part13,tr9).
valid_transport(part13,tr12).
valid_transport(part13,tr13).
valid_transport(part13,tr11).
part(part14).
partSize(part14,68).
valid_transport(part14,tr0).
valid_transport(part14,tr15).
valid_transport(part14,tr13).
part(part15).
partSize(part15,4).
valid_transport(part15,tr0).
valid_transport(part15,tr2).
valid_transport(part15,tr15).
valid_transport(part15,tr9).
valid_transport(part15,tr12).
valid_transport(part15,tr13).
valid_transport(part15,tr11).
part(part16).
partSize(part16,4).
valid_transport(part16,tr0).
valid_transport(part16,tr2).
valid_transport(part16,tr15).
valid_transport(part16,tr9).
valid_transport(part16,tr12).
valid_transport(part16,tr13).
valid_transport(part16,tr11).
part(part17).
partSize(part17,8).
valid_transport(part17,tr0).
valid_transport(part17,tr15).
valid_transport(part17,tr14).
valid_transport(part17,tr13).
valid_transport(part17,tr4).
part(part18).
partSize(part18,24).
valid_transport(part18,tr0).
valid_transport(part18,tr15).
valid_transport(part18,tr14).
valid_transport(part18,tr13).
valid_transport(part18,tr4).
part(part19).
partSize(part19,6).
valid_transport(part19,tr0).
valid_transport(part19,tr2).
valid_transport(part19,tr15).
valid_transport(part19,tr9).
valid_transport(part19,tr12).
valid_transport(part19,tr13).
valid_transport(part19,tr11).
part(part2).
partSize(part2,19).
valid_transport(part2,tr0).
valid_transport(part2,tr15).
valid_transport(part2,tr14).
valid_transport(part2,tr13).
valid_transport(part2,tr4).
part(part20).
partSize(part20,128).
valid_transport(part20,tr0).
valid_transport(part20,tr7).
valid_transport(part20,tr8).
valid_transport(part20,tr15).
valid_transport(part20,tr3).
valid_transport(part20,tr13).
part(part21).
partSize(part21,25).
valid_transport(part21,tr0).
valid_transport(part21,tr15).
valid_transport(part21,tr14).
valid_transport(part21,tr13).
valid_transport(part21,tr4).
part(part22).
partSize(part22,7).
valid_transport(part22,tr0).
valid_transport(part22,tr2).
valid_transport(part22,tr15).
valid_transport(part22,tr9).
valid_transport(part22,tr12).
valid_transport(part22,tr13).
valid_transport(part22,tr11).
part(part23).
partSize(part23,5).
valid_transport(part23,tr0).
valid_transport(part23,tr15).
valid_transport(part23,tr14).
valid_transport(part23,tr13).
valid_transport(part23,tr4).
part(part24).
partSize(part24,55).
valid_transport(part24,tr0).
valid_transport(part24,tr7).
valid_transport(part24,tr8).
valid_transport(part24,tr15).
valid_transport(part24,tr3).
valid_transport(part24,tr13).
part(part25).
partSize(part25,5).
valid_transport(part25,tr0).
valid_transport(part25,tr4).
valid_transport(part25,tr2).
valid_transport(part25,tr15).
valid_transport(part25,tr13).
part(part26).
partSize(part26,32).
valid_transport(part26,tr0).
valid_transport(part26,tr7).
valid_transport(part26,tr8).
valid_transport(part26,tr15).
valid_transport(part26,tr3).
valid_transport(part26,tr13).
part(part27).
partSize(part27,5).
valid_transport(part27,tr0).
valid_transport(part27,tr2).
valid_transport(part27,tr15).
valid_transport(part27,tr9).
valid_transport(part27,tr12).
valid_transport(part27,tr13).
valid_transport(part27,tr11).
part(part28).
partSize(part28,3).
valid_transport(part28,tr0).
valid_transport(part28,tr4).
valid_transport(part28,tr2).
valid_transport(part28,tr15).
valid_transport(part28,tr14).
valid_transport(part28,tr13).
part(part29).
partSize(part29,627).
part(part3).
partSize(part3,48).
valid_transport(part3,tr0).
valid_transport(part3,tr7).
valid_transport(part3,tr8).
valid_transport(part3,tr15).
valid_transport(part3,tr3).
valid_transport(part3,tr13).
part(part30).
partSize(part30,2).
valid_transport(part30,tr0).
valid_transport(part30,tr2).
valid_transport(part30,tr15).
valid_transport(part30,tr9).
valid_transport(part30,tr12).
valid_transport(part30,tr13).
valid_transport(part30,tr11).
part(part31).
partSize(part31,144).
valid_transport(part31,tr0).
valid_transport(part31,tr7).
valid_transport(part31,tr8).
valid_transport(part31,tr15).
valid_transport(part31,tr3).
valid_transport(part31,tr13).
part(part32).
partSize(part32,16).
valid_transport(part32,tr0).
valid_transport(part32,tr4).
valid_transport(part32,tr2).
valid_transport(part32,tr15).
valid_transport(part32,tr14).
valid_transport(part32,tr13).
part(part33).
partSize(part33,7).
valid_transport(part33,tr0).
valid_transport(part33,tr2).
valid_transport(part33,tr15).
valid_transport(part33,tr9).
valid_transport(part33,tr12).
valid_transport(part33,tr13).
valid_transport(part33,tr11).
part(part3345).
partSize(part3345,353).
valid_transport(part3345,tr0).
valid_transport(part3345,tr7).
valid_transport(part3345,tr8).
valid_transport(part3345,tr15).
valid_transport(part3345,tr3).
valid_transport(part3345,tr13).
part(part34).
partSize(part34,2).
valid_transport(part34,tr0).
valid_transport(part34,tr2).
valid_transport(part34,tr15).
valid_transport(part34,tr9).
valid_transport(part34,tr12).
valid_transport(part34,tr13).
valid_transport(part34,tr11).
part(part4).
partSize(part4,2).
valid_transport(part4,tr0).
valid_transport(part4,tr2).
valid_transport(part4,tr15).
valid_transport(part4,tr9).
valid_transport(part4,tr12).
valid_transport(part4,tr13).
valid_transport(part4,tr11).
part(part5).
partSize(part5,2).
valid_transport(part5,tr0).
valid_transport(part5,tr2).
valid_transport(part5,tr15).
valid_transport(part5,tr9).
valid_transport(part5,tr12).
valid_transport(part5,tr14).
valid_transport(part5,tr13).
valid_transport(part5,tr11).
part(part6).
partSize(part6,111).
valid_transport(part6,tr0).
valid_transport(part6,tr7).
valid_transport(part6,tr8).
valid_transport(part6,tr15).
valid_transport(part6,tr3).
valid_transport(part6,tr13).
part(part8).
partSize(part8,163).
valid_transport(part8,tr0).
valid_transport(part8,tr7).
valid_transport(part8,tr8).
valid_transport(part8,tr15).
valid_transport(part8,tr3).
valid_transport(part8,tr13).
part(part9).
partSize(part9,2).
valid_transport(part9,tr0).
valid_transport(part9,tr2).
valid_transport(part9,tr15).
valid_transport(part9,tr9).
valid_transport(part9,tr12).
valid_transport(part9,tr13).
valid_transport(part9,tr11).

% ---- demand ----
demandOffer(part0,prodloc7,40).
demandOffer(part0,prodloc13,40).
demandOffer(part0,prodloc8,-27).
demandOffer(part0,prodloc14,-53).
demandOffer(part1,prodloc7,20).
demandOffer(part1,prodloc8,20).
demandOffer(part1,prodloc9,-20).
demandOffer(part1,prodloc3,-20).
demandOffer(part10,prodloc2,20).
demandOffer(part10,prodloc12,20).
demandOffer(part10,prodloc8,-20).
demandOffer(part10,prodloc7,-20).
demandOffer(part12,prodloc10,10).
demandOffer(part12,prodloc9,20).
demandOffer(part12,prodloc12,-10).
demandOffer(part12,prodloc2,-10).
demandOffer(part12,prodloc1,-10).
demandOffer(part13,prodloc7,20).
demandOffer(part13,prodloc4,20).
demandOffer(part13,prodloc2,-20).
demandOffer(part13,prodloc1,-20).
demandOffer(part14,prodloc8,26).
demandOffer(part14,prodloc12,-26).
demandOffer(part15,prodloc14,53).
demandOffer(part15,prodloc11,27).
demandOffer(part15,prodloc10,-53).
demandOffer(part15,prodloc0,-27).
demandOffer(part16,prodloc9,53).
demandOffer(part16,prodloc6,27).
demandOffer(part16,prodloc7,-53).
demandOffer(part16,prodloc10,-27).
demandOffer(part17,prodloc11,20).
demandOffer(part17,prodloc9,-20).
demandOffer(part18,prodloc10,40).
demandOffer(part18,prodloc2,40).
demandOffer(part18,prodloc9,-27).
demandOffer(part18,prodloc0,-53).
demandOffer(part19,prodloc13,26).
demandOffer(part19,prodloc8,-26).
demandOffer(part2,prodloc1,40).
demandOffer(part2,prodloc0,40).
demandOffer(part2,prodloc13,-27).
demandOffer(part2,prodloc3,-53).
demandOffer(part20,prodloc14,53).
demandOffer(part20,prodloc3,27).
demandOffer(part20,prodloc9,-14).
demandOffer(part20,prodloc0,-46).
demandOffer(part20,prodloc7,-20).
demandOffer(part21,prodloc5,26).
demandOffer(part21,prodloc7,-26).
demandOffer(part22,prodloc9,53).
demandOffer(part22,prodloc13,27).
demandOffer(part22,prodloc3,-53).
demandOffer(part22,prodloc8,-27).
demandOffer(part23,prodloc3,20).
demandOffer(part23,prodloc10,20).
demandOffer(part23,prodloc4,-20).
demandOffer(part23,prodloc7,-20).
demandOffer(part25,prodloc0,20).
demandOffer(part25,prodloc10,-20).
demandOffer(part26,prodloc1,20).
demandOffer(part26,prodloc7,20).
demandOffer(part26,prodloc10,-14).
demandOffer(part26,prodloc4,-26).
demandOffer(part27,prodloc6,53).
demandOffer(part27,prodloc8,27).
demandOffer(part27,prodloc1,-53).
demandOffer(part27,prodloc11,-27).
demandOffer(part28,prodloc4,20).
demandOffer(part28,prodloc5,20).
demandOffer(part28,prodloc12,-20).
demandOffer(part28,prodloc3,-20).
demandOffer(part3,prodloc8,40).
demandOffer(part3,prodloc4,-14).
demandOffer(part3,prodloc0,-26).
demandOffer(part30,prodloc1,40).
demandOffer(part30,prodloc9,40).
demandOffer(part30,prodloc12,-27).
demandOffer(part30,prodloc14,-53).
demandOffer(part31,prodloc6,7).
demandOffer(part31,prodloc1,7).
demandOffer(part31,prodloc4,-14).
demandOffer(part32,prodloc6,53).
demandOffer(part32,prodloc1,27).
demandOffer(part32,prodloc0,-53).
demandOffer(part32,prodloc10,-27).
demandOffer(part33,prodloc0,53).
demandOffer(part33,prodloc3,27).
demandOffer(part33,prodloc13,-53).
demandOffer(part33,prodloc14,-27).
demandOffer(part34,prodloc7,20).
demandOffer(part34,prodloc6,-20).
demandOffer(part4,prodloc11,26).
demandOffer(part4,prodloc6,-26).
demandOffer(part5,prodloc6,20).
demandOffer(part5,prodloc1,-20).
demandOffer(part6,prodloc9,27).
demandOffer(part6,prodloc10,53).
demandOffer(part6,prodloc3,-24).
demandOffer(part6,prodloc13,-36).
demandOffer(part6,prodloc4,-10).
demandOffer(part6,prodloc5,-10).
demandOffer(part8,prodloc1,3).
demandOffer(part8,prodloc4,17).
demandOffer(part8,prodloc5,-10).
demandOffer(part8,prodloc0,-10).
demandOffer(part9,prodloc6,20).
demandOffer(part9,prodloc12,-20).

% ---- network (ASP-generated) ----
route(harbor0,harbor1,tr13,3896,23376).
route(harbor0,harbor1,tr2,3896,11688).
route(harbor0,harbor2,tr13,4440,26640).
route(harbor0,harbor2,tr2,4440,13320).
route(harbor0,harbor3,tr13,8103,48618).
route(harbor0,harbor3,tr2,8103,24309).
route(harbor0,harbor4,tr13,23197,139182).
route(harbor0,harbor4,tr2,23197,69591).
route(harbor0,harbor5,tr13,3341,20046).
route(harbor0,harbor5,tr2,3341,10023).
route(harbor0,prodloc0,tr0,360,9360).
route(harbor0,prodloc0,tr13,360,2160).
route(harbor0,prodloc1,tr0,1964,51064).
route(harbor0,prodloc1,tr13,1964,11784).
route(harbor0,prodloc2,tr0,15237,396162).
route(harbor0,prodloc2,tr13,15237,91422).
route(harbor0,prodloc3,tr0,26118,679068).
route(harbor0,prodloc3,tr13,26118,156708).
route(harbor0,prodloc4,tr0,15954,414804).
route(harbor0,prodloc4,tr13,15954,95724).
route(harbor0,prodloc5,tr0,5824,151424).
route(harbor0,prodloc5,tr13,5824,34944).
route(harbor0,prodloc6,tr0,22352,581152).
route(harbor0,prodloc6,tr13,22352,134112).
route(harbor0,prodloc7,tr0,18328,476528).
route(harbor0,prodloc7,tr13,18328,109968).
route(harbor0,prodloc8,tr0,6175,160550).
route(harbor0,prodloc8,tr13,6175,37050).
route(harbor0,prodloc9,tr0,14663,381238).
route(harbor0,prodloc9,tr13,14663,87978).
route(harbor0,prodloc10,tr0,16676,433576).
route(harbor0,prodloc10,tr13,16676,100056).
route(harbor0,prodloc11,tr0,6250,162500).
route(harbor0,prodloc11,tr13,6250,37500).
route(harbor0,prodloc12,tr0,23984,623584).
route(harbor0,prodloc12,tr13,23984,143904).
route(harbor0,prodloc13,tr0,25217,655642).
route(harbor0,prodloc13,tr13,25217,151302).
route(harbor0,prodloc14,tr0,4293,111618).
route(harbor0,prodloc14,tr13,4293,25758).
route(harbor1,harbor0,tr13,13767,82602).
route(harbor1,harbor0,tr2,13767,41301).
route(harbor1,harbor2,tr13,21123,126738).
route(harbor1,harbor2,tr2,21123,63369).
route(harbor1,harbor3,tr13,12604,75624).
route(harbor1,harbor3,tr2,12604,37812).
route(harbor1,harbor4,tr13,3847,23082).
route(harbor1,harbor4,tr2,3847,11541).
route(harbor1,harbor5,tr13,12968,77808).
route(harbor1,harbor5,tr2,12968,38904).
route(harbor1,prodloc0,tr0,13789,358514).
route(harbor1,prodloc0,tr13,13789,82734).
route(harbor1,prodloc1,tr0,6977,181402).
route(harbor1,prodloc1,tr13,6977,41862).
route(harbor1,prodloc2,tr0,17,442).
route(harbor1,prodloc2,tr13,17,102).
route(harbor1,prodloc3,tr0,8842,229892).
route(harbor1,prodloc3,tr13,8842,53052).
route(harbor1,prodloc4,tr0,28324,736424).
route(harbor1,prodloc4,tr13,28324,169944).
route(harbor1,prodloc5,tr0,26328,684528).
route(harbor1,prodloc5,tr13,26328,157968).
route(harbor1,prodloc6,tr0,19424,505024).
route(harbor1,prodloc6,tr13,19424,116544).
route(harbor1,prodloc7,tr0,9968,259168).
route(harbor1,prodloc7,tr13,9968,59808).
route(harbor1,prodloc8,tr0,645,16770).
route(harbor1,prodloc8,tr13,645,3870).
route(harbor1,prodloc9,tr0,6906,179556).
route(harbor1,prodloc9,tr13,6906,41436).
route(harbor1,prodloc10,tr0,6139,159614).
route(harbor1,prodloc10,tr13,6139,36834).
route(harbor1,prodloc11,tr0,12921,335946).
route(harbor1,prodloc11,tr13,12921,77526).
route(harbor1,prodloc12,tr0,27998,727948).
route(harbor1,prodloc12,tr13,27998,167988).
route(harbor1,prodloc13,tr0,19728,512928).
route(harbor1,prodloc13,tr13,19728,118368).
route(harbor1,prodloc14,tr0,21033,546858).
route(harbor1,prodloc14,tr13,21033,126198).
route(harbor2,harbor0,tr13,18935,113610).
route(harbor2,harbor0,tr2,18935,56805).
route(harbor2,harbor1,tr13,3317,19902).
route(harbor2,harbor1,tr2,3317,9951).
route(harbor2,harbor3,tr13,1409,8454).
route(harbor2,harbor3,tr2,1409,4227).
route(harbor2,harbor4,tr13,4825,28950).
route(harbor2,harbor4,tr2,4825,14475).
route(harbor2,harbor5,tr13,7017,42102).
route(harbor2,harbor5,tr2,7017,21051).
route(harbor2,prodloc0,tr0,14470,376220).
route(harbor2,prodloc0,tr13,14470,86820).
route(harbor2,prodloc1,tr0,8465,220090).
route(harbor2,prodloc1,tr13,8465,50790).
route(harbor2,prodloc2,tr0,315,8190).
route(harbor2,prodloc2,tr13,315,1890).
route(harbor2,prodloc3,tr0,25321,658346).
route(harbor2,prodloc3,tr13,25321,151926).
route(harbor2,prodloc4,tr0,20001,520026).
route(harbor2,prodloc4,tr13,20001,120006).
route(harbor2,prodloc5,tr0,10781,280306).
route(harbor2,prodloc5,tr13,10781,64686).
route(harbor2,prodloc6,tr0,27208,707408).
route(harbor2,prodloc6,tr13,27208,163248).
route(harbor2,prodloc7,tr0,9711,252486).
route(harbor2,prodloc7,tr13,9711,58266).
route(harbor2,prodloc8,tr0,12656,329056).
route(harbor2,prodloc8,tr13,12656,75936).
route(harbor2,prodloc9,tr0,2407,62582).
route(harbor2,prodloc9,tr13,2407,14442).
route(harbor2,prodloc10,tr0,2436,63336).
route(harbor2,prodloc10,tr13,2436,14616).
route(harbor2,prodloc11,tr0,2954,76804).
route(harbor2,prodloc11,tr13,2954,17724).
route(harbor2,prodloc12,tr0,6841,177866).
route(harbor2,prodloc12,tr13,6841,41046).
route(harbor2,prodloc13,tr0,19097,496522).
route(harbor2,prodloc13,tr13,19097,114582).
route(harbor2,prodloc14,tr0,20861,542386).
route(harbor2,prodloc14,tr13,20861,125166).
route(harbor3,harbor0,tr13,7993,47958).
route(harbor3,harbor0,tr2,7993,23979).
route(harbor3,harbor1,tr13,538,3228).
route(harbor3,harbor1,tr2,538,1614).
route(harbor3,harbor2,tr13,19732,118392).
route(harbor3,harbor2,tr2,19732,59196).
route(harbor3,harbor4,tr13,12110,72660).
route(harbor3,harbor4,tr2,12110,36330).
route(harbor3,harbor5,tr13,12209,73254).
route(harbor3,harbor5,tr2,12209,36627).
route(harbor3,prodloc0,tr0,20388,530088).
route(harbor3,prodloc0,tr13,20388,122328).
route(harbor3,prodloc1,tr0,14852,386152).
route(harbor3,prodloc1,tr13,14852,89112).
route(harbor3,prodloc2,tr0,4170,108420).
route(harbor3,prodloc2,tr13,4170,25020).
route(harbor3,prodloc3,tr0,19245,500370).
route(harbor3,prodloc3,tr13,19245,115470).
route(harbor3,prodloc4,tr0,15852,412152).
route(harbor3,prodloc4,tr13,15852,95112).
route(harbor3,prodloc5,tr0,27276,709176).
route(harbor3,prodloc5,tr13,27276,163656).
route(harbor3,prodloc6,tr0,18829,489554).
route(harbor3,prodloc6,tr13,18829,112974).
route(harbor3,prodloc7,tr0,4449,115674).
route(harbor3,prodloc7,tr13,4449,26694).
route(harbor3,prodloc8,tr0,28396,738296).
route(harbor3,prodloc8,tr13,28396,170376).
route(harbor3,prodloc9,tr0,12653,328978).
route(harbor3,prodloc9,tr13,12653,75918).
route(harbor3,prodloc10,tr0,5992,155792).
route(harbor3,prodloc10,tr13,5992,35952).
route(harbor3,prodloc11,tr0,20555,534430).
route(harbor3,prodloc11,tr13,20555,123330).
route(harbor3,prodloc12,tr0,5052,131352).
route(harbor3,prodloc12,tr13,5052,30312).
route(harbor3,prodloc13,tr0,10186,264836).
route(harbor3,prodloc13,tr13,10186,61116).
route(harbor3,prodloc14,tr0,7485,194610).
route(harbor3,prodloc14,tr13,7485,44910).
route(harbor4,harbor0,tr13,26827,160962).
route(harbor4,harbor0,tr2,26827,80481).
route(harbor4,harbor1,tr13,20033,120198).
route(harbor4,harbor1,tr2,20033,60099).
route(harbor4,harbor2,tr13,8205,49230).
route(harbor4,harbor2,tr2,8205,24615).
route(harbor4,harbor3,tr13,23799,142794).
route(harbor4,harbor3,tr2,23799,71397).
route(harbor4,harbor5,tr13,6249,37494).
route(harbor4,harbor5,tr2,6249,18747).
route(harbor4,prodloc0,tr0,5194,135044).
route(harbor4,prodloc0,tr13,5194,31164).
route(harbor4,prodloc1,tr0,24231,630006).
route(harbor4,prodloc1,tr13,24231,145386).
route(harbor4,prodloc2,tr0,20612,535912).
route(harbor4,prodloc2,tr13,20612,123672).
route(harbor4,prodloc3,tr0,18153,471978).
route(harbor4,prodloc3,tr13,18153,108918).
route(harbor4,prodloc4,tr0,6443,167518).
route(harbor4,prodloc4,tr13,6443,38658).
route(harbor4,prodloc5,tr0,22512,585312).
route(harbor4,prodloc5,tr13,22512,135072).
route(harbor4,prodloc6,tr0,12722,330772).
route(harbor4,prodloc6,tr13,12722,76332).
route(harbor4,prodloc7,tr0,28909,751634).
route(harbor4,prodloc7,tr13,28909,173454).
route(harbor4,prodloc8,tr0,15813,411138).
route(harbor4,prodloc8,tr13,15813,94878).
route(harbor4,prodloc9,tr0,19778,514228).
route(harbor4,prodloc9,tr13,19778,118668).
route(harbor4,prodloc10,tr0,2574,66924).
route(harbor4,prodloc10,tr13,2574,15444).
route(harbor4,prodloc11,tr0,13812,359112).
route(harbor4,prodloc11,tr13,13812,82872).
route(harbor4,prodloc12,tr0,1555,40430).
route(harbor4,prodloc12,tr13,1555,9330).
route(harbor4,prodloc13,tr0,3404,88504).
route(harbor4,prodloc13,tr13,3404,20424).
route(harbor4,prodloc14,tr0,3575,92950).
route(harbor4,prodloc14,tr13,3575,21450).
route(harbor5,harbor0,tr13,1298,7788).
route(harbor5,harbor0,tr2,1298,3894).
route(harbor5,harbor1,tr13,16818,100908).
route(harbor5,harbor1,tr2,16818,50454).
route(harbor5,harbor2,tr13,8391,50346).
route(harbor5,harbor2,tr2,8391,25173).
route(harbor5,harbor3,tr13,7842,47052).
route(harbor5,harbor3,tr2,7842,23526).
route(harbor5,harbor4,tr13,24272,145632).
route(harbor5,harbor4,tr2,24272,72816).
route(harbor5,prodloc0,tr0,23089,600314).
route(harbor5,prodloc0,tr13,23089,138534).
route(harbor5,prodloc1,tr0,12834,333684).
route(harbor5,prodloc1,tr13,12834,77004).
route(harbor5,prodloc2,tr0,8422,218972).
route(harbor5,prodloc2,tr13,8422,50532).
route(harbor5,prodloc3,tr0,13791,358566).
route(harbor5,prodloc3,tr13,13791,82746).
route(harbor5,prodloc4,tr0,26993,701818).
route(harbor5,prodloc4,tr13,26993,161958).
route(harbor5,prodloc5,tr0,19547,508222).
route(harbor5,prodloc5,tr13,19547,117282).
route(harbor5,prodloc6,tr0,16091,418366).
route(harbor5,prodloc6,tr13,16091,96546).
route(harbor5,prodloc7,tr0,9617,250042).
route(harbor5,prodloc7,tr13,9617,57702).
route(harbor5,prodloc8,tr0,17043,443118).
route(harbor5,prodloc8,tr13,17043,102258).
route(harbor5,prodloc9,tr0,5750,149500).
route(harbor5,prodloc9,tr13,5750,34500).
route(harbor5,prodloc10,tr0,23606,613756).
route(harbor5,prodloc10,tr13,23606,141636).
route(harbor5,prodloc11,tr0,2255,58630).
route(harbor5,prodloc11,tr13,2255,13530).
route(harbor5,prodloc12,tr0,4143,107718).
route(harbor5,prodloc12,tr13,4143,24858).
route(harbor5,prodloc13,tr0,7486,194636).
route(harbor5,prodloc13,tr13,7486,44916).
route(harbor5,prodloc14,tr0,15707,408382).
route(harbor5,prodloc14,tr13,15707,94242).
route(prodloc0,harbor0,tr0,18331,476606).
route(prodloc0,harbor0,tr13,18331,109986).
route(prodloc0,harbor1,tr0,21416,556816).
route(prodloc0,harbor1,tr13,21416,128496).
route(prodloc0,harbor2,tr0,27933,726258).
route(prodloc0,harbor2,tr13,27933,167598).
route(prodloc0,harbor3,tr0,20182,524732).
route(prodloc0,harbor3,tr13,20182,121092).
route(prodloc0,harbor4,tr0,20131,523406).
route(prodloc0,harbor4,tr13,20131,120786).
route(prodloc0,harbor5,tr0,2431,63206).
route(prodloc0,harbor5,tr13,2431,14586).
route(prodloc0,prodloc1,tr0,9184,238784).
route(prodloc0,prodloc1,tr13,9184,55104).
route(prodloc0,prodloc2,tr0,6961,180986).
route(prodloc0,prodloc2,tr13,6961,41766).
route(prodloc0,prodloc3,tr0,6685,173810).
route(prodloc0,prodloc3,tr13,6685,40110).
route(prodloc0,prodloc4,tr0,24544,638144).
route(prodloc0,prodloc4,tr13,24544,147264).
route(prodloc0,prodloc5,tr0,545,14170).
route(prodloc0,prodloc5,tr13,545,3270).
route(prodloc0,prodloc6,tr0,2268,58968).
route(prodloc0,prodloc6,tr13,2268,13608).
route(prodloc0,prodloc7,tr0,8822,229372).
route(prodloc0,prodloc7,tr13,8822,52932).
route(prodloc0,prodloc8,tr0,13483,350558).
route(prodloc0,prodloc8,tr13,13483,80898).
route(prodloc0,prodloc9,tr0,14606,379756).
route(prodloc0,prodloc9,tr13,14606,87636).
route(prodloc0,prodloc10,tr0,8163,212238).
route(prodloc0,prodloc10,tr13,8163,48978).
route(prodloc0,prodloc11,tr0,1983,51558).
route(prodloc0,prodloc11,tr13,1983,11898).
route(prodloc0,prodloc12,tr0,1528,39728).
route(prodloc0,prodloc12,tr13,1528,9168).
route(prodloc0,prodloc13,tr0,5777,150202).
route(prodloc0,prodloc13,tr15,5777,184864).
route(prodloc0,prodloc14,tr0,9241,240266).
route(prodloc0,prodloc14,tr13,9241,55446).
route(prodloc1,harbor0,tr0,12086,314236).
route(prodloc1,harbor0,tr13,12086,72516).
route(prodloc1,harbor1,tr0,17401,452426).
route(prodloc1,harbor1,tr13,17401,104406).
route(prodloc1,harbor2,tr0,18750,487500).
route(prodloc1,harbor2,tr13,18750,112500).
route(prodloc1,harbor3,tr0,4313,112138).
route(prodloc1,harbor3,tr13,4313,25878).
route(prodloc1,harbor4,tr0,3022,78572).
route(prodloc1,harbor4,tr13,3022,18132).
route(prodloc1,harbor5,tr0,11868,308568).
route(prodloc1,harbor5,tr13,11868,71208).
route(prodloc1,prodloc0,tr0,4537,117962).
route(prodloc1,prodloc0,tr13,4537,27222).
route(prodloc1,prodloc2,tr0,14758,383708).
route(prodloc1,prodloc2,tr13,14758,88548).
route(prodloc1,prodloc3,tr0,10847,282022).
route(prodloc1,prodloc3,tr13,10847,65082).
route(prodloc1,prodloc4,tr0,21528,559728).
route(prodloc1,prodloc4,tr13,21528,129168).
route(prodloc1,prodloc5,tr13,24017,144102).
route(prodloc1,prodloc5,tr15,24017,768544).
route(prodloc1,prodloc6,tr0,22651,588926).
route(prodloc1,prodloc6,tr13,22651,135906).
route(prodloc1,prodloc7,tr0,17104,444704).
route(prodloc1,prodloc7,tr13,17104,102624).
route(prodloc1,prodloc8,tr0,19152,497952).
route(prodloc1,prodloc8,tr13,19152,114912).
route(prodloc1,prodloc9,tr0,4600,119600).
route(prodloc1,prodloc9,tr13,4600,27600).
route(prodloc1,prodloc10,tr0,19331,502606).
route(prodloc1,prodloc10,tr13,19331,115986).
route(prodloc1,prodloc11,tr0,1151,29926).
route(prodloc1,prodloc11,tr13,1151,6906).
route(prodloc1,prodloc12,tr0,588,15288).
route(prodloc1,prodloc12,tr13,588,3528).
route(prodloc1,prodloc13,tr0,15560,404560).
route(prodloc1,prodloc13,tr13,15560,93360).
route(prodloc1,prodloc14,tr13,11715,70290).
route(prodloc1,prodloc14,tr15,11715,374880).
route(prodloc2,harbor0,tr0,22971,597246).
route(prodloc2,harbor0,tr13,22971,137826).
route(prodloc2,harbor1,tr0,10219,265694).
route(prodloc2,harbor1,tr13,10219,61314).
route(prodloc2,harbor2,tr0,1101,28626).
route(prodloc2,harbor2,tr13,1101,6606).
route(prodloc2,harbor3,tr0,698,18148).
route(prodloc2,harbor3,tr13,698,4188).
route(prodloc2,harbor4,tr0,19609,509834).
route(prodloc2,harbor4,tr13,19609,117654).
route(prodloc2,harbor5,tr0,20848,542048).
route(prodloc2,harbor5,tr13,20848,125088).
route(prodloc2,prodloc0,tr0,2454,63804).
route(prodloc2,prodloc0,tr13,2454,14724).
route(prodloc2,prodloc1,tr0,15803,410878).
route(prodloc2,prodloc1,tr13,15803,94818).
route(prodloc2,prodloc3,tr0,2206,57356).
route(prodloc2,prodloc3,tr13,2206,13236).
route(prodloc2,prodloc4,tr0,23938,622388).
route(prodloc2,prodloc4,tr13,23938,143628).
route(prodloc2,prodloc5,tr0,10194,265044).
route(prodloc2,prodloc5,tr13,10194,61164).
route(prodloc2,prodloc6,tr0,10451,271726).
route(prodloc2,prodloc6,tr13,10451,62706).
route(prodloc2,prodloc7,tr0,4478,116428).
route(prodloc2,prodloc7,tr13,4478,26868).
route(prodloc2,prodloc8,tr0,2375,61750).
route(prodloc2,prodloc8,tr13,2375,14250).
route(prodloc2,prodloc9,tr0,2468,64168).
route(prodloc2,prodloc9,tr13,2468,14808).
route(prodloc2,prodloc10,tr0,14848,386048).
route(prodloc2,prodloc10,tr13,14848,89088).
route(prodloc2,prodloc11,tr0,17896,465296).
route(prodloc2,prodloc11,tr13,17896,107376).
route(prodloc2,prodloc12,tr0,12053,313378).
route(prodloc2,prodloc12,tr13,12053,72318).
route(prodloc2,prodloc13,tr0,24152,627952).
route(prodloc2,prodloc13,tr13,24152,144912).
route(prodloc2,prodloc14,tr0,1459,37934).
route(prodloc2,prodloc14,tr13,1459,8754).
route(prodloc3,harbor0,tr0,24154,628004).
route(prodloc3,harbor0,tr13,24154,144924).
route(prodloc3,harbor1,tr0,24156,628056).
route(prodloc3,harbor1,tr13,24156,144936).
route(prodloc3,harbor2,tr0,23060,599560).
route(prodloc3,harbor2,tr13,23060,138360).
route(prodloc3,harbor3,tr0,4246,110396).
route(prodloc3,harbor3,tr13,4246,25476).
route(prodloc3,harbor4,tr0,25995,675870).
route(prodloc3,harbor4,tr13,25995,155970).
route(prodloc3,harbor5,tr0,11196,291096).
route(prodloc3,harbor5,tr13,11196,67176).
route(prodloc3,prodloc0,tr0,11530,299780).
route(prodloc3,prodloc0,tr13,11530,69180).
route(prodloc3,prodloc1,tr0,2784,72384).
route(prodloc3,prodloc1,tr13,2784,16704).
route(prodloc3,prodloc2,tr0,22452,583752).
route(prodloc3,prodloc2,tr13,22452,134712).
route(prodloc3,prodloc4,tr0,15510,403260).
route(prodloc3,prodloc4,tr13,15510,93060).
route(prodloc3,prodloc5,tr0,2547,66222).
route(prodloc3,prodloc5,tr13,2547,15282).
route(prodloc3,prodloc6,tr0,28546,742196).
route(prodloc3,prodloc6,tr13,28546,171276).
route(prodloc3,prodloc8,tr0,13671,355446).
route(prodloc3,prodloc8,tr13,13671,82026).
route(prodloc3,prodloc9,tr13,25906,155436).
route(prodloc3,prodloc9,tr15,25906,828992).
route(prodloc3,prodloc10,tr0,993,25818).
route(prodloc3,prodloc10,tr13,993,5958).
route(prodloc3,prodloc11,tr0,28296,735696).
route(prodloc3,prodloc11,tr13,28296,169776).
route(prodloc3,prodloc12,tr0,16383,425958).
route(prodloc3,prodloc12,tr13,16383,98298).
route(prodloc3,prodloc13,tr0,18771,488046).
route(prodloc3,prodloc13,tr15,18771,600672).
route(prodloc3,prodloc14,tr0,478,12428).
route(prodloc3,prodloc14,tr13,478,2868).
route(prodloc4,harbor0,tr0,20480,532480).
route(prodloc4,harbor0,tr13,20480,122880).
route(prodloc4,harbor1,tr0,21703,564278).
route(prodloc4,harbor1,tr13,21703,130218).
route(prodloc4,harbor2,tr0,12530,325780).
route(prodloc4,harbor2,tr13,12530,75180).
route(prodloc4,harbor3,tr0,12426,323076).
route(prodloc4,harbor3,tr13,12426,74556).
route(prodloc4,harbor4,tr0,19095,496470).
route(prodloc4,harbor4,tr13,19095,114570).
route(prodloc4,harbor5,tr0,409,10634).
route(prodloc4,harbor5,tr13,409,2454).
route(prodloc4,prodloc0,tr0,19953,518778).
route(prodloc4,prodloc0,tr13,19953,119718).
route(prodloc4,prodloc1,tr0,2369,61594).
route(prodloc4,prodloc1,tr13,2369,14214).
route(prodloc4,prodloc2,tr0,2630,68380).
route(prodloc4,prodloc2,tr13,2630,15780).
route(prodloc4,prodloc3,tr0,2972,77272).
route(prodloc4,prodloc3,tr13,2972,17832).
route(prodloc4,prodloc5,tr0,20954,544804).
route(prodloc4,prodloc5,tr13,20954,125724).
route(prodloc4,prodloc6,tr0,3789,98514).
route(prodloc4,prodloc6,tr13,3789,22734).
route(prodloc4,prodloc7,tr0,8430,219180).
route(prodloc4,prodloc7,tr13,8430,50580).
route(prodloc4,prodloc8,tr0,28831,749606).
route(prodloc4,prodloc8,tr13,28831,172986).
route(prodloc4,prodloc9,tr0,13641,354666).
route(prodloc4,prodloc9,tr13,13641,81846).
route(prodloc4,prodloc10,tr0,23863,620438).
route(prodloc4,prodloc10,tr13,23863,143178).
route(prodloc4,prodloc11,tr0,10820,281320).
route(prodloc4,prodloc11,tr13,10820,64920).
route(prodloc4,prodloc12,tr13,12730,76380).
route(prodloc4,prodloc12,tr15,12730,407360).
route(prodloc4,prodloc13,tr0,24087,626262).
route(prodloc4,prodloc13,tr13,24087,144522).
route(prodloc4,prodloc14,tr0,22748,591448).
route(prodloc4,prodloc14,tr13,22748,136488).
route(prodloc5,harbor0,tr0,19038,494988).
route(prodloc5,harbor0,tr13,19038,114228).
route(prodloc5,harbor1,tr0,15001,390026).
route(prodloc5,harbor1,tr13,15001,90006).
route(prodloc5,harbor2,tr0,14437,375362).
route(prodloc5,harbor2,tr13,14437,86622).
route(prodloc5,harbor3,tr0,15161,394186).
route(prodloc5,harbor3,tr13,15161,90966).
route(prodloc5,harbor4,tr0,27473,714298).
route(prodloc5,harbor4,tr13,27473,164838).
route(prodloc5,harbor5,tr0,17737,461162).
route(prodloc5,harbor5,tr13,17737,106422).
route(prodloc5,prodloc0,tr0,2747,71422).
route(prodloc5,prodloc0,tr13,2747,16482).
route(prodloc5,prodloc1,tr0,16998,441948).
route(prodloc5,prodloc1,tr13,16998,101988).
route(prodloc5,prodloc2,tr0,24584,639184).
route(prodloc5,prodloc2,tr13,24584,147504).
route(prodloc5,prodloc3,tr0,16862,438412).
route(prodloc5,prodloc3,tr13,16862,101172).
route(prodloc5,prodloc4,tr0,978,25428).
route(prodloc5,prodloc4,tr13,978,5868).
route(prodloc5,prodloc6,tr0,10167,264342).
route(prodloc5,prodloc6,tr13,10167,61002).
route(prodloc5,prodloc7,tr0,19704,512304).
route(prodloc5,prodloc7,tr13,19704,118224).
route(prodloc5,prodloc8,tr0,2876,74776).
route(prodloc5,prodloc8,tr13,2876,17256).
route(prodloc5,prodloc9,tr0,15761,409786).
route(prodloc5,prodloc9,tr13,15761,94566).
route(prodloc5,prodloc10,tr0,732,19032).
route(prodloc5,prodloc10,tr13,732,4392).
route(prodloc5,prodloc11,tr0,7545,196170).
route(prodloc5,prodloc11,tr13,7545,45270).
route(prodloc5,prodloc12,tr13,22885,137310).
route(prodloc5,prodloc12,tr15,22885,732320).
route(prodloc5,prodloc13,tr0,3701,96226).
route(prodloc5,prodloc13,tr13,3701,22206).
route(prodloc5,prodloc14,tr0,16295,423670).
route(prodloc5,prodloc14,tr13,16295,97770).
route(prodloc6,harbor0,tr0,25559,664534).
route(prodloc6,harbor0,tr13,25559,153354).
route(prodloc6,harbor1,tr0,20138,523588).
route(prodloc6,harbor1,tr13,20138,120828).
route(prodloc6,harbor2,tr0,21633,562458).
route(prodloc6,harbor2,tr13,21633,129798).
route(prodloc6,harbor3,tr0,15936,414336).
route(prodloc6,harbor3,tr13,15936,95616).
route(prodloc6,harbor4,tr0,8385,218010).
route(prodloc6,harbor4,tr13,8385,50310).
route(prodloc6,harbor5,tr0,372,9672).
route(prodloc6,harbor5,tr13,372,2232).
route(prodloc6,prodloc0,tr0,12059,313534).
route(prodloc6,prodloc0,tr13,12059,72354).
route(prodloc6,prodloc1,tr0,9866,256516).
route(prodloc6,prodloc1,tr13,9866,59196).
route(prodloc6,prodloc2,tr0,4695,122070).
route(prodloc6,prodloc2,tr13,4695,28170).
route(prodloc6,prodloc3,tr0,22223,577798).
route(prodloc6,prodloc3,tr13,22223,133338).
route(prodloc6,prodloc4,tr0,20048,521248).
route(prodloc6,prodloc4,tr13,20048,120288).
route(prodloc6,prodloc5,tr0,6639,172614).
route(prodloc6,prodloc5,tr13,6639,39834).
route(prodloc6,prodloc7,tr0,16988,441688).
route(prodloc6,prodloc7,tr13,16988,101928).
route(prodloc6,prodloc8,tr0,5559,144534).
route(prodloc6,prodloc8,tr13,5559,33354).
route(prodloc6,prodloc9,tr0,24701,642226).
route(prodloc6,prodloc9,tr13,24701,148206).
route(prodloc6,prodloc10,tr0,11225,291850).
route(prodloc6,prodloc10,tr15,11225,359200).
route(prodloc6,prodloc11,tr13,21628,129768).
route(prodloc6,prodloc11,tr15,21628,692096).
route(prodloc6,prodloc12,tr0,14483,376558).
route(prodloc6,prodloc12,tr15,14483,463456).
route(prodloc6,prodloc13,tr0,16330,424580).
route(prodloc6,prodloc13,tr13,16330,97980).
route(prodloc6,prodloc14,tr0,7914,205764).
route(prodloc6,prodloc14,tr13,7914,47484).
route(prodloc7,harbor0,tr0,10715,278590).
route(prodloc7,harbor0,tr13,10715,64290).
route(prodloc7,harbor1,tr0,13265,344890).
route(prodloc7,harbor1,tr13,13265,79590).
route(prodloc7,harbor2,tr0,21822,567372).
route(prodloc7,harbor2,tr13,21822,130932).
route(prodloc7,harbor3,tr0,8213,213538).
route(prodloc7,harbor3,tr13,8213,49278).
route(prodloc7,harbor4,tr0,6506,169156).
route(prodloc7,harbor4,tr13,6506,39036).
route(prodloc7,harbor5,tr0,20782,540332).
route(prodloc7,harbor5,tr13,20782,124692).
route(prodloc7,prodloc0,tr0,14121,367146).
route(prodloc7,prodloc0,tr13,14121,84726).
route(prodloc7,prodloc1,tr0,26338,684788).
route(prodloc7,prodloc1,tr13,26338,158028).
route(prodloc7,prodloc2,tr0,26412,686712).
route(prodloc7,prodloc2,tr13,26412,158472).
route(prodloc7,prodloc3,tr0,24729,642954).
route(prodloc7,prodloc3,tr13,24729,148374).
route(prodloc7,prodloc4,tr0,6565,170690).
route(prodloc7,prodloc4,tr15,6565,210080).
route(prodloc7,prodloc5,tr0,28846,749996).
route(prodloc7,prodloc5,tr13,28846,173076).
route(prodloc7,prodloc6,tr0,7020,182520).
route(prodloc7,prodloc6,tr13,7020,42120).
route(prodloc7,prodloc8,tr0,12598,327548).
route(prodloc7,prodloc8,tr13,12598,75588).
route(prodloc7,prodloc9,tr0,7197,187122).
route(prodloc7,prodloc9,tr13,7197,43182).
route(prodloc7,prodloc10,tr0,19109,496834).
route(prodloc7,prodloc10,tr13,19109,114654).
route(prodloc7,prodloc11,tr0,10372,269672).
route(prodloc7,prodloc11,tr13,10372,62232).
route(prodloc7,prodloc12,tr0,6879,178854).
route(prodloc7,prodloc12,tr13,6879,41274).
route(prodloc7,prodloc13,tr0,4464,116064).
route(prodloc7,prodloc13,tr13,4464,26784).
route(prodloc7,prodloc14,tr0,4411,114686).
route(prodloc7,prodloc14,tr13,4411,26466).
route(prodloc8,harbor0,tr0,16270,423020).
route(prodloc8,harbor0,tr13,16270,97620).
route(prodloc8,harbor1,tr0,11495,298870).
route(prodloc8,harbor1,tr13,11495,68970).
route(prodloc8,harbor2,tr0,27431,713206).
route(prodloc8,harbor2,tr13,27431,164586).
route(prodloc8,harbor3,tr0,27812,723112).
route(prodloc8,harbor3,tr13,27812,166872).
route(prodloc8,harbor4,tr0,1331,34606).
route(prodloc8,harbor4,tr13,1331,7986).
route(prodloc8,harbor5,tr0,23307,605982).
route(prodloc8,harbor5,tr13,23307,139842).
route(prodloc8,prodloc0,tr13,2103,12618).
route(prodloc8,prodloc0,tr15,2103,67296).
route(prodloc8,prodloc1,tr0,9072,235872).
route(prodloc8,prodloc1,tr13,9072,54432).
route(prodloc8,prodloc2,tr0,26932,700232).
route(prodloc8,prodloc2,tr13,26932,161592).
route(prodloc8,prodloc3,tr0,5544,144144).
route(prodloc8,prodloc3,tr13,5544,33264).
route(prodloc8,prodloc4,tr0,3699,96174).
route(prodloc8,prodloc4,tr13,3699,22194).
route(prodloc8,prodloc5,tr0,14768,383968).
route(prodloc8,prodloc5,tr13,14768,88608).
route(prodloc8,prodloc6,tr0,15447,401622).
route(prodloc8,prodloc6,tr13,15447,92682).
route(prodloc8,prodloc7,tr0,9018,234468).
route(prodloc8,prodloc7,tr13,9018,54108).
route(prodloc8,prodloc9,tr0,7016,182416).
route(prodloc8,prodloc9,tr15,7016,224512).
route(prodloc8,prodloc10,tr0,27228,707928).
route(prodloc8,prodloc10,tr13,27228,163368).
route(prodloc8,prodloc11,tr0,13567,352742).
route(prodloc8,prodloc11,tr13,13567,81402).
route(prodloc8,prodloc12,tr0,12537,325962).
route(prodloc8,prodloc12,tr13,12537,75222).
route(prodloc8,prodloc13,tr0,20506,533156).
route(prodloc8,prodloc13,tr13,20506,123036).
route(prodloc8,prodloc14,tr0,17040,443040).
route(prodloc8,prodloc14,tr13,17040,102240).
route(prodloc9,harbor0,tr0,16185,420810).
route(prodloc9,harbor0,tr13,16185,97110).
route(prodloc9,harbor1,tr0,22026,572676).
route(prodloc9,harbor1,tr13,22026,132156).
route(prodloc9,harbor2,tr0,10336,268736).
route(prodloc9,harbor2,tr13,10336,62016).
route(prodloc9,harbor3,tr0,23472,610272).
route(prodloc9,harbor3,tr13,23472,140832).
route(prodloc9,harbor4,tr0,27498,714948).
route(prodloc9,harbor4,tr13,27498,164988).
route(prodloc9,harbor5,tr0,27589,717314).
route(prodloc9,harbor5,tr13,27589,165534).
route(prodloc9,prodloc0,tr0,20474,532324).
route(prodloc9,prodloc0,tr13,20474,122844).
route(prodloc9,prodloc1,tr0,14828,385528).
route(prodloc9,prodloc1,tr15,14828,474496).
route(prodloc9,prodloc2,tr0,10499,272974).
route(prodloc9,prodloc2,tr13,10499,62994).
route(prodloc9,prodloc3,tr0,2449,63674).
route(prodloc9,prodloc3,tr13,2449,14694).
route(prodloc9,prodloc4,tr13,27157,162942).
route(prodloc9,prodloc4,tr15,27157,869024).
route(prodloc9,prodloc5,tr13,1033,6198).
route(prodloc9,prodloc5,tr15,1033,33056).
route(prodloc9,prodloc6,tr0,9115,236990).
route(prodloc9,prodloc6,tr13,9115,54690).
route(prodloc9,prodloc7,tr0,28602,743652).
route(prodloc9,prodloc7,tr13,28602,171612).
route(prodloc9,prodloc8,tr0,19910,517660).
route(prodloc9,prodloc8,tr13,19910,119460).
route(prodloc9,prodloc10,tr0,1361,35386).
route(prodloc9,prodloc10,tr13,1361,8166).
route(prodloc9,prodloc11,tr0,22227,577902).
route(prodloc9,prodloc11,tr13,22227,133362).
route(prodloc9,prodloc12,tr13,23222,139332).
route(prodloc9,prodloc12,tr15,23222,743104).
route(prodloc9,prodloc13,tr0,9212,239512).
route(prodloc9,prodloc13,tr13,9212,55272).
route(prodloc9,prodloc14,tr13,18698,112188).
route(prodloc9,prodloc14,tr15,18698,598336).
route(prodloc10,harbor0,tr0,11608,301808).
route(prodloc10,harbor0,tr13,11608,69648).
route(prodloc10,harbor1,tr0,10128,263328).
route(prodloc10,harbor1,tr13,10128,60768).
route(prodloc10,harbor2,tr0,21277,553202).
route(prodloc10,harbor2,tr13,21277,127662).
route(prodloc10,harbor3,tr0,25938,674388).
route(prodloc10,harbor3,tr13,25938,155628).
route(prodloc10,harbor4,tr0,18484,480584).
route(prodloc10,harbor4,tr13,18484,110904).
route(prodloc10,harbor5,tr0,628,16328).
route(prodloc10,harbor5,tr13,628,3768).
route(prodloc10,prodloc0,tr0,21005,546130).
route(prodloc10,prodloc0,tr13,21005,126030).
route(prodloc10,prodloc1,tr0,4454,115804).
route(prodloc10,prodloc1,tr13,4454,26724).
route(prodloc10,prodloc2,tr0,13279,345254).
route(prodloc10,prodloc2,tr15,13279,424928).
route(prodloc10,prodloc3,tr0,14905,387530).
route(prodloc10,prodloc3,tr13,14905,89430).
route(prodloc10,prodloc4,tr0,6225,161850).
route(prodloc10,prodloc4,tr13,6225,37350).
route(prodloc10,prodloc5,tr0,812,21112).
route(prodloc10,prodloc5,tr15,812,25984).
route(prodloc10,prodloc6,tr0,25207,655382).
route(prodloc10,prodloc6,tr13,25207,151242).
route(prodloc10,prodloc7,tr0,27188,706888).
route(prodloc10,prodloc7,tr13,27188,163128).
route(prodloc10,prodloc8,tr0,8731,227006).
route(prodloc10,prodloc8,tr13,8731,52386).
route(prodloc10,prodloc9,tr0,7781,202306).
route(prodloc10,prodloc9,tr13,7781,46686).
route(prodloc10,prodloc11,tr0,25536,663936).
route(prodloc10,prodloc11,tr13,25536,153216).
route(prodloc10,prodloc12,tr13,4618,27708).
route(prodloc10,prodloc12,tr15,4618,147776).
route(prodloc10,prodloc13,tr0,26113,678938).
route(prodloc10,prodloc13,tr15,26113,835616).
route(prodloc10,prodloc14,tr0,1540,40040).
route(prodloc10,prodloc14,tr13,1540,9240).
route(prodloc11,harbor0,tr0,20618,536068).
route(prodloc11,harbor0,tr13,20618,123708).
route(prodloc11,harbor1,tr0,3780,98280).
route(prodloc11,harbor1,tr13,3780,22680).
route(prodloc11,harbor2,tr0,14632,380432).
route(prodloc11,harbor2,tr13,14632,87792).
route(prodloc11,harbor3,tr0,3574,92924).
route(prodloc11,harbor3,tr13,3574,21444).
route(prodloc11,harbor4,tr0,20644,536744).
route(prodloc11,harbor4,tr13,20644,123864).
route(prodloc11,harbor5,tr0,17545,456170).
route(prodloc11,harbor5,tr13,17545,105270).
route(prodloc11,prodloc0,tr0,21466,558116).
route(prodloc11,prodloc0,tr13,21466,128796).
route(prodloc11,prodloc1,tr0,20970,545220).
route(prodloc11,prodloc1,tr13,20970,125820).
route(prodloc11,prodloc2,tr0,26458,687908).
route(prodloc11,prodloc2,tr13,26458,158748).
route(prodloc11,prodloc3,tr0,12083,314158).
route(prodloc11,prodloc3,tr13,12083,72498).
route(prodloc11,prodloc4,tr0,2556,66456).
route(prodloc11,prodloc4,tr13,2556,15336).
route(prodloc11,prodloc5,tr0,22431,583206).
route(prodloc11,prodloc5,tr13,22431,134586).
route(prodloc11,prodloc6,tr0,6491,168766).
route(prodloc11,prodloc6,tr13,6491,38946).
route(prodloc11,prodloc7,tr0,6534,169884).
route(prodloc11,prodloc7,tr13,6534,39204).
route(prodloc11,prodloc8,tr0,26997,701922).
route(prodloc11,prodloc8,tr13,26997,161982).
route(prodloc11,prodloc9,tr0,15571,404846).
route(prodloc11,prodloc9,tr13,15571,93426).
route(prodloc11,prodloc10,tr13,8391,50346).
route(prodloc11,prodloc10,tr15,8391,268512).
route(prodloc11,prodloc12,tr0,5857,152282).
route(prodloc11,prodloc12,tr13,5857,35142).
route(prodloc11,prodloc13,tr0,23405,608530).
route(prodloc11,prodloc13,tr13,23405,140430).
route(prodloc11,prodloc14,tr0,354,9204).
route(prodloc11,prodloc14,tr13,354,2124).
route(prodloc12,harbor0,tr0,24743,643318).
route(prodloc12,harbor0,tr13,24743,148458).
route(prodloc12,harbor1,tr0,15475,402350).
route(prodloc12,harbor1,tr13,15475,92850).
route(prodloc12,harbor2,tr0,17527,455702).
route(prodloc12,harbor2,tr13,17527,105162).
route(prodloc12,harbor3,tr0,23403,608478).
route(prodloc12,harbor3,tr13,23403,140418).
route(prodloc12,harbor4,tr0,1187,30862).
route(prodloc12,harbor4,tr13,1187,7122).
route(prodloc12,harbor5,tr0,5870,152620).
route(prodloc12,harbor5,tr13,5870,35220).
route(prodloc12,prodloc0,tr0,7422,192972).
route(prodloc12,prodloc0,tr13,7422,44532).
route(prodloc12,prodloc1,tr0,8926,232076).
route(prodloc12,prodloc1,tr13,8926,53556).
route(prodloc12,prodloc2,tr0,25514,663364).
route(prodloc12,prodloc2,tr13,25514,153084).
route(prodloc12,prodloc3,tr0,11331,294606).
route(prodloc12,prodloc3,tr13,11331,67986).
route(prodloc12,prodloc4,tr0,17686,459836).
route(prodloc12,prodloc4,tr13,17686,106116).
route(prodloc12,prodloc5,tr0,22851,594126).
route(prodloc12,prodloc5,tr13,22851,137106).
route(prodloc12,prodloc6,tr0,17055,443430).
route(prodloc12,prodloc6,tr13,17055,102330).
route(prodloc12,prodloc7,tr0,16399,426374).
route(prodloc12,prodloc7,tr13,16399,98394).
route(prodloc12,prodloc8,tr0,20136,523536).
route(prodloc12,prodloc8,tr15,20136,644352).
route(prodloc12,prodloc9,tr0,24781,644306).
route(prodloc12,prodloc9,tr13,24781,148686).
route(prodloc12,prodloc10,tr0,5218,135668).
route(prodloc12,prodloc10,tr13,5218,31308).
route(prodloc12,prodloc11,tr0,12896,335296).
route(prodloc12,prodloc11,tr13,12896,77376).
route(prodloc12,prodloc13,tr0,27814,723164).
route(prodloc12,prodloc13,tr13,27814,166884).
route(prodloc12,prodloc14,tr0,25952,674752).
route(prodloc12,prodloc14,tr13,25952,155712).
route(prodloc13,harbor0,tr0,22932,596232).
route(prodloc13,harbor0,tr13,22932,137592).
route(prodloc13,harbor1,tr0,7339,190814).
route(prodloc13,harbor1,tr13,7339,44034).
route(prodloc13,harbor2,tr0,2859,74334).
route(prodloc13,harbor2,tr13,2859,17154).
route(prodloc13,harbor3,tr0,13452,349752).
route(prodloc13,harbor3,tr13,13452,80712).
route(prodloc13,harbor4,tr0,23672,615472).
route(prodloc13,harbor4,tr13,23672,142032).
route(prodloc13,harbor5,tr0,12715,330590).
route(prodloc13,harbor5,tr13,12715,76290).
route(prodloc13,prodloc0,tr0,4258,110708).
route(prodloc13,prodloc0,tr13,4258,25548).
route(prodloc13,prodloc1,tr0,14764,383864).
route(prodloc13,prodloc1,tr13,14764,88584).
route(prodloc13,prodloc2,tr0,14863,386438).
route(prodloc13,prodloc2,tr13,14863,89178).
route(prodloc13,prodloc3,tr0,6453,167778).
route(prodloc13,prodloc3,tr13,6453,38718).
route(prodloc13,prodloc4,tr0,20499,532974).
route(prodloc13,prodloc4,tr13,20499,122994).
route(prodloc13,prodloc5,tr0,222,5772).
route(prodloc13,prodloc5,tr13,222,1332).
route(prodloc13,prodloc6,tr0,12349,321074).
route(prodloc13,prodloc6,tr13,12349,74094).
route(prodloc13,prodloc7,tr0,18024,468624).
route(prodloc13,prodloc7,tr13,18024,108144).
route(prodloc13,prodloc9,tr0,21388,556088).
route(prodloc13,prodloc9,tr13,21388,128328).
route(prodloc13,prodloc10,tr0,28815,749190).
route(prodloc13,prodloc10,tr13,28815,172890).
route(prodloc13,prodloc11,tr0,16472,428272).
route(prodloc13,prodloc11,tr13,16472,98832).
route(prodloc13,prodloc12,tr0,26110,678860).
route(prodloc13,prodloc12,tr13,26110,156660).
route(prodloc13,prodloc14,tr0,26853,698178).
route(prodloc13,prodloc14,tr13,26853,161118).
route(prodloc14,harbor0,tr0,11244,292344).
route(prodloc14,harbor0,tr13,11244,67464).
route(prodloc14,harbor1,tr0,15196,395096).
route(prodloc14,harbor1,tr13,15196,91176).
route(prodloc14,harbor2,tr0,10699,278174).
route(prodloc14,harbor2,tr13,10699,64194).
route(prodloc14,harbor3,tr0,21344,554944).
route(prodloc14,harbor3,tr13,21344,128064).
route(prodloc14,harbor4,tr0,6715,174590).
route(prodloc14,harbor4,tr13,6715,40290).
route(prodloc14,harbor5,tr0,3244,84344).
route(prodloc14,harbor5,tr13,3244,19464).
route(prodloc14,prodloc0,tr0,23658,615108).
route(prodloc14,prodloc0,tr13,23658,141948).
route(prodloc14,prodloc1,tr0,28384,737984).
route(prodloc14,prodloc1,tr13,28384,170304).
route(prodloc14,prodloc2,tr0,26817,697242).
route(prodloc14,prodloc2,tr13,26817,160902).
route(prodloc14,prodloc3,tr0,26160,680160).
route(prodloc14,prodloc3,tr13,26160,156960).
route(prodloc14,prodloc4,tr0,21026,546676).
route(prodloc14,prodloc4,tr13,21026,126156).
route(prodloc14,prodloc5,tr0,23518,611468).
route(prodloc14,prodloc5,tr13,23518,141108).
route(prodloc14,prodloc6,tr0,4048,105248).
route(prodloc14,prodloc6,tr13,4048,24288).
route(prodloc14,prodloc7,tr0,6991,181766).
route(prodloc14,prodloc7,tr13,6991,41946).
route(prodloc14,prodloc8,tr0,7941,206466).
route(prodloc14,prodloc8,tr13,7941,47646).
route(prodloc14,prodloc9,tr0,12788,332488).
route(prodloc14,prodloc9,tr13,12788,76728).
route(prodloc14,prodloc10,tr0,2880,74880).
route(prodloc14,prodloc10,tr13,2880,17280).
route(prodloc14,prodloc11,tr0,10155,264030).
route(prodloc14,prodloc11,tr13,10155,60930).
route(prodloc14,prodloc12,tr0,17596,457496).
route(prodloc14,prodloc12,tr13,17596,105576).
route(prodloc14,prodloc13,tr0,25914,673764).
route(prodloc14,prodloc13,tr13,25914,155484).
hub(harbor4).
hub(prodloc5).
hub(prodloc9).
hub(prodloc13).
