% Multibatching benchmark instance
% Source: instances.lp
% seed=12  harbors=6  prodlocs=15  hubs=4  disruptions=2

% ---- locations ----
location(harbor0).
location(harbor1).
location(harbor2).
location(harbor3).
location(harbor4).
location(harbor5).
location(prodloc0).
location(prodloc1).
location(prodloc2).
location(prodloc3).
location(prodloc4).
location(prodloc5).
location(prodloc6).
location(prodloc7).
location(prodloc8).
location(prodloc9).
location(prodloc10).
location(prodloc11).
location(prodloc12).
location(prodloc13).
location(prodloc14).

% ---- transport resources ----
transportCapacity(tr0,1800).
transportCO2(tr0,1680).
transportCost(tr0,26).
transportSpeed(tr0,12).
transportCapacity(tr1,65).
transportCO2(tr1,90).
transportCost(tr1,1).
transportSpeed(tr1,35).
transportCapacity(tr10,1).
transportCO2(tr10,700).
transportCost(tr10,4).
transportSpeed(tr10,40).
transportCapacity(tr11,65).
transportCO2(tr11,62).
transportCost(tr11,1).
transportSpeed(tr11,25).
transportCapacity(tr12,65).
transportCO2(tr12,709).
transportCost(tr12,3).
transportSpeed(tr12,55).
transportCapacity(tr13,68).
transportCO2(tr13,160).
transportCost(tr13,6).
transportSpeed(tr13,25).
transportCapacity(tr14,146).
transportCO2(tr14,780).
transportCost(tr14,4).
transportSpeed(tr14,50).
transportCapacity(tr15,2217).
transportCO2(tr15,49470).
transportCost(tr15,32).
transportSpeed(tr15,625).
transportCapacity(tr2,96).
transportCO2(tr2,709).
transportCost(tr2,3).
transportSpeed(tr2,55).
transportCapacity(tr3,1).
transportCO2(tr3,6250).
transportCost(tr3,108).
transportSpeed(tr3,25).
transportCapacity(tr4,148).
transportCO2(tr4,780).
transportCost(tr4,4).
transportSpeed(tr4,50).
transportCapacity(tr5,65).
transportCO2(tr5,780).
transportCost(tr5,3).
transportSpeed(tr5,50).
transportCapacity(tr6,1).
transportCO2(tr6,100).
transportCost(tr6,40).
transportSpeed(tr6,25).
transportCapacity(tr7,1).
transportCO2(tr7,18000).
transportCost(tr7,278).
transportSpeed(tr7,10).
transportCapacity(tr8,1).
transportCO2(tr8,14400).
transportCost(tr8,107).
transportSpeed(tr8,25).
transportCapacity(tr9,65).
transportCO2(tr9,708).
transportCost(tr9,2).
transportSpeed(tr9,60).

% ---- parts ----
part(part0).
partSize(part0,21).
valid_transport(part0,tr0).
valid_transport(part0,tr15).
valid_transport(part0,tr14).
valid_transport(part0,tr13).
valid_transport(part0,tr4).
part(part1).
partSize(part1,1).
valid_transport(part1,tr0).
valid_transport(part1,tr2).
valid_transport(part1,tr15).
valid_transport(part1,tr9).
valid_transport(part1,tr12).
valid_transport(part1,tr13).
valid_transport(part1,tr11).
part(part10).
partSize(part10,1).
valid_transport(part10,tr0).
valid_transport(part10,tr2).
valid_transport(part10,tr15).
valid_transport(part10,tr9).
valid_transport(part10,tr12).
valid_transport(part10,tr13).
valid_transport(part10,tr11).
part(part11).
partSize(part11,83).
valid_transport(part11,tr0).
valid_transport(part11,tr7).
valid_transport(part11,tr8).
valid_transport(part11,tr15).
valid_transport(part11,tr3).
valid_transport(part11,tr13).
part(part12).
partSize(part12,273).
valid_transport(part12,tr0).
valid_transport(part12,tr7).
valid_transport(part12,tr8).
valid_transport(part12,tr15).
valid_transport(part12,tr3).
valid_transport(part12,tr13).
part(part13).
partSize(part13,1).
valid_transport(part13,tr0).
valid_transport(part13,tr2).
valid_transport(part13,tr15).
valid_transport(part13,tr9).
valid_transport(part13,tr12).
valid_transport(part13,tr13).
valid_transport(part13,tr11).
part(part14).
partSize(part14,68).
valid_transport(part14,tr0).
valid_transport(part14,tr15).
valid_transport(part14,tr13).
part(part15).
partSize(part15,4).
valid_transport(part15,tr0).
valid_transport(part15,tr2).
valid_transport(part15,tr15).
valid_transport(part15,tr9).
valid_transport(part15,tr12).
valid_transport(part15,tr13).
valid_transport(part15,tr11).
part(part16).
partSize(part16,4).
valid_transport(part16,tr0).
valid_transport(part16,tr2).
valid_transport(part16,tr15).
valid_transport(part16,tr9).
valid_transport(part16,tr12).
valid_transport(part16,tr13).
valid_transport(part16,tr11).
part(part17).
partSize(part17,8).
valid_transport(part17,tr0).
valid_transport(part17,tr15).
valid_transport(part17,tr14).
valid_transport(part17,tr13).
valid_transport(part17,tr4).
part(part18).
partSize(part18,24).
valid_transport(part18,tr0).
valid_transport(part18,tr15).
valid_transport(part18,tr14).
valid_transport(part18,tr13).
valid_transport(part18,tr4).
part(part19).
partSize(part19,6).
valid_transport(part19,tr0).
valid_transport(part19,tr2).
valid_transport(part19,tr15).
valid_transport(part19,tr9).
valid_transport(part19,tr12).
valid_transport(part19,tr13).
valid_transport(part19,tr11).
part(part2).
partSize(part2,19).
valid_transport(part2,tr0).
valid_transport(part2,tr15).
valid_transport(part2,tr14).
valid_transport(part2,tr13).
valid_transport(part2,tr4).
part(part20).
partSize(part20,128).
valid_transport(part20,tr0).
valid_transport(part20,tr7).
valid_transport(part20,tr8).
valid_transport(part20,tr15).
valid_transport(part20,tr3).
valid_transport(part20,tr13).
part(part21).
partSize(part21,25).
valid_transport(part21,tr0).
valid_transport(part21,tr15).
valid_transport(part21,tr14).
valid_transport(part21,tr13).
valid_transport(part21,tr4).
part(part22).
partSize(part22,7).
valid_transport(part22,tr0).
valid_transport(part22,tr2).
valid_transport(part22,tr15).
valid_transport(part22,tr9).
valid_transport(part22,tr12).
valid_transport(part22,tr13).
valid_transport(part22,tr11).
part(part23).
partSize(part23,5).
valid_transport(part23,tr0).
valid_transport(part23,tr15).
valid_transport(part23,tr14).
valid_transport(part23,tr13).
valid_transport(part23,tr4).
part(part24).
partSize(part24,55).
valid_transport(part24,tr0).
valid_transport(part24,tr7).
valid_transport(part24,tr8).
valid_transport(part24,tr15).
valid_transport(part24,tr3).
valid_transport(part24,tr13).
part(part25).
partSize(part25,5).
valid_transport(part25,tr0).
valid_transport(part25,tr4).
valid_transport(part25,tr2).
valid_transport(part25,tr15).
valid_transport(part25,tr13).
part(part26).
partSize(part26,32).
valid_transport(part26,tr0).
valid_transport(part26,tr7).
valid_transport(part26,tr8).
valid_transport(part26,tr15).
valid_transport(part26,tr3).
valid_transport(part26,tr13).
part(part27).
partSize(part27,5).
valid_transport(part27,tr0).
valid_transport(part27,tr2).
valid_transport(part27,tr15).
valid_transport(part27,tr9).
valid_transport(part27,tr12).
valid_transport(part27,tr13).
valid_transport(part27,tr11).
part(part28).
partSize(part28,3).
valid_transport(part28,tr0).
valid_transport(part28,tr4).
valid_transport(part28,tr2).
valid_transport(part28,tr15).
valid_transport(part28,tr14).
valid_transport(part28,tr13).
part(part29).
partSize(part29,627).
part(part3).
partSize(part3,48).
valid_transport(part3,tr0).
valid_transport(part3,tr7).
valid_transport(part3,tr8).
valid_transport(part3,tr15).
valid_transport(part3,tr3).
valid_transport(part3,tr13).
part(part30).
partSize(part30,2).
valid_transport(part30,tr0).
valid_transport(part30,tr2).
valid_transport(part30,tr15).
valid_transport(part30,tr9).
valid_transport(part30,tr12).
valid_transport(part30,tr13).
valid_transport(part30,tr11).
part(part31).
partSize(part31,144).
valid_transport(part31,tr0).
valid_transport(part31,tr7).
valid_transport(part31,tr8).
valid_transport(part31,tr15).
valid_transport(part31,tr3).
valid_transport(part31,tr13).
part(part32).
partSize(part32,16).
valid_transport(part32,tr0).
valid_transport(part32,tr4).
valid_transport(part32,tr2).
valid_transport(part32,tr15).
valid_transport(part32,tr14).
valid_transport(part32,tr13).
part(part33).
partSize(part33,7).
valid_transport(part33,tr0).
valid_transport(part33,tr2).
valid_transport(part33,tr15).
valid_transport(part33,tr9).
valid_transport(part33,tr12).
valid_transport(part33,tr13).
valid_transport(part33,tr11).
part(part3345).
partSize(part3345,353).
valid_transport(part3345,tr0).
valid_transport(part3345,tr7).
valid_transport(part3345,tr8).
valid_transport(part3345,tr15).
valid_transport(part3345,tr3).
valid_transport(part3345,tr13).
part(part34).
partSize(part34,2).
valid_transport(part34,tr0).
valid_transport(part34,tr2).
valid_transport(part34,tr15).
valid_transport(part34,tr9).
valid_transport(part34,tr12).
valid_transport(part34,tr13).
valid_transport(part34,tr11).
part(part4).
partSize(part4,2).
valid_transport(part4,tr0).
valid_transport(part4,tr2).
valid_transport(part4,tr15).
valid_transport(part4,tr9).
valid_transport(part4,tr12).
valid_transport(part4,tr13).
valid_transport(part4,tr11).
part(part5).
partSize(part5,2).
valid_transport(part5,tr0).
valid_transport(part5,tr2).
valid_transport(part5,tr15).
valid_transport(part5,tr9).
valid_transport(part5,tr12).
valid_transport(part5,tr14).
valid_transport(part5,tr13).
valid_transport(part5,tr11).
part(part6).
partSize(part6,111).
valid_transport(part6,tr0).
valid_transport(part6,tr7).
valid_transport(part6,tr8).
valid_transport(part6,tr15).
valid_transport(part6,tr3).
valid_transport(part6,tr13).
part(part8).
partSize(part8,163).
valid_transport(part8,tr0).
valid_transport(part8,tr7).
valid_transport(part8,tr8).
valid_transport(part8,tr15).
valid_transport(part8,tr3).
valid_transport(part8,tr13).
part(part9).
partSize(part9,2).
valid_transport(part9,tr0).
valid_transport(part9,tr2).
valid_transport(part9,tr15).
valid_transport(part9,tr9).
valid_transport(part9,tr12).
valid_transport(part9,tr13).
valid_transport(part9,tr11).

% ---- demand ----
demandOffer(part0,prodloc7,40).
demandOffer(part0,prodloc4,40).
demandOffer(part0,prodloc10,-27).
demandOffer(part0,prodloc8,-53).
demandOffer(part1,prodloc10,20).
demandOffer(part1,prodloc5,20).
demandOffer(part1,prodloc2,-20).
demandOffer(part1,prodloc6,-20).
demandOffer(part10,prodloc0,20).
demandOffer(part10,prodloc5,20).
demandOffer(part10,prodloc7,-20).
demandOffer(part10,prodloc4,-20).
demandOffer(part12,prodloc10,10).
demandOffer(part12,prodloc12,20).
demandOffer(part12,prodloc7,-10).
demandOffer(part12,prodloc11,-10).
demandOffer(part12,prodloc9,-10).
demandOffer(part13,prodloc3,20).
demandOffer(part13,prodloc8,20).
demandOffer(part13,prodloc0,-20).
demandOffer(part13,prodloc10,-20).
demandOffer(part14,prodloc9,26).
demandOffer(part14,prodloc2,-26).
demandOffer(part15,prodloc7,53).
demandOffer(part15,prodloc5,27).
demandOffer(part15,prodloc2,-53).
demandOffer(part15,prodloc13,-27).
demandOffer(part16,prodloc14,53).
demandOffer(part16,prodloc3,27).
demandOffer(part16,prodloc0,-53).
demandOffer(part16,prodloc9,-27).
demandOffer(part17,prodloc13,20).
demandOffer(part17,prodloc3,-20).
demandOffer(part18,prodloc1,40).
demandOffer(part18,prodloc8,40).
demandOffer(part18,prodloc10,-27).
demandOffer(part18,prodloc5,-53).
demandOffer(part19,prodloc10,26).
demandOffer(part19,prodloc6,-26).
demandOffer(part2,prodloc12,40).
demandOffer(part2,prodloc13,40).
demandOffer(part2,prodloc1,-27).
demandOffer(part2,prodloc0,-53).
demandOffer(part20,prodloc14,53).
demandOffer(part20,prodloc0,27).
demandOffer(part20,prodloc10,-14).
demandOffer(part20,prodloc8,-46).
demandOffer(part20,prodloc3,-20).
demandOffer(part21,prodloc1,26).
demandOffer(part21,prodloc6,-26).
demandOffer(part22,prodloc7,53).
demandOffer(part22,prodloc1,27).
demandOffer(part22,prodloc10,-53).
demandOffer(part22,prodloc6,-27).
demandOffer(part23,prodloc2,20).
demandOffer(part23,prodloc8,20).
demandOffer(part23,prodloc5,-20).
demandOffer(part23,prodloc9,-20).
demandOffer(part25,prodloc8,20).
demandOffer(part25,prodloc2,-20).
demandOffer(part26,prodloc11,20).
demandOffer(part26,prodloc0,20).
demandOffer(part26,prodloc8,-14).
demandOffer(part26,prodloc2,-26).
demandOffer(part27,prodloc8,53).
demandOffer(part27,prodloc13,27).
demandOffer(part27,prodloc1,-53).
demandOffer(part27,prodloc6,-27).
demandOffer(part28,prodloc9,20).
demandOffer(part28,prodloc6,20).
demandOffer(part28,prodloc10,-20).
demandOffer(part28,prodloc14,-20).
demandOffer(part3,prodloc7,40).
demandOffer(part3,prodloc14,-14).
demandOffer(part3,prodloc9,-26).
demandOffer(part30,prodloc6,40).
demandOffer(part30,prodloc8,40).
demandOffer(part30,prodloc0,-27).
demandOffer(part30,prodloc10,-53).
demandOffer(part31,prodloc11,7).
demandOffer(part31,prodloc1,7).
demandOffer(part31,prodloc3,-14).
demandOffer(part32,prodloc12,53).
demandOffer(part32,prodloc10,27).
demandOffer(part32,prodloc4,-53).
demandOffer(part32,prodloc5,-27).
demandOffer(part33,prodloc5,53).
demandOffer(part33,prodloc13,27).
demandOffer(part33,prodloc11,-53).
demandOffer(part33,prodloc6,-27).
demandOffer(part34,prodloc10,20).
demandOffer(part34,prodloc4,-20).
demandOffer(part4,prodloc1,26).
demandOffer(part4,prodloc4,-26).
demandOffer(part5,prodloc3,20).
demandOffer(part5,prodloc5,-20).
demandOffer(part6,prodloc5,27).
demandOffer(part6,prodloc14,53).
demandOffer(part6,prodloc8,-24).
demandOffer(part6,prodloc9,-36).
demandOffer(part6,prodloc12,-10).
demandOffer(part6,prodloc2,-10).
demandOffer(part8,prodloc0,3).
demandOffer(part8,prodloc6,17).
demandOffer(part8,prodloc13,-10).
demandOffer(part8,prodloc14,-10).
demandOffer(part9,prodloc8,20).
demandOffer(part9,prodloc0,-20).

% ---- network (ASP-generated) ----
route(harbor0,harbor1,tr13,7309,43854).
route(harbor0,harbor1,tr2,7309,21927).
route(harbor0,harbor2,tr13,22169,133014).
route(harbor0,harbor2,tr2,22169,66507).
route(harbor0,harbor3,tr13,14029,84174).
route(harbor0,harbor3,tr2,14029,42087).
route(harbor0,harbor4,tr13,1454,8724).
route(harbor0,harbor4,tr2,1454,4362).
route(harbor0,harbor5,tr13,12752,76512).
route(harbor0,harbor5,tr2,12752,38256).
route(harbor0,prodloc0,tr0,6699,174174).
route(harbor0,prodloc0,tr13,6699,40194).
route(harbor0,prodloc1,tr0,25296,657696).
route(harbor0,prodloc1,tr13,25296,151776).
route(harbor0,prodloc2,tr0,19901,517426).
route(harbor0,prodloc2,tr13,19901,119406).
route(harbor0,prodloc3,tr0,3364,87464).
route(harbor0,prodloc3,tr13,3364,20184).
route(harbor0,prodloc4,tr0,24685,641810).
route(harbor0,prodloc4,tr13,24685,148110).
route(harbor0,prodloc5,tr0,18023,468598).
route(harbor0,prodloc5,tr13,18023,108138).
route(harbor0,prodloc6,tr0,7231,188006).
route(harbor0,prodloc6,tr13,7231,43386).
route(harbor0,prodloc7,tr0,5836,151736).
route(harbor0,prodloc7,tr13,5836,35016).
route(harbor0,prodloc8,tr0,2557,66482).
route(harbor0,prodloc8,tr13,2557,15342).
route(harbor0,prodloc9,tr0,22805,592930).
route(harbor0,prodloc9,tr13,22805,136830).
route(harbor0,prodloc10,tr0,8973,233298).
route(harbor0,prodloc10,tr13,8973,53838).
route(harbor0,prodloc11,tr0,1209,31434).
route(harbor0,prodloc11,tr13,1209,7254).
route(harbor0,prodloc12,tr0,14206,369356).
route(harbor0,prodloc12,tr13,14206,85236).
route(harbor0,prodloc13,tr0,9063,235638).
route(harbor0,prodloc13,tr13,9063,54378).
route(harbor0,prodloc14,tr0,16330,424580).
route(harbor0,prodloc14,tr13,16330,97980).
route(harbor1,harbor0,tr13,11308,67848).
route(harbor1,harbor0,tr2,11308,33924).
route(harbor1,harbor2,tr13,19758,118548).
route(harbor1,harbor2,tr2,19758,59274).
route(harbor1,harbor3,tr13,20900,125400).
route(harbor1,harbor3,tr2,20900,62700).
route(harbor1,harbor4,tr13,23815,142890).
route(harbor1,harbor4,tr2,23815,71445).
route(harbor1,harbor5,tr13,1735,10410).
route(harbor1,harbor5,tr2,1735,5205).
route(harbor1,prodloc0,tr0,16845,437970).
route(harbor1,prodloc0,tr13,16845,101070).
route(harbor1,prodloc1,tr0,15051,391326).
route(harbor1,prodloc1,tr13,15051,90306).
route(harbor1,prodloc2,tr0,12070,313820).
route(harbor1,prodloc2,tr13,12070,72420).
route(harbor1,prodloc3,tr0,6843,177918).
route(harbor1,prodloc3,tr13,6843,41058).
route(harbor1,prodloc4,tr0,11131,289406).
route(harbor1,prodloc4,tr13,11131,66786).
route(harbor1,prodloc5,tr0,9239,240214).
route(harbor1,prodloc5,tr13,9239,55434).
route(harbor1,prodloc6,tr0,14932,388232).
route(harbor1,prodloc6,tr13,14932,89592).
route(harbor1,prodloc7,tr0,15608,405808).
route(harbor1,prodloc7,tr13,15608,93648).
route(harbor1,prodloc8,tr0,22839,593814).
route(harbor1,prodloc8,tr13,22839,137034).
route(harbor1,prodloc9,tr0,28036,728936).
route(harbor1,prodloc9,tr13,28036,168216).
route(harbor1,prodloc10,tr0,15764,409864).
route(harbor1,prodloc10,tr13,15764,94584).
route(harbor1,prodloc11,tr0,7863,204438).
route(harbor1,prodloc11,tr13,7863,47178).
route(harbor1,prodloc12,tr0,5492,142792).
route(harbor1,prodloc12,tr13,5492,32952).
route(harbor1,prodloc13,tr0,15230,395980).
route(harbor1,prodloc13,tr13,15230,91380).
route(harbor1,prodloc14,tr0,17986,467636).
route(harbor1,prodloc14,tr13,17986,107916).
route(harbor2,harbor0,tr13,11963,71778).
route(harbor2,harbor0,tr2,11963,35889).
route(harbor2,harbor1,tr13,5990,35940).
route(harbor2,harbor1,tr2,5990,17970).
route(harbor2,harbor3,tr13,6230,37380).
route(harbor2,harbor3,tr2,6230,18690).
route(harbor2,harbor4,tr13,25144,150864).
route(harbor2,harbor4,tr2,25144,75432).
route(harbor2,harbor5,tr13,24557,147342).
route(harbor2,harbor5,tr2,24557,73671).
route(harbor2,prodloc0,tr0,7207,187382).
route(harbor2,prodloc0,tr13,7207,43242).
route(harbor2,prodloc1,tr0,19889,517114).
route(harbor2,prodloc1,tr13,19889,119334).
route(harbor2,prodloc2,tr0,220,5720).
route(harbor2,prodloc2,tr13,220,1320).
route(harbor2,prodloc3,tr0,8792,228592).
route(harbor2,prodloc3,tr13,8792,52752).
route(harbor2,prodloc4,tr0,25255,656630).
route(harbor2,prodloc4,tr13,25255,151530).
route(harbor2,prodloc5,tr0,26261,682786).
route(harbor2,prodloc5,tr13,26261,157566).
route(harbor2,prodloc6,tr0,11201,291226).
route(harbor2,prodloc6,tr13,11201,67206).
route(harbor2,prodloc7,tr0,5885,153010).
route(harbor2,prodloc7,tr13,5885,35310).
route(harbor2,prodloc8,tr0,7918,205868).
route(harbor2,prodloc8,tr13,7918,47508).
route(harbor2,prodloc9,tr0,26050,677300).
route(harbor2,prodloc9,tr13,26050,156300).
route(harbor2,prodloc10,tr0,284,7384).
route(harbor2,prodloc10,tr13,284,1704).
route(harbor2,prodloc11,tr0,16432,427232).
route(harbor2,prodloc11,tr13,16432,98592).
route(harbor2,prodloc12,tr0,1313,34138).
route(harbor2,prodloc12,tr13,1313,7878).
route(harbor2,prodloc13,tr0,8113,210938).
route(harbor2,prodloc13,tr13,8113,48678).
route(harbor2,prodloc14,tr0,20287,527462).
route(harbor2,prodloc14,tr13,20287,121722).
route(harbor3,harbor0,tr13,3833,22998).
route(harbor3,harbor0,tr2,3833,11499).
route(harbor3,harbor1,tr13,11857,71142).
route(harbor3,harbor1,tr2,11857,35571).
route(harbor3,harbor2,tr13,17939,107634).
route(harbor3,harbor2,tr2,17939,53817).
route(harbor3,harbor4,tr13,16531,99186).
route(harbor3,harbor4,tr2,16531,49593).
route(harbor3,harbor5,tr13,5102,30612).
route(harbor3,harbor5,tr2,5102,15306).
route(harbor3,prodloc0,tr0,785,20410).
route(harbor3,prodloc0,tr13,785,4710).
route(harbor3,prodloc1,tr0,10568,274768).
route(harbor3,prodloc1,tr13,10568,63408).
route(harbor3,prodloc2,tr0,28902,751452).
route(harbor3,prodloc2,tr13,28902,173412).
route(harbor3,prodloc3,tr0,25803,670878).
route(harbor3,prodloc3,tr13,25803,154818).
route(harbor3,prodloc4,tr0,21910,569660).
route(harbor3,prodloc4,tr13,21910,131460).
route(harbor3,prodloc5,tr0,27263,708838).
route(harbor3,prodloc5,tr13,27263,163578).
route(harbor3,prodloc6,tr0,9158,238108).
route(harbor3,prodloc6,tr13,9158,54948).
route(harbor3,prodloc7,tr0,20954,544804).
route(harbor3,prodloc7,tr13,20954,125724).
route(harbor3,prodloc8,tr0,3872,100672).
route(harbor3,prodloc8,tr13,3872,23232).
route(harbor3,prodloc9,tr0,7522,195572).
route(harbor3,prodloc9,tr13,7522,45132).
route(harbor3,prodloc10,tr0,25697,668122).
route(harbor3,prodloc10,tr13,25697,154182).
route(harbor3,prodloc11,tr0,17278,449228).
route(harbor3,prodloc11,tr13,17278,103668).
route(harbor3,prodloc12,tr0,16458,427908).
route(harbor3,prodloc12,tr13,16458,98748).
route(harbor3,prodloc13,tr0,15645,406770).
route(harbor3,prodloc13,tr13,15645,93870).
route(harbor3,prodloc14,tr0,16050,417300).
route(harbor3,prodloc14,tr13,16050,96300).
route(harbor4,harbor0,tr13,20575,123450).
route(harbor4,harbor0,tr2,20575,61725).
route(harbor4,harbor1,tr13,11621,69726).
route(harbor4,harbor1,tr2,11621,34863).
route(harbor4,harbor2,tr13,8637,51822).
route(harbor4,harbor2,tr2,8637,25911).
route(harbor4,harbor3,tr13,22460,134760).
route(harbor4,harbor3,tr2,22460,67380).
route(harbor4,harbor5,tr13,14606,87636).
route(harbor4,harbor5,tr2,14606,43818).
route(harbor4,prodloc0,tr0,24211,629486).
route(harbor4,prodloc0,tr13,24211,145266).
route(harbor4,prodloc1,tr0,5315,138190).
route(harbor4,prodloc1,tr13,5315,31890).
route(harbor4,prodloc2,tr0,14708,382408).
route(harbor4,prodloc2,tr13,14708,88248).
route(harbor4,prodloc3,tr0,9548,248248).
route(harbor4,prodloc3,tr13,9548,57288).
route(harbor4,prodloc4,tr0,20216,525616).
route(harbor4,prodloc4,tr13,20216,121296).
route(harbor4,prodloc5,tr0,28614,743964).
route(harbor4,prodloc5,tr13,28614,171684).
route(harbor4,prodloc6,tr0,1509,39234).
route(harbor4,prodloc6,tr13,1509,9054).
route(harbor4,prodloc7,tr0,9121,237146).
route(harbor4,prodloc7,tr13,9121,54726).
route(harbor4,prodloc8,tr0,10815,281190).
route(harbor4,prodloc8,tr13,10815,64890).
route(harbor4,prodloc9,tr0,28253,734578).
route(harbor4,prodloc9,tr13,28253,169518).
route(harbor4,prodloc10,tr0,16883,438958).
route(harbor4,prodloc10,tr13,16883,101298).
route(harbor4,prodloc11,tr0,20981,545506).
route(harbor4,prodloc11,tr13,20981,125886).
route(harbor4,prodloc12,tr0,22807,592982).
route(harbor4,prodloc12,tr13,22807,136842).
route(harbor4,prodloc13,tr0,14586,379236).
route(harbor4,prodloc13,tr13,14586,87516).
route(harbor4,prodloc14,tr0,23093,600418).
route(harbor4,prodloc14,tr13,23093,138558).
route(harbor5,harbor0,tr13,25985,155910).
route(harbor5,harbor0,tr2,25985,77955).
route(harbor5,harbor1,tr13,7044,42264).
route(harbor5,harbor1,tr2,7044,21132).
route(harbor5,harbor2,tr13,24081,144486).
route(harbor5,harbor2,tr2,24081,72243).
route(harbor5,harbor3,tr13,9369,56214).
route(harbor5,harbor3,tr2,9369,28107).
route(harbor5,harbor4,tr13,17101,102606).
route(harbor5,harbor4,tr2,17101,51303).
route(harbor5,prodloc0,tr0,8355,217230).
route(harbor5,prodloc0,tr13,8355,50130).
route(harbor5,prodloc1,tr0,936,24336).
route(harbor5,prodloc1,tr13,936,5616).
route(harbor5,prodloc2,tr0,22392,582192).
route(harbor5,prodloc2,tr13,22392,134352).
route(harbor5,prodloc3,tr0,122,3172).
route(harbor5,prodloc3,tr13,122,732).
route(harbor5,prodloc4,tr0,22746,591396).
route(harbor5,prodloc4,tr13,22746,136476).
route(harbor5,prodloc5,tr0,895,23270).
route(harbor5,prodloc5,tr13,895,5370).
route(harbor5,prodloc6,tr0,4318,112268).
route(harbor5,prodloc6,tr13,4318,25908).
route(harbor5,prodloc7,tr0,18287,475462).
route(harbor5,prodloc7,tr13,18287,109722).
route(harbor5,prodloc8,tr0,8712,226512).
route(harbor5,prodloc8,tr13,8712,52272).
route(harbor5,prodloc9,tr0,13775,358150).
route(harbor5,prodloc9,tr13,13775,82650).
route(harbor5,prodloc10,tr0,4536,117936).
route(harbor5,prodloc10,tr13,4536,27216).
route(harbor5,prodloc11,tr0,7906,205556).
route(harbor5,prodloc11,tr13,7906,47436).
route(harbor5,prodloc12,tr0,6564,170664).
route(harbor5,prodloc12,tr13,6564,39384).
route(harbor5,prodloc13,tr0,14265,370890).
route(harbor5,prodloc13,tr13,14265,85590).
route(harbor5,prodloc14,tr0,15460,401960).
route(harbor5,prodloc14,tr13,15460,92760).
route(prodloc0,harbor0,tr0,1928,50128).
route(prodloc0,harbor0,tr13,1928,11568).
route(prodloc0,harbor1,tr0,18349,477074).
route(prodloc0,harbor1,tr13,18349,110094).
route(prodloc0,harbor2,tr0,18686,485836).
route(prodloc0,harbor2,tr13,18686,112116).
route(prodloc0,harbor3,tr0,20473,532298).
route(prodloc0,harbor3,tr13,20473,122838).
route(prodloc0,harbor4,tr0,23555,612430).
route(prodloc0,harbor4,tr13,23555,141330).
route(prodloc0,harbor5,tr0,8453,219778).
route(prodloc0,harbor5,tr13,8453,50718).
route(prodloc0,prodloc1,tr0,24919,647894).
route(prodloc0,prodloc1,tr13,24919,149514).
route(prodloc0,prodloc2,tr0,1286,33436).
route(prodloc0,prodloc2,tr13,1286,7716).
route(prodloc0,prodloc3,tr0,13687,355862).
route(prodloc0,prodloc3,tr15,13687,437984).
route(prodloc0,prodloc4,tr0,14130,367380).
route(prodloc0,prodloc4,tr13,14130,84780).
route(prodloc0,prodloc5,tr0,19283,501358).
route(prodloc0,prodloc5,tr13,19283,115698).
route(prodloc0,prodloc6,tr0,3045,79170).
route(prodloc0,prodloc6,tr13,3045,18270).
route(prodloc0,prodloc7,tr0,13264,344864).
route(prodloc0,prodloc7,tr13,13264,79584).
route(prodloc0,prodloc8,tr0,25863,672438).
route(prodloc0,prodloc8,tr13,25863,155178).
route(prodloc0,prodloc9,tr0,6522,169572).
route(prodloc0,prodloc9,tr13,6522,39132).
route(prodloc0,prodloc10,tr0,19012,494312).
route(prodloc0,prodloc10,tr13,19012,114072).
route(prodloc0,prodloc11,tr0,18251,474526).
route(prodloc0,prodloc11,tr13,18251,109506).
route(prodloc0,prodloc12,tr0,11388,296088).
route(prodloc0,prodloc12,tr13,11388,68328).
route(prodloc0,prodloc13,tr0,12076,313976).
route(prodloc0,prodloc13,tr13,12076,72456).
route(prodloc0,prodloc14,tr0,20910,543660).
route(prodloc0,prodloc14,tr13,20910,125460).
route(prodloc1,harbor0,tr0,24113,626938).
route(prodloc1,harbor0,tr13,24113,144678).
route(prodloc1,harbor1,tr0,12618,328068).
route(prodloc1,harbor1,tr13,12618,75708).
route(prodloc1,harbor2,tr0,18461,479986).
route(prodloc1,harbor2,tr13,18461,110766).
route(prodloc1,harbor3,tr0,5275,137150).
route(prodloc1,harbor3,tr13,5275,31650).
route(prodloc1,harbor4,tr0,562,14612).
route(prodloc1,harbor4,tr13,562,3372).
route(prodloc1,harbor5,tr0,22572,586872).
route(prodloc1,harbor5,tr13,22572,135432).
route(prodloc1,prodloc0,tr0,23271,605046).
route(prodloc1,prodloc0,tr13,23271,139626).
route(prodloc1,prodloc2,tr0,5094,132444).
route(prodloc1,prodloc2,tr13,5094,30564).
route(prodloc1,prodloc3,tr0,1014,26364).
route(prodloc1,prodloc3,tr13,1014,6084).
route(prodloc1,prodloc4,tr0,26142,679692).
route(prodloc1,prodloc4,tr13,26142,156852).
route(prodloc1,prodloc5,tr13,1244,7464).
route(prodloc1,prodloc5,tr15,1244,39808).
route(prodloc1,prodloc6,tr13,2393,14358).
route(prodloc1,prodloc6,tr15,2393,76576).
route(prodloc1,prodloc7,tr0,13616,354016).
route(prodloc1,prodloc7,tr13,13616,81696).
route(prodloc1,prodloc8,tr0,17530,455780).
route(prodloc1,prodloc8,tr13,17530,105180).
route(prodloc1,prodloc9,tr0,6561,170586).
route(prodloc1,prodloc9,tr13,6561,39366).
route(prodloc1,prodloc10,tr0,25859,672334).
route(prodloc1,prodloc10,tr13,25859,155154).
route(prodloc1,prodloc11,tr0,12436,323336).
route(prodloc1,prodloc11,tr13,12436,74616).
route(prodloc1,prodloc12,tr0,25967,675142).
route(prodloc1,prodloc12,tr13,25967,155802).
route(prodloc1,prodloc13,tr0,3222,83772).
route(prodloc1,prodloc13,tr13,3222,19332).
route(prodloc1,prodloc14,tr0,23276,605176).
route(prodloc1,prodloc14,tr13,23276,139656).
route(prodloc2,harbor0,tr0,11574,300924).
route(prodloc2,harbor0,tr13,11574,69444).
route(prodloc2,harbor1,tr0,6193,161018).
route(prodloc2,harbor1,tr13,6193,37158).
route(prodloc2,harbor2,tr0,10229,265954).
route(prodloc2,harbor2,tr13,10229,61374).
route(prodloc2,harbor3,tr0,8872,230672).
route(prodloc2,harbor3,tr13,8872,53232).
route(prodloc2,harbor4,tr0,25986,675636).
route(prodloc2,harbor4,tr13,25986,155916).
route(prodloc2,harbor5,tr0,22582,587132).
route(prodloc2,harbor5,tr13,22582,135492).
route(prodloc2,prodloc0,tr0,22499,584974).
route(prodloc2,prodloc0,tr13,22499,134994).
route(prodloc2,prodloc1,tr0,17749,461474).
route(prodloc2,prodloc1,tr13,17749,106494).
route(prodloc2,prodloc3,tr0,16114,418964).
route(prodloc2,prodloc3,tr13,16114,96684).
route(prodloc2,prodloc4,tr0,20387,530062).
route(prodloc2,prodloc4,tr13,20387,122322).
route(prodloc2,prodloc5,tr0,20027,520702).
route(prodloc2,prodloc5,tr13,20027,120162).
route(prodloc2,prodloc6,tr0,4088,106288).
route(prodloc2,prodloc6,tr13,4088,24528).
route(prodloc2,prodloc7,tr0,6946,180596).
route(prodloc2,prodloc7,tr13,6946,41676).
route(prodloc2,prodloc8,tr0,17508,455208).
route(prodloc2,prodloc8,tr13,17508,105048).
route(prodloc2,prodloc9,tr0,19630,510380).
route(prodloc2,prodloc9,tr13,19630,117780).
route(prodloc2,prodloc10,tr0,22959,596934).
route(prodloc2,prodloc10,tr13,22959,137754).
route(prodloc2,prodloc11,tr0,22255,578630).
route(prodloc2,prodloc11,tr13,22255,133530).
route(prodloc2,prodloc12,tr0,12917,335842).
route(prodloc2,prodloc12,tr13,12917,77502).
route(prodloc2,prodloc13,tr0,19029,494754).
route(prodloc2,prodloc13,tr13,19029,114174).
route(prodloc2,prodloc14,tr0,8055,209430).
route(prodloc2,prodloc14,tr13,8055,48330).
route(prodloc3,harbor0,tr0,2352,61152).
route(prodloc3,harbor0,tr13,2352,14112).
route(prodloc3,harbor1,tr0,13334,346684).
route(prodloc3,harbor1,tr13,13334,80004).
route(prodloc3,harbor2,tr0,11659,303134).
route(prodloc3,harbor2,tr13,11659,69954).
route(prodloc3,harbor3,tr0,10605,275730).
route(prodloc3,harbor3,tr13,10605,63630).
route(prodloc3,harbor4,tr0,2700,70200).
route(prodloc3,harbor4,tr13,2700,16200).
route(prodloc3,harbor5,tr0,22457,583882).
route(prodloc3,harbor5,tr13,22457,134742).
route(prodloc3,prodloc0,tr0,10896,283296).
route(prodloc3,prodloc0,tr13,10896,65376).
route(prodloc3,prodloc1,tr0,4648,120848).
route(prodloc3,prodloc1,tr13,4648,27888).
route(prodloc3,prodloc2,tr0,22498,584948).
route(prodloc3,prodloc2,tr13,22498,134988).
route(prodloc3,prodloc4,tr0,2968,77168).
route(prodloc3,prodloc4,tr13,2968,17808).
route(prodloc3,prodloc5,tr0,23618,614068).
route(prodloc3,prodloc5,tr15,23618,755776).
route(prodloc3,prodloc6,tr0,10241,266266).
route(prodloc3,prodloc6,tr13,10241,61446).
route(prodloc3,prodloc7,tr0,10179,264654).
route(prodloc3,prodloc7,tr13,10179,61074).
route(prodloc3,prodloc8,tr0,22801,592826).
route(prodloc3,prodloc8,tr13,22801,136806).
route(prodloc3,prodloc9,tr0,5890,153140).
route(prodloc3,prodloc9,tr13,5890,35340).
route(prodloc3,prodloc10,tr0,24893,647218).
route(prodloc3,prodloc10,tr13,24893,149358).
route(prodloc3,prodloc11,tr0,22232,578032).
route(prodloc3,prodloc11,tr13,22232,133392).
route(prodloc3,prodloc12,tr0,21608,561808).
route(prodloc3,prodloc12,tr13,21608,129648).
route(prodloc3,prodloc13,tr0,20879,542854).
route(prodloc3,prodloc13,tr13,20879,125274).
route(prodloc3,prodloc14,tr0,14289,371514).
route(prodloc3,prodloc14,tr13,14289,85734).
route(prodloc4,harbor0,tr0,11982,311532).
route(prodloc4,harbor0,tr13,11982,71892).
route(prodloc4,harbor1,tr0,5762,149812).
route(prodloc4,harbor1,tr13,5762,34572).
route(prodloc4,harbor2,tr0,976,25376).
route(prodloc4,harbor2,tr13,976,5856).
route(prodloc4,harbor3,tr0,6855,178230).
route(prodloc4,harbor3,tr13,6855,41130).
route(prodloc4,harbor4,tr0,15986,415636).
route(prodloc4,harbor4,tr13,15986,95916).
route(prodloc4,harbor5,tr0,20416,530816).
route(prodloc4,harbor5,tr13,20416,122496).
route(prodloc4,prodloc0,tr0,14540,378040).
route(prodloc4,prodloc0,tr13,14540,87240).
route(prodloc4,prodloc1,tr0,15906,413556).
route(prodloc4,prodloc1,tr13,15906,95436).
route(prodloc4,prodloc2,tr0,5879,152854).
route(prodloc4,prodloc2,tr13,5879,35274).
route(prodloc4,prodloc3,tr0,1858,48308).
route(prodloc4,prodloc3,tr13,1858,11148).
route(prodloc4,prodloc5,tr0,21871,568646).
route(prodloc4,prodloc5,tr13,21871,131226).
route(prodloc4,prodloc6,tr0,19473,506298).
route(prodloc4,prodloc6,tr13,19473,116838).
route(prodloc4,prodloc7,tr0,11184,290784).
route(prodloc4,prodloc7,tr13,11184,67104).
route(prodloc4,prodloc8,tr0,14975,389350).
route(prodloc4,prodloc8,tr15,14975,479200).
route(prodloc4,prodloc9,tr0,7812,203112).
route(prodloc4,prodloc9,tr13,7812,46872).
route(prodloc4,prodloc10,tr0,10731,279006).
route(prodloc4,prodloc10,tr13,10731,64386).
route(prodloc4,prodloc11,tr0,3176,82576).
route(prodloc4,prodloc11,tr13,3176,19056).
route(prodloc4,prodloc12,tr0,7352,191152).
route(prodloc4,prodloc12,tr13,7352,44112).
route(prodloc4,prodloc13,tr0,255,6630).
route(prodloc4,prodloc13,tr13,255,1530).
route(prodloc4,prodloc14,tr0,11808,307008).
route(prodloc4,prodloc14,tr13,11808,70848).
route(prodloc5,harbor0,tr0,12010,312260).
route(prodloc5,harbor0,tr13,12010,72060).
route(prodloc5,harbor1,tr0,9166,238316).
route(prodloc5,harbor1,tr13,9166,54996).
route(prodloc5,harbor2,tr0,27814,723164).
route(prodloc5,harbor2,tr13,27814,166884).
route(prodloc5,harbor3,tr0,6599,171574).
route(prodloc5,harbor3,tr13,6599,39594).
route(prodloc5,harbor4,tr0,22561,586586).
route(prodloc5,harbor4,tr13,22561,135366).
route(prodloc5,harbor5,tr0,14172,368472).
route(prodloc5,harbor5,tr13,14172,85032).
route(prodloc5,prodloc0,tr0,9703,252278).
route(prodloc5,prodloc0,tr13,9703,58218).
route(prodloc5,prodloc1,tr0,7223,187798).
route(prodloc5,prodloc1,tr13,7223,43338).
route(prodloc5,prodloc2,tr0,16923,439998).
route(prodloc5,prodloc2,tr15,16923,541536).
route(prodloc5,prodloc3,tr0,4808,125008).
route(prodloc5,prodloc3,tr13,4808,28848).
route(prodloc5,prodloc4,tr0,16419,426894).
route(prodloc5,prodloc4,tr13,16419,98514).
route(prodloc5,prodloc6,tr13,22877,137262).
route(prodloc5,prodloc6,tr15,22877,732064).
route(prodloc5,prodloc7,tr0,10897,283322).
route(prodloc5,prodloc7,tr13,10897,65382).
route(prodloc5,prodloc8,tr0,5321,138346).
route(prodloc5,prodloc8,tr13,5321,31926).
route(prodloc5,prodloc9,tr13,16409,98454).
route(prodloc5,prodloc9,tr15,16409,525088).
route(prodloc5,prodloc10,tr0,15227,395902).
route(prodloc5,prodloc10,tr13,15227,91362).
route(prodloc5,prodloc11,tr0,12743,331318).
route(prodloc5,prodloc11,tr13,12743,76458).
route(prodloc5,prodloc12,tr0,19876,516776).
route(prodloc5,prodloc12,tr13,19876,119256).
route(prodloc5,prodloc13,tr0,16415,426790).
route(prodloc5,prodloc13,tr13,16415,98490).
route(prodloc5,prodloc14,tr0,27621,718146).
route(prodloc5,prodloc14,tr13,27621,165726).
route(prodloc6,harbor0,tr0,23136,601536).
route(prodloc6,harbor0,tr13,23136,138816).
route(prodloc6,harbor1,tr0,8189,212914).
route(prodloc6,harbor1,tr13,8189,49134).
route(prodloc6,harbor2,tr0,15080,392080).
route(prodloc6,harbor2,tr13,15080,90480).
route(prodloc6,harbor3,tr0,15063,391638).
route(prodloc6,harbor3,tr13,15063,90378).
route(prodloc6,harbor4,tr0,25739,669214).
route(prodloc6,harbor4,tr13,25739,154434).
route(prodloc6,harbor5,tr0,28012,728312).
route(prodloc6,harbor5,tr13,28012,168072).
route(prodloc6,prodloc0,tr0,1615,41990).
route(prodloc6,prodloc0,tr13,1615,9690).
route(prodloc6,prodloc1,tr0,27254,708604).
route(prodloc6,prodloc1,tr13,27254,163524).
route(prodloc6,prodloc2,tr0,25308,658008).
route(prodloc6,prodloc2,tr13,25308,151848).
route(prodloc6,prodloc3,tr0,7456,193856).
route(prodloc6,prodloc3,tr13,7456,44736).
route(prodloc6,prodloc4,tr0,13356,347256).
route(prodloc6,prodloc4,tr13,13356,80136).
route(prodloc6,prodloc5,tr0,17630,458380).
route(prodloc6,prodloc5,tr13,17630,105780).
route(prodloc6,prodloc7,tr0,22902,595452).
route(prodloc6,prodloc7,tr13,22902,137412).
route(prodloc6,prodloc8,tr0,24948,648648).
route(prodloc6,prodloc8,tr13,24948,149688).
route(prodloc6,prodloc9,tr0,25950,674700).
route(prodloc6,prodloc9,tr13,25950,155700).
route(prodloc6,prodloc10,tr0,12954,336804).
route(prodloc6,prodloc10,tr15,12954,414528).
route(prodloc6,prodloc11,tr0,17087,444262).
route(prodloc6,prodloc11,tr13,17087,102522).
route(prodloc6,prodloc12,tr0,22067,573742).
route(prodloc6,prodloc12,tr13,22067,132402).
route(prodloc6,prodloc13,tr0,14417,374842).
route(prodloc6,prodloc13,tr13,14417,86502).
route(prodloc6,prodloc14,tr0,21736,565136).
route(prodloc6,prodloc14,tr13,21736,130416).
route(prodloc7,harbor0,tr0,1714,44564).
route(prodloc7,harbor0,tr13,1714,10284).
route(prodloc7,harbor1,tr0,3485,90610).
route(prodloc7,harbor1,tr13,3485,20910).
route(prodloc7,harbor2,tr0,18151,471926).
route(prodloc7,harbor2,tr13,18151,108906).
route(prodloc7,harbor3,tr0,18693,486018).
route(prodloc7,harbor3,tr13,18693,112158).
route(prodloc7,harbor4,tr0,22309,580034).
route(prodloc7,harbor4,tr13,22309,133854).
route(prodloc7,harbor5,tr0,10227,265902).
route(prodloc7,harbor5,tr13,10227,61362).
route(prodloc7,prodloc0,tr0,11478,298428).
route(prodloc7,prodloc0,tr13,11478,68868).
route(prodloc7,prodloc1,tr0,24970,649220).
route(prodloc7,prodloc1,tr13,24970,149820).
route(prodloc7,prodloc2,tr0,23996,623896).
route(prodloc7,prodloc2,tr15,23996,767872).
route(prodloc7,prodloc3,tr0,559,14534).
route(prodloc7,prodloc3,tr13,559,3354).
route(prodloc7,prodloc4,tr0,10561,274586).
route(prodloc7,prodloc4,tr13,10561,63366).
route(prodloc7,prodloc5,tr0,25399,660374).
route(prodloc7,prodloc5,tr13,25399,152394).
route(prodloc7,prodloc6,tr0,16382,425932).
route(prodloc7,prodloc6,tr13,16382,98292).
route(prodloc7,prodloc8,tr0,11826,307476).
route(prodloc7,prodloc8,tr13,11826,70956).
route(prodloc7,prodloc9,tr0,20728,538928).
route(prodloc7,prodloc9,tr13,20728,124368).
route(prodloc7,prodloc10,tr0,10068,261768).
route(prodloc7,prodloc10,tr13,10068,60408).
route(prodloc7,prodloc11,tr0,5584,145184).
route(prodloc7,prodloc11,tr13,5584,33504).
route(prodloc7,prodloc12,tr0,4455,115830).
route(prodloc7,prodloc12,tr13,4455,26730).
route(prodloc7,prodloc13,tr0,15634,406484).
route(prodloc7,prodloc13,tr15,15634,500288).
route(prodloc7,prodloc14,tr0,7396,192296).
route(prodloc7,prodloc14,tr13,7396,44376).
route(prodloc8,harbor0,tr0,26245,682370).
route(prodloc8,harbor0,tr13,26245,157470).
route(prodloc8,harbor1,tr0,17837,463762).
route(prodloc8,harbor1,tr13,17837,107022).
route(prodloc8,harbor2,tr0,4409,114634).
route(prodloc8,harbor2,tr13,4409,26454).
route(prodloc8,harbor3,tr0,8254,214604).
route(prodloc8,harbor3,tr13,8254,49524).
route(prodloc8,harbor4,tr0,16209,421434).
route(prodloc8,harbor4,tr13,16209,97254).
route(prodloc8,harbor5,tr0,1506,39156).
route(prodloc8,harbor5,tr13,1506,9036).
route(prodloc8,prodloc1,tr0,26334,684684).
route(prodloc8,prodloc1,tr13,26334,158004).
route(prodloc8,prodloc2,tr0,11955,310830).
route(prodloc8,prodloc2,tr13,11955,71730).
route(prodloc8,prodloc3,tr0,9361,243386).
route(prodloc8,prodloc3,tr13,9361,56166).
route(prodloc8,prodloc4,tr0,13388,348088).
route(prodloc8,prodloc4,tr13,13388,80328).
route(prodloc8,prodloc5,tr0,20563,534638).
route(prodloc8,prodloc5,tr13,20563,123378).
route(prodloc8,prodloc6,tr0,19623,510198).
route(prodloc8,prodloc6,tr15,19623,627936).
route(prodloc8,prodloc7,tr0,9268,240968).
route(prodloc8,prodloc7,tr13,9268,55608).
route(prodloc8,prodloc9,tr13,12751,76506).
route(prodloc8,prodloc9,tr15,12751,408032).
route(prodloc8,prodloc11,tr0,28611,743886).
route(prodloc8,prodloc11,tr13,28611,171666).
route(prodloc8,prodloc12,tr0,25869,672594).
route(prodloc8,prodloc12,tr13,25869,155214).
route(prodloc8,prodloc13,tr0,19898,517348).
route(prodloc8,prodloc13,tr13,19898,119388).
route(prodloc8,prodloc14,tr0,10519,273494).
route(prodloc8,prodloc14,tr13,10519,63114).
route(prodloc9,harbor0,tr0,4858,126308).
route(prodloc9,harbor0,tr13,4858,29148).
route(prodloc9,harbor1,tr0,4125,107250).
route(prodloc9,harbor1,tr13,4125,24750).
route(prodloc9,harbor2,tr0,8498,220948).
route(prodloc9,harbor2,tr13,8498,50988).
route(prodloc9,harbor3,tr0,21004,546104).
route(prodloc9,harbor3,tr13,21004,126024).
route(prodloc9,harbor4,tr0,1069,27794).
route(prodloc9,harbor4,tr13,1069,6414).
route(prodloc9,harbor5,tr0,27615,717990).
route(prodloc9,harbor5,tr13,27615,165690).
route(prodloc9,prodloc0,tr0,21570,560820).
route(prodloc9,prodloc0,tr13,21570,129420).
route(prodloc9,prodloc1,tr0,19941,518466).
route(prodloc9,prodloc1,tr13,19941,119646).
route(prodloc9,prodloc2,tr0,26088,678288).
route(prodloc9,prodloc2,tr15,26088,834816).
route(prodloc9,prodloc3,tr0,25703,668278).
route(prodloc9,prodloc3,tr13,25703,154218).
route(prodloc9,prodloc4,tr0,12402,322452).
route(prodloc9,prodloc4,tr13,12402,74412).
route(prodloc9,prodloc5,tr0,13516,351416).
route(prodloc9,prodloc5,tr13,13516,81096).
route(prodloc9,prodloc6,tr0,13890,361140).
route(prodloc9,prodloc6,tr13,13890,83340).
route(prodloc9,prodloc7,tr0,20246,526396).
route(prodloc9,prodloc7,tr13,20246,121476).
route(prodloc9,prodloc8,tr0,21579,561054).
route(prodloc9,prodloc8,tr13,21579,129474).
route(prodloc9,prodloc10,tr0,8626,224276).
route(prodloc9,prodloc10,tr13,8626,51756).
route(prodloc9,prodloc11,tr0,11137,289562).
route(prodloc9,prodloc11,tr13,11137,66822).
route(prodloc9,prodloc12,tr0,13335,346710).
route(prodloc9,prodloc12,tr13,13335,80010).
route(prodloc9,prodloc13,tr0,25189,654914).
route(prodloc9,prodloc13,tr13,25189,151134).
route(prodloc9,prodloc14,tr13,12443,74658).
route(prodloc9,prodloc14,tr15,12443,398176).
route(prodloc10,harbor0,tr0,16138,419588).
route(prodloc10,harbor0,tr13,16138,96828).
route(prodloc10,harbor1,tr0,12606,327756).
route(prodloc10,harbor1,tr13,12606,75636).
route(prodloc10,harbor2,tr0,13094,340444).
route(prodloc10,harbor2,tr13,13094,78564).
route(prodloc10,harbor3,tr0,26698,694148).
route(prodloc10,harbor3,tr13,26698,160188).
route(prodloc10,harbor4,tr0,26451,687726).
route(prodloc10,harbor4,tr13,26451,158706).
route(prodloc10,harbor5,tr0,5988,155688).
route(prodloc10,harbor5,tr13,5988,35928).
route(prodloc10,prodloc0,tr0,5566,144716).
route(prodloc10,prodloc0,tr13,5566,33396).
route(prodloc10,prodloc1,tr0,25848,672048).
route(prodloc10,prodloc1,tr13,25848,155088).
route(prodloc10,prodloc2,tr0,6722,174772).
route(prodloc10,prodloc2,tr13,6722,40332).
route(prodloc10,prodloc3,tr0,27387,712062).
route(prodloc10,prodloc3,tr13,27387,164322).
route(prodloc10,prodloc4,tr0,8347,217022).
route(prodloc10,prodloc4,tr13,8347,50082).
route(prodloc10,prodloc5,tr0,3595,93470).
route(prodloc10,prodloc5,tr13,3595,21570).
route(prodloc10,prodloc6,tr0,8780,228280).
route(prodloc10,prodloc6,tr13,8780,52680).
route(prodloc10,prodloc7,tr0,17131,445406).
route(prodloc10,prodloc7,tr13,17131,102786).
route(prodloc10,prodloc8,tr0,1736,45136).
route(prodloc10,prodloc8,tr13,1736,10416).
route(prodloc10,prodloc9,tr0,28457,739882).
route(prodloc10,prodloc9,tr13,28457,170742).
route(prodloc10,prodloc11,tr0,27376,711776).
route(prodloc10,prodloc11,tr13,27376,164256).
route(prodloc10,prodloc12,tr0,21399,556374).
route(prodloc10,prodloc12,tr13,21399,128394).
route(prodloc10,prodloc13,tr0,28625,744250).
route(prodloc10,prodloc13,tr13,28625,171750).
route(prodloc10,prodloc14,tr0,24314,632164).
route(prodloc10,prodloc14,tr13,24314,145884).
route(prodloc11,harbor0,tr0,26909,699634).
route(prodloc11,harbor0,tr13,26909,161454).
route(prodloc11,harbor1,tr0,23444,609544).
route(prodloc11,harbor1,tr13,23444,140664).
route(prodloc11,harbor2,tr0,11758,305708).
route(prodloc11,harbor2,tr13,11758,70548).
route(prodloc11,harbor3,tr0,24074,625924).
route(prodloc11,harbor3,tr13,24074,144444).
route(prodloc11,harbor4,tr0,10012,260312).
route(prodloc11,harbor4,tr13,10012,60072).
route(prodloc11,harbor5,tr0,25259,656734).
route(prodloc11,harbor5,tr13,25259,151554).
route(prodloc11,prodloc0,tr0,4500,117000).
route(prodloc11,prodloc0,tr13,4500,27000).
route(prodloc11,prodloc1,tr0,28148,731848).
route(prodloc11,prodloc1,tr13,28148,168888).
route(prodloc11,prodloc2,tr0,28355,737230).
route(prodloc11,prodloc2,tr13,28355,170130).
route(prodloc11,prodloc3,tr0,10194,265044).
route(prodloc11,prodloc3,tr13,10194,61164).
route(prodloc11,prodloc4,tr0,27298,709748).
route(prodloc11,prodloc4,tr13,27298,163788).
route(prodloc11,prodloc5,tr0,28597,743522).
route(prodloc11,prodloc5,tr13,28597,171582).
route(prodloc11,prodloc6,tr0,6922,179972).
route(prodloc11,prodloc6,tr13,6922,41532).
route(prodloc11,prodloc7,tr0,24545,638170).
route(prodloc11,prodloc7,tr13,24545,147270).
route(prodloc11,prodloc8,tr13,28831,172986).
route(prodloc11,prodloc8,tr15,28831,922592).
route(prodloc11,prodloc9,tr0,28167,732342).
route(prodloc11,prodloc9,tr13,28167,169002).
route(prodloc11,prodloc10,tr0,807,20982).
route(prodloc11,prodloc10,tr13,807,4842).
route(prodloc11,prodloc12,tr0,18208,473408).
route(prodloc11,prodloc12,tr13,18208,109248).
route(prodloc11,prodloc13,tr0,10108,262808).
route(prodloc11,prodloc13,tr13,10108,60648).
route(prodloc11,prodloc14,tr0,1396,36296).
route(prodloc11,prodloc14,tr13,1396,8376).
route(prodloc12,harbor0,tr0,426,11076).
route(prodloc12,harbor0,tr13,426,2556).
route(prodloc12,harbor1,tr0,26553,690378).
route(prodloc12,harbor1,tr13,26553,159318).
route(prodloc12,harbor2,tr0,5606,145756).
route(prodloc12,harbor2,tr13,5606,33636).
route(prodloc12,harbor3,tr0,6405,166530).
route(prodloc12,harbor3,tr13,6405,38430).
route(prodloc12,harbor4,tr0,5351,139126).
route(prodloc12,harbor4,tr13,5351,32106).
route(prodloc12,harbor5,tr0,6453,167778).
route(prodloc12,harbor5,tr13,6453,38718).
route(prodloc12,prodloc0,tr0,23458,609908).
route(prodloc12,prodloc0,tr13,23458,140748).
route(prodloc12,prodloc1,tr0,26499,688974).
route(prodloc12,prodloc1,tr13,26499,158994).
route(prodloc12,prodloc2,tr0,9720,252720).
route(prodloc12,prodloc2,tr13,9720,58320).
route(prodloc12,prodloc3,tr0,6229,161954).
route(prodloc12,prodloc3,tr13,6229,37374).
route(prodloc12,prodloc4,tr0,6033,156858).
route(prodloc12,prodloc4,tr13,6033,36198).
route(prodloc12,prodloc5,tr13,25347,152082).
route(prodloc12,prodloc5,tr15,25347,811104).
route(prodloc12,prodloc6,tr0,10224,265824).
route(prodloc12,prodloc6,tr13,10224,61344).
route(prodloc12,prodloc7,tr0,17898,465348).
route(prodloc12,prodloc7,tr13,17898,107388).
route(prodloc12,prodloc8,tr0,28253,734578).
route(prodloc12,prodloc8,tr13,28253,169518).
route(prodloc12,prodloc9,tr0,713,18538).
route(prodloc12,prodloc9,tr13,713,4278).
route(prodloc12,prodloc10,tr0,19887,517062).
route(prodloc12,prodloc10,tr13,19887,119322).
route(prodloc12,prodloc11,tr13,3355,20130).
route(prodloc12,prodloc11,tr15,3355,107360).
route(prodloc12,prodloc13,tr0,11950,310700).
route(prodloc12,prodloc13,tr13,11950,71700).
route(prodloc12,prodloc14,tr0,22447,583622).
route(prodloc12,prodloc14,tr13,22447,134682).
route(prodloc13,harbor0,tr0,16328,424528).
route(prodloc13,harbor0,tr13,16328,97968).
route(prodloc13,harbor1,tr0,17573,456898).
route(prodloc13,harbor1,tr13,17573,105438).
route(prodloc13,harbor2,tr0,6563,170638).
route(prodloc13,harbor2,tr13,6563,39378).
route(prodloc13,harbor3,tr0,14696,382096).
route(prodloc13,harbor3,tr13,14696,88176).
route(prodloc13,harbor4,tr0,3217,83642).
route(prodloc13,harbor4,tr13,3217,19302).
route(prodloc13,harbor5,tr0,17289,449514).
route(prodloc13,harbor5,tr13,17289,103734).
route(prodloc13,prodloc0,tr0,205,5330).
route(prodloc13,prodloc0,tr13,205,1230).
route(prodloc13,prodloc1,tr13,21350,128100).
route(prodloc13,prodloc1,tr15,21350,683200).
route(prodloc13,prodloc2,tr0,4151,107926).
route(prodloc13,prodloc2,tr13,4151,24906).
route(prodloc13,prodloc3,tr0,26239,682214).
route(prodloc13,prodloc3,tr13,26239,157434).
route(prodloc13,prodloc4,tr0,12871,334646).
route(prodloc13,prodloc4,tr13,12871,77226).
route(prodloc13,prodloc5,tr0,16559,430534).
route(prodloc13,prodloc5,tr13,16559,99354).
route(prodloc13,prodloc6,tr0,15939,414414).
route(prodloc13,prodloc6,tr13,15939,95634).
route(prodloc13,prodloc7,tr0,20827,541502).
route(prodloc13,prodloc7,tr13,20827,124962).
route(prodloc13,prodloc8,tr0,9616,250016).
route(prodloc13,prodloc8,tr13,9616,57696).
route(prodloc13,prodloc9,tr0,15314,398164).
route(prodloc13,prodloc9,tr13,15314,91884).
route(prodloc13,prodloc10,tr0,11664,303264).
route(prodloc13,prodloc10,tr13,11664,69984).
route(prodloc13,prodloc11,tr13,20779,124674).
route(prodloc13,prodloc11,tr15,20779,664928).
route(prodloc13,prodloc12,tr0,27539,716014).
route(prodloc13,prodloc12,tr13,27539,165234).
route(prodloc13,prodloc14,tr0,12731,331006).
route(prodloc13,prodloc14,tr13,12731,76386).
route(prodloc14,harbor0,tr0,27947,726622).
route(prodloc14,harbor0,tr13,27947,167682).
route(prodloc14,harbor1,tr0,13596,353496).
route(prodloc14,harbor1,tr13,13596,81576).
route(prodloc14,harbor2,tr0,16931,440206).
route(prodloc14,harbor2,tr13,16931,101586).
route(prodloc14,harbor3,tr0,925,24050).
route(prodloc14,harbor3,tr13,925,5550).
route(prodloc14,harbor4,tr0,23431,609206).
route(prodloc14,harbor4,tr13,23431,140586).
route(prodloc14,harbor5,tr0,27688,719888).
route(prodloc14,harbor5,tr13,27688,166128).
route(prodloc14,prodloc0,tr0,9128,237328).
route(prodloc14,prodloc0,tr13,9128,54768).
route(prodloc14,prodloc1,tr0,674,17524).
route(prodloc14,prodloc1,tr13,674,4044).
route(prodloc14,prodloc2,tr0,5082,132132).
route(prodloc14,prodloc2,tr13,5082,30492).
route(prodloc14,prodloc3,tr0,16108,418808).
route(prodloc14,prodloc3,tr13,16108,96648).
route(prodloc14,prodloc4,tr0,24811,645086).
route(prodloc14,prodloc4,tr13,24811,148866).
route(prodloc14,prodloc5,tr0,28035,728910).
route(prodloc14,prodloc5,tr13,28035,168210).
route(prodloc14,prodloc6,tr0,12009,312234).
route(prodloc14,prodloc6,tr13,12009,72054).
route(prodloc14,prodloc7,tr0,22624,588224).
route(prodloc14,prodloc7,tr13,22624,135744).
route(prodloc14,prodloc8,tr0,3378,87828).
route(prodloc14,prodloc8,tr13,3378,20268).
route(prodloc14,prodloc9,tr0,27634,718484).
route(prodloc14,prodloc9,tr13,27634,165804).
route(prodloc14,prodloc10,tr0,22364,581464).
route(prodloc14,prodloc10,tr15,22364,715648).
route(prodloc14,prodloc11,tr0,26091,678366).
route(prodloc14,prodloc11,tr13,26091,156546).
route(prodloc14,prodloc12,tr0,13988,363688).
route(prodloc14,prodloc12,tr15,13988,447616).
route(prodloc14,prodloc13,tr0,17984,467584).
route(prodloc14,prodloc13,tr13,17984,107904).
hub(harbor2).
hub(harbor4).
hub(prodloc4).
hub(prodloc5).
