% Multibatching benchmark instance
% Source: instances.lp
% seed=4  harbors=6  prodlocs=15  hubs=4  disruptions=2

% ---- locations ----
location(harbor0).
location(harbor1).
location(harbor2).
location(harbor3).
location(harbor4).
location(harbor5).
location(prodloc0).
location(prodloc1).
location(prodloc2).
location(prodloc3).
location(prodloc4).
location(prodloc5).
location(prodloc6).
location(prodloc7).
location(prodloc8).
location(prodloc9).
location(prodloc10).
location(prodloc11).
location(prodloc12).
location(prodloc13).
location(prodloc14).

% ---- transport resources ----
transportCapacity(tr0,1800).
transportCO2(tr0,1680).
transportCost(tr0,26).
transportSpeed(tr0,12).
transportCapacity(tr1,65).
transportCO2(tr1,90).
transportCost(tr1,1).
transportSpeed(tr1,35).
transportCapacity(tr10,1).
transportCO2(tr10,700).
transportCost(tr10,4).
transportSpeed(tr10,40).
transportCapacity(tr11,65).
transportCO2(tr11,62).
transportCost(tr11,1).
transportSpeed(tr11,25).
transportCapacity(tr12,65).
transportCO2(tr12,709).
transportCost(tr12,3).
transportSpeed(tr12,55).
transportCapacity(tr13,68).
transportCO2(tr13,160).
transportCost(tr13,6).
transportSpeed(tr13,25).
transportCapacity(tr14,146).
transportCO2(tr14,780).
transportCost(tr14,4).
transportSpeed(tr14,50).
transportCapacity(tr15,2217).
transportCO2(tr15,49470).
transportCost(tr15,32).
transportSpeed(tr15,625).
transportCapacity(tr2,96).
transportCO2(tr2,709).
transportCost(tr2,3).
transportSpeed(tr2,55).
transportCapacity(tr3,1).
transportCO2(tr3,6250).
transportCost(tr3,108).
transportSpeed(tr3,25).
transportCapacity(tr4,148).
transportCO2(tr4,780).
transportCost(tr4,4).
transportSpeed(tr4,50).
transportCapacity(tr5,65).
transportCO2(tr5,780).
transportCost(tr5,3).
transportSpeed(tr5,50).
transportCapacity(tr6,1).
transportCO2(tr6,100).
transportCost(tr6,40).
transportSpeed(tr6,25).
transportCapacity(tr7,1).
transportCO2(tr7,18000).
transportCost(tr7,278).
transportSpeed(tr7,10).
transportCapacity(tr8,1).
transportCO2(tr8,14400).
transportCost(tr8,107).
transportSpeed(tr8,25).
transportCapacity(tr9,65).
transportCO2(tr9,708).
transportCost(tr9,2).
transportSpeed(tr9,60).

% ---- parts ----
part(part0).
partSize(part0,21).
valid_transport(part0,tr0).
valid_transport(part0,tr15).
valid_transport(part0,tr14).
valid_transport(part0,tr13).
valid_transport(part0,tr4).
part(part1).
partSize(part1,1).
valid_transport(part1,tr0).
valid_transport(part1,tr2).
valid_transport(part1,tr15).
valid_transport(part1,tr9).
valid_transport(part1,tr12).
valid_transport(part1,tr13).
valid_transport(part1,tr11).
part(part10).
partSize(part10,1).
valid_transport(part10,tr0).
valid_transport(part10,tr2).
valid_transport(part10,tr15).
valid_transport(part10,tr9).
valid_transport(part10,tr12).
valid_transport(part10,tr13).
valid_transport(part10,tr11).
part(part11).
partSize(part11,83).
valid_transport(part11,tr0).
valid_transport(part11,tr7).
valid_transport(part11,tr8).
valid_transport(part11,tr15).
valid_transport(part11,tr3).
valid_transport(part11,tr13).
part(part12).
partSize(part12,273).
valid_transport(part12,tr0).
valid_transport(part12,tr7).
valid_transport(part12,tr8).
valid_transport(part12,tr15).
valid_transport(part12,tr3).
valid_transport(part12,tr13).
part(part13).
partSize(part13,1).
valid_transport(part13,tr0).
valid_transport(part13,tr2).
valid_transport(part13,tr15).
valid_transport(part13,tr9).
valid_transport(part13,tr12).
valid_transport(part13,tr13).
valid_transport(part13,tr11).
part(part14).
partSize(part14,68).
valid_transport(part14,tr0).
valid_transport(part14,tr15).
valid_transport(part14,tr13).
part(part15).
partSize(part15,4).
valid_transport(part15,tr0).
valid_transport(part15,tr2).
valid_transport(part15,tr15).
valid_transport(part15,tr9).
valid_transport(part15,tr12).
valid_transport(part15,tr13).
valid_transport(part15,tr11).
part(part16).
partSize(part16,4).
valid_transport(part16,tr0).
valid_transport(part16,tr2).
valid_transport(part16,tr15).
valid_transport(part16,tr9).
valid_transport(part16,tr12).
valid_transport(part16,tr13).
valid_transport(part16,tr11).
part(part17).
partSize(part17,8).
valid_transport(part17,tr0).
valid_transport(part17,tr15).
valid_transport(part17,tr14).
valid_transport(part17,tr13).
valid_transport(part17,tr4).
part(part18).
partSize(part18,24).
valid_transport(part18,tr0).
valid_transport(part18,tr15).
valid_transport(part18,tr14).
valid_transport(part18,tr13).
valid_transport(part18,tr4).
part(part19).
partSize(part19,6).
valid_transport(part19,tr0).
valid_transport(part19,tr2).
valid_transport(part19,tr15).
valid_transport(part19,tr9).
valid_transport(part19,tr12).
valid_transport(part19,tr13).
valid_transport(part19,tr11).
part(part2).
partSize(part2,19).
valid_transport(part2,tr0).
valid_transport(part2,tr15).
valid_transport(part2,tr14).
valid_transport(part2,tr13).
valid_transport(part2,tr4).
part(part20).
partSize(part20,128).
valid_transport(part20,tr0).
valid_transport(part20,tr7).
valid_transport(part20,tr8).
valid_transport(part20,tr15).
valid_transport(part20,tr3).
valid_transport(part20,tr13).
part(part21).
partSize(part21,25).
valid_transport(part21,tr0).
valid_transport(part21,tr15).
valid_transport(part21,tr14).
valid_transport(part21,tr13).
valid_transport(part21,tr4).
part(part22).
partSize(part22,7).
valid_transport(part22,tr0).
valid_transport(part22,tr2).
valid_transport(part22,tr15).
valid_transport(part22,tr9).
valid_transport(part22,tr12).
valid_transport(part22,tr13).
valid_transport(part22,tr11).
part(part23).
partSize(part23,5).
valid_transport(part23,tr0).
valid_transport(part23,tr15).
valid_transport(part23,tr14).
valid_transport(part23,tr13).
valid_transport(part23,tr4).
part(part24).
partSize(part24,55).
valid_transport(part24,tr0).
valid_transport(part24,tr7).
valid_transport(part24,tr8).
valid_transport(part24,tr15).
valid_transport(part24,tr3).
valid_transport(part24,tr13).
part(part25).
partSize(part25,5).
valid_transport(part25,tr0).
valid_transport(part25,tr4).
valid_transport(part25,tr2).
valid_transport(part25,tr15).
valid_transport(part25,tr13).
part(part26).
partSize(part26,32).
valid_transport(part26,tr0).
valid_transport(part26,tr7).
valid_transport(part26,tr8).
valid_transport(part26,tr15).
valid_transport(part26,tr3).
valid_transport(part26,tr13).
part(part27).
partSize(part27,5).
valid_transport(part27,tr0).
valid_transport(part27,tr2).
valid_transport(part27,tr15).
valid_transport(part27,tr9).
valid_transport(part27,tr12).
valid_transport(part27,tr13).
valid_transport(part27,tr11).
part(part28).
partSize(part28,3).
valid_transport(part28,tr0).
valid_transport(part28,tr4).
valid_transport(part28,tr2).
valid_transport(part28,tr15).
valid_transport(part28,tr14).
valid_transport(part28,tr13).
part(part29).
partSize(part29,627).
part(part3).
partSize(part3,48).
valid_transport(part3,tr0).
valid_transport(part3,tr7).
valid_transport(part3,tr8).
valid_transport(part3,tr15).
valid_transport(part3,tr3).
valid_transport(part3,tr13).
part(part30).
partSize(part30,2).
valid_transport(part30,tr0).
valid_transport(part30,tr2).
valid_transport(part30,tr15).
valid_transport(part30,tr9).
valid_transport(part30,tr12).
valid_transport(part30,tr13).
valid_transport(part30,tr11).
part(part31).
partSize(part31,144).
valid_transport(part31,tr0).
valid_transport(part31,tr7).
valid_transport(part31,tr8).
valid_transport(part31,tr15).
valid_transport(part31,tr3).
valid_transport(part31,tr13).
part(part32).
partSize(part32,16).
valid_transport(part32,tr0).
valid_transport(part32,tr4).
valid_transport(part32,tr2).
valid_transport(part32,tr15).
valid_transport(part32,tr14).
valid_transport(part32,tr13).
part(part33).
partSize(part33,7).
valid_transport(part33,tr0).
valid_transport(part33,tr2).
valid_transport(part33,tr15).
valid_transport(part33,tr9).
valid_transport(part33,tr12).
valid_transport(part33,tr13).
valid_transport(part33,tr11).
part(part3345).
partSize(part3345,353).
valid_transport(part3345,tr0).
valid_transport(part3345,tr7).
valid_transport(part3345,tr8).
valid_transport(part3345,tr15).
valid_transport(part3345,tr3).
valid_transport(part3345,tr13).
part(part34).
partSize(part34,2).
valid_transport(part34,tr0).
valid_transport(part34,tr2).
valid_transport(part34,tr15).
valid_transport(part34,tr9).
valid_transport(part34,tr12).
valid_transport(part34,tr13).
valid_transport(part34,tr11).
part(part4).
partSize(part4,2).
valid_transport(part4,tr0).
valid_transport(part4,tr2).
valid_transport(part4,tr15).
valid_transport(part4,tr9).
valid_transport(part4,tr12).
valid_transport(part4,tr13).
valid_transport(part4,tr11).
part(part5).
partSize(part5,2).
valid_transport(part5,tr0).
valid_transport(part5,tr2).
valid_transport(part5,tr15).
valid_transport(part5,tr9).
valid_transport(part5,tr12).
valid_transport(part5,tr14).
valid_transport(part5,tr13).
valid_transport(part5,tr11).
part(part6).
partSize(part6,111).
valid_transport(part6,tr0).
valid_transport(part6,tr7).
valid_transport(part6,tr8).
valid_transport(part6,tr15).
valid_transport(part6,tr3).
valid_transport(part6,tr13).
part(part8).
partSize(part8,163).
valid_transport(part8,tr0).
valid_transport(part8,tr7).
valid_transport(part8,tr8).
valid_transport(part8,tr15).
valid_transport(part8,tr3).
valid_transport(part8,tr13).
part(part9).
partSize(part9,2).
valid_transport(part9,tr0).
valid_transport(part9,tr2).
valid_transport(part9,tr15).
valid_transport(part9,tr9).
valid_transport(part9,tr12).
valid_transport(part9,tr13).
valid_transport(part9,tr11).

% ---- demand ----
demandOffer(part0,prodloc3,40).
demandOffer(part0,prodloc4,40).
demandOffer(part0,prodloc1,-27).
demandOffer(part0,prodloc11,-53).
demandOffer(part1,prodloc6,20).
demandOffer(part1,prodloc7,20).
demandOffer(part1,prodloc2,-20).
demandOffer(part1,prodloc1,-20).
demandOffer(part10,prodloc1,20).
demandOffer(part10,prodloc0,20).
demandOffer(part10,prodloc6,-20).
demandOffer(part10,prodloc8,-20).
demandOffer(part12,prodloc14,10).
demandOffer(part12,prodloc4,20).
demandOffer(part12,prodloc12,-10).
demandOffer(part12,prodloc0,-10).
demandOffer(part12,prodloc3,-10).
demandOffer(part13,prodloc8,20).
demandOffer(part13,prodloc14,20).
demandOffer(part13,prodloc5,-20).
demandOffer(part13,prodloc4,-20).
demandOffer(part14,prodloc12,26).
demandOffer(part14,prodloc2,-26).
demandOffer(part15,prodloc13,53).
demandOffer(part15,prodloc1,27).
demandOffer(part15,prodloc4,-53).
demandOffer(part15,prodloc3,-27).
demandOffer(part16,prodloc14,53).
demandOffer(part16,prodloc0,27).
demandOffer(part16,prodloc10,-53).
demandOffer(part16,prodloc4,-27).
demandOffer(part17,prodloc12,20).
demandOffer(part17,prodloc4,-20).
demandOffer(part18,prodloc3,40).
demandOffer(part18,prodloc2,40).
demandOffer(part18,prodloc4,-27).
demandOffer(part18,prodloc12,-53).
demandOffer(part19,prodloc10,26).
demandOffer(part19,prodloc13,-26).
demandOffer(part2,prodloc11,40).
demandOffer(part2,prodloc13,40).
demandOffer(part2,prodloc5,-27).
demandOffer(part2,prodloc1,-53).
demandOffer(part20,prodloc13,53).
demandOffer(part20,prodloc9,27).
demandOffer(part20,prodloc5,-14).
demandOffer(part20,prodloc10,-46).
demandOffer(part20,prodloc6,-20).
demandOffer(part21,prodloc8,26).
demandOffer(part21,prodloc3,-26).
demandOffer(part22,prodloc2,53).
demandOffer(part22,prodloc3,27).
demandOffer(part22,prodloc7,-53).
demandOffer(part22,prodloc4,-27).
demandOffer(part23,prodloc1,20).
demandOffer(part23,prodloc13,20).
demandOffer(part23,prodloc8,-20).
demandOffer(part23,prodloc4,-20).
demandOffer(part25,prodloc0,20).
demandOffer(part25,prodloc4,-20).
demandOffer(part26,prodloc9,20).
demandOffer(part26,prodloc11,20).
demandOffer(part26,prodloc4,-14).
demandOffer(part26,prodloc8,-26).
demandOffer(part27,prodloc3,53).
demandOffer(part27,prodloc6,27).
demandOffer(part27,prodloc13,-53).
demandOffer(part27,prodloc9,-27).
demandOffer(part28,prodloc4,20).
demandOffer(part28,prodloc6,20).
demandOffer(part28,prodloc7,-20).
demandOffer(part28,prodloc2,-20).
demandOffer(part3,prodloc3,40).
demandOffer(part3,prodloc4,-14).
demandOffer(part3,prodloc13,-26).
demandOffer(part30,prodloc13,40).
demandOffer(part30,prodloc12,40).
demandOffer(part30,prodloc0,-27).
demandOffer(part30,prodloc1,-53).
demandOffer(part31,prodloc0,7).
demandOffer(part31,prodloc7,7).
demandOffer(part31,prodloc10,-14).
demandOffer(part32,prodloc4,53).
demandOffer(part32,prodloc8,27).
demandOffer(part32,prodloc13,-53).
demandOffer(part32,prodloc10,-27).
demandOffer(part33,prodloc7,53).
demandOffer(part33,prodloc11,27).
demandOffer(part33,prodloc5,-53).
demandOffer(part33,prodloc2,-27).
demandOffer(part34,prodloc10,20).
demandOffer(part34,prodloc3,-20).
demandOffer(part4,prodloc1,26).
demandOffer(part4,prodloc6,-26).
demandOffer(part5,prodloc14,20).
demandOffer(part5,prodloc3,-20).
demandOffer(part6,prodloc10,27).
demandOffer(part6,prodloc14,53).
demandOffer(part6,prodloc7,-24).
demandOffer(part6,prodloc4,-36).
demandOffer(part6,prodloc2,-10).
demandOffer(part6,prodloc5,-10).
demandOffer(part8,prodloc6,3).
demandOffer(part8,prodloc11,17).
demandOffer(part8,prodloc9,-10).
demandOffer(part8,prodloc5,-10).
demandOffer(part9,prodloc10,20).
demandOffer(part9,prodloc8,-20).

% ---- network (ASP-generated) ----
route(harbor0,harbor1,tr13,6541,39246).
route(harbor0,harbor1,tr2,6541,19623).
route(harbor0,harbor2,tr13,10631,63786).
route(harbor0,harbor2,tr2,10631,31893).
route(harbor0,harbor3,tr13,3338,20028).
route(harbor0,harbor3,tr2,3338,10014).
route(harbor0,harbor4,tr13,27536,165216).
route(harbor0,harbor4,tr2,27536,82608).
route(harbor0,harbor5,tr13,2048,12288).
route(harbor0,harbor5,tr2,2048,6144).
route(harbor0,prodloc0,tr0,23207,603382).
route(harbor0,prodloc0,tr13,23207,139242).
route(harbor0,prodloc1,tr0,7501,195026).
route(harbor0,prodloc1,tr13,7501,45006).
route(harbor0,prodloc2,tr0,9094,236444).
route(harbor0,prodloc2,tr13,9094,54564).
route(harbor0,prodloc3,tr0,25074,651924).
route(harbor0,prodloc3,tr13,25074,150444).
route(harbor0,prodloc4,tr0,19079,496054).
route(harbor0,prodloc4,tr13,19079,114474).
route(harbor0,prodloc5,tr0,20168,524368).
route(harbor0,prodloc5,tr13,20168,121008).
route(harbor0,prodloc6,tr0,28251,734526).
route(harbor0,prodloc6,tr13,28251,169506).
route(harbor0,prodloc7,tr0,7781,202306).
route(harbor0,prodloc7,tr13,7781,46686).
route(harbor0,prodloc8,tr0,4004,104104).
route(harbor0,prodloc8,tr13,4004,24024).
route(harbor0,prodloc9,tr0,10850,282100).
route(harbor0,prodloc9,tr13,10850,65100).
route(harbor0,prodloc10,tr0,5819,151294).
route(harbor0,prodloc10,tr13,5819,34914).
route(harbor0,prodloc11,tr0,9535,247910).
route(harbor0,prodloc11,tr13,9535,57210).
route(harbor0,prodloc12,tr0,15043,391118).
route(harbor0,prodloc12,tr13,15043,90258).
route(harbor0,prodloc13,tr0,843,21918).
route(harbor0,prodloc13,tr13,843,5058).
route(harbor0,prodloc14,tr0,1404,36504).
route(harbor0,prodloc14,tr13,1404,8424).
route(harbor1,harbor0,tr13,11730,70380).
route(harbor1,harbor0,tr2,11730,35190).
route(harbor1,harbor2,tr13,22878,137268).
route(harbor1,harbor2,tr2,22878,68634).
route(harbor1,harbor3,tr13,2736,16416).
route(harbor1,harbor3,tr2,2736,8208).
route(harbor1,harbor4,tr13,9391,56346).
route(harbor1,harbor4,tr2,9391,28173).
route(harbor1,harbor5,tr13,24110,144660).
route(harbor1,harbor5,tr2,24110,72330).
route(harbor1,prodloc0,tr0,22127,575302).
route(harbor1,prodloc0,tr13,22127,132762).
route(harbor1,prodloc1,tr0,10721,278746).
route(harbor1,prodloc1,tr13,10721,64326).
route(harbor1,prodloc2,tr0,597,15522).
route(harbor1,prodloc2,tr13,597,3582).
route(harbor1,prodloc3,tr0,10579,275054).
route(harbor1,prodloc3,tr13,10579,63474).
route(harbor1,prodloc4,tr0,9471,246246).
route(harbor1,prodloc4,tr13,9471,56826).
route(harbor1,prodloc5,tr0,10542,274092).
route(harbor1,prodloc5,tr13,10542,63252).
route(harbor1,prodloc6,tr0,5012,130312).
route(harbor1,prodloc6,tr13,5012,30072).
route(harbor1,prodloc7,tr0,25405,660530).
route(harbor1,prodloc7,tr13,25405,152430).
route(harbor1,prodloc8,tr0,21364,555464).
route(harbor1,prodloc8,tr13,21364,128184).
route(harbor1,prodloc9,tr0,13450,349700).
route(harbor1,prodloc9,tr13,13450,80700).
route(harbor1,prodloc10,tr0,28227,733902).
route(harbor1,prodloc10,tr13,28227,169362).
route(harbor1,prodloc11,tr0,28493,740818).
route(harbor1,prodloc11,tr13,28493,170958).
route(harbor1,prodloc12,tr0,20334,528684).
route(harbor1,prodloc12,tr13,20334,122004).
route(harbor1,prodloc13,tr0,22285,579410).
route(harbor1,prodloc13,tr13,22285,133710).
route(harbor1,prodloc14,tr0,26803,696878).
route(harbor1,prodloc14,tr13,26803,160818).
route(harbor2,harbor0,tr13,2577,15462).
route(harbor2,harbor0,tr2,2577,7731).
route(harbor2,harbor1,tr13,9644,57864).
route(harbor2,harbor1,tr2,9644,28932).
route(harbor2,harbor3,tr13,20271,121626).
route(harbor2,harbor3,tr2,20271,60813).
route(harbor2,harbor4,tr13,6302,37812).
route(harbor2,harbor4,tr2,6302,18906).
route(harbor2,harbor5,tr13,14583,87498).
route(harbor2,harbor5,tr2,14583,43749).
route(harbor2,prodloc0,tr0,9570,248820).
route(harbor2,prodloc0,tr13,9570,57420).
route(harbor2,prodloc1,tr0,4472,116272).
route(harbor2,prodloc1,tr13,4472,26832).
route(harbor2,prodloc2,tr0,8195,213070).
route(harbor2,prodloc2,tr13,8195,49170).
route(harbor2,prodloc3,tr0,12507,325182).
route(harbor2,prodloc3,tr13,12507,75042).
route(harbor2,prodloc4,tr0,19623,510198).
route(harbor2,prodloc4,tr13,19623,117738).
route(harbor2,prodloc5,tr0,5208,135408).
route(harbor2,prodloc5,tr13,5208,31248).
route(harbor2,prodloc6,tr0,10858,282308).
route(harbor2,prodloc6,tr13,10858,65148).
route(harbor2,prodloc7,tr0,18781,488306).
route(harbor2,prodloc7,tr13,18781,112686).
route(harbor2,prodloc8,tr0,309,8034).
route(harbor2,prodloc8,tr13,309,1854).
route(harbor2,prodloc9,tr0,11907,309582).
route(harbor2,prodloc9,tr13,11907,71442).
route(harbor2,prodloc10,tr0,1469,38194).
route(harbor2,prodloc10,tr13,1469,8814).
route(harbor2,prodloc11,tr0,14904,387504).
route(harbor2,prodloc11,tr13,14904,89424).
route(harbor2,prodloc12,tr0,5558,144508).
route(harbor2,prodloc12,tr13,5558,33348).
route(harbor2,prodloc13,tr0,11968,311168).
route(harbor2,prodloc13,tr13,11968,71808).
route(harbor2,prodloc14,tr0,25683,667758).
route(harbor2,prodloc14,tr13,25683,154098).
route(harbor3,harbor0,tr13,26386,158316).
route(harbor3,harbor0,tr2,26386,79158).
route(harbor3,harbor1,tr13,11915,71490).
route(harbor3,harbor1,tr2,11915,35745).
route(harbor3,harbor2,tr13,9543,57258).
route(harbor3,harbor2,tr2,9543,28629).
route(harbor3,harbor4,tr13,18755,112530).
route(harbor3,harbor4,tr2,18755,56265).
route(harbor3,harbor5,tr13,3211,19266).
route(harbor3,harbor5,tr2,3211,9633).
route(harbor3,prodloc0,tr0,14397,374322).
route(harbor3,prodloc0,tr13,14397,86382).
route(harbor3,prodloc1,tr0,6792,176592).
route(harbor3,prodloc1,tr13,6792,40752).
route(harbor3,prodloc2,tr0,13894,361244).
route(harbor3,prodloc2,tr13,13894,83364).
route(harbor3,prodloc3,tr0,6815,177190).
route(harbor3,prodloc3,tr13,6815,40890).
route(harbor3,prodloc4,tr0,3725,96850).
route(harbor3,prodloc4,tr13,3725,22350).
route(harbor3,prodloc5,tr0,1946,50596).
route(harbor3,prodloc5,tr13,1946,11676).
route(harbor3,prodloc6,tr0,2040,53040).
route(harbor3,prodloc6,tr13,2040,12240).
route(harbor3,prodloc7,tr0,1813,47138).
route(harbor3,prodloc7,tr13,1813,10878).
route(harbor3,prodloc8,tr0,24155,628030).
route(harbor3,prodloc8,tr13,24155,144930).
route(harbor3,prodloc9,tr0,5528,143728).
route(harbor3,prodloc9,tr13,5528,33168).
route(harbor3,prodloc10,tr0,19516,507416).
route(harbor3,prodloc10,tr13,19516,117096).
route(harbor3,prodloc11,tr0,22180,576680).
route(harbor3,prodloc11,tr13,22180,133080).
route(harbor3,prodloc12,tr0,4905,127530).
route(harbor3,prodloc12,tr13,4905,29430).
route(harbor3,prodloc13,tr0,19876,516776).
route(harbor3,prodloc13,tr13,19876,119256).
route(harbor3,prodloc14,tr0,1341,34866).
route(harbor3,prodloc14,tr13,1341,8046).
route(harbor4,harbor0,tr13,17928,107568).
route(harbor4,harbor0,tr2,17928,53784).
route(harbor4,harbor1,tr13,16108,96648).
route(harbor4,harbor1,tr2,16108,48324).
route(harbor4,harbor2,tr13,19122,114732).
route(harbor4,harbor2,tr2,19122,57366).
route(harbor4,harbor3,tr13,8191,49146).
route(harbor4,harbor3,tr2,8191,24573).
route(harbor4,harbor5,tr13,10562,63372).
route(harbor4,harbor5,tr2,10562,31686).
route(harbor4,prodloc0,tr0,1167,30342).
route(harbor4,prodloc0,tr13,1167,7002).
route(harbor4,prodloc1,tr0,4008,104208).
route(harbor4,prodloc1,tr13,4008,24048).
route(harbor4,prodloc2,tr0,27358,711308).
route(harbor4,prodloc2,tr13,27358,164148).
route(harbor4,prodloc3,tr0,17344,450944).
route(harbor4,prodloc3,tr13,17344,104064).
route(harbor4,prodloc4,tr0,9599,249574).
route(harbor4,prodloc4,tr13,9599,57594).
route(harbor4,prodloc5,tr0,25357,659282).
route(harbor4,prodloc5,tr13,25357,152142).
route(harbor4,prodloc6,tr0,13414,348764).
route(harbor4,prodloc6,tr13,13414,80484).
route(harbor4,prodloc7,tr0,21354,555204).
route(harbor4,prodloc7,tr13,21354,128124).
route(harbor4,prodloc8,tr0,6564,170664).
route(harbor4,prodloc8,tr13,6564,39384).
route(harbor4,prodloc9,tr0,15657,407082).
route(harbor4,prodloc9,tr13,15657,93942).
route(harbor4,prodloc10,tr0,6613,171938).
route(harbor4,prodloc10,tr13,6613,39678).
route(harbor4,prodloc11,tr0,7927,206102).
route(harbor4,prodloc11,tr13,7927,47562).
route(harbor4,prodloc12,tr0,14381,373906).
route(harbor4,prodloc12,tr13,14381,86286).
route(harbor4,prodloc13,tr0,13457,349882).
route(harbor4,prodloc13,tr13,13457,80742).
route(harbor4,prodloc14,tr0,16121,419146).
route(harbor4,prodloc14,tr13,16121,96726).
route(harbor5,harbor0,tr13,1238,7428).
route(harbor5,harbor0,tr2,1238,3714).
route(harbor5,harbor1,tr13,7208,43248).
route(harbor5,harbor1,tr2,7208,21624).
route(harbor5,harbor2,tr13,13832,82992).
route(harbor5,harbor2,tr2,13832,41496).
route(harbor5,harbor3,tr13,14562,87372).
route(harbor5,harbor3,tr2,14562,43686).
route(harbor5,harbor4,tr13,8175,49050).
route(harbor5,harbor4,tr2,8175,24525).
route(harbor5,prodloc0,tr0,21217,551642).
route(harbor5,prodloc0,tr13,21217,127302).
route(harbor5,prodloc1,tr0,14021,364546).
route(harbor5,prodloc1,tr13,14021,84126).
route(harbor5,prodloc2,tr0,27233,708058).
route(harbor5,prodloc2,tr13,27233,163398).
route(harbor5,prodloc3,tr0,7070,183820).
route(harbor5,prodloc3,tr13,7070,42420).
route(harbor5,prodloc4,tr0,16339,424814).
route(harbor5,prodloc4,tr13,16339,98034).
route(harbor5,prodloc5,tr0,6152,159952).
route(harbor5,prodloc5,tr13,6152,36912).
route(harbor5,prodloc6,tr0,1039,27014).
route(harbor5,prodloc6,tr13,1039,6234).
route(harbor5,prodloc7,tr0,1208,31408).
route(harbor5,prodloc7,tr13,1208,7248).
route(harbor5,prodloc8,tr0,8337,216762).
route(harbor5,prodloc8,tr13,8337,50022).
route(harbor5,prodloc9,tr0,8304,215904).
route(harbor5,prodloc9,tr13,8304,49824).
route(harbor5,prodloc10,tr0,7944,206544).
route(harbor5,prodloc10,tr13,7944,47664).
route(harbor5,prodloc11,tr0,17227,447902).
route(harbor5,prodloc11,tr13,17227,103362).
route(harbor5,prodloc12,tr0,6819,177294).
route(harbor5,prodloc12,tr13,6819,40914).
route(harbor5,prodloc13,tr0,25309,658034).
route(harbor5,prodloc13,tr13,25309,151854).
route(harbor5,prodloc14,tr0,7586,197236).
route(harbor5,prodloc14,tr13,7586,45516).
route(prodloc0,harbor0,tr0,13670,355420).
route(prodloc0,harbor0,tr13,13670,82020).
route(prodloc0,harbor1,tr0,28500,741000).
route(prodloc0,harbor1,tr13,28500,171000).
route(prodloc0,harbor2,tr0,8576,222976).
route(prodloc0,harbor2,tr13,8576,51456).
route(prodloc0,harbor3,tr0,4645,120770).
route(prodloc0,harbor3,tr13,4645,27870).
route(prodloc0,harbor4,tr0,10652,276952).
route(prodloc0,harbor4,tr13,10652,63912).
route(prodloc0,harbor5,tr0,1682,43732).
route(prodloc0,harbor5,tr13,1682,10092).
route(prodloc0,prodloc1,tr0,10308,268008).
route(prodloc0,prodloc1,tr13,10308,61848).
route(prodloc0,prodloc2,tr0,18527,481702).
route(prodloc0,prodloc2,tr13,18527,111162).
route(prodloc0,prodloc3,tr0,3831,99606).
route(prodloc0,prodloc3,tr13,3831,22986).
route(prodloc0,prodloc4,tr0,18670,485420).
route(prodloc0,prodloc4,tr13,18670,112020).
route(prodloc0,prodloc5,tr0,13206,343356).
route(prodloc0,prodloc5,tr13,13206,79236).
route(prodloc0,prodloc6,tr0,21398,556348).
route(prodloc0,prodloc6,tr13,21398,128388).
route(prodloc0,prodloc7,tr0,21431,557206).
route(prodloc0,prodloc7,tr13,21431,128586).
route(prodloc0,prodloc8,tr0,28539,742014).
route(prodloc0,prodloc8,tr13,28539,171234).
route(prodloc0,prodloc9,tr0,25916,673816).
route(prodloc0,prodloc9,tr13,25916,155496).
route(prodloc0,prodloc10,tr0,23508,611208).
route(prodloc0,prodloc10,tr13,23508,141048).
route(prodloc0,prodloc11,tr0,24405,634530).
route(prodloc0,prodloc11,tr13,24405,146430).
route(prodloc0,prodloc12,tr0,1329,34554).
route(prodloc0,prodloc12,tr13,1329,7974).
route(prodloc0,prodloc13,tr0,16198,421148).
route(prodloc0,prodloc13,tr13,16198,97188).
route(prodloc0,prodloc14,tr0,12698,330148).
route(prodloc0,prodloc14,tr13,12698,76188).
route(prodloc1,harbor0,tr0,3046,79196).
route(prodloc1,harbor0,tr13,3046,18276).
route(prodloc1,harbor1,tr0,14095,366470).
route(prodloc1,harbor1,tr13,14095,84570).
route(prodloc1,harbor2,tr0,6913,179738).
route(prodloc1,harbor2,tr13,6913,41478).
route(prodloc1,harbor3,tr0,28634,744484).
route(prodloc1,harbor3,tr13,28634,171804).
route(prodloc1,harbor4,tr0,18755,487630).
route(prodloc1,harbor4,tr13,18755,112530).
route(prodloc1,harbor5,tr0,5423,140998).
route(prodloc1,harbor5,tr13,5423,32538).
route(prodloc1,prodloc0,tr0,11031,286806).
route(prodloc1,prodloc0,tr13,11031,66186).
route(prodloc1,prodloc2,tr0,9708,252408).
route(prodloc1,prodloc2,tr13,9708,58248).
route(prodloc1,prodloc3,tr0,21527,559702).
route(prodloc1,prodloc3,tr13,21527,129162).
route(prodloc1,prodloc4,tr0,15443,401518).
route(prodloc1,prodloc4,tr13,15443,92658).
route(prodloc1,prodloc5,tr0,26200,681200).
route(prodloc1,prodloc5,tr13,26200,157200).
route(prodloc1,prodloc6,tr13,21055,126330).
route(prodloc1,prodloc6,tr15,21055,673760).
route(prodloc1,prodloc7,tr0,10325,268450).
route(prodloc1,prodloc7,tr13,10325,61950).
route(prodloc1,prodloc8,tr13,26702,160212).
route(prodloc1,prodloc8,tr15,26702,854464).
route(prodloc1,prodloc9,tr0,13764,357864).
route(prodloc1,prodloc9,tr13,13764,82584).
route(prodloc1,prodloc10,tr0,17304,449904).
route(prodloc1,prodloc10,tr13,17304,103824).
route(prodloc1,prodloc11,tr0,7054,183404).
route(prodloc1,prodloc11,tr13,7054,42324).
route(prodloc1,prodloc12,tr0,21456,557856).
route(prodloc1,prodloc12,tr13,21456,128736).
route(prodloc1,prodloc13,tr0,26262,682812).
route(prodloc1,prodloc13,tr13,26262,157572).
route(prodloc1,prodloc14,tr0,22479,584454).
route(prodloc1,prodloc14,tr13,22479,134874).
route(prodloc2,harbor0,tr0,26252,682552).
route(prodloc2,harbor0,tr13,26252,157512).
route(prodloc2,harbor1,tr0,8793,228618).
route(prodloc2,harbor1,tr13,8793,52758).
route(prodloc2,harbor2,tr0,11094,288444).
route(prodloc2,harbor2,tr13,11094,66564).
route(prodloc2,harbor3,tr0,12853,334178).
route(prodloc2,harbor3,tr13,12853,77118).
route(prodloc2,harbor4,tr0,16267,422942).
route(prodloc2,harbor4,tr13,16267,97602).
route(prodloc2,harbor5,tr0,2439,63414).
route(prodloc2,harbor5,tr13,2439,14634).
route(prodloc2,prodloc0,tr0,28136,731536).
route(prodloc2,prodloc0,tr13,28136,168816).
route(prodloc2,prodloc1,tr0,9179,238654).
route(prodloc2,prodloc1,tr13,9179,55074).
route(prodloc2,prodloc3,tr0,20575,534950).
route(prodloc2,prodloc3,tr13,20575,123450).
route(prodloc2,prodloc4,tr0,21902,569452).
route(prodloc2,prodloc4,tr13,21902,131412).
route(prodloc2,prodloc5,tr0,6269,162994).
route(prodloc2,prodloc5,tr13,6269,37614).
route(prodloc2,prodloc6,tr0,1461,37986).
route(prodloc2,prodloc6,tr13,1461,8766).
route(prodloc2,prodloc7,tr0,12938,336388).
route(prodloc2,prodloc7,tr13,12938,77628).
route(prodloc2,prodloc8,tr0,20303,527878).
route(prodloc2,prodloc8,tr13,20303,121818).
route(prodloc2,prodloc9,tr0,4184,108784).
route(prodloc2,prodloc9,tr13,4184,25104).
route(prodloc2,prodloc10,tr0,25129,653354).
route(prodloc2,prodloc10,tr13,25129,150774).
route(prodloc2,prodloc11,tr0,8831,229606).
route(prodloc2,prodloc11,tr13,8831,52986).
route(prodloc2,prodloc12,tr0,21864,568464).
route(prodloc2,prodloc12,tr15,21864,699648).
route(prodloc2,prodloc13,tr0,28061,729586).
route(prodloc2,prodloc13,tr13,28061,168366).
route(prodloc2,prodloc14,tr0,1983,51558).
route(prodloc2,prodloc14,tr13,1983,11898).
route(prodloc3,harbor0,tr0,28512,741312).
route(prodloc3,harbor0,tr13,28512,171072).
route(prodloc3,harbor1,tr0,5482,142532).
route(prodloc3,harbor1,tr13,5482,32892).
route(prodloc3,harbor2,tr0,22541,586066).
route(prodloc3,harbor2,tr13,22541,135246).
route(prodloc3,harbor3,tr0,20815,541190).
route(prodloc3,harbor3,tr13,20815,124890).
route(prodloc3,harbor4,tr0,15225,395850).
route(prodloc3,harbor4,tr13,15225,91350).
route(prodloc3,harbor5,tr0,18653,484978).
route(prodloc3,harbor5,tr13,18653,111918).
route(prodloc3,prodloc0,tr0,15474,402324).
route(prodloc3,prodloc0,tr13,15474,92844).
route(prodloc3,prodloc1,tr0,24463,636038).
route(prodloc3,prodloc1,tr13,24463,146778).
route(prodloc3,prodloc2,tr0,13231,344006).
route(prodloc3,prodloc2,tr13,13231,79386).
route(prodloc3,prodloc5,tr0,7163,186238).
route(prodloc3,prodloc5,tr13,7163,42978).
route(prodloc3,prodloc6,tr0,26151,679926).
route(prodloc3,prodloc6,tr13,26151,156906).
route(prodloc3,prodloc7,tr0,109,2834).
route(prodloc3,prodloc7,tr13,109,654).
route(prodloc3,prodloc8,tr0,6922,179972).
route(prodloc3,prodloc8,tr13,6922,41532).
route(prodloc3,prodloc9,tr13,5138,30828).
route(prodloc3,prodloc9,tr15,5138,164416).
route(prodloc3,prodloc10,tr0,431,11206).
route(prodloc3,prodloc10,tr13,431,2586).
route(prodloc3,prodloc11,tr0,19990,519740).
route(prodloc3,prodloc11,tr13,19990,119940).
route(prodloc3,prodloc12,tr0,28720,746720).
route(prodloc3,prodloc12,tr13,28720,172320).
route(prodloc3,prodloc13,tr0,8434,219284).
route(prodloc3,prodloc13,tr15,8434,269888).
route(prodloc3,prodloc14,tr0,3799,98774).
route(prodloc3,prodloc14,tr13,3799,22794).
route(prodloc4,harbor0,tr0,12971,337246).
route(prodloc4,harbor0,tr13,12971,77826).
route(prodloc4,harbor1,tr0,26539,690014).
route(prodloc4,harbor1,tr13,26539,159234).
route(prodloc4,harbor2,tr0,25225,655850).
route(prodloc4,harbor2,tr13,25225,151350).
route(prodloc4,harbor3,tr0,25658,667108).
route(prodloc4,harbor3,tr13,25658,153948).
route(prodloc4,harbor4,tr0,12489,324714).
route(prodloc4,harbor4,tr13,12489,74934).
route(prodloc4,harbor5,tr0,28768,747968).
route(prodloc4,harbor5,tr13,28768,172608).
route(prodloc4,prodloc0,tr0,7287,189462).
route(prodloc4,prodloc0,tr13,7287,43722).
route(prodloc4,prodloc1,tr0,18044,469144).
route(prodloc4,prodloc1,tr13,18044,108264).
route(prodloc4,prodloc2,tr0,1751,45526).
route(prodloc4,prodloc2,tr15,1751,56032).
route(prodloc4,prodloc3,tr0,28795,748670).
route(prodloc4,prodloc3,tr13,28795,172770).
route(prodloc4,prodloc5,tr0,6610,171860).
route(prodloc4,prodloc5,tr13,6610,39660).
route(prodloc4,prodloc6,tr0,5307,137982).
route(prodloc4,prodloc6,tr13,5307,31842).
route(prodloc4,prodloc7,tr0,22005,572130).
route(prodloc4,prodloc7,tr15,22005,704160).
route(prodloc4,prodloc8,tr0,19934,518284).
route(prodloc4,prodloc8,tr13,19934,119604).
route(prodloc4,prodloc9,tr0,10836,281736).
route(prodloc4,prodloc9,tr13,10836,65016).
route(prodloc4,prodloc10,tr0,26820,697320).
route(prodloc4,prodloc10,tr13,26820,160920).
route(prodloc4,prodloc11,tr0,18429,479154).
route(prodloc4,prodloc11,tr13,18429,110574).
route(prodloc4,prodloc12,tr0,25350,659100).
route(prodloc4,prodloc12,tr15,25350,811200).
route(prodloc4,prodloc13,tr0,25703,668278).
route(prodloc4,prodloc13,tr15,25703,822496).
route(prodloc4,prodloc14,tr0,15452,401752).
route(prodloc4,prodloc14,tr13,15452,92712).
route(prodloc5,harbor0,tr0,17251,448526).
route(prodloc5,harbor0,tr13,17251,103506).
route(prodloc5,harbor1,tr0,14408,374608).
route(prodloc5,harbor1,tr13,14408,86448).
route(prodloc5,harbor2,tr0,866,22516).
route(prodloc5,harbor2,tr13,866,5196).
route(prodloc5,harbor3,tr0,2590,67340).
route(prodloc5,harbor3,tr13,2590,15540).
route(prodloc5,harbor4,tr0,1122,29172).
route(prodloc5,harbor4,tr13,1122,6732).
route(prodloc5,harbor5,tr0,22789,592514).
route(prodloc5,harbor5,tr13,22789,136734).
route(prodloc5,prodloc0,tr0,19482,506532).
route(prodloc5,prodloc0,tr13,19482,116892).
route(prodloc5,prodloc1,tr0,3702,96252).
route(prodloc5,prodloc1,tr13,3702,22212).
route(prodloc5,prodloc2,tr0,16020,416520).
route(prodloc5,prodloc2,tr13,16020,96120).
route(prodloc5,prodloc3,tr0,18378,477828).
route(prodloc5,prodloc3,tr13,18378,110268).
route(prodloc5,prodloc4,tr0,28337,736762).
route(prodloc5,prodloc4,tr13,28337,170022).
route(prodloc5,prodloc6,tr0,8421,218946).
route(prodloc5,prodloc6,tr13,8421,50526).
route(prodloc5,prodloc7,tr0,19929,518154).
route(prodloc5,prodloc7,tr13,19929,119574).
route(prodloc5,prodloc8,tr0,25368,659568).
route(prodloc5,prodloc8,tr13,25368,152208).
route(prodloc5,prodloc9,tr0,4548,118248).
route(prodloc5,prodloc9,tr13,4548,27288).
route(prodloc5,prodloc10,tr0,1357,35282).
route(prodloc5,prodloc10,tr13,1357,8142).
route(prodloc5,prodloc11,tr0,11882,308932).
route(prodloc5,prodloc11,tr13,11882,71292).
route(prodloc5,prodloc12,tr0,2613,67938).
route(prodloc5,prodloc12,tr13,2613,15678).
route(prodloc5,prodloc13,tr0,25154,654004).
route(prodloc5,prodloc13,tr13,25154,150924).
route(prodloc5,prodloc14,tr0,28807,748982).
route(prodloc5,prodloc14,tr13,28807,172842).
route(prodloc6,harbor0,tr0,17139,445614).
route(prodloc6,harbor0,tr13,17139,102834).
route(prodloc6,harbor1,tr0,347,9022).
route(prodloc6,harbor1,tr13,347,2082).
route(prodloc6,harbor2,tr0,9732,253032).
route(prodloc6,harbor2,tr13,9732,58392).
route(prodloc6,harbor3,tr0,27451,713726).
route(prodloc6,harbor3,tr13,27451,164706).
route(prodloc6,harbor4,tr0,11369,295594).
route(prodloc6,harbor4,tr13,11369,68214).
route(prodloc6,harbor5,tr0,27119,705094).
route(prodloc6,harbor5,tr13,27119,162714).
route(prodloc6,prodloc0,tr0,2450,63700).
route(prodloc6,prodloc0,tr13,2450,14700).
route(prodloc6,prodloc1,tr0,2791,72566).
route(prodloc6,prodloc1,tr13,2791,16746).
route(prodloc6,prodloc2,tr0,17807,462982).
route(prodloc6,prodloc2,tr13,17807,106842).
route(prodloc6,prodloc3,tr0,14871,386646).
route(prodloc6,prodloc3,tr13,14871,89226).
route(prodloc6,prodloc4,tr0,12491,324766).
route(prodloc6,prodloc4,tr13,12491,74946).
route(prodloc6,prodloc5,tr13,6730,40380).
route(prodloc6,prodloc5,tr15,6730,215360).
route(prodloc6,prodloc7,tr0,25803,670878).
route(prodloc6,prodloc7,tr13,25803,154818).
route(prodloc6,prodloc8,tr0,10198,265148).
route(prodloc6,prodloc8,tr13,10198,61188).
route(prodloc6,prodloc9,tr0,12736,331136).
route(prodloc6,prodloc9,tr15,12736,407552).
route(prodloc6,prodloc10,tr0,7659,199134).
route(prodloc6,prodloc10,tr13,7659,45954).
route(prodloc6,prodloc11,tr0,24863,646438).
route(prodloc6,prodloc11,tr13,24863,149178).
route(prodloc6,prodloc12,tr0,15948,414648).
route(prodloc6,prodloc12,tr13,15948,95688).
route(prodloc6,prodloc13,tr0,28034,728884).
route(prodloc6,prodloc13,tr15,28034,897088).
route(prodloc6,prodloc14,tr0,13111,340886).
route(prodloc6,prodloc14,tr13,13111,78666).
route(prodloc7,harbor0,tr0,3118,81068).
route(prodloc7,harbor0,tr13,3118,18708).
route(prodloc7,harbor1,tr0,2531,65806).
route(prodloc7,harbor1,tr13,2531,15186).
route(prodloc7,harbor2,tr0,3752,97552).
route(prodloc7,harbor2,tr13,3752,22512).
route(prodloc7,harbor3,tr0,20349,529074).
route(prodloc7,harbor3,tr13,20349,122094).
route(prodloc7,harbor4,tr0,26162,680212).
route(prodloc7,harbor4,tr13,26162,156972).
route(prodloc7,harbor5,tr0,11991,311766).
route(prodloc7,harbor5,tr13,11991,71946).
route(prodloc7,prodloc0,tr0,16794,436644).
route(prodloc7,prodloc0,tr13,16794,100764).
route(prodloc7,prodloc1,tr13,14221,85326).
route(prodloc7,prodloc1,tr15,14221,455072).
route(prodloc7,prodloc2,tr0,13629,354354).
route(prodloc7,prodloc2,tr15,13629,436128).
route(prodloc7,prodloc3,tr0,28111,730886).
route(prodloc7,prodloc3,tr13,28111,168666).
route(prodloc7,prodloc4,tr0,23307,605982).
route(prodloc7,prodloc4,tr13,23307,139842).
route(prodloc7,prodloc5,tr13,25449,152694).
route(prodloc7,prodloc5,tr15,25449,814368).
route(prodloc7,prodloc6,tr0,14558,378508).
route(prodloc7,prodloc6,tr13,14558,87348).
route(prodloc7,prodloc8,tr0,2194,57044).
route(prodloc7,prodloc8,tr13,2194,13164).
route(prodloc7,prodloc9,tr0,20599,535574).
route(prodloc7,prodloc9,tr13,20599,123594).
route(prodloc7,prodloc10,tr0,28881,750906).
route(prodloc7,prodloc10,tr13,28881,173286).
route(prodloc7,prodloc11,tr0,6419,166894).
route(prodloc7,prodloc11,tr13,6419,38514).
route(prodloc7,prodloc12,tr0,20873,542698).
route(prodloc7,prodloc12,tr13,20873,125238).
route(prodloc7,prodloc13,tr0,9907,257582).
route(prodloc7,prodloc13,tr13,9907,59442).
route(prodloc7,prodloc14,tr0,27410,712660).
route(prodloc7,prodloc14,tr13,27410,164460).
route(prodloc8,harbor0,tr0,15687,407862).
route(prodloc8,harbor0,tr13,15687,94122).
route(prodloc8,harbor1,tr0,13845,359970).
route(prodloc8,harbor1,tr13,13845,83070).
route(prodloc8,harbor2,tr0,3874,100724).
route(prodloc8,harbor2,tr13,3874,23244).
route(prodloc8,harbor3,tr0,26162,680212).
route(prodloc8,harbor3,tr13,26162,156972).
route(prodloc8,harbor4,tr0,18296,475696).
route(prodloc8,harbor4,tr13,18296,109776).
route(prodloc8,harbor5,tr0,5486,142636).
route(prodloc8,harbor5,tr13,5486,32916).
route(prodloc8,prodloc0,tr0,12178,316628).
route(prodloc8,prodloc0,tr13,12178,73068).
route(prodloc8,prodloc1,tr0,28650,744900).
route(prodloc8,prodloc1,tr13,28650,171900).
route(prodloc8,prodloc2,tr0,5337,138762).
route(prodloc8,prodloc2,tr13,5337,32022).
route(prodloc8,prodloc3,tr0,5780,150280).
route(prodloc8,prodloc3,tr13,5780,34680).
route(prodloc8,prodloc4,tr0,23159,602134).
route(prodloc8,prodloc4,tr13,23159,138954).
route(prodloc8,prodloc5,tr0,4894,127244).
route(prodloc8,prodloc5,tr13,4894,29364).
route(prodloc8,prodloc6,tr0,10702,278252).
route(prodloc8,prodloc6,tr13,10702,64212).
route(prodloc8,prodloc7,tr0,16197,421122).
route(prodloc8,prodloc7,tr13,16197,97182).
route(prodloc8,prodloc9,tr0,28176,732576).
route(prodloc8,prodloc9,tr13,28176,169056).
route(prodloc8,prodloc10,tr0,11096,288496).
route(prodloc8,prodloc10,tr13,11096,66576).
route(prodloc8,prodloc11,tr0,8476,220376).
route(prodloc8,prodloc11,tr13,8476,50856).
route(prodloc8,prodloc12,tr0,17757,461682).
route(prodloc8,prodloc12,tr13,17757,106542).
route(prodloc8,prodloc13,tr0,161,4186).
route(prodloc8,prodloc13,tr13,161,966).
route(prodloc8,prodloc14,tr0,23284,605384).
route(prodloc8,prodloc14,tr13,23284,139704).
route(prodloc9,harbor0,tr0,5530,143780).
route(prodloc9,harbor0,tr13,5530,33180).
route(prodloc9,harbor1,tr0,184,4784).
route(prodloc9,harbor1,tr13,184,1104).
route(prodloc9,harbor2,tr0,21239,552214).
route(prodloc9,harbor2,tr13,21239,127434).
route(prodloc9,harbor3,tr0,10219,265694).
route(prodloc9,harbor3,tr13,10219,61314).
route(prodloc9,harbor4,tr0,3965,103090).
route(prodloc9,harbor4,tr13,3965,23790).
route(prodloc9,harbor5,tr0,17858,464308).
route(prodloc9,harbor5,tr13,17858,107148).
route(prodloc9,prodloc0,tr0,3633,94458).
route(prodloc9,prodloc0,tr13,3633,21798).
route(prodloc9,prodloc1,tr0,15943,414518).
route(prodloc9,prodloc1,tr13,15943,95658).
route(prodloc9,prodloc2,tr0,25764,669864).
route(prodloc9,prodloc2,tr13,25764,154584).
route(prodloc9,prodloc3,tr0,23450,609700).
route(prodloc9,prodloc3,tr13,23450,140700).
route(prodloc9,prodloc4,tr0,19695,512070).
route(prodloc9,prodloc4,tr13,19695,118170).
route(prodloc9,prodloc5,tr0,15869,412594).
route(prodloc9,prodloc5,tr13,15869,95214).
route(prodloc9,prodloc6,tr0,17248,448448).
route(prodloc9,prodloc6,tr13,17248,103488).
route(prodloc9,prodloc7,tr0,2482,64532).
route(prodloc9,prodloc7,tr13,2482,14892).
route(prodloc9,prodloc8,tr0,17064,443664).
route(prodloc9,prodloc8,tr13,17064,102384).
route(prodloc9,prodloc10,tr0,8044,209144).
route(prodloc9,prodloc10,tr13,8044,48264).
route(prodloc9,prodloc11,tr0,13475,350350).
route(prodloc9,prodloc11,tr13,13475,80850).
route(prodloc9,prodloc12,tr0,27775,722150).
route(prodloc9,prodloc12,tr13,27775,166650).
route(prodloc9,prodloc13,tr0,9617,250042).
route(prodloc9,prodloc13,tr13,9617,57702).
route(prodloc9,prodloc14,tr0,11693,304018).
route(prodloc9,prodloc14,tr13,11693,70158).
route(prodloc10,harbor0,tr0,7512,195312).
route(prodloc10,harbor0,tr13,7512,45072).
route(prodloc10,harbor1,tr0,25124,653224).
route(prodloc10,harbor1,tr13,25124,150744).
route(prodloc10,harbor2,tr0,5913,153738).
route(prodloc10,harbor2,tr13,5913,35478).
route(prodloc10,harbor3,tr0,28311,736086).
route(prodloc10,harbor3,tr13,28311,169866).
route(prodloc10,harbor4,tr0,20537,533962).
route(prodloc10,harbor4,tr13,20537,123222).
route(prodloc10,harbor5,tr0,57,1482).
route(prodloc10,harbor5,tr13,57,342).
route(prodloc10,prodloc0,tr0,22177,576602).
route(prodloc10,prodloc0,tr13,22177,133062).
route(prodloc10,prodloc1,tr0,1736,45136).
route(prodloc10,prodloc1,tr13,1736,10416).
route(prodloc10,prodloc2,tr0,19975,519350).
route(prodloc10,prodloc2,tr15,19975,639200).
route(prodloc10,prodloc3,tr0,10267,266942).
route(prodloc10,prodloc3,tr13,10267,61602).
route(prodloc10,prodloc4,tr0,17830,463580).
route(prodloc10,prodloc4,tr13,17830,106980).
route(prodloc10,prodloc5,tr0,15305,397930).
route(prodloc10,prodloc5,tr15,15305,489760).
route(prodloc10,prodloc6,tr0,25641,666666).
route(prodloc10,prodloc6,tr13,25641,153846).
route(prodloc10,prodloc7,tr0,18625,484250).
route(prodloc10,prodloc7,tr13,18625,111750).
route(prodloc10,prodloc8,tr0,10017,260442).
route(prodloc10,prodloc8,tr13,10017,60102).
route(prodloc10,prodloc9,tr0,28429,739154).
route(prodloc10,prodloc9,tr13,28429,170574).
route(prodloc10,prodloc11,tr0,16604,431704).
route(prodloc10,prodloc11,tr13,16604,99624).
route(prodloc10,prodloc12,tr0,25785,670410).
route(prodloc10,prodloc12,tr13,25785,154710).
route(prodloc10,prodloc13,tr0,14444,375544).
route(prodloc10,prodloc13,tr15,14444,462208).
route(prodloc10,prodloc14,tr0,20088,522288).
route(prodloc10,prodloc14,tr13,20088,120528).
route(prodloc11,harbor0,tr0,20234,526084).
route(prodloc11,harbor0,tr13,20234,121404).
route(prodloc11,harbor1,tr0,14487,376662).
route(prodloc11,harbor1,tr13,14487,86922).
route(prodloc11,harbor2,tr0,12840,333840).
route(prodloc11,harbor2,tr13,12840,77040).
route(prodloc11,harbor3,tr0,4611,119886).
route(prodloc11,harbor3,tr13,4611,27666).
route(prodloc11,harbor4,tr0,8249,214474).
route(prodloc11,harbor4,tr13,8249,49494).
route(prodloc11,harbor5,tr0,25267,656942).
route(prodloc11,harbor5,tr13,25267,151602).
route(prodloc11,prodloc0,tr0,19567,508742).
route(prodloc11,prodloc0,tr13,19567,117402).
route(prodloc11,prodloc1,tr13,11869,71214).
route(prodloc11,prodloc1,tr15,11869,379808).
route(prodloc11,prodloc2,tr0,21697,564122).
route(prodloc11,prodloc2,tr15,21697,694304).
route(prodloc11,prodloc3,tr0,11144,289744).
route(prodloc11,prodloc3,tr13,11144,66864).
route(prodloc11,prodloc4,tr0,4368,113568).
route(prodloc11,prodloc4,tr13,4368,26208).
route(prodloc11,prodloc5,tr13,14203,85218).
route(prodloc11,prodloc5,tr15,14203,454496).
route(prodloc11,prodloc6,tr0,2707,70382).
route(prodloc11,prodloc6,tr13,2707,16242).
route(prodloc11,prodloc7,tr0,19846,515996).
route(prodloc11,prodloc7,tr13,19846,119076).
route(prodloc11,prodloc8,tr0,4718,122668).
route(prodloc11,prodloc8,tr13,4718,28308).
route(prodloc11,prodloc9,tr0,22133,575458).
route(prodloc11,prodloc9,tr13,22133,132798).
route(prodloc11,prodloc10,tr0,26512,689312).
route(prodloc11,prodloc10,tr13,26512,159072).
route(prodloc11,prodloc12,tr0,20387,530062).
route(prodloc11,prodloc12,tr13,20387,122322).
route(prodloc11,prodloc13,tr0,5823,151398).
route(prodloc11,prodloc13,tr13,5823,34938).
route(prodloc11,prodloc14,tr0,9352,243152).
route(prodloc11,prodloc14,tr13,9352,56112).
route(prodloc12,harbor0,tr0,12191,316966).
route(prodloc12,harbor0,tr13,12191,73146).
route(prodloc12,harbor1,tr0,6473,168298).
route(prodloc12,harbor1,tr13,6473,38838).
route(prodloc12,harbor2,tr0,18875,490750).
route(prodloc12,harbor2,tr13,18875,113250).
route(prodloc12,harbor3,tr0,26016,676416).
route(prodloc12,harbor3,tr13,26016,156096).
route(prodloc12,harbor4,tr0,11485,298610).
route(prodloc12,harbor4,tr13,11485,68910).
route(prodloc12,harbor5,tr0,22119,575094).
route(prodloc12,harbor5,tr13,22119,132714).
route(prodloc12,prodloc0,tr0,20345,528970).
route(prodloc12,prodloc0,tr13,20345,122070).
route(prodloc12,prodloc1,tr0,28943,752518).
route(prodloc12,prodloc1,tr13,28943,173658).
route(prodloc12,prodloc2,tr0,3064,79664).
route(prodloc12,prodloc2,tr13,3064,18384).
route(prodloc12,prodloc3,tr0,2527,65702).
route(prodloc12,prodloc3,tr13,2527,15162).
route(prodloc12,prodloc4,tr0,13192,342992).
route(prodloc12,prodloc4,tr13,13192,79152).
route(prodloc12,prodloc5,tr0,21159,550134).
route(prodloc12,prodloc5,tr13,21159,126954).
route(prodloc12,prodloc6,tr0,5889,153114).
route(prodloc12,prodloc6,tr13,5889,35334).
route(prodloc12,prodloc7,tr0,10803,280878).
route(prodloc12,prodloc7,tr13,10803,64818).
route(prodloc12,prodloc8,tr0,21440,557440).
route(prodloc12,prodloc8,tr13,21440,128640).
route(prodloc12,prodloc9,tr0,12188,316888).
route(prodloc12,prodloc9,tr13,12188,73128).
route(prodloc12,prodloc10,tr0,10706,278356).
route(prodloc12,prodloc10,tr13,10706,64236).
route(prodloc12,prodloc11,tr0,5724,148824).
route(prodloc12,prodloc11,tr13,5724,34344).
route(prodloc12,prodloc13,tr0,9851,256126).
route(prodloc12,prodloc13,tr13,9851,59106).
route(prodloc12,prodloc14,tr0,28945,752570).
route(prodloc12,prodloc14,tr13,28945,173670).
route(prodloc13,harbor0,tr0,761,19786).
route(prodloc13,harbor0,tr13,761,4566).
route(prodloc13,harbor1,tr0,19786,514436).
route(prodloc13,harbor1,tr13,19786,118716).
route(prodloc13,harbor2,tr0,660,17160).
route(prodloc13,harbor2,tr13,660,3960).
route(prodloc13,harbor3,tr0,17170,446420).
route(prodloc13,harbor3,tr13,17170,103020).
route(prodloc13,harbor4,tr0,24726,642876).
route(prodloc13,harbor4,tr13,24726,148356).
route(prodloc13,harbor5,tr0,27192,706992).
route(prodloc13,harbor5,tr13,27192,163152).
route(prodloc13,prodloc0,tr0,2908,75608).
route(prodloc13,prodloc0,tr13,2908,17448).
route(prodloc13,prodloc1,tr13,26252,157512).
route(prodloc13,prodloc1,tr15,26252,840064).
route(prodloc13,prodloc2,tr0,11766,305916).
route(prodloc13,prodloc2,tr13,11766,70596).
route(prodloc13,prodloc3,tr0,26453,687778).
route(prodloc13,prodloc3,tr13,26453,158718).
route(prodloc13,prodloc4,tr13,26638,159828).
route(prodloc13,prodloc4,tr15,26638,852416).
route(prodloc13,prodloc5,tr13,3226,19356).
route(prodloc13,prodloc5,tr15,3226,103232).
route(prodloc13,prodloc6,tr0,5194,135044).
route(prodloc13,prodloc6,tr13,5194,31164).
route(prodloc13,prodloc7,tr0,5978,155428).
route(prodloc13,prodloc7,tr13,5978,35868).
route(prodloc13,prodloc8,tr13,19144,114864).
route(prodloc13,prodloc8,tr15,19144,612608).
route(prodloc13,prodloc9,tr0,16230,421980).
route(prodloc13,prodloc9,tr13,16230,97380).
route(prodloc13,prodloc10,tr0,21661,563186).
route(prodloc13,prodloc10,tr13,21661,129966).
route(prodloc13,prodloc11,tr0,18806,488956).
route(prodloc13,prodloc11,tr13,18806,112836).
route(prodloc13,prodloc12,tr0,2521,65546).
route(prodloc13,prodloc12,tr13,2521,15126).
route(prodloc13,prodloc14,tr0,24913,647738).
route(prodloc13,prodloc14,tr13,24913,149478).
route(prodloc14,harbor0,tr0,3830,99580).
route(prodloc14,harbor0,tr13,3830,22980).
route(prodloc14,harbor1,tr0,5638,146588).
route(prodloc14,harbor1,tr13,5638,33828).
route(prodloc14,harbor2,tr0,21352,555152).
route(prodloc14,harbor2,tr13,21352,128112).
route(prodloc14,harbor3,tr0,15702,408252).
route(prodloc14,harbor3,tr13,15702,94212).
route(prodloc14,harbor4,tr0,22133,575458).
route(prodloc14,harbor4,tr13,22133,132798).
route(prodloc14,harbor5,tr0,24420,634920).
route(prodloc14,harbor5,tr13,24420,146520).
route(prodloc14,prodloc0,tr0,7282,189332).
route(prodloc14,prodloc0,tr13,7282,43692).
route(prodloc14,prodloc1,tr0,20248,526448).
route(prodloc14,prodloc1,tr13,20248,121488).
route(prodloc14,prodloc2,tr0,25779,670254).
route(prodloc14,prodloc2,tr15,25779,824928).
route(prodloc14,prodloc3,tr0,27240,708240).
route(prodloc14,prodloc3,tr13,27240,163440).
route(prodloc14,prodloc5,tr0,9926,258076).
route(prodloc14,prodloc5,tr15,9926,317632).
route(prodloc14,prodloc6,tr0,27945,726570).
route(prodloc14,prodloc6,tr13,27945,167670).
route(prodloc14,prodloc7,tr0,22538,585988).
route(prodloc14,prodloc7,tr13,22538,135228).
route(prodloc14,prodloc8,tr0,13309,346034).
route(prodloc14,prodloc8,tr13,13309,79854).
route(prodloc14,prodloc9,tr0,28871,750646).
route(prodloc14,prodloc9,tr13,28871,173226).
route(prodloc14,prodloc10,tr0,19631,510406).
route(prodloc14,prodloc10,tr13,19631,117786).
route(prodloc14,prodloc11,tr0,7782,202332).
route(prodloc14,prodloc11,tr13,7782,46692).
route(prodloc14,prodloc12,tr0,16052,417352).
route(prodloc14,prodloc12,tr15,16052,513664).
route(prodloc14,prodloc13,tr0,23057,599482).
route(prodloc14,prodloc13,tr13,23057,138342).
hub(harbor4).
hub(harbor5).
hub(prodloc5).
hub(prodloc8).
