% Multibatching benchmark instance
% Source: instances.lp
% seed=1  harbors=6  prodlocs=15  hubs=4  disruptions=2

% ---- locations ----
location(harbor0).
location(harbor1).
location(harbor2).
location(harbor3).
location(harbor4).
location(harbor5).
location(prodloc0).
location(prodloc1).
location(prodloc2).
location(prodloc3).
location(prodloc4).
location(prodloc5).
location(prodloc6).
location(prodloc7).
location(prodloc8).
location(prodloc9).
location(prodloc10).
location(prodloc11).
location(prodloc12).
location(prodloc13).
location(prodloc14).

% ---- transport resources ----
transportCapacity(tr0,1800).
transportCO2(tr0,1680).
transportCost(tr0,26).
transportSpeed(tr0,12).
transportCapacity(tr1,65).
transportCO2(tr1,90).
transportCost(tr1,1).
transportSpeed(tr1,35).
transportCapacity(tr10,1).
transportCO2(tr10,700).
transportCost(tr10,4).
transportSpeed(tr10,40).
transportCapacity(tr11,65).
transportCO2(tr11,62).
transportCost(tr11,1).
transportSpeed(tr11,25).
transportCapacity(tr12,65).
transportCO2(tr12,709).
transportCost(tr12,3).
transportSpeed(tr12,55).
transportCapacity(tr13,68).
transportCO2(tr13,160).
transportCost(tr13,6).
transportSpeed(tr13,25).
transportCapacity(tr14,146).
transportCO2(tr14,780).
transportCost(tr14,4).
transportSpeed(tr14,50).
transportCapacity(tr15,2217).
transportCO2(tr15,49470).
transportCost(tr15,32).
transportSpeed(tr15,625).
transportCapacity(tr2,96).
transportCO2(tr2,709).
transportCost(tr2,3).
transportSpeed(tr2,55).
transportCapacity(tr3,1).
transportCO2(tr3,6250).
transportCost(tr3,108).
transportSpeed(tr3,25).
transportCapacity(tr4,148).
transportCO2(tr4,780).
transportCost(tr4,4).
transportSpeed(tr4,50).
transportCapacity(tr5,65).
transportCO2(tr5,780).
transportCost(tr5,3).
transportSpeed(tr5,50).
transportCapacity(tr6,1).
transportCO2(tr6,100).
transportCost(tr6,40).
transportSpeed(tr6,25).
transportCapacity(tr7,1).
transportCO2(tr7,18000).
transportCost(tr7,278).
transportSpeed(tr7,10).
transportCapacity(tr8,1).
transportCO2(tr8,14400).
transportCost(tr8,107).
transportSpeed(tr8,25).
transportCapacity(tr9,65).
transportCO2(tr9,708).
transportCost(tr9,2).
transportSpeed(tr9,60).

% ---- parts ----
part(part0).
partSize(part0,21).
valid_transport(part0,tr0).
valid_transport(part0,tr15).
valid_transport(part0,tr14).
valid_transport(part0,tr13).
valid_transport(part0,tr4).
part(part1).
partSize(part1,1).
valid_transport(part1,tr0).
valid_transport(part1,tr2).
valid_transport(part1,tr15).
valid_transport(part1,tr9).
valid_transport(part1,tr12).
valid_transport(part1,tr13).
valid_transport(part1,tr11).
part(part10).
partSize(part10,1).
valid_transport(part10,tr0).
valid_transport(part10,tr2).
valid_transport(part10,tr15).
valid_transport(part10,tr9).
valid_transport(part10,tr12).
valid_transport(part10,tr13).
valid_transport(part10,tr11).
part(part11).
partSize(part11,83).
valid_transport(part11,tr0).
valid_transport(part11,tr7).
valid_transport(part11,tr8).
valid_transport(part11,tr15).
valid_transport(part11,tr3).
valid_transport(part11,tr13).
part(part12).
partSize(part12,273).
valid_transport(part12,tr0).
valid_transport(part12,tr7).
valid_transport(part12,tr8).
valid_transport(part12,tr15).
valid_transport(part12,tr3).
valid_transport(part12,tr13).
part(part13).
partSize(part13,1).
valid_transport(part13,tr0).
valid_transport(part13,tr2).
valid_transport(part13,tr15).
valid_transport(part13,tr9).
valid_transport(part13,tr12).
valid_transport(part13,tr13).
valid_transport(part13,tr11).
part(part14).
partSize(part14,68).
valid_transport(part14,tr0).
valid_transport(part14,tr15).
valid_transport(part14,tr13).
part(part15).
partSize(part15,4).
valid_transport(part15,tr0).
valid_transport(part15,tr2).
valid_transport(part15,tr15).
valid_transport(part15,tr9).
valid_transport(part15,tr12).
valid_transport(part15,tr13).
valid_transport(part15,tr11).
part(part16).
partSize(part16,4).
valid_transport(part16,tr0).
valid_transport(part16,tr2).
valid_transport(part16,tr15).
valid_transport(part16,tr9).
valid_transport(part16,tr12).
valid_transport(part16,tr13).
valid_transport(part16,tr11).
part(part17).
partSize(part17,8).
valid_transport(part17,tr0).
valid_transport(part17,tr15).
valid_transport(part17,tr14).
valid_transport(part17,tr13).
valid_transport(part17,tr4).
part(part18).
partSize(part18,24).
valid_transport(part18,tr0).
valid_transport(part18,tr15).
valid_transport(part18,tr14).
valid_transport(part18,tr13).
valid_transport(part18,tr4).
part(part19).
partSize(part19,6).
valid_transport(part19,tr0).
valid_transport(part19,tr2).
valid_transport(part19,tr15).
valid_transport(part19,tr9).
valid_transport(part19,tr12).
valid_transport(part19,tr13).
valid_transport(part19,tr11).
part(part2).
partSize(part2,19).
valid_transport(part2,tr0).
valid_transport(part2,tr15).
valid_transport(part2,tr14).
valid_transport(part2,tr13).
valid_transport(part2,tr4).
part(part20).
partSize(part20,128).
valid_transport(part20,tr0).
valid_transport(part20,tr7).
valid_transport(part20,tr8).
valid_transport(part20,tr15).
valid_transport(part20,tr3).
valid_transport(part20,tr13).
part(part21).
partSize(part21,25).
valid_transport(part21,tr0).
valid_transport(part21,tr15).
valid_transport(part21,tr14).
valid_transport(part21,tr13).
valid_transport(part21,tr4).
part(part22).
partSize(part22,7).
valid_transport(part22,tr0).
valid_transport(part22,tr2).
valid_transport(part22,tr15).
valid_transport(part22,tr9).
valid_transport(part22,tr12).
valid_transport(part22,tr13).
valid_transport(part22,tr11).
part(part23).
partSize(part23,5).
valid_transport(part23,tr0).
valid_transport(part23,tr15).
valid_transport(part23,tr14).
valid_transport(part23,tr13).
valid_transport(part23,tr4).
part(part24).
partSize(part24,55).
valid_transport(part24,tr0).
valid_transport(part24,tr7).
valid_transport(part24,tr8).
valid_transport(part24,tr15).
valid_transport(part24,tr3).
valid_transport(part24,tr13).
part(part25).
partSize(part25,5).
valid_transport(part25,tr0).
valid_transport(part25,tr4).
valid_transport(part25,tr2).
valid_transport(part25,tr15).
valid_transport(part25,tr13).
part(part26).
partSize(part26,32).
valid_transport(part26,tr0).
valid_transport(part26,tr7).
valid_transport(part26,tr8).
valid_transport(part26,tr15).
valid_transport(part26,tr3).
valid_transport(part26,tr13).
part(part27).
partSize(part27,5).
valid_transport(part27,tr0).
valid_transport(part27,tr2).
valid_transport(part27,tr15).
valid_transport(part27,tr9).
valid_transport(part27,tr12).
valid_transport(part27,tr13).
valid_transport(part27,tr11).
part(part28).
partSize(part28,3).
valid_transport(part28,tr0).
valid_transport(part28,tr4).
valid_transport(part28,tr2).
valid_transport(part28,tr15).
valid_transport(part28,tr14).
valid_transport(part28,tr13).
part(part29).
partSize(part29,627).
part(part3).
partSize(part3,48).
valid_transport(part3,tr0).
valid_transport(part3,tr7).
valid_transport(part3,tr8).
valid_transport(part3,tr15).
valid_transport(part3,tr3).
valid_transport(part3,tr13).
part(part30).
partSize(part30,2).
valid_transport(part30,tr0).
valid_transport(part30,tr2).
valid_transport(part30,tr15).
valid_transport(part30,tr9).
valid_transport(part30,tr12).
valid_transport(part30,tr13).
valid_transport(part30,tr11).
part(part31).
partSize(part31,144).
valid_transport(part31,tr0).
valid_transport(part31,tr7).
valid_transport(part31,tr8).
valid_transport(part31,tr15).
valid_transport(part31,tr3).
valid_transport(part31,tr13).
part(part32).
partSize(part32,16).
valid_transport(part32,tr0).
valid_transport(part32,tr4).
valid_transport(part32,tr2).
valid_transport(part32,tr15).
valid_transport(part32,tr14).
valid_transport(part32,tr13).
part(part33).
partSize(part33,7).
valid_transport(part33,tr0).
valid_transport(part33,tr2).
valid_transport(part33,tr15).
valid_transport(part33,tr9).
valid_transport(part33,tr12).
valid_transport(part33,tr13).
valid_transport(part33,tr11).
part(part3345).
partSize(part3345,353).
valid_transport(part3345,tr0).
valid_transport(part3345,tr7).
valid_transport(part3345,tr8).
valid_transport(part3345,tr15).
valid_transport(part3345,tr3).
valid_transport(part3345,tr13).
part(part34).
partSize(part34,2).
valid_transport(part34,tr0).
valid_transport(part34,tr2).
valid_transport(part34,tr15).
valid_transport(part34,tr9).
valid_transport(part34,tr12).
valid_transport(part34,tr13).
valid_transport(part34,tr11).
part(part4).
partSize(part4,2).
valid_transport(part4,tr0).
valid_transport(part4,tr2).
valid_transport(part4,tr15).
valid_transport(part4,tr9).
valid_transport(part4,tr12).
valid_transport(part4,tr13).
valid_transport(part4,tr11).
part(part5).
partSize(part5,2).
valid_transport(part5,tr0).
valid_transport(part5,tr2).
valid_transport(part5,tr15).
valid_transport(part5,tr9).
valid_transport(part5,tr12).
valid_transport(part5,tr14).
valid_transport(part5,tr13).
valid_transport(part5,tr11).
part(part6).
partSize(part6,111).
valid_transport(part6,tr0).
valid_transport(part6,tr7).
valid_transport(part6,tr8).
valid_transport(part6,tr15).
valid_transport(part6,tr3).
valid_transport(part6,tr13).
part(part8).
partSize(part8,163).
valid_transport(part8,tr0).
valid_transport(part8,tr7).
valid_transport(part8,tr8).
valid_transport(part8,tr15).
valid_transport(part8,tr3).
valid_transport(part8,tr13).
part(part9).
partSize(part9,2).
valid_transport(part9,tr0).
valid_transport(part9,tr2).
valid_transport(part9,tr15).
valid_transport(part9,tr9).
valid_transport(part9,tr12).
valid_transport(part9,tr13).
valid_transport(part9,tr11).

% ---- demand ----
demandOffer(part0,prodloc2,40).
demandOffer(part0,prodloc9,40).
demandOffer(part0,prodloc12,-27).
demandOffer(part0,prodloc1,-53).
demandOffer(part1,prodloc4,20).
demandOffer(part1,prodloc1,20).
demandOffer(part1,prodloc7,-20).
demandOffer(part1,prodloc12,-20).
demandOffer(part10,prodloc7,20).
demandOffer(part10,prodloc10,20).
demandOffer(part10,prodloc6,-20).
demandOffer(part10,prodloc3,-20).
demandOffer(part12,prodloc1,10).
demandOffer(part12,prodloc7,20).
demandOffer(part12,prodloc0,-10).
demandOffer(part12,prodloc6,-10).
demandOffer(part12,prodloc11,-10).
demandOffer(part13,prodloc9,20).
demandOffer(part13,prodloc12,20).
demandOffer(part13,prodloc13,-20).
demandOffer(part13,prodloc0,-20).
demandOffer(part14,prodloc11,26).
demandOffer(part14,prodloc7,-26).
demandOffer(part15,prodloc4,53).
demandOffer(part15,prodloc11,27).
demandOffer(part15,prodloc12,-53).
demandOffer(part15,prodloc3,-27).
demandOffer(part16,prodloc9,53).
demandOffer(part16,prodloc1,27).
demandOffer(part16,prodloc5,-53).
demandOffer(part16,prodloc0,-27).
demandOffer(part17,prodloc0,20).
demandOffer(part17,prodloc14,-20).
demandOffer(part18,prodloc10,40).
demandOffer(part18,prodloc8,40).
demandOffer(part18,prodloc0,-27).
demandOffer(part18,prodloc6,-53).
demandOffer(part19,prodloc10,26).
demandOffer(part19,prodloc3,-26).
demandOffer(part2,prodloc6,40).
demandOffer(part2,prodloc11,40).
demandOffer(part2,prodloc0,-27).
demandOffer(part2,prodloc8,-53).
demandOffer(part20,prodloc3,53).
demandOffer(part20,prodloc12,27).
demandOffer(part20,prodloc7,-14).
demandOffer(part20,prodloc13,-46).
demandOffer(part20,prodloc8,-20).
demandOffer(part21,prodloc3,26).
demandOffer(part21,prodloc5,-26).
demandOffer(part22,prodloc3,53).
demandOffer(part22,prodloc10,27).
demandOffer(part22,prodloc14,-53).
demandOffer(part22,prodloc7,-27).
demandOffer(part23,prodloc4,20).
demandOffer(part23,prodloc0,20).
demandOffer(part23,prodloc6,-20).
demandOffer(part23,prodloc8,-20).
demandOffer(part25,prodloc14,20).
demandOffer(part25,prodloc10,-20).
demandOffer(part26,prodloc1,20).
demandOffer(part26,prodloc2,20).
demandOffer(part26,prodloc10,-14).
demandOffer(part26,prodloc11,-26).
demandOffer(part27,prodloc13,53).
demandOffer(part27,prodloc4,27).
demandOffer(part27,prodloc1,-53).
demandOffer(part27,prodloc11,-27).
demandOffer(part28,prodloc5,20).
demandOffer(part28,prodloc11,20).
demandOffer(part28,prodloc13,-20).
demandOffer(part28,prodloc8,-20).
demandOffer(part3,prodloc14,40).
demandOffer(part3,prodloc6,-14).
demandOffer(part3,prodloc8,-26).
demandOffer(part30,prodloc13,40).
demandOffer(part30,prodloc10,40).
demandOffer(part30,prodloc3,-27).
demandOffer(part30,prodloc4,-53).
demandOffer(part31,prodloc4,7).
demandOffer(part31,prodloc9,7).
demandOffer(part31,prodloc7,-14).
demandOffer(part32,prodloc13,53).
demandOffer(part32,prodloc8,27).
demandOffer(part32,prodloc6,-53).
demandOffer(part32,prodloc9,-27).
demandOffer(part33,prodloc13,53).
demandOffer(part33,prodloc0,27).
demandOffer(part33,prodloc7,-53).
demandOffer(part33,prodloc3,-27).
demandOffer(part34,prodloc11,20).
demandOffer(part34,prodloc12,-20).
demandOffer(part4,prodloc6,26).
demandOffer(part4,prodloc14,-26).
demandOffer(part5,prodloc10,20).
demandOffer(part5,prodloc2,-20).
demandOffer(part6,prodloc5,27).
demandOffer(part6,prodloc8,53).
demandOffer(part6,prodloc11,-24).
demandOffer(part6,prodloc10,-36).
demandOffer(part6,prodloc14,-10).
demandOffer(part6,prodloc1,-10).
demandOffer(part8,prodloc7,3).
demandOffer(part8,prodloc10,17).
demandOffer(part8,prodloc8,-10).
demandOffer(part8,prodloc1,-10).
demandOffer(part9,prodloc12,20).
demandOffer(part9,prodloc2,-20).

% ---- network (ASP-generated) ----
route(harbor0,harbor1,tr13,17100,102600).
route(harbor0,harbor1,tr2,17100,51300).
route(harbor0,harbor2,tr13,27553,165318).
route(harbor0,harbor2,tr2,27553,82659).
route(harbor0,harbor3,tr13,12916,77496).
route(harbor0,harbor3,tr2,12916,38748).
route(harbor0,harbor4,tr13,12171,73026).
route(harbor0,harbor4,tr2,12171,36513).
route(harbor0,harbor5,tr13,16076,96456).
route(harbor0,harbor5,tr2,16076,48228).
route(harbor0,prodloc0,tr0,24013,624338).
route(harbor0,prodloc0,tr13,24013,144078).
route(harbor0,prodloc1,tr0,971,25246).
route(harbor0,prodloc1,tr13,971,5826).
route(harbor0,prodloc2,tr0,15380,399880).
route(harbor0,prodloc2,tr13,15380,92280).
route(harbor0,prodloc3,tr0,1426,37076).
route(harbor0,prodloc3,tr13,1426,8556).
route(harbor0,prodloc4,tr0,10111,262886).
route(harbor0,prodloc4,tr13,10111,60666).
route(harbor0,prodloc5,tr0,23050,599300).
route(harbor0,prodloc5,tr13,23050,138300).
route(harbor0,prodloc6,tr0,27799,722774).
route(harbor0,prodloc6,tr13,27799,166794).
route(harbor0,prodloc7,tr0,20148,523848).
route(harbor0,prodloc7,tr13,20148,120888).
route(harbor0,prodloc8,tr0,19439,505414).
route(harbor0,prodloc8,tr13,19439,116634).
route(harbor0,prodloc9,tr0,18947,492622).
route(harbor0,prodloc9,tr13,18947,113682).
route(harbor0,prodloc10,tr0,12899,335374).
route(harbor0,prodloc10,tr13,12899,77394).
route(harbor0,prodloc11,tr0,21208,551408).
route(harbor0,prodloc11,tr13,21208,127248).
route(harbor0,prodloc12,tr0,5584,145184).
route(harbor0,prodloc12,tr13,5584,33504).
route(harbor0,prodloc13,tr0,5526,143676).
route(harbor0,prodloc13,tr13,5526,33156).
route(harbor0,prodloc14,tr0,16459,427934).
route(harbor0,prodloc14,tr13,16459,98754).
route(harbor1,harbor0,tr13,7466,44796).
route(harbor1,harbor0,tr2,7466,22398).
route(harbor1,harbor2,tr13,433,2598).
route(harbor1,harbor2,tr2,433,1299).
route(harbor1,harbor3,tr13,25278,151668).
route(harbor1,harbor3,tr2,25278,75834).
route(harbor1,harbor4,tr13,6567,39402).
route(harbor1,harbor4,tr2,6567,19701).
route(harbor1,harbor5,tr13,17712,106272).
route(harbor1,harbor5,tr2,17712,53136).
route(harbor1,prodloc0,tr0,28191,732966).
route(harbor1,prodloc0,tr13,28191,169146).
route(harbor1,prodloc1,tr0,17969,467194).
route(harbor1,prodloc1,tr13,17969,107814).
route(harbor1,prodloc2,tr0,7609,197834).
route(harbor1,prodloc2,tr13,7609,45654).
route(harbor1,prodloc3,tr0,13255,344630).
route(harbor1,prodloc3,tr13,13255,79530).
route(harbor1,prodloc4,tr0,16837,437762).
route(harbor1,prodloc4,tr13,16837,101022).
route(harbor1,prodloc5,tr0,11268,292968).
route(harbor1,prodloc5,tr13,11268,67608).
route(harbor1,prodloc6,tr0,27771,722046).
route(harbor1,prodloc6,tr13,27771,166626).
route(harbor1,prodloc7,tr0,18935,492310).
route(harbor1,prodloc7,tr13,18935,113610).
route(harbor1,prodloc8,tr0,11578,301028).
route(harbor1,prodloc8,tr13,11578,69468).
route(harbor1,prodloc9,tr0,15046,391196).
route(harbor1,prodloc9,tr13,15046,90276).
route(harbor1,prodloc10,tr0,8825,229450).
route(harbor1,prodloc10,tr13,8825,52950).
route(harbor1,prodloc11,tr0,21603,561678).
route(harbor1,prodloc11,tr13,21603,129618).
route(harbor1,prodloc12,tr0,17958,466908).
route(harbor1,prodloc12,tr13,17958,107748).
route(harbor1,prodloc13,tr0,19955,518830).
route(harbor1,prodloc13,tr13,19955,119730).
route(harbor1,prodloc14,tr0,23902,621452).
route(harbor1,prodloc14,tr13,23902,143412).
route(harbor2,harbor0,tr13,217,1302).
route(harbor2,harbor0,tr2,217,651).
route(harbor2,harbor1,tr13,12602,75612).
route(harbor2,harbor1,tr2,12602,37806).
route(harbor2,harbor3,tr13,25708,154248).
route(harbor2,harbor3,tr2,25708,77124).
route(harbor2,harbor4,tr13,28110,168660).
route(harbor2,harbor4,tr2,28110,84330).
route(harbor2,harbor5,tr13,26915,161490).
route(harbor2,harbor5,tr2,26915,80745).
route(harbor2,prodloc0,tr0,24266,630916).
route(harbor2,prodloc0,tr13,24266,145596).
route(harbor2,prodloc1,tr0,16795,436670).
route(harbor2,prodloc1,tr13,16795,100770).
route(harbor2,prodloc2,tr0,26515,689390).
route(harbor2,prodloc2,tr13,26515,159090).
route(harbor2,prodloc3,tr0,4237,110162).
route(harbor2,prodloc3,tr13,4237,25422).
route(harbor2,prodloc4,tr0,16998,441948).
route(harbor2,prodloc4,tr13,16998,101988).
route(harbor2,prodloc5,tr0,25475,662350).
route(harbor2,prodloc5,tr13,25475,152850).
route(harbor2,prodloc6,tr0,18396,478296).
route(harbor2,prodloc6,tr13,18396,110376).
route(harbor2,prodloc7,tr0,6735,175110).
route(harbor2,prodloc7,tr13,6735,40410).
route(harbor2,prodloc8,tr0,13964,363064).
route(harbor2,prodloc8,tr13,13964,83784).
route(harbor2,prodloc9,tr0,1841,47866).
route(harbor2,prodloc9,tr13,1841,11046).
route(harbor2,prodloc10,tr0,15766,409916).
route(harbor2,prodloc10,tr13,15766,94596).
route(harbor2,prodloc11,tr0,28510,741260).
route(harbor2,prodloc11,tr13,28510,171060).
route(harbor2,prodloc12,tr0,11953,310778).
route(harbor2,prodloc12,tr13,11953,71718).
route(harbor2,prodloc13,tr0,18679,485654).
route(harbor2,prodloc13,tr13,18679,112074).
route(harbor2,prodloc14,tr0,18168,472368).
route(harbor2,prodloc14,tr13,18168,109008).
route(harbor3,harbor0,tr13,6578,39468).
route(harbor3,harbor0,tr2,6578,19734).
route(harbor3,harbor1,tr13,16568,99408).
route(harbor3,harbor1,tr2,16568,49704).
route(harbor3,harbor2,tr13,13576,81456).
route(harbor3,harbor2,tr2,13576,40728).
route(harbor3,harbor4,tr13,15920,95520).
route(harbor3,harbor4,tr2,15920,47760).
route(harbor3,harbor5,tr13,26681,160086).
route(harbor3,harbor5,tr2,26681,80043).
route(harbor3,prodloc0,tr0,11693,304018).
route(harbor3,prodloc0,tr13,11693,70158).
route(harbor3,prodloc1,tr0,13581,353106).
route(harbor3,prodloc1,tr13,13581,81486).
route(harbor3,prodloc2,tr0,11342,294892).
route(harbor3,prodloc2,tr13,11342,68052).
route(harbor3,prodloc3,tr0,53,1378).
route(harbor3,prodloc3,tr13,53,318).
route(harbor3,prodloc4,tr0,17646,458796).
route(harbor3,prodloc4,tr13,17646,105876).
route(harbor3,prodloc5,tr0,17700,460200).
route(harbor3,prodloc5,tr13,17700,106200).
route(harbor3,prodloc6,tr0,20432,531232).
route(harbor3,prodloc6,tr13,20432,122592).
route(harbor3,prodloc7,tr0,25772,670072).
route(harbor3,prodloc7,tr13,25772,154632).
route(harbor3,prodloc8,tr0,20070,521820).
route(harbor3,prodloc8,tr13,20070,120420).
route(harbor3,prodloc9,tr0,10852,282152).
route(harbor3,prodloc9,tr13,10852,65112).
route(harbor3,prodloc10,tr0,15014,390364).
route(harbor3,prodloc10,tr13,15014,90084).
route(harbor3,prodloc11,tr0,19658,511108).
route(harbor3,prodloc11,tr13,19658,117948).
route(harbor3,prodloc12,tr0,918,23868).
route(harbor3,prodloc12,tr13,918,5508).
route(harbor3,prodloc13,tr0,26366,685516).
route(harbor3,prodloc13,tr13,26366,158196).
route(harbor3,prodloc14,tr0,7525,195650).
route(harbor3,prodloc14,tr13,7525,45150).
route(harbor4,harbor0,tr13,20849,125094).
route(harbor4,harbor0,tr2,20849,62547).
route(harbor4,harbor1,tr13,5836,35016).
route(harbor4,harbor1,tr2,5836,17508).
route(harbor4,harbor2,tr13,18077,108462).
route(harbor4,harbor2,tr2,18077,54231).
route(harbor4,harbor3,tr13,19181,115086).
route(harbor4,harbor3,tr2,19181,57543).
route(harbor4,harbor5,tr13,5953,35718).
route(harbor4,harbor5,tr2,5953,17859).
route(harbor4,prodloc0,tr0,28215,733590).
route(harbor4,prodloc0,tr13,28215,169290).
route(harbor4,prodloc1,tr0,3003,78078).
route(harbor4,prodloc1,tr13,3003,18018).
route(harbor4,prodloc2,tr0,26165,680290).
route(harbor4,prodloc2,tr13,26165,156990).
route(harbor4,prodloc3,tr0,18058,469508).
route(harbor4,prodloc3,tr13,18058,108348).
route(harbor4,prodloc4,tr0,26121,679146).
route(harbor4,prodloc4,tr13,26121,156726).
route(harbor4,prodloc5,tr0,27896,725296).
route(harbor4,prodloc5,tr13,27896,167376).
route(harbor4,prodloc6,tr0,26755,695630).
route(harbor4,prodloc6,tr13,26755,160530).
route(harbor4,prodloc7,tr0,8367,217542).
route(harbor4,prodloc7,tr13,8367,50202).
route(harbor4,prodloc8,tr0,1065,27690).
route(harbor4,prodloc8,tr13,1065,6390).
route(harbor4,prodloc9,tr0,27584,717184).
route(harbor4,prodloc9,tr13,27584,165504).
route(harbor4,prodloc10,tr0,22058,573508).
route(harbor4,prodloc10,tr13,22058,132348).
route(harbor4,prodloc11,tr0,2310,60060).
route(harbor4,prodloc11,tr13,2310,13860).
route(harbor4,prodloc12,tr0,2729,70954).
route(harbor4,prodloc12,tr13,2729,16374).
route(harbor4,prodloc13,tr0,28447,739622).
route(harbor4,prodloc13,tr13,28447,170682).
route(harbor4,prodloc14,tr0,548,14248).
route(harbor4,prodloc14,tr13,548,3288).
route(harbor5,harbor0,tr13,14873,89238).
route(harbor5,harbor0,tr2,14873,44619).
route(harbor5,harbor1,tr13,507,3042).
route(harbor5,harbor1,tr2,507,1521).
route(harbor5,harbor2,tr13,24741,148446).
route(harbor5,harbor2,tr2,24741,74223).
route(harbor5,harbor3,tr13,24789,148734).
route(harbor5,harbor3,tr2,24789,74367).
route(harbor5,harbor4,tr13,9244,55464).
route(harbor5,harbor4,tr2,9244,27732).
route(harbor5,prodloc0,tr0,8179,212654).
route(harbor5,prodloc0,tr13,8179,49074).
route(harbor5,prodloc1,tr0,8804,228904).
route(harbor5,prodloc1,tr13,8804,52824).
route(harbor5,prodloc2,tr0,3589,93314).
route(harbor5,prodloc2,tr13,3589,21534).
route(harbor5,prodloc3,tr0,26127,679302).
route(harbor5,prodloc3,tr13,26127,156762).
route(harbor5,prodloc4,tr0,20475,532350).
route(harbor5,prodloc4,tr13,20475,122850).
route(harbor5,prodloc5,tr0,6051,157326).
route(harbor5,prodloc5,tr13,6051,36306).
route(harbor5,prodloc6,tr0,11288,293488).
route(harbor5,prodloc6,tr13,11288,67728).
route(harbor5,prodloc7,tr0,9514,247364).
route(harbor5,prodloc7,tr13,9514,57084).
route(harbor5,prodloc8,tr0,2279,59254).
route(harbor5,prodloc8,tr13,2279,13674).
route(harbor5,prodloc9,tr0,5489,142714).
route(harbor5,prodloc9,tr13,5489,32934).
route(harbor5,prodloc10,tr0,5232,136032).
route(harbor5,prodloc10,tr13,5232,31392).
route(harbor5,prodloc11,tr0,8364,217464).
route(harbor5,prodloc11,tr13,8364,50184).
route(harbor5,prodloc12,tr0,17283,449358).
route(harbor5,prodloc12,tr13,17283,103698).
route(harbor5,prodloc13,tr0,5511,143286).
route(harbor5,prodloc13,tr13,5511,33066).
route(harbor5,prodloc14,tr0,21519,559494).
route(harbor5,prodloc14,tr13,21519,129114).
route(prodloc0,harbor0,tr0,8944,232544).
route(prodloc0,harbor0,tr13,8944,53664).
route(prodloc0,harbor1,tr0,21242,552292).
route(prodloc0,harbor1,tr13,21242,127452).
route(prodloc0,harbor2,tr0,23319,606294).
route(prodloc0,harbor2,tr13,23319,139914).
route(prodloc0,harbor3,tr0,9651,250926).
route(prodloc0,harbor3,tr13,9651,57906).
route(prodloc0,harbor4,tr0,14901,387426).
route(prodloc0,harbor4,tr13,14901,89406).
route(prodloc0,harbor5,tr0,23025,598650).
route(prodloc0,harbor5,tr13,23025,138150).
route(prodloc0,prodloc1,tr0,10553,274378).
route(prodloc0,prodloc1,tr13,10553,63318).
route(prodloc0,prodloc2,tr0,16271,423046).
route(prodloc0,prodloc2,tr13,16271,97626).
route(prodloc0,prodloc3,tr0,15526,403676).
route(prodloc0,prodloc3,tr13,15526,93156).
route(prodloc0,prodloc4,tr0,3743,97318).
route(prodloc0,prodloc4,tr13,3743,22458).
route(prodloc0,prodloc5,tr0,776,20176).
route(prodloc0,prodloc5,tr13,776,4656).
route(prodloc0,prodloc6,tr13,10225,61350).
route(prodloc0,prodloc6,tr15,10225,327200).
route(prodloc0,prodloc7,tr0,12668,329368).
route(prodloc0,prodloc7,tr13,12668,76008).
route(prodloc0,prodloc8,tr0,11252,292552).
route(prodloc0,prodloc8,tr13,11252,67512).
route(prodloc0,prodloc9,tr0,13794,358644).
route(prodloc0,prodloc9,tr13,13794,82764).
route(prodloc0,prodloc10,tr0,26091,678366).
route(prodloc0,prodloc10,tr13,26091,156546).
route(prodloc0,prodloc11,tr0,6163,160238).
route(prodloc0,prodloc11,tr13,6163,36978).
route(prodloc0,prodloc12,tr0,8469,220194).
route(prodloc0,prodloc12,tr13,8469,50814).
route(prodloc0,prodloc13,tr0,3565,92690).
route(prodloc0,prodloc13,tr13,3565,21390).
route(prodloc0,prodloc14,tr0,8307,215982).
route(prodloc0,prodloc14,tr13,8307,49842).
route(prodloc1,harbor0,tr0,23927,622102).
route(prodloc1,harbor0,tr13,23927,143562).
route(prodloc1,harbor1,tr0,16717,434642).
route(prodloc1,harbor1,tr13,16717,100302).
route(prodloc1,harbor2,tr0,6853,178178).
route(prodloc1,harbor2,tr13,6853,41118).
route(prodloc1,harbor3,tr0,19847,516022).
route(prodloc1,harbor3,tr13,19847,119082).
route(prodloc1,harbor4,tr0,14146,367796).
route(prodloc1,harbor4,tr13,14146,84876).
route(prodloc1,harbor5,tr0,26774,696124).
route(prodloc1,harbor5,tr13,26774,160644).
route(prodloc1,prodloc0,tr0,684,17784).
route(prodloc1,prodloc0,tr13,684,4104).
route(prodloc1,prodloc2,tr0,7387,192062).
route(prodloc1,prodloc2,tr13,7387,44322).
route(prodloc1,prodloc3,tr0,587,15262).
route(prodloc1,prodloc3,tr13,587,3522).
route(prodloc1,prodloc4,tr0,13021,338546).
route(prodloc1,prodloc4,tr13,13021,78126).
route(prodloc1,prodloc5,tr0,4801,124826).
route(prodloc1,prodloc5,tr13,4801,28806).
route(prodloc1,prodloc6,tr0,1159,30134).
route(prodloc1,prodloc6,tr13,1159,6954).
route(prodloc1,prodloc7,tr0,23556,612456).
route(prodloc1,prodloc7,tr13,23556,141336).
route(prodloc1,prodloc8,tr0,5252,136552).
route(prodloc1,prodloc8,tr13,5252,31512).
route(prodloc1,prodloc9,tr0,14605,379730).
route(prodloc1,prodloc9,tr13,14605,87630).
route(prodloc1,prodloc10,tr0,23090,600340).
route(prodloc1,prodloc10,tr13,23090,138540).
route(prodloc1,prodloc11,tr0,16592,431392).
route(prodloc1,prodloc11,tr13,16592,99552).
route(prodloc1,prodloc12,tr13,22224,133344).
route(prodloc1,prodloc12,tr15,22224,711168).
route(prodloc1,prodloc13,tr0,13982,363532).
route(prodloc1,prodloc13,tr13,13982,83892).
route(prodloc1,prodloc14,tr0,17850,464100).
route(prodloc1,prodloc14,tr13,17850,107100).
route(prodloc2,harbor0,tr0,27273,709098).
route(prodloc2,harbor0,tr13,27273,163638).
route(prodloc2,harbor1,tr0,7230,187980).
route(prodloc2,harbor1,tr13,7230,43380).
route(prodloc2,harbor2,tr0,20671,537446).
route(prodloc2,harbor2,tr13,20671,124026).
route(prodloc2,harbor3,tr0,26144,679744).
route(prodloc2,harbor3,tr13,26144,156864).
route(prodloc2,harbor4,tr0,22777,592202).
route(prodloc2,harbor4,tr13,22777,136662).
route(prodloc2,harbor5,tr0,16929,440154).
route(prodloc2,harbor5,tr13,16929,101574).
route(prodloc2,prodloc0,tr0,14775,384150).
route(prodloc2,prodloc0,tr13,14775,88650).
route(prodloc2,prodloc1,tr0,7315,190190).
route(prodloc2,prodloc1,tr13,7315,43890).
route(prodloc2,prodloc3,tr0,17169,446394).
route(prodloc2,prodloc3,tr13,17169,103014).
route(prodloc2,prodloc4,tr0,21252,552552).
route(prodloc2,prodloc4,tr13,21252,127512).
route(prodloc2,prodloc5,tr0,1007,26182).
route(prodloc2,prodloc5,tr13,1007,6042).
route(prodloc2,prodloc6,tr0,12942,336492).
route(prodloc2,prodloc6,tr13,12942,77652).
route(prodloc2,prodloc7,tr0,22117,575042).
route(prodloc2,prodloc7,tr13,22117,132702).
route(prodloc2,prodloc8,tr0,18871,490646).
route(prodloc2,prodloc8,tr13,18871,113226).
route(prodloc2,prodloc9,tr0,26327,684502).
route(prodloc2,prodloc9,tr13,26327,157962).
route(prodloc2,prodloc10,tr0,10528,273728).
route(prodloc2,prodloc10,tr13,10528,63168).
route(prodloc2,prodloc11,tr0,21623,562198).
route(prodloc2,prodloc11,tr13,21623,129738).
route(prodloc2,prodloc12,tr0,20676,537576).
route(prodloc2,prodloc12,tr15,20676,661632).
route(prodloc2,prodloc13,tr0,13970,363220).
route(prodloc2,prodloc13,tr13,13970,83820).
route(prodloc2,prodloc14,tr0,1928,50128).
route(prodloc2,prodloc14,tr13,1928,11568).
route(prodloc3,harbor0,tr0,24166,628316).
route(prodloc3,harbor0,tr13,24166,144996).
route(prodloc3,harbor1,tr0,9786,254436).
route(prodloc3,harbor1,tr13,9786,58716).
route(prodloc3,harbor2,tr0,4120,107120).
route(prodloc3,harbor2,tr13,4120,24720).
route(prodloc3,harbor3,tr0,6953,180778).
route(prodloc3,harbor3,tr13,6953,41718).
route(prodloc3,harbor4,tr0,28691,745966).
route(prodloc3,harbor4,tr13,28691,172146).
route(prodloc3,harbor5,tr0,1556,40456).
route(prodloc3,harbor5,tr13,1556,9336).
route(prodloc3,prodloc0,tr0,10041,261066).
route(prodloc3,prodloc0,tr13,10041,60246).
route(prodloc3,prodloc1,tr0,2319,60294).
route(prodloc3,prodloc1,tr13,2319,13914).
route(prodloc3,prodloc2,tr0,28133,731458).
route(prodloc3,prodloc2,tr13,28133,168798).
route(prodloc3,prodloc4,tr0,2506,65156).
route(prodloc3,prodloc4,tr13,2506,15036).
route(prodloc3,prodloc5,tr0,10171,264446).
route(prodloc3,prodloc5,tr13,10171,61026).
route(prodloc3,prodloc6,tr0,9762,253812).
route(prodloc3,prodloc6,tr13,9762,58572).
route(prodloc3,prodloc8,tr13,5186,31116).
route(prodloc3,prodloc8,tr15,5186,165952).
route(prodloc3,prodloc9,tr0,13639,354614).
route(prodloc3,prodloc9,tr13,13639,81834).
route(prodloc3,prodloc10,tr0,18513,481338).
route(prodloc3,prodloc10,tr13,18513,111078).
route(prodloc3,prodloc11,tr0,8271,215046).
route(prodloc3,prodloc11,tr13,8271,49626).
route(prodloc3,prodloc12,tr0,4274,111124).
route(prodloc3,prodloc12,tr13,4274,25644).
route(prodloc3,prodloc13,tr0,279,7254).
route(prodloc3,prodloc13,tr15,279,8928).
route(prodloc3,prodloc14,tr0,18375,477750).
route(prodloc3,prodloc14,tr13,18375,110250).
route(prodloc4,harbor0,tr0,28795,748670).
route(prodloc4,harbor0,tr13,28795,172770).
route(prodloc4,harbor1,tr0,27872,724672).
route(prodloc4,harbor1,tr13,27872,167232).
route(prodloc4,harbor2,tr0,1244,32344).
route(prodloc4,harbor2,tr13,1244,7464).
route(prodloc4,harbor3,tr0,19354,503204).
route(prodloc4,harbor3,tr13,19354,116124).
route(prodloc4,harbor4,tr0,26852,698152).
route(prodloc4,harbor4,tr13,26852,161112).
route(prodloc4,harbor5,tr0,7132,185432).
route(prodloc4,harbor5,tr13,7132,42792).
route(prodloc4,prodloc0,tr0,18688,485888).
route(prodloc4,prodloc0,tr13,18688,112128).
route(prodloc4,prodloc1,tr0,15103,392678).
route(prodloc4,prodloc1,tr13,15103,90618).
route(prodloc4,prodloc2,tr0,5622,146172).
route(prodloc4,prodloc2,tr13,5622,33732).
route(prodloc4,prodloc3,tr0,27131,705406).
route(prodloc4,prodloc3,tr13,27131,162786).
route(prodloc4,prodloc5,tr0,28437,739362).
route(prodloc4,prodloc5,tr13,28437,170622).
route(prodloc4,prodloc6,tr13,28506,171036).
route(prodloc4,prodloc6,tr15,28506,912192).
route(prodloc4,prodloc7,tr13,25561,153366).
route(prodloc4,prodloc7,tr15,25561,817952).
route(prodloc4,prodloc8,tr13,23071,138426).
route(prodloc4,prodloc8,tr15,23071,738272).
route(prodloc4,prodloc9,tr0,20415,530790).
route(prodloc4,prodloc9,tr13,20415,122490).
route(prodloc4,prodloc10,tr0,16676,433576).
route(prodloc4,prodloc10,tr13,16676,100056).
route(prodloc4,prodloc11,tr0,1228,31928).
route(prodloc4,prodloc11,tr13,1228,7368).
route(prodloc4,prodloc12,tr13,12387,74322).
route(prodloc4,prodloc12,tr15,12387,396384).
route(prodloc4,prodloc13,tr0,6568,170768).
route(prodloc4,prodloc13,tr13,6568,39408).
route(prodloc4,prodloc14,tr0,11370,295620).
route(prodloc4,prodloc14,tr13,11370,68220).
route(prodloc5,harbor0,tr0,3246,84396).
route(prodloc5,harbor0,tr13,3246,19476).
route(prodloc5,harbor1,tr0,6744,175344).
route(prodloc5,harbor1,tr13,6744,40464).
route(prodloc5,harbor2,tr0,18790,488540).
route(prodloc5,harbor2,tr13,18790,112740).
route(prodloc5,harbor3,tr0,22092,574392).
route(prodloc5,harbor3,tr13,22092,132552).
route(prodloc5,harbor4,tr0,14188,368888).
route(prodloc5,harbor4,tr13,14188,85128).
route(prodloc5,harbor5,tr0,19381,503906).
route(prodloc5,harbor5,tr13,19381,116286).
route(prodloc5,prodloc0,tr0,6362,165412).
route(prodloc5,prodloc0,tr13,6362,38172).
route(prodloc5,prodloc1,tr13,16135,96810).
route(prodloc5,prodloc1,tr15,16135,516320).
route(prodloc5,prodloc2,tr0,3423,88998).
route(prodloc5,prodloc2,tr13,3423,20538).
route(prodloc5,prodloc3,tr0,21824,567424).
route(prodloc5,prodloc3,tr13,21824,130944).
route(prodloc5,prodloc4,tr0,12783,332358).
route(prodloc5,prodloc4,tr13,12783,76698).
route(prodloc5,prodloc6,tr0,9703,252278).
route(prodloc5,prodloc6,tr13,9703,58218).
route(prodloc5,prodloc7,tr0,16520,429520).
route(prodloc5,prodloc7,tr13,16520,99120).
route(prodloc5,prodloc8,tr0,16379,425854).
route(prodloc5,prodloc8,tr13,16379,98274).
route(prodloc5,prodloc9,tr0,565,14690).
route(prodloc5,prodloc9,tr13,565,3390).
route(prodloc5,prodloc10,tr0,10662,277212).
route(prodloc5,prodloc10,tr13,10662,63972).
route(prodloc5,prodloc11,tr0,20060,521560).
route(prodloc5,prodloc11,tr13,20060,120360).
route(prodloc5,prodloc12,tr0,28563,742638).
route(prodloc5,prodloc12,tr13,28563,171378).
route(prodloc5,prodloc13,tr0,13185,342810).
route(prodloc5,prodloc13,tr15,13185,421920).
route(prodloc5,prodloc14,tr0,9221,239746).
route(prodloc5,prodloc14,tr13,9221,55326).
route(prodloc6,harbor0,tr0,594,15444).
route(prodloc6,harbor0,tr13,594,3564).
route(prodloc6,harbor1,tr0,5145,133770).
route(prodloc6,harbor1,tr13,5145,30870).
route(prodloc6,harbor2,tr0,6583,171158).
route(prodloc6,harbor2,tr13,6583,39498).
route(prodloc6,harbor3,tr0,28101,730626).
route(prodloc6,harbor3,tr13,28101,168606).
route(prodloc6,harbor4,tr0,10741,279266).
route(prodloc6,harbor4,tr13,10741,64446).
route(prodloc6,harbor5,tr0,26581,691106).
route(prodloc6,harbor5,tr13,26581,159486).
route(prodloc6,prodloc0,tr0,18461,479986).
route(prodloc6,prodloc0,tr13,18461,110766).
route(prodloc6,prodloc1,tr0,25649,666874).
route(prodloc6,prodloc1,tr13,25649,153894).
route(prodloc6,prodloc2,tr0,4430,115180).
route(prodloc6,prodloc2,tr13,4430,26580).
route(prodloc6,prodloc3,tr0,11113,288938).
route(prodloc6,prodloc3,tr13,11113,66678).
route(prodloc6,prodloc4,tr0,14067,365742).
route(prodloc6,prodloc4,tr13,14067,84402).
route(prodloc6,prodloc5,tr0,6982,181532).
route(prodloc6,prodloc5,tr13,6982,41892).
route(prodloc6,prodloc7,tr0,8735,227110).
route(prodloc6,prodloc7,tr13,8735,52410).
route(prodloc6,prodloc8,tr0,22102,574652).
route(prodloc6,prodloc8,tr13,22102,132612).
route(prodloc6,prodloc9,tr0,3161,82186).
route(prodloc6,prodloc9,tr13,3161,18966).
route(prodloc6,prodloc10,tr0,27451,713726).
route(prodloc6,prodloc10,tr13,27451,164706).
route(prodloc6,prodloc11,tr0,12428,323128).
route(prodloc6,prodloc11,tr13,12428,74568).
route(prodloc6,prodloc12,tr0,17946,466596).
route(prodloc6,prodloc12,tr13,17946,107676).
route(prodloc6,prodloc13,tr0,11269,292994).
route(prodloc6,prodloc13,tr13,11269,67614).
route(prodloc6,prodloc14,tr0,28916,751816).
route(prodloc6,prodloc14,tr13,28916,173496).
route(prodloc7,harbor0,tr0,27451,713726).
route(prodloc7,harbor0,tr13,27451,164706).
route(prodloc7,harbor1,tr0,22517,585442).
route(prodloc7,harbor1,tr13,22517,135102).
route(prodloc7,harbor2,tr0,17510,455260).
route(prodloc7,harbor2,tr13,17510,105060).
route(prodloc7,harbor3,tr0,15878,412828).
route(prodloc7,harbor3,tr13,15878,95268).
route(prodloc7,harbor4,tr0,25166,654316).
route(prodloc7,harbor4,tr13,25166,150996).
route(prodloc7,harbor5,tr0,17451,453726).
route(prodloc7,harbor5,tr13,17451,104706).
route(prodloc7,prodloc0,tr0,7690,199940).
route(prodloc7,prodloc0,tr13,7690,46140).
route(prodloc7,prodloc1,tr0,2142,55692).
route(prodloc7,prodloc1,tr13,2142,12852).
route(prodloc7,prodloc2,tr0,23774,618124).
route(prodloc7,prodloc2,tr13,23774,142644).
route(prodloc7,prodloc3,tr0,1325,34450).
route(prodloc7,prodloc3,tr13,1325,7950).
route(prodloc7,prodloc4,tr0,2776,72176).
route(prodloc7,prodloc4,tr13,2776,16656).
route(prodloc7,prodloc5,tr0,4360,113360).
route(prodloc7,prodloc5,tr13,4360,26160).
route(prodloc7,prodloc6,tr0,5562,144612).
route(prodloc7,prodloc6,tr13,5562,33372).
route(prodloc7,prodloc8,tr13,5459,32754).
route(prodloc7,prodloc8,tr15,5459,174688).
route(prodloc7,prodloc9,tr0,17638,458588).
route(prodloc7,prodloc9,tr13,17638,105828).
route(prodloc7,prodloc10,tr0,6980,181480).
route(prodloc7,prodloc10,tr13,6980,41880).
route(prodloc7,prodloc11,tr13,8784,52704).
route(prodloc7,prodloc11,tr15,8784,281088).
route(prodloc7,prodloc12,tr0,24876,646776).
route(prodloc7,prodloc12,tr13,24876,149256).
route(prodloc7,prodloc13,tr0,10888,283088).
route(prodloc7,prodloc13,tr13,10888,65328).
route(prodloc7,prodloc14,tr0,19669,511394).
route(prodloc7,prodloc14,tr13,19669,118014).
route(prodloc8,harbor0,tr0,16578,431028).
route(prodloc8,harbor0,tr13,16578,99468).
route(prodloc8,harbor1,tr0,27564,716664).
route(prodloc8,harbor1,tr13,27564,165384).
route(prodloc8,harbor2,tr0,8367,217542).
route(prodloc8,harbor2,tr13,8367,50202).
route(prodloc8,harbor3,tr0,12064,313664).
route(prodloc8,harbor3,tr13,12064,72384).
route(prodloc8,harbor4,tr0,11105,288730).
route(prodloc8,harbor4,tr13,11105,66630).
route(prodloc8,harbor5,tr0,11152,289952).
route(prodloc8,harbor5,tr13,11152,66912).
route(prodloc8,prodloc0,tr13,3734,22404).
route(prodloc8,prodloc0,tr15,3734,119488).
route(prodloc8,prodloc1,tr0,9544,248144).
route(prodloc8,prodloc1,tr13,9544,57264).
route(prodloc8,prodloc2,tr0,7708,200408).
route(prodloc8,prodloc2,tr13,7708,46248).
route(prodloc8,prodloc3,tr0,28425,739050).
route(prodloc8,prodloc3,tr13,28425,170550).
route(prodloc8,prodloc4,tr0,19793,514618).
route(prodloc8,prodloc4,tr13,19793,118758).
route(prodloc8,prodloc5,tr0,25545,664170).
route(prodloc8,prodloc5,tr13,25545,153270).
route(prodloc8,prodloc6,tr0,23434,609284).
route(prodloc8,prodloc6,tr13,23434,140604).
route(prodloc8,prodloc7,tr0,16018,416468).
route(prodloc8,prodloc7,tr13,16018,96108).
route(prodloc8,prodloc9,tr0,4437,115362).
route(prodloc8,prodloc9,tr13,4437,26622).
route(prodloc8,prodloc10,tr0,19006,494156).
route(prodloc8,prodloc10,tr13,19006,114036).
route(prodloc8,prodloc11,tr0,18062,469612).
route(prodloc8,prodloc11,tr13,18062,108372).
route(prodloc8,prodloc12,tr0,25241,656266).
route(prodloc8,prodloc12,tr13,25241,151446).
route(prodloc8,prodloc13,tr0,3418,88868).
route(prodloc8,prodloc13,tr13,3418,20508).
route(prodloc8,prodloc14,tr0,10511,273286).
route(prodloc8,prodloc14,tr13,10511,63066).
route(prodloc9,harbor0,tr0,1284,33384).
route(prodloc9,harbor0,tr13,1284,7704).
route(prodloc9,harbor1,tr0,13325,346450).
route(prodloc9,harbor1,tr13,13325,79950).
route(prodloc9,harbor2,tr0,2400,62400).
route(prodloc9,harbor2,tr13,2400,14400).
route(prodloc9,harbor3,tr0,12461,323986).
route(prodloc9,harbor3,tr13,12461,74766).
route(prodloc9,harbor4,tr0,28384,737984).
route(prodloc9,harbor4,tr13,28384,170304).
route(prodloc9,harbor5,tr0,25826,671476).
route(prodloc9,harbor5,tr13,25826,154956).
route(prodloc9,prodloc0,tr0,4829,125554).
route(prodloc9,prodloc0,tr13,4829,28974).
route(prodloc9,prodloc1,tr13,27150,162900).
route(prodloc9,prodloc1,tr15,27150,868800).
route(prodloc9,prodloc2,tr0,4098,106548).
route(prodloc9,prodloc2,tr13,4098,24588).
route(prodloc9,prodloc3,tr0,11172,290472).
route(prodloc9,prodloc3,tr13,11172,67032).
route(prodloc9,prodloc4,tr0,3760,97760).
route(prodloc9,prodloc4,tr13,3760,22560).
route(prodloc9,prodloc5,tr13,20160,120960).
route(prodloc9,prodloc5,tr15,20160,645120).
route(prodloc9,prodloc6,tr0,19250,500500).
route(prodloc9,prodloc6,tr13,19250,115500).
route(prodloc9,prodloc7,tr13,25623,153738).
route(prodloc9,prodloc7,tr15,25623,819936).
route(prodloc9,prodloc8,tr0,12389,322114).
route(prodloc9,prodloc8,tr13,12389,74334).
route(prodloc9,prodloc10,tr0,2513,65338).
route(prodloc9,prodloc10,tr13,2513,15078).
route(prodloc9,prodloc11,tr0,18705,486330).
route(prodloc9,prodloc11,tr13,18705,112230).
route(prodloc9,prodloc12,tr0,18033,468858).
route(prodloc9,prodloc12,tr13,18033,108198).
route(prodloc9,prodloc13,tr0,7332,190632).
route(prodloc9,prodloc13,tr15,7332,234624).
route(prodloc9,prodloc14,tr0,18547,482222).
route(prodloc9,prodloc14,tr13,18547,111282).
route(prodloc10,harbor0,tr0,2680,69680).
route(prodloc10,harbor0,tr13,2680,16080).
route(prodloc10,harbor1,tr0,8742,227292).
route(prodloc10,harbor1,tr13,8742,52452).
route(prodloc10,harbor2,tr0,11958,310908).
route(prodloc10,harbor2,tr13,11958,71748).
route(prodloc10,harbor3,tr0,9686,251836).
route(prodloc10,harbor3,tr13,9686,58116).
route(prodloc10,harbor4,tr0,18497,480922).
route(prodloc10,harbor4,tr13,18497,110982).
route(prodloc10,harbor5,tr0,17509,455234).
route(prodloc10,harbor5,tr13,17509,105054).
route(prodloc10,prodloc0,tr0,3747,97422).
route(prodloc10,prodloc0,tr13,3747,22482).
route(prodloc10,prodloc1,tr0,15002,390052).
route(prodloc10,prodloc1,tr13,15002,90012).
route(prodloc10,prodloc2,tr0,9084,236184).
route(prodloc10,prodloc2,tr13,9084,54504).
route(prodloc10,prodloc4,tr0,25790,670540).
route(prodloc10,prodloc4,tr13,25790,154740).
route(prodloc10,prodloc5,tr0,1501,39026).
route(prodloc10,prodloc5,tr13,1501,9006).
route(prodloc10,prodloc6,tr0,27126,705276).
route(prodloc10,prodloc6,tr13,27126,162756).
route(prodloc10,prodloc7,tr0,9692,251992).
route(prodloc10,prodloc7,tr13,9692,58152).
route(prodloc10,prodloc8,tr0,407,10582).
route(prodloc10,prodloc8,tr13,407,2442).
route(prodloc10,prodloc9,tr0,20110,522860).
route(prodloc10,prodloc9,tr13,20110,120660).
route(prodloc10,prodloc11,tr0,21970,571220).
route(prodloc10,prodloc11,tr13,21970,131820).
route(prodloc10,prodloc12,tr0,478,12428).
route(prodloc10,prodloc12,tr13,478,2868).
route(prodloc10,prodloc13,tr0,3006,78156).
route(prodloc10,prodloc13,tr13,3006,18036).
route(prodloc10,prodloc14,tr0,13552,352352).
route(prodloc10,prodloc14,tr13,13552,81312).
route(prodloc11,harbor0,tr0,3773,98098).
route(prodloc11,harbor0,tr13,3773,22638).
route(prodloc11,harbor1,tr0,27072,703872).
route(prodloc11,harbor1,tr13,27072,162432).
route(prodloc11,harbor2,tr0,25884,672984).
route(prodloc11,harbor2,tr13,25884,155304).
route(prodloc11,harbor3,tr0,1313,34138).
route(prodloc11,harbor3,tr13,1313,7878).
route(prodloc11,harbor4,tr0,6159,160134).
route(prodloc11,harbor4,tr13,6159,36954).
route(prodloc11,harbor5,tr0,7854,204204).
route(prodloc11,harbor5,tr13,7854,47124).
route(prodloc11,prodloc0,tr0,25741,669266).
route(prodloc11,prodloc0,tr13,25741,154446).
route(prodloc11,prodloc1,tr0,19230,499980).
route(prodloc11,prodloc1,tr13,19230,115380).
route(prodloc11,prodloc2,tr0,13797,358722).
route(prodloc11,prodloc2,tr13,13797,82782).
route(prodloc11,prodloc3,tr0,5311,138086).
route(prodloc11,prodloc3,tr13,5311,31866).
route(prodloc11,prodloc4,tr0,3788,98488).
route(prodloc11,prodloc4,tr13,3788,22728).
route(prodloc11,prodloc5,tr0,14777,384202).
route(prodloc11,prodloc5,tr13,14777,88662).
route(prodloc11,prodloc6,tr0,5486,142636).
route(prodloc11,prodloc6,tr13,5486,32916).
route(prodloc11,prodloc7,tr0,22313,580138).
route(prodloc11,prodloc7,tr13,22313,133878).
route(prodloc11,prodloc8,tr13,7912,47472).
route(prodloc11,prodloc8,tr15,7912,253184).
route(prodloc11,prodloc9,tr0,5210,135460).
route(prodloc11,prodloc9,tr13,5210,31260).
route(prodloc11,prodloc10,tr0,24381,633906).
route(prodloc11,prodloc10,tr13,24381,146286).
route(prodloc11,prodloc12,tr13,27691,166146).
route(prodloc11,prodloc12,tr15,27691,886112).
route(prodloc11,prodloc13,tr0,3371,87646).
route(prodloc11,prodloc13,tr15,3371,107872).
route(prodloc11,prodloc14,tr0,14259,370734).
route(prodloc11,prodloc14,tr13,14259,85554).
route(prodloc12,harbor0,tr0,12397,322322).
route(prodloc12,harbor0,tr13,12397,74382).
route(prodloc12,harbor1,tr0,26428,687128).
route(prodloc12,harbor1,tr13,26428,158568).
route(prodloc12,harbor2,tr0,17792,462592).
route(prodloc12,harbor2,tr13,17792,106752).
route(prodloc12,harbor3,tr0,26817,697242).
route(prodloc12,harbor3,tr13,26817,160902).
route(prodloc12,harbor4,tr0,9636,250536).
route(prodloc12,harbor4,tr13,9636,57816).
route(prodloc12,harbor5,tr0,18031,468806).
route(prodloc12,harbor5,tr13,18031,108186).
route(prodloc12,prodloc0,tr0,8305,215930).
route(prodloc12,prodloc0,tr13,8305,49830).
route(prodloc12,prodloc1,tr0,23320,606320).
route(prodloc12,prodloc1,tr13,23320,139920).
route(prodloc12,prodloc2,tr0,15632,406432).
route(prodloc12,prodloc2,tr13,15632,93792).
route(prodloc12,prodloc3,tr0,10306,267956).
route(prodloc12,prodloc3,tr13,10306,61836).
route(prodloc12,prodloc4,tr0,3283,85358).
route(prodloc12,prodloc4,tr13,3283,19698).
route(prodloc12,prodloc5,tr0,6805,176930).
route(prodloc12,prodloc5,tr13,6805,40830).
route(prodloc12,prodloc6,tr0,21368,555568).
route(prodloc12,prodloc6,tr13,21368,128208).
route(prodloc12,prodloc7,tr0,10403,270478).
route(prodloc12,prodloc7,tr13,10403,62418).
route(prodloc12,prodloc8,tr0,1300,33800).
route(prodloc12,prodloc8,tr15,1300,41600).
route(prodloc12,prodloc9,tr0,895,23270).
route(prodloc12,prodloc9,tr13,895,5370).
route(prodloc12,prodloc10,tr0,346,8996).
route(prodloc12,prodloc10,tr13,346,2076).
route(prodloc12,prodloc11,tr0,25785,670410).
route(prodloc12,prodloc11,tr13,25785,154710).
route(prodloc12,prodloc13,tr0,9686,251836).
route(prodloc12,prodloc13,tr15,9686,309952).
route(prodloc12,prodloc14,tr0,23807,618982).
route(prodloc12,prodloc14,tr13,23807,142842).
route(prodloc13,harbor0,tr0,19550,508300).
route(prodloc13,harbor0,tr13,19550,117300).
route(prodloc13,harbor1,tr0,10495,272870).
route(prodloc13,harbor1,tr13,10495,62970).
route(prodloc13,harbor2,tr0,14742,383292).
route(prodloc13,harbor2,tr13,14742,88452).
route(prodloc13,harbor3,tr0,12823,333398).
route(prodloc13,harbor3,tr13,12823,76938).
route(prodloc13,harbor4,tr0,10267,266942).
route(prodloc13,harbor4,tr13,10267,61602).
route(prodloc13,harbor5,tr0,13061,339586).
route(prodloc13,harbor5,tr13,13061,78366).
route(prodloc13,prodloc0,tr0,2065,53690).
route(prodloc13,prodloc0,tr13,2065,12390).
route(prodloc13,prodloc1,tr13,2105,12630).
route(prodloc13,prodloc1,tr15,2105,67360).
route(prodloc13,prodloc2,tr0,10400,270400).
route(prodloc13,prodloc2,tr13,10400,62400).
route(prodloc13,prodloc3,tr0,19710,512460).
route(prodloc13,prodloc3,tr13,19710,118260).
route(prodloc13,prodloc4,tr13,14939,89634).
route(prodloc13,prodloc4,tr15,14939,478048).
route(prodloc13,prodloc5,tr0,3651,94926).
route(prodloc13,prodloc5,tr13,3651,21906).
route(prodloc13,prodloc6,tr0,8196,213096).
route(prodloc13,prodloc6,tr13,8196,49176).
route(prodloc13,prodloc7,tr0,7053,183378).
route(prodloc13,prodloc7,tr15,7053,225696).
route(prodloc13,prodloc8,tr0,25729,668954).
route(prodloc13,prodloc8,tr13,25729,154374).
route(prodloc13,prodloc9,tr0,20246,526396).
route(prodloc13,prodloc9,tr13,20246,121476).
route(prodloc13,prodloc10,tr0,25492,662792).
route(prodloc13,prodloc10,tr13,25492,152952).
route(prodloc13,prodloc11,tr13,17792,106752).
route(prodloc13,prodloc11,tr15,17792,569344).
route(prodloc13,prodloc12,tr0,28431,739206).
route(prodloc13,prodloc12,tr13,28431,170586).
route(prodloc13,prodloc14,tr0,22552,586352).
route(prodloc13,prodloc14,tr13,22552,135312).
route(prodloc14,harbor0,tr0,15367,399542).
route(prodloc14,harbor0,tr13,15367,92202).
route(prodloc14,harbor1,tr0,21688,563888).
route(prodloc14,harbor1,tr13,21688,130128).
route(prodloc14,harbor2,tr0,11661,303186).
route(prodloc14,harbor2,tr13,11661,69966).
route(prodloc14,harbor3,tr0,8491,220766).
route(prodloc14,harbor3,tr13,8491,50946).
route(prodloc14,harbor4,tr0,6005,156130).
route(prodloc14,harbor4,tr13,6005,36030).
route(prodloc14,harbor5,tr0,17749,461474).
route(prodloc14,harbor5,tr13,17749,106494).
route(prodloc14,prodloc0,tr0,6812,177112).
route(prodloc14,prodloc0,tr13,6812,40872).
route(prodloc14,prodloc1,tr0,10072,261872).
route(prodloc14,prodloc1,tr13,10072,60432).
route(prodloc14,prodloc2,tr0,6529,169754).
route(prodloc14,prodloc2,tr13,6529,39174).
route(prodloc14,prodloc3,tr0,8075,209950).
route(prodloc14,prodloc3,tr13,8075,48450).
route(prodloc14,prodloc4,tr0,11813,307138).
route(prodloc14,prodloc4,tr13,11813,70878).
route(prodloc14,prodloc5,tr0,2668,69368).
route(prodloc14,prodloc5,tr13,2668,16008).
route(prodloc14,prodloc6,tr0,26871,698646).
route(prodloc14,prodloc6,tr13,26871,161226).
route(prodloc14,prodloc7,tr0,9202,239252).
route(prodloc14,prodloc7,tr13,9202,55212).
route(prodloc14,prodloc8,tr13,2931,17586).
route(prodloc14,prodloc8,tr15,2931,93792).
route(prodloc14,prodloc9,tr0,24685,641810).
route(prodloc14,prodloc9,tr13,24685,148110).
route(prodloc14,prodloc10,tr0,14678,381628).
route(prodloc14,prodloc10,tr13,14678,88068).
route(prodloc14,prodloc11,tr0,2967,77142).
route(prodloc14,prodloc11,tr13,2967,17802).
route(prodloc14,prodloc12,tr0,21367,555542).
route(prodloc14,prodloc12,tr13,21367,128202).
route(prodloc14,prodloc13,tr0,18822,489372).
route(prodloc14,prodloc13,tr13,18822,112932).
hub(harbor4).
hub(prodloc3).
hub(prodloc5).
hub(prodloc6).
