% Multibatching benchmark instance
% Source: instances.lp
% seed=19  harbors=6  prodlocs=15  hubs=4  disruptions=2

% ---- locations ----
location(harbor0).
location(harbor1).
location(harbor2).
location(harbor3).
location(harbor4).
location(harbor5).
location(prodloc0).
location(prodloc1).
location(prodloc2).
location(prodloc3).
location(prodloc4).
location(prodloc5).
location(prodloc6).
location(prodloc7).
location(prodloc8).
location(prodloc9).
location(prodloc10).
location(prodloc11).
location(prodloc12).
location(prodloc13).
location(prodloc14).

% ---- transport resources ----
transportCapacity(tr0,1800).
transportCO2(tr0,1680).
transportCost(tr0,26).
transportSpeed(tr0,12).
transportCapacity(tr1,65).
transportCO2(tr1,90).
transportCost(tr1,1).
transportSpeed(tr1,35).
transportCapacity(tr10,1).
transportCO2(tr10,700).
transportCost(tr10,4).
transportSpeed(tr10,40).
transportCapacity(tr11,65).
transportCO2(tr11,62).
transportCost(tr11,1).
transportSpeed(tr11,25).
transportCapacity(tr12,65).
transportCO2(tr12,709).
transportCost(tr12,3).
transportSpeed(tr12,55).
transportCapacity(tr13,68).
transportCO2(tr13,160).
transportCost(tr13,6).
transportSpeed(tr13,25).
transportCapacity(tr14,146).
transportCO2(tr14,780).
transportCost(tr14,4).
transportSpeed(tr14,50).
transportCapacity(tr15,2217).
transportCO2(tr15,49470).
transportCost(tr15,32).
transportSpeed(tr15,625).
transportCapacity(tr2,96).
transportCO2(tr2,709).
transportCost(tr2,3).
transportSpeed(tr2,55).
transportCapacity(tr3,1).
transportCO2(tr3,6250).
transportCost(tr3,108).
transportSpeed(tr3,25).
transportCapacity(tr4,148).
transportCO2(tr4,780).
transportCost(tr4,4).
transportSpeed(tr4,50).
transportCapacity(tr5,65).
transportCO2(tr5,780).
transportCost(tr5,3).
transportSpeed(tr5,50).
transportCapacity(tr6,1).
transportCO2(tr6,100).
transportCost(tr6,40).
transportSpeed(tr6,25).
transportCapacity(tr7,1).
transportCO2(tr7,18000).
transportCost(tr7,278).
transportSpeed(tr7,10).
transportCapacity(tr8,1).
transportCO2(tr8,14400).
transportCost(tr8,107).
transportSpeed(tr8,25).
transportCapacity(tr9,65).
transportCO2(tr9,708).
transportCost(tr9,2).
transportSpeed(tr9,60).

% ---- parts ----
part(part0).
partSize(part0,21).
valid_transport(part0,tr0).
valid_transport(part0,tr15).
valid_transport(part0,tr14).
valid_transport(part0,tr13).
valid_transport(part0,tr4).
part(part1).
partSize(part1,1).
valid_transport(part1,tr0).
valid_transport(part1,tr2).
valid_transport(part1,tr15).
valid_transport(part1,tr9).
valid_transport(part1,tr12).
valid_transport(part1,tr13).
valid_transport(part1,tr11).
part(part10).
partSize(part10,1).
valid_transport(part10,tr0).
valid_transport(part10,tr2).
valid_transport(part10,tr15).
valid_transport(part10,tr9).
valid_transport(part10,tr12).
valid_transport(part10,tr13).
valid_transport(part10,tr11).
part(part11).
partSize(part11,83).
valid_transport(part11,tr0).
valid_transport(part11,tr7).
valid_transport(part11,tr8).
valid_transport(part11,tr15).
valid_transport(part11,tr3).
valid_transport(part11,tr13).
part(part12).
partSize(part12,273).
valid_transport(part12,tr0).
valid_transport(part12,tr7).
valid_transport(part12,tr8).
valid_transport(part12,tr15).
valid_transport(part12,tr3).
valid_transport(part12,tr13).
part(part13).
partSize(part13,1).
valid_transport(part13,tr0).
valid_transport(part13,tr2).
valid_transport(part13,tr15).
valid_transport(part13,tr9).
valid_transport(part13,tr12).
valid_transport(part13,tr13).
valid_transport(part13,tr11).
part(part14).
partSize(part14,68).
valid_transport(part14,tr0).
valid_transport(part14,tr15).
valid_transport(part14,tr13).
part(part15).
partSize(part15,4).
valid_transport(part15,tr0).
valid_transport(part15,tr2).
valid_transport(part15,tr15).
valid_transport(part15,tr9).
valid_transport(part15,tr12).
valid_transport(part15,tr13).
valid_transport(part15,tr11).
part(part16).
partSize(part16,4).
valid_transport(part16,tr0).
valid_transport(part16,tr2).
valid_transport(part16,tr15).
valid_transport(part16,tr9).
valid_transport(part16,tr12).
valid_transport(part16,tr13).
valid_transport(part16,tr11).
part(part17).
partSize(part17,8).
valid_transport(part17,tr0).
valid_transport(part17,tr15).
valid_transport(part17,tr14).
valid_transport(part17,tr13).
valid_transport(part17,tr4).
part(part18).
partSize(part18,24).
valid_transport(part18,tr0).
valid_transport(part18,tr15).
valid_transport(part18,tr14).
valid_transport(part18,tr13).
valid_transport(part18,tr4).
part(part19).
partSize(part19,6).
valid_transport(part19,tr0).
valid_transport(part19,tr2).
valid_transport(part19,tr15).
valid_transport(part19,tr9).
valid_transport(part19,tr12).
valid_transport(part19,tr13).
valid_transport(part19,tr11).
part(part2).
partSize(part2,19).
valid_transport(part2,tr0).
valid_transport(part2,tr15).
valid_transport(part2,tr14).
valid_transport(part2,tr13).
valid_transport(part2,tr4).
part(part20).
partSize(part20,128).
valid_transport(part20,tr0).
valid_transport(part20,tr7).
valid_transport(part20,tr8).
valid_transport(part20,tr15).
valid_transport(part20,tr3).
valid_transport(part20,tr13).
part(part21).
partSize(part21,25).
valid_transport(part21,tr0).
valid_transport(part21,tr15).
valid_transport(part21,tr14).
valid_transport(part21,tr13).
valid_transport(part21,tr4).
part(part22).
partSize(part22,7).
valid_transport(part22,tr0).
valid_transport(part22,tr2).
valid_transport(part22,tr15).
valid_transport(part22,tr9).
valid_transport(part22,tr12).
valid_transport(part22,tr13).
valid_transport(part22,tr11).
part(part23).
partSize(part23,5).
valid_transport(part23,tr0).
valid_transport(part23,tr15).
valid_transport(part23,tr14).
valid_transport(part23,tr13).
valid_transport(part23,tr4).
part(part24).
partSize(part24,55).
valid_transport(part24,tr0).
valid_transport(part24,tr7).
valid_transport(part24,tr8).
valid_transport(part24,tr15).
valid_transport(part24,tr3).
valid_transport(part24,tr13).
part(part25).
partSize(part25,5).
valid_transport(part25,tr0).
valid_transport(part25,tr4).
valid_transport(part25,tr2).
valid_transport(part25,tr15).
valid_transport(part25,tr13).
part(part26).
partSize(part26,32).
valid_transport(part26,tr0).
valid_transport(part26,tr7).
valid_transport(part26,tr8).
valid_transport(part26,tr15).
valid_transport(part26,tr3).
valid_transport(part26,tr13).
part(part27).
partSize(part27,5).
valid_transport(part27,tr0).
valid_transport(part27,tr2).
valid_transport(part27,tr15).
valid_transport(part27,tr9).
valid_transport(part27,tr12).
valid_transport(part27,tr13).
valid_transport(part27,tr11).
part(part28).
partSize(part28,3).
valid_transport(part28,tr0).
valid_transport(part28,tr4).
valid_transport(part28,tr2).
valid_transport(part28,tr15).
valid_transport(part28,tr14).
valid_transport(part28,tr13).
part(part29).
partSize(part29,627).
part(part3).
partSize(part3,48).
valid_transport(part3,tr0).
valid_transport(part3,tr7).
valid_transport(part3,tr8).
valid_transport(part3,tr15).
valid_transport(part3,tr3).
valid_transport(part3,tr13).
part(part30).
partSize(part30,2).
valid_transport(part30,tr0).
valid_transport(part30,tr2).
valid_transport(part30,tr15).
valid_transport(part30,tr9).
valid_transport(part30,tr12).
valid_transport(part30,tr13).
valid_transport(part30,tr11).
part(part31).
partSize(part31,144).
valid_transport(part31,tr0).
valid_transport(part31,tr7).
valid_transport(part31,tr8).
valid_transport(part31,tr15).
valid_transport(part31,tr3).
valid_transport(part31,tr13).
part(part32).
partSize(part32,16).
valid_transport(part32,tr0).
valid_transport(part32,tr4).
valid_transport(part32,tr2).
valid_transport(part32,tr15).
valid_transport(part32,tr14).
valid_transport(part32,tr13).
part(part33).
partSize(part33,7).
valid_transport(part33,tr0).
valid_transport(part33,tr2).
valid_transport(part33,tr15).
valid_transport(part33,tr9).
valid_transport(part33,tr12).
valid_transport(part33,tr13).
valid_transport(part33,tr11).
part(part3345).
partSize(part3345,353).
valid_transport(part3345,tr0).
valid_transport(part3345,tr7).
valid_transport(part3345,tr8).
valid_transport(part3345,tr15).
valid_transport(part3345,tr3).
valid_transport(part3345,tr13).
part(part34).
partSize(part34,2).
valid_transport(part34,tr0).
valid_transport(part34,tr2).
valid_transport(part34,tr15).
valid_transport(part34,tr9).
valid_transport(part34,tr12).
valid_transport(part34,tr13).
valid_transport(part34,tr11).
part(part4).
partSize(part4,2).
valid_transport(part4,tr0).
valid_transport(part4,tr2).
valid_transport(part4,tr15).
valid_transport(part4,tr9).
valid_transport(part4,tr12).
valid_transport(part4,tr13).
valid_transport(part4,tr11).
part(part5).
partSize(part5,2).
valid_transport(part5,tr0).
valid_transport(part5,tr2).
valid_transport(part5,tr15).
valid_transport(part5,tr9).
valid_transport(part5,tr12).
valid_transport(part5,tr14).
valid_transport(part5,tr13).
valid_transport(part5,tr11).
part(part6).
partSize(part6,111).
valid_transport(part6,tr0).
valid_transport(part6,tr7).
valid_transport(part6,tr8).
valid_transport(part6,tr15).
valid_transport(part6,tr3).
valid_transport(part6,tr13).
part(part8).
partSize(part8,163).
valid_transport(part8,tr0).
valid_transport(part8,tr7).
valid_transport(part8,tr8).
valid_transport(part8,tr15).
valid_transport(part8,tr3).
valid_transport(part8,tr13).
part(part9).
partSize(part9,2).
valid_transport(part9,tr0).
valid_transport(part9,tr2).
valid_transport(part9,tr15).
valid_transport(part9,tr9).
valid_transport(part9,tr12).
valid_transport(part9,tr13).
valid_transport(part9,tr11).

% ---- demand ----
demandOffer(part0,prodloc10,40).
demandOffer(part0,prodloc0,40).
demandOffer(part0,prodloc12,-27).
demandOffer(part0,prodloc8,-53).
demandOffer(part1,prodloc1,20).
demandOffer(part1,prodloc8,20).
demandOffer(part1,prodloc3,-20).
demandOffer(part1,prodloc6,-20).
demandOffer(part10,prodloc5,20).
demandOffer(part10,prodloc8,20).
demandOffer(part10,prodloc4,-20).
demandOffer(part10,prodloc9,-20).
demandOffer(part12,prodloc2,10).
demandOffer(part12,prodloc9,20).
demandOffer(part12,prodloc4,-10).
demandOffer(part12,prodloc1,-10).
demandOffer(part12,prodloc12,-10).
demandOffer(part13,prodloc6,20).
demandOffer(part13,prodloc5,20).
demandOffer(part13,prodloc4,-20).
demandOffer(part13,prodloc1,-20).
demandOffer(part14,prodloc12,26).
demandOffer(part14,prodloc5,-26).
demandOffer(part15,prodloc14,53).
demandOffer(part15,prodloc4,27).
demandOffer(part15,prodloc0,-53).
demandOffer(part15,prodloc9,-27).
demandOffer(part16,prodloc9,53).
demandOffer(part16,prodloc3,27).
demandOffer(part16,prodloc1,-53).
demandOffer(part16,prodloc13,-27).
demandOffer(part17,prodloc1,20).
demandOffer(part17,prodloc8,-20).
demandOffer(part18,prodloc7,40).
demandOffer(part18,prodloc6,40).
demandOffer(part18,prodloc11,-27).
demandOffer(part18,prodloc1,-53).
demandOffer(part19,prodloc12,26).
demandOffer(part19,prodloc1,-26).
demandOffer(part2,prodloc6,40).
demandOffer(part2,prodloc0,40).
demandOffer(part2,prodloc1,-27).
demandOffer(part2,prodloc9,-53).
demandOffer(part20,prodloc11,53).
demandOffer(part20,prodloc6,27).
demandOffer(part20,prodloc12,-14).
demandOffer(part20,prodloc13,-46).
demandOffer(part20,prodloc7,-20).
demandOffer(part21,prodloc10,26).
demandOffer(part21,prodloc4,-26).
demandOffer(part22,prodloc9,53).
demandOffer(part22,prodloc8,27).
demandOffer(part22,prodloc2,-53).
demandOffer(part22,prodloc10,-27).
demandOffer(part23,prodloc6,20).
demandOffer(part23,prodloc3,20).
demandOffer(part23,prodloc12,-20).
demandOffer(part23,prodloc8,-20).
demandOffer(part25,prodloc9,20).
demandOffer(part25,prodloc11,-20).
demandOffer(part26,prodloc1,20).
demandOffer(part26,prodloc12,20).
demandOffer(part26,prodloc3,-14).
demandOffer(part26,prodloc6,-26).
demandOffer(part27,prodloc3,53).
demandOffer(part27,prodloc2,27).
demandOffer(part27,prodloc13,-53).
demandOffer(part27,prodloc10,-27).
demandOffer(part28,prodloc7,20).
demandOffer(part28,prodloc1,20).
demandOffer(part28,prodloc8,-20).
demandOffer(part28,prodloc11,-20).
demandOffer(part3,prodloc7,40).
demandOffer(part3,prodloc0,-14).
demandOffer(part3,prodloc14,-26).
demandOffer(part30,prodloc14,40).
demandOffer(part30,prodloc7,40).
demandOffer(part30,prodloc9,-27).
demandOffer(part30,prodloc1,-53).
demandOffer(part31,prodloc8,7).
demandOffer(part31,prodloc7,7).
demandOffer(part31,prodloc14,-14).
demandOffer(part32,prodloc7,53).
demandOffer(part32,prodloc5,27).
demandOffer(part32,prodloc6,-53).
demandOffer(part32,prodloc8,-27).
demandOffer(part33,prodloc13,53).
demandOffer(part33,prodloc2,27).
demandOffer(part33,prodloc0,-53).
demandOffer(part33,prodloc3,-27).
demandOffer(part34,prodloc1,20).
demandOffer(part34,prodloc0,-20).
demandOffer(part4,prodloc7,26).
demandOffer(part4,prodloc6,-26).
demandOffer(part5,prodloc7,20).
demandOffer(part5,prodloc1,-20).
demandOffer(part6,prodloc10,27).
demandOffer(part6,prodloc11,53).
demandOffer(part6,prodloc14,-24).
demandOffer(part6,prodloc4,-36).
demandOffer(part6,prodloc2,-10).
demandOffer(part6,prodloc7,-10).
demandOffer(part8,prodloc4,3).
demandOffer(part8,prodloc7,17).
demandOffer(part8,prodloc6,-10).
demandOffer(part8,prodloc14,-10).
demandOffer(part9,prodloc11,20).
demandOffer(part9,prodloc2,-20).

% ---- network (ASP-generated) ----
route(harbor0,harbor1,tr13,15137,90822).
route(harbor0,harbor1,tr2,15137,45411).
route(harbor0,harbor2,tr13,14405,86430).
route(harbor0,harbor2,tr2,14405,43215).
route(harbor0,harbor3,tr13,9898,59388).
route(harbor0,harbor3,tr2,9898,29694).
route(harbor0,harbor4,tr13,10132,60792).
route(harbor0,harbor4,tr2,10132,30396).
route(harbor0,harbor5,tr13,22226,133356).
route(harbor0,harbor5,tr2,22226,66678).
route(harbor0,prodloc0,tr0,25085,652210).
route(harbor0,prodloc0,tr13,25085,150510).
route(harbor0,prodloc1,tr0,1487,38662).
route(harbor0,prodloc1,tr13,1487,8922).
route(harbor0,prodloc2,tr0,2534,65884).
route(harbor0,prodloc2,tr13,2534,15204).
route(harbor0,prodloc3,tr0,6857,178282).
route(harbor0,prodloc3,tr13,6857,41142).
route(harbor0,prodloc4,tr0,10201,265226).
route(harbor0,prodloc4,tr13,10201,61206).
route(harbor0,prodloc5,tr0,22529,585754).
route(harbor0,prodloc5,tr13,22529,135174).
route(harbor0,prodloc6,tr0,24645,640770).
route(harbor0,prodloc6,tr13,24645,147870).
route(harbor0,prodloc7,tr0,13784,358384).
route(harbor0,prodloc7,tr13,13784,82704).
route(harbor0,prodloc8,tr0,3321,86346).
route(harbor0,prodloc8,tr13,3321,19926).
route(harbor0,prodloc9,tr0,15172,394472).
route(harbor0,prodloc9,tr13,15172,91032).
route(harbor0,prodloc10,tr0,2180,56680).
route(harbor0,prodloc10,tr13,2180,13080).
route(harbor0,prodloc11,tr0,15360,399360).
route(harbor0,prodloc11,tr13,15360,92160).
route(harbor0,prodloc12,tr0,16575,430950).
route(harbor0,prodloc12,tr13,16575,99450).
route(harbor0,prodloc13,tr0,14787,384462).
route(harbor0,prodloc13,tr13,14787,88722).
route(harbor0,prodloc14,tr0,21512,559312).
route(harbor0,prodloc14,tr13,21512,129072).
route(harbor1,harbor0,tr13,558,3348).
route(harbor1,harbor0,tr2,558,1674).
route(harbor1,harbor2,tr13,5770,34620).
route(harbor1,harbor2,tr2,5770,17310).
route(harbor1,harbor3,tr13,14342,86052).
route(harbor1,harbor3,tr2,14342,43026).
route(harbor1,harbor4,tr13,21294,127764).
route(harbor1,harbor4,tr2,21294,63882).
route(harbor1,harbor5,tr13,9034,54204).
route(harbor1,harbor5,tr2,9034,27102).
route(harbor1,prodloc0,tr0,2471,64246).
route(harbor1,prodloc0,tr13,2471,14826).
route(harbor1,prodloc1,tr0,2790,72540).
route(harbor1,prodloc1,tr13,2790,16740).
route(harbor1,prodloc2,tr0,4142,107692).
route(harbor1,prodloc2,tr13,4142,24852).
route(harbor1,prodloc3,tr0,5609,145834).
route(harbor1,prodloc3,tr13,5609,33654).
route(harbor1,prodloc4,tr0,14095,366470).
route(harbor1,prodloc4,tr13,14095,84570).
route(harbor1,prodloc5,tr0,9368,243568).
route(harbor1,prodloc5,tr13,9368,56208).
route(harbor1,prodloc6,tr0,28938,752388).
route(harbor1,prodloc6,tr13,28938,173628).
route(harbor1,prodloc7,tr0,15305,397930).
route(harbor1,prodloc7,tr13,15305,91830).
route(harbor1,prodloc8,tr0,27253,708578).
route(harbor1,prodloc8,tr13,27253,163518).
route(harbor1,prodloc9,tr0,3679,95654).
route(harbor1,prodloc9,tr13,3679,22074).
route(harbor1,prodloc10,tr0,6646,172796).
route(harbor1,prodloc10,tr13,6646,39876).
route(harbor1,prodloc11,tr0,20329,528554).
route(harbor1,prodloc11,tr13,20329,121974).
route(harbor1,prodloc12,tr0,15392,400192).
route(harbor1,prodloc12,tr13,15392,92352).
route(harbor1,prodloc13,tr0,28797,748722).
route(harbor1,prodloc13,tr13,28797,172782).
route(harbor1,prodloc14,tr0,22414,582764).
route(harbor1,prodloc14,tr13,22414,134484).
route(harbor2,harbor0,tr13,26598,159588).
route(harbor2,harbor0,tr2,26598,79794).
route(harbor2,harbor1,tr13,2257,13542).
route(harbor2,harbor1,tr2,2257,6771).
route(harbor2,harbor3,tr13,14082,84492).
route(harbor2,harbor3,tr2,14082,42246).
route(harbor2,harbor4,tr13,21279,127674).
route(harbor2,harbor4,tr2,21279,63837).
route(harbor2,harbor5,tr13,20800,124800).
route(harbor2,harbor5,tr2,20800,62400).
route(harbor2,prodloc0,tr0,5021,130546).
route(harbor2,prodloc0,tr13,5021,30126).
route(harbor2,prodloc1,tr0,289,7514).
route(harbor2,prodloc1,tr13,289,1734).
route(harbor2,prodloc2,tr0,28776,748176).
route(harbor2,prodloc2,tr13,28776,172656).
route(harbor2,prodloc3,tr0,12607,327782).
route(harbor2,prodloc3,tr13,12607,75642).
route(harbor2,prodloc4,tr0,20343,528918).
route(harbor2,prodloc4,tr13,20343,122058).
route(harbor2,prodloc5,tr0,21384,555984).
route(harbor2,prodloc5,tr13,21384,128304).
route(harbor2,prodloc6,tr0,9497,246922).
route(harbor2,prodloc6,tr13,9497,56982).
route(harbor2,prodloc7,tr0,20875,542750).
route(harbor2,prodloc7,tr13,20875,125250).
route(harbor2,prodloc8,tr0,1290,33540).
route(harbor2,prodloc8,tr13,1290,7740).
route(harbor2,prodloc9,tr0,18664,485264).
route(harbor2,prodloc9,tr13,18664,111984).
route(harbor2,prodloc10,tr0,17882,464932).
route(harbor2,prodloc10,tr13,17882,107292).
route(harbor2,prodloc11,tr0,19297,501722).
route(harbor2,prodloc11,tr13,19297,115782).
route(harbor2,prodloc12,tr0,11686,303836).
route(harbor2,prodloc12,tr13,11686,70116).
route(harbor2,prodloc13,tr0,8292,215592).
route(harbor2,prodloc13,tr13,8292,49752).
route(harbor2,prodloc14,tr0,6903,179478).
route(harbor2,prodloc14,tr13,6903,41418).
route(harbor3,harbor0,tr13,8689,52134).
route(harbor3,harbor0,tr2,8689,26067).
route(harbor3,harbor1,tr13,16713,100278).
route(harbor3,harbor1,tr2,16713,50139).
route(harbor3,harbor2,tr13,10431,62586).
route(harbor3,harbor2,tr2,10431,31293).
route(harbor3,harbor4,tr13,2046,12276).
route(harbor3,harbor4,tr2,2046,6138).
route(harbor3,harbor5,tr13,834,5004).
route(harbor3,harbor5,tr2,834,2502).
route(harbor3,prodloc0,tr0,25383,659958).
route(harbor3,prodloc0,tr13,25383,152298).
route(harbor3,prodloc1,tr0,9206,239356).
route(harbor3,prodloc1,tr13,9206,55236).
route(harbor3,prodloc2,tr0,21420,556920).
route(harbor3,prodloc2,tr13,21420,128520).
route(harbor3,prodloc3,tr0,28034,728884).
route(harbor3,prodloc3,tr13,28034,168204).
route(harbor3,prodloc4,tr0,6902,179452).
route(harbor3,prodloc4,tr13,6902,41412).
route(harbor3,prodloc5,tr0,2104,54704).
route(harbor3,prodloc5,tr13,2104,12624).
route(harbor3,prodloc6,tr0,6460,167960).
route(harbor3,prodloc6,tr13,6460,38760).
route(harbor3,prodloc7,tr0,9631,250406).
route(harbor3,prodloc7,tr13,9631,57786).
route(harbor3,prodloc8,tr0,17163,446238).
route(harbor3,prodloc8,tr13,17163,102978).
route(harbor3,prodloc9,tr0,15271,397046).
route(harbor3,prodloc9,tr13,15271,91626).
route(harbor3,prodloc10,tr0,24633,640458).
route(harbor3,prodloc10,tr13,24633,147798).
route(harbor3,prodloc11,tr0,16481,428506).
route(harbor3,prodloc11,tr13,16481,98886).
route(harbor3,prodloc12,tr0,4454,115804).
route(harbor3,prodloc12,tr13,4454,26724).
route(harbor3,prodloc13,tr0,10599,275574).
route(harbor3,prodloc13,tr13,10599,63594).
route(harbor3,prodloc14,tr0,26352,685152).
route(harbor3,prodloc14,tr13,26352,158112).
route(harbor4,harbor0,tr13,16832,100992).
route(harbor4,harbor0,tr2,16832,50496).
route(harbor4,harbor1,tr13,26358,158148).
route(harbor4,harbor1,tr2,26358,79074).
route(harbor4,harbor2,tr13,8588,51528).
route(harbor4,harbor2,tr2,8588,25764).
route(harbor4,harbor3,tr13,18449,110694).
route(harbor4,harbor3,tr2,18449,55347).
route(harbor4,harbor5,tr13,29012,174072).
route(harbor4,harbor5,tr2,29012,87036).
route(harbor4,prodloc0,tr0,23485,610610).
route(harbor4,prodloc0,tr13,23485,140910).
route(harbor4,prodloc1,tr0,23759,617734).
route(harbor4,prodloc1,tr13,23759,142554).
route(harbor4,prodloc2,tr0,24181,628706).
route(harbor4,prodloc2,tr13,24181,145086).
route(harbor4,prodloc3,tr0,10030,260780).
route(harbor4,prodloc3,tr13,10030,60180).
route(harbor4,prodloc4,tr0,21005,546130).
route(harbor4,prodloc4,tr13,21005,126030).
route(harbor4,prodloc5,tr0,24449,635674).
route(harbor4,prodloc5,tr13,24449,146694).
route(harbor4,prodloc6,tr0,22326,580476).
route(harbor4,prodloc6,tr13,22326,133956).
route(harbor4,prodloc7,tr0,17328,450528).
route(harbor4,prodloc7,tr13,17328,103968).
route(harbor4,prodloc8,tr0,9356,243256).
route(harbor4,prodloc8,tr13,9356,56136).
route(harbor4,prodloc9,tr0,21169,550394).
route(harbor4,prodloc9,tr13,21169,127014).
route(harbor4,prodloc10,tr0,16540,430040).
route(harbor4,prodloc10,tr13,16540,99240).
route(harbor4,prodloc11,tr0,18653,484978).
route(harbor4,prodloc11,tr13,18653,111918).
route(harbor4,prodloc12,tr0,14067,365742).
route(harbor4,prodloc12,tr13,14067,84402).
route(harbor4,prodloc13,tr0,27068,703768).
route(harbor4,prodloc13,tr13,27068,162408).
route(harbor4,prodloc14,tr0,15680,407680).
route(harbor4,prodloc14,tr13,15680,94080).
route(harbor5,harbor0,tr13,2077,12462).
route(harbor5,harbor0,tr2,2077,6231).
route(harbor5,harbor1,tr13,28593,171558).
route(harbor5,harbor1,tr2,28593,85779).
route(harbor5,harbor2,tr13,27872,167232).
route(harbor5,harbor2,tr2,27872,83616).
route(harbor5,harbor3,tr13,7358,44148).
route(harbor5,harbor3,tr2,7358,22074).
route(harbor5,harbor4,tr13,5090,30540).
route(harbor5,harbor4,tr2,5090,15270).
route(harbor5,prodloc0,tr0,1287,33462).
route(harbor5,prodloc0,tr13,1287,7722).
route(harbor5,prodloc1,tr0,15020,390520).
route(harbor5,prodloc1,tr13,15020,90120).
route(harbor5,prodloc2,tr0,27957,726882).
route(harbor5,prodloc2,tr13,27957,167742).
route(harbor5,prodloc3,tr0,3795,98670).
route(harbor5,prodloc3,tr13,3795,22770).
route(harbor5,prodloc4,tr0,16810,437060).
route(harbor5,prodloc4,tr13,16810,100860).
route(harbor5,prodloc5,tr0,19366,503516).
route(harbor5,prodloc5,tr13,19366,116196).
route(harbor5,prodloc6,tr0,28461,739986).
route(harbor5,prodloc6,tr13,28461,170766).
route(harbor5,prodloc7,tr0,3311,86086).
route(harbor5,prodloc7,tr13,3311,19866).
route(harbor5,prodloc8,tr0,8538,221988).
route(harbor5,prodloc8,tr13,8538,51228).
route(harbor5,prodloc9,tr0,23510,611260).
route(harbor5,prodloc9,tr13,23510,141060).
route(harbor5,prodloc10,tr0,15299,397774).
route(harbor5,prodloc10,tr13,15299,91794).
route(harbor5,prodloc11,tr0,22805,592930).
route(harbor5,prodloc11,tr13,22805,136830).
route(harbor5,prodloc12,tr0,12429,323154).
route(harbor5,prodloc12,tr13,12429,74574).
route(harbor5,prodloc13,tr0,22486,584636).
route(harbor5,prodloc13,tr13,22486,134916).
route(harbor5,prodloc14,tr0,10628,276328).
route(harbor5,prodloc14,tr13,10628,63768).
route(prodloc0,harbor0,tr0,10802,280852).
route(prodloc0,harbor0,tr13,10802,64812).
route(prodloc0,harbor1,tr0,12106,314756).
route(prodloc0,harbor1,tr13,12106,72636).
route(prodloc0,harbor2,tr0,6132,159432).
route(prodloc0,harbor2,tr13,6132,36792).
route(prodloc0,harbor3,tr0,14591,379366).
route(prodloc0,harbor3,tr13,14591,87546).
route(prodloc0,harbor4,tr0,28182,732732).
route(prodloc0,harbor4,tr13,28182,169092).
route(prodloc0,harbor5,tr0,27584,717184).
route(prodloc0,harbor5,tr13,27584,165504).
route(prodloc0,prodloc1,tr0,10870,282620).
route(prodloc0,prodloc1,tr13,10870,65220).
route(prodloc0,prodloc2,tr0,23601,613626).
route(prodloc0,prodloc2,tr13,23601,141606).
route(prodloc0,prodloc3,tr0,3102,80652).
route(prodloc0,prodloc3,tr13,3102,18612).
route(prodloc0,prodloc4,tr0,20840,541840).
route(prodloc0,prodloc4,tr13,20840,125040).
route(prodloc0,prodloc5,tr0,21880,568880).
route(prodloc0,prodloc5,tr13,21880,131280).
route(prodloc0,prodloc6,tr0,21604,561704).
route(prodloc0,prodloc6,tr13,21604,129624).
route(prodloc0,prodloc7,tr0,17331,450606).
route(prodloc0,prodloc7,tr13,17331,103986).
route(prodloc0,prodloc8,tr0,14739,383214).
route(prodloc0,prodloc8,tr13,14739,88434).
route(prodloc0,prodloc9,tr0,13540,352040).
route(prodloc0,prodloc9,tr15,13540,433280).
route(prodloc0,prodloc10,tr0,20233,526058).
route(prodloc0,prodloc10,tr13,20233,121398).
route(prodloc0,prodloc11,tr0,1337,34762).
route(prodloc0,prodloc11,tr13,1337,8022).
route(prodloc0,prodloc12,tr13,28567,171402).
route(prodloc0,prodloc12,tr15,28567,914144).
route(prodloc0,prodloc13,tr0,11858,308308).
route(prodloc0,prodloc13,tr13,11858,71148).
route(prodloc0,prodloc14,tr0,3071,79846).
route(prodloc0,prodloc14,tr13,3071,18426).
route(prodloc1,harbor0,tr0,10389,270114).
route(prodloc1,harbor0,tr13,10389,62334).
route(prodloc1,harbor1,tr0,14318,372268).
route(prodloc1,harbor1,tr13,14318,85908).
route(prodloc1,harbor2,tr0,12030,312780).
route(prodloc1,harbor2,tr13,12030,72180).
route(prodloc1,harbor3,tr0,15006,390156).
route(prodloc1,harbor3,tr13,15006,90036).
route(prodloc1,harbor4,tr0,19448,505648).
route(prodloc1,harbor4,tr13,19448,116688).
route(prodloc1,harbor5,tr0,23955,622830).
route(prodloc1,harbor5,tr13,23955,143730).
route(prodloc1,prodloc0,tr0,12031,312806).
route(prodloc1,prodloc0,tr13,12031,72186).
route(prodloc1,prodloc2,tr0,1474,38324).
route(prodloc1,prodloc2,tr13,1474,8844).
route(prodloc1,prodloc3,tr0,9693,252018).
route(prodloc1,prodloc3,tr15,9693,310176).
route(prodloc1,prodloc4,tr0,8587,223262).
route(prodloc1,prodloc4,tr13,8587,51522).
route(prodloc1,prodloc5,tr0,8989,233714).
route(prodloc1,prodloc5,tr13,8989,53934).
route(prodloc1,prodloc6,tr13,2896,17376).
route(prodloc1,prodloc6,tr15,2896,92672).
route(prodloc1,prodloc7,tr0,7422,192972).
route(prodloc1,prodloc7,tr13,7422,44532).
route(prodloc1,prodloc8,tr13,12842,77052).
route(prodloc1,prodloc8,tr15,12842,410944).
route(prodloc1,prodloc9,tr0,1042,27092).
route(prodloc1,prodloc9,tr13,1042,6252).
route(prodloc1,prodloc10,tr0,5585,145210).
route(prodloc1,prodloc10,tr13,5585,33510).
route(prodloc1,prodloc11,tr0,5428,141128).
route(prodloc1,prodloc11,tr13,5428,32568).
route(prodloc1,prodloc12,tr0,15399,400374).
route(prodloc1,prodloc12,tr13,15399,92394).
route(prodloc1,prodloc13,tr0,21756,565656).
route(prodloc1,prodloc13,tr13,21756,130536).
route(prodloc1,prodloc14,tr0,23430,609180).
route(prodloc1,prodloc14,tr13,23430,140580).
route(prodloc2,harbor0,tr0,18170,472420).
route(prodloc2,harbor0,tr13,18170,109020).
route(prodloc2,harbor1,tr0,3504,91104).
route(prodloc2,harbor1,tr13,3504,21024).
route(prodloc2,harbor2,tr0,23263,604838).
route(prodloc2,harbor2,tr13,23263,139578).
route(prodloc2,harbor3,tr0,19547,508222).
route(prodloc2,harbor3,tr13,19547,117282).
route(prodloc2,harbor4,tr0,16858,438308).
route(prodloc2,harbor4,tr13,16858,101148).
route(prodloc2,harbor5,tr0,2984,77584).
route(prodloc2,harbor5,tr13,2984,17904).
route(prodloc2,prodloc0,tr0,28636,744536).
route(prodloc2,prodloc0,tr13,28636,171816).
route(prodloc2,prodloc1,tr0,1196,31096).
route(prodloc2,prodloc1,tr13,1196,7176).
route(prodloc2,prodloc3,tr0,19255,500630).
route(prodloc2,prodloc3,tr15,19255,616160).
route(prodloc2,prodloc4,tr0,14287,371462).
route(prodloc2,prodloc4,tr13,14287,85722).
route(prodloc2,prodloc5,tr0,1530,39780).
route(prodloc2,prodloc5,tr13,1530,9180).
route(prodloc2,prodloc6,tr0,23459,609934).
route(prodloc2,prodloc6,tr13,23459,140754).
route(prodloc2,prodloc7,tr0,22369,581594).
route(prodloc2,prodloc7,tr13,22369,134214).
route(prodloc2,prodloc8,tr0,4591,119366).
route(prodloc2,prodloc8,tr13,4591,27546).
route(prodloc2,prodloc9,tr0,20094,522444).
route(prodloc2,prodloc9,tr13,20094,120564).
route(prodloc2,prodloc10,tr0,10632,276432).
route(prodloc2,prodloc10,tr13,10632,63792).
route(prodloc2,prodloc11,tr0,8040,209040).
route(prodloc2,prodloc11,tr13,8040,48240).
route(prodloc2,prodloc12,tr13,17756,106536).
route(prodloc2,prodloc12,tr15,17756,568192).
route(prodloc2,prodloc13,tr0,23943,622518).
route(prodloc2,prodloc13,tr15,23943,766176).
route(prodloc2,prodloc14,tr0,17876,464776).
route(prodloc2,prodloc14,tr13,17876,107256).
route(prodloc3,harbor0,tr0,27387,712062).
route(prodloc3,harbor0,tr13,27387,164322).
route(prodloc3,harbor1,tr0,1092,28392).
route(prodloc3,harbor1,tr13,1092,6552).
route(prodloc3,harbor2,tr0,9083,236158).
route(prodloc3,harbor2,tr13,9083,54498).
route(prodloc3,harbor3,tr0,6266,162916).
route(prodloc3,harbor3,tr13,6266,37596).
route(prodloc3,harbor4,tr0,4865,126490).
route(prodloc3,harbor4,tr13,4865,29190).
route(prodloc3,harbor5,tr0,8187,212862).
route(prodloc3,harbor5,tr13,8187,49122).
route(prodloc3,prodloc0,tr0,9476,246376).
route(prodloc3,prodloc0,tr13,9476,56856).
route(prodloc3,prodloc1,tr0,3985,103610).
route(prodloc3,prodloc1,tr13,3985,23910).
route(prodloc3,prodloc2,tr0,19318,502268).
route(prodloc3,prodloc2,tr13,19318,115908).
route(prodloc3,prodloc4,tr0,27653,718978).
route(prodloc3,prodloc4,tr13,27653,165918).
route(prodloc3,prodloc5,tr0,14555,378430).
route(prodloc3,prodloc5,tr13,14555,87330).
route(prodloc3,prodloc6,tr0,4206,109356).
route(prodloc3,prodloc6,tr13,4206,25236).
route(prodloc3,prodloc7,tr0,2367,61542).
route(prodloc3,prodloc7,tr13,2367,14202).
route(prodloc3,prodloc8,tr0,22769,591994).
route(prodloc3,prodloc8,tr13,22769,136614).
route(prodloc3,prodloc9,tr0,14736,383136).
route(prodloc3,prodloc9,tr13,14736,88416).
route(prodloc3,prodloc10,tr0,10180,264680).
route(prodloc3,prodloc10,tr13,10180,61080).
route(prodloc3,prodloc11,tr0,17933,466258).
route(prodloc3,prodloc11,tr13,17933,107598).
route(prodloc3,prodloc12,tr0,13293,345618).
route(prodloc3,prodloc12,tr13,13293,79758).
route(prodloc3,prodloc13,tr0,18965,493090).
route(prodloc3,prodloc13,tr15,18965,606880).
route(prodloc3,prodloc14,tr0,7369,191594).
route(prodloc3,prodloc14,tr13,7369,44214).
route(prodloc4,harbor0,tr0,11596,301496).
route(prodloc4,harbor0,tr13,11596,69576).
route(prodloc4,harbor1,tr0,24213,629538).
route(prodloc4,harbor1,tr13,24213,145278).
route(prodloc4,harbor2,tr0,25734,669084).
route(prodloc4,harbor2,tr13,25734,154404).
route(prodloc4,harbor3,tr0,3387,88062).
route(prodloc4,harbor3,tr13,3387,20322).
route(prodloc4,harbor4,tr0,22180,576680).
route(prodloc4,harbor4,tr13,22180,133080).
route(prodloc4,harbor5,tr0,7898,205348).
route(prodloc4,harbor5,tr13,7898,47388).
route(prodloc4,prodloc0,tr0,8469,220194).
route(prodloc4,prodloc0,tr13,8469,50814).
route(prodloc4,prodloc1,tr0,4509,117234).
route(prodloc4,prodloc1,tr13,4509,27054).
route(prodloc4,prodloc2,tr0,11353,295178).
route(prodloc4,prodloc2,tr13,11353,68118).
route(prodloc4,prodloc3,tr0,15084,392184).
route(prodloc4,prodloc3,tr13,15084,90504).
route(prodloc4,prodloc5,tr0,18319,476294).
route(prodloc4,prodloc5,tr13,18319,109914).
route(prodloc4,prodloc6,tr13,7245,43470).
route(prodloc4,prodloc6,tr15,7245,231840).
route(prodloc4,prodloc7,tr0,18193,473018).
route(prodloc4,prodloc7,tr13,18193,109158).
route(prodloc4,prodloc8,tr0,14664,381264).
route(prodloc4,prodloc8,tr13,14664,87984).
route(prodloc4,prodloc9,tr0,9964,259064).
route(prodloc4,prodloc9,tr15,9964,318848).
route(prodloc4,prodloc10,tr0,1957,50882).
route(prodloc4,prodloc10,tr13,1957,11742).
route(prodloc4,prodloc11,tr0,19114,496964).
route(prodloc4,prodloc11,tr13,19114,114684).
route(prodloc4,prodloc12,tr0,27832,723632).
route(prodloc4,prodloc12,tr13,27832,166992).
route(prodloc4,prodloc13,tr0,26057,677482).
route(prodloc4,prodloc13,tr13,26057,156342).
route(prodloc4,prodloc14,tr0,14360,373360).
route(prodloc4,prodloc14,tr13,14360,86160).
route(prodloc5,harbor0,tr0,4047,105222).
route(prodloc5,harbor0,tr13,4047,24282).
route(prodloc5,harbor1,tr0,6238,162188).
route(prodloc5,harbor1,tr13,6238,37428).
route(prodloc5,harbor2,tr0,20145,523770).
route(prodloc5,harbor2,tr13,20145,120870).
route(prodloc5,harbor3,tr0,2091,54366).
route(prodloc5,harbor3,tr13,2091,12546).
route(prodloc5,harbor4,tr0,16165,420290).
route(prodloc5,harbor4,tr13,16165,96990).
route(prodloc5,harbor5,tr0,4128,107328).
route(prodloc5,harbor5,tr13,4128,24768).
route(prodloc5,prodloc0,tr0,12669,329394).
route(prodloc5,prodloc0,tr13,12669,76014).
route(prodloc5,prodloc1,tr13,17064,102384).
route(prodloc5,prodloc1,tr15,17064,546048).
route(prodloc5,prodloc2,tr0,9207,239382).
route(prodloc5,prodloc2,tr13,9207,55242).
route(prodloc5,prodloc3,tr0,16021,416546).
route(prodloc5,prodloc3,tr13,16021,96126).
route(prodloc5,prodloc4,tr13,11480,68880).
route(prodloc5,prodloc4,tr15,11480,367360).
route(prodloc5,prodloc6,tr0,14848,386048).
route(prodloc5,prodloc6,tr15,14848,475136).
route(prodloc5,prodloc7,tr0,1630,42380).
route(prodloc5,prodloc7,tr13,1630,9780).
route(prodloc5,prodloc8,tr0,17219,447694).
route(prodloc5,prodloc8,tr13,17219,103314).
route(prodloc5,prodloc9,tr13,13949,83694).
route(prodloc5,prodloc9,tr15,13949,446368).
route(prodloc5,prodloc10,tr0,868,22568).
route(prodloc5,prodloc10,tr13,868,5208).
route(prodloc5,prodloc11,tr0,18884,490984).
route(prodloc5,prodloc11,tr13,18884,113304).
route(prodloc5,prodloc12,tr0,7387,192062).
route(prodloc5,prodloc12,tr13,7387,44322).
route(prodloc5,prodloc13,tr0,21671,563446).
route(prodloc5,prodloc13,tr13,21671,130026).
route(prodloc5,prodloc14,tr0,10140,263640).
route(prodloc5,prodloc14,tr13,10140,60840).
route(prodloc6,harbor0,tr0,18246,474396).
route(prodloc6,harbor0,tr13,18246,109476).
route(prodloc6,harbor1,tr0,7988,207688).
route(prodloc6,harbor1,tr13,7988,47928).
route(prodloc6,harbor2,tr0,3375,87750).
route(prodloc6,harbor2,tr13,3375,20250).
route(prodloc6,harbor3,tr0,25825,671450).
route(prodloc6,harbor3,tr13,25825,154950).
route(prodloc6,harbor4,tr0,13099,340574).
route(prodloc6,harbor4,tr13,13099,78594).
route(prodloc6,harbor5,tr0,13666,355316).
route(prodloc6,harbor5,tr13,13666,81996).
route(prodloc6,prodloc0,tr0,20775,540150).
route(prodloc6,prodloc0,tr13,20775,124650).
route(prodloc6,prodloc1,tr0,4468,116168).
route(prodloc6,prodloc1,tr13,4468,26808).
route(prodloc6,prodloc2,tr0,22554,586404).
route(prodloc6,prodloc2,tr13,22554,135324).
route(prodloc6,prodloc3,tr0,17504,455104).
route(prodloc6,prodloc3,tr13,17504,105024).
route(prodloc6,prodloc4,tr0,7540,196040).
route(prodloc6,prodloc4,tr13,7540,45240).
route(prodloc6,prodloc5,tr0,5119,133094).
route(prodloc6,prodloc5,tr13,5119,30714).
route(prodloc6,prodloc7,tr0,14995,389870).
route(prodloc6,prodloc7,tr13,14995,89970).
route(prodloc6,prodloc8,tr0,6099,158574).
route(prodloc6,prodloc8,tr13,6099,36594).
route(prodloc6,prodloc9,tr13,23440,140640).
route(prodloc6,prodloc9,tr15,23440,750080).
route(prodloc6,prodloc10,tr0,19926,518076).
route(prodloc6,prodloc10,tr13,19926,119556).
route(prodloc6,prodloc11,tr0,15647,406822).
route(prodloc6,prodloc11,tr13,15647,93882).
route(prodloc6,prodloc12,tr0,2819,73294).
route(prodloc6,prodloc12,tr15,2819,90208).
route(prodloc6,prodloc13,tr13,9149,54894).
route(prodloc6,prodloc13,tr15,9149,292768).
route(prodloc6,prodloc14,tr0,24796,644696).
route(prodloc6,prodloc14,tr13,24796,148776).
route(prodloc7,harbor0,tr0,13165,342290).
route(prodloc7,harbor0,tr13,13165,78990).
route(prodloc7,harbor1,tr0,14380,373880).
route(prodloc7,harbor1,tr13,14380,86280).
route(prodloc7,harbor2,tr0,19368,503568).
route(prodloc7,harbor2,tr13,19368,116208).
route(prodloc7,harbor3,tr0,2111,54886).
route(prodloc7,harbor3,tr13,2111,12666).
route(prodloc7,harbor4,tr0,18930,492180).
route(prodloc7,harbor4,tr13,18930,113580).
route(prodloc7,harbor5,tr0,22089,574314).
route(prodloc7,harbor5,tr13,22089,132534).
route(prodloc7,prodloc0,tr0,67,1742).
route(prodloc7,prodloc0,tr13,67,402).
route(prodloc7,prodloc1,tr0,24201,629226).
route(prodloc7,prodloc1,tr13,24201,145206).
route(prodloc7,prodloc2,tr0,7932,206232).
route(prodloc7,prodloc2,tr13,7932,47592).
route(prodloc7,prodloc3,tr0,27572,716872).
route(prodloc7,prodloc3,tr13,27572,165432).
route(prodloc7,prodloc4,tr0,27665,719290).
route(prodloc7,prodloc4,tr13,27665,165990).
route(prodloc7,prodloc5,tr0,2752,71552).
route(prodloc7,prodloc5,tr13,2752,16512).
route(prodloc7,prodloc8,tr13,8140,48840).
route(prodloc7,prodloc8,tr15,8140,260480).
route(prodloc7,prodloc9,tr0,15936,414336).
route(prodloc7,prodloc9,tr15,15936,509952).
route(prodloc7,prodloc10,tr0,5368,139568).
route(prodloc7,prodloc10,tr13,5368,32208).
route(prodloc7,prodloc11,tr13,24290,145740).
route(prodloc7,prodloc11,tr15,24290,777280).
route(prodloc7,prodloc12,tr0,17058,443508).
route(prodloc7,prodloc12,tr13,17058,102348).
route(prodloc7,prodloc13,tr0,13007,338182).
route(prodloc7,prodloc13,tr13,13007,78042).
route(prodloc8,harbor0,tr0,15232,396032).
route(prodloc8,harbor0,tr13,15232,91392).
route(prodloc8,harbor1,tr0,13871,360646).
route(prodloc8,harbor1,tr13,13871,83226).
route(prodloc8,harbor2,tr0,26361,685386).
route(prodloc8,harbor2,tr13,26361,158166).
route(prodloc8,harbor3,tr0,714,18564).
route(prodloc8,harbor3,tr13,714,4284).
route(prodloc8,harbor4,tr0,4574,118924).
route(prodloc8,harbor4,tr13,4574,27444).
route(prodloc8,harbor5,tr0,3118,81068).
route(prodloc8,harbor5,tr13,3118,18708).
route(prodloc8,prodloc0,tr0,5665,147290).
route(prodloc8,prodloc0,tr13,5665,33990).
route(prodloc8,prodloc1,tr0,13995,363870).
route(prodloc8,prodloc1,tr13,13995,83970).
route(prodloc8,prodloc2,tr0,26481,688506).
route(prodloc8,prodloc2,tr13,26481,158886).
route(prodloc8,prodloc3,tr0,621,16146).
route(prodloc8,prodloc3,tr13,621,3726).
route(prodloc8,prodloc4,tr0,8812,229112).
route(prodloc8,prodloc4,tr13,8812,52872).
route(prodloc8,prodloc5,tr0,19985,519610).
route(prodloc8,prodloc5,tr13,19985,119910).
route(prodloc8,prodloc6,tr0,25704,668304).
route(prodloc8,prodloc6,tr13,25704,154224).
route(prodloc8,prodloc7,tr0,16050,417300).
route(prodloc8,prodloc7,tr13,16050,96300).
route(prodloc8,prodloc9,tr13,19604,117624).
route(prodloc8,prodloc9,tr15,19604,627328).
route(prodloc8,prodloc10,tr0,10904,283504).
route(prodloc8,prodloc10,tr13,10904,65424).
route(prodloc8,prodloc11,tr0,8162,212212).
route(prodloc8,prodloc11,tr13,8162,48972).
route(prodloc8,prodloc12,tr0,10115,262990).
route(prodloc8,prodloc12,tr13,10115,60690).
route(prodloc8,prodloc13,tr0,5909,153634).
route(prodloc8,prodloc13,tr13,5909,35454).
route(prodloc8,prodloc14,tr0,25365,659490).
route(prodloc8,prodloc14,tr13,25365,152190).
route(prodloc9,harbor0,tr0,2314,60164).
route(prodloc9,harbor0,tr13,2314,13884).
route(prodloc9,harbor1,tr0,17840,463840).
route(prodloc9,harbor1,tr13,17840,107040).
route(prodloc9,harbor2,tr0,9976,259376).
route(prodloc9,harbor2,tr13,9976,59856).
route(prodloc9,harbor3,tr0,854,22204).
route(prodloc9,harbor3,tr13,854,5124).
route(prodloc9,harbor4,tr0,3983,103558).
route(prodloc9,harbor4,tr13,3983,23898).
route(prodloc9,harbor5,tr0,2376,61776).
route(prodloc9,harbor5,tr13,2376,14256).
route(prodloc9,prodloc0,tr0,1598,41548).
route(prodloc9,prodloc0,tr13,1598,9588).
route(prodloc9,prodloc1,tr13,21866,131196).
route(prodloc9,prodloc1,tr15,21866,699712).
route(prodloc9,prodloc2,tr0,25396,660296).
route(prodloc9,prodloc2,tr13,25396,152376).
route(prodloc9,prodloc3,tr0,2887,75062).
route(prodloc9,prodloc3,tr13,2887,17322).
route(prodloc9,prodloc4,tr13,17504,105024).
route(prodloc9,prodloc4,tr15,17504,560128).
route(prodloc9,prodloc5,tr0,15019,390494).
route(prodloc9,prodloc5,tr13,15019,90114).
route(prodloc9,prodloc6,tr0,2068,53768).
route(prodloc9,prodloc6,tr13,2068,12408).
route(prodloc9,prodloc7,tr0,1156,30056).
route(prodloc9,prodloc7,tr13,1156,6936).
route(prodloc9,prodloc8,tr0,3071,79846).
route(prodloc9,prodloc8,tr13,3071,18426).
route(prodloc9,prodloc10,tr0,26855,698230).
route(prodloc9,prodloc10,tr13,26855,161130).
route(prodloc9,prodloc11,tr0,12486,324636).
route(prodloc9,prodloc11,tr13,12486,74916).
route(prodloc9,prodloc12,tr0,22558,586508).
route(prodloc9,prodloc12,tr13,22558,135348).
route(prodloc9,prodloc13,tr0,16116,419016).
route(prodloc9,prodloc13,tr15,16116,515712).
route(prodloc9,prodloc14,tr0,10172,264472).
route(prodloc9,prodloc14,tr13,10172,61032).
route(prodloc10,harbor0,tr0,12207,317382).
route(prodloc10,harbor0,tr13,12207,73242).
route(prodloc10,harbor1,tr0,11033,286858).
route(prodloc10,harbor1,tr13,11033,66198).
route(prodloc10,harbor2,tr0,9217,239642).
route(prodloc10,harbor2,tr13,9217,55302).
route(prodloc10,harbor3,tr0,4866,126516).
route(prodloc10,harbor3,tr13,4866,29196).
route(prodloc10,harbor4,tr0,3920,101920).
route(prodloc10,harbor4,tr13,3920,23520).
route(prodloc10,harbor5,tr0,19957,518882).
route(prodloc10,harbor5,tr13,19957,119742).
route(prodloc10,prodloc0,tr0,1825,47450).
route(prodloc10,prodloc0,tr13,1825,10950).
route(prodloc10,prodloc1,tr0,1430,37180).
route(prodloc10,prodloc1,tr13,1430,8580).
route(prodloc10,prodloc2,tr0,11891,309166).
route(prodloc10,prodloc2,tr13,11891,71346).
route(prodloc10,prodloc3,tr0,5896,153296).
route(prodloc10,prodloc3,tr13,5896,35376).
route(prodloc10,prodloc4,tr0,3812,99112).
route(prodloc10,prodloc4,tr13,3812,22872).
route(prodloc10,prodloc5,tr0,20966,545116).
route(prodloc10,prodloc5,tr13,20966,125796).
route(prodloc10,prodloc6,tr0,11011,286286).
route(prodloc10,prodloc6,tr13,11011,66066).
route(prodloc10,prodloc7,tr0,16019,416494).
route(prodloc10,prodloc7,tr13,16019,96114).
route(prodloc10,prodloc8,tr0,11536,299936).
route(prodloc10,prodloc8,tr13,11536,69216).
route(prodloc10,prodloc9,tr0,8261,214786).
route(prodloc10,prodloc9,tr13,8261,49566).
route(prodloc10,prodloc11,tr0,23484,610584).
route(prodloc10,prodloc11,tr13,23484,140904).
route(prodloc10,prodloc12,tr0,20572,534872).
route(prodloc10,prodloc12,tr15,20572,658304).
route(prodloc10,prodloc13,tr0,15297,397722).
route(prodloc10,prodloc13,tr13,15297,91782).
route(prodloc10,prodloc14,tr0,3503,91078).
route(prodloc10,prodloc14,tr13,3503,21018).
route(prodloc11,harbor0,tr0,17687,459862).
route(prodloc11,harbor0,tr13,17687,106122).
route(prodloc11,harbor1,tr0,20916,543816).
route(prodloc11,harbor1,tr13,20916,125496).
route(prodloc11,harbor2,tr0,25674,667524).
route(prodloc11,harbor2,tr13,25674,154044).
route(prodloc11,harbor3,tr0,18861,490386).
route(prodloc11,harbor3,tr13,18861,113166).
route(prodloc11,harbor4,tr0,6842,177892).
route(prodloc11,harbor4,tr13,6842,41052).
route(prodloc11,harbor5,tr0,1126,29276).
route(prodloc11,harbor5,tr13,1126,6756).
route(prodloc11,prodloc0,tr0,19530,507780).
route(prodloc11,prodloc0,tr13,19530,117180).
route(prodloc11,prodloc1,tr0,5611,145886).
route(prodloc11,prodloc1,tr13,5611,33666).
route(prodloc11,prodloc2,tr0,8899,231374).
route(prodloc11,prodloc2,tr15,8899,284768).
route(prodloc11,prodloc3,tr0,24736,643136).
route(prodloc11,prodloc3,tr13,24736,148416).
route(prodloc11,prodloc4,tr13,18837,113022).
route(prodloc11,prodloc4,tr15,18837,602784).
route(prodloc11,prodloc5,tr0,12660,329160).
route(prodloc11,prodloc5,tr13,12660,75960).
route(prodloc11,prodloc6,tr0,10331,268606).
route(prodloc11,prodloc6,tr13,10331,61986).
route(prodloc11,prodloc7,tr0,590,15340).
route(prodloc11,prodloc7,tr13,590,3540).
route(prodloc11,prodloc8,tr0,6890,179140).
route(prodloc11,prodloc8,tr13,6890,41340).
route(prodloc11,prodloc9,tr0,17631,458406).
route(prodloc11,prodloc9,tr13,17631,105786).
route(prodloc11,prodloc10,tr0,16082,418132).
route(prodloc11,prodloc10,tr13,16082,96492).
route(prodloc11,prodloc12,tr0,26598,691548).
route(prodloc11,prodloc12,tr13,26598,159588).
route(prodloc11,prodloc13,tr0,2348,61048).
route(prodloc11,prodloc13,tr15,2348,75136).
route(prodloc11,prodloc14,tr0,824,21424).
route(prodloc11,prodloc14,tr13,824,4944).
route(prodloc12,harbor0,tr0,23583,613158).
route(prodloc12,harbor0,tr13,23583,141498).
route(prodloc12,harbor1,tr0,25817,671242).
route(prodloc12,harbor1,tr13,25817,154902).
route(prodloc12,harbor2,tr0,15907,413582).
route(prodloc12,harbor2,tr13,15907,95442).
route(prodloc12,harbor3,tr0,7454,193804).
route(prodloc12,harbor3,tr13,7454,44724).
route(prodloc12,harbor4,tr0,21914,569764).
route(prodloc12,harbor4,tr13,21914,131484).
route(prodloc12,harbor5,tr0,19622,510172).
route(prodloc12,harbor5,tr13,19622,117732).
route(prodloc12,prodloc0,tr0,5796,150696).
route(prodloc12,prodloc0,tr13,5796,34776).
route(prodloc12,prodloc1,tr0,6072,157872).
route(prodloc12,prodloc1,tr13,6072,36432).
route(prodloc12,prodloc2,tr0,5468,142168).
route(prodloc12,prodloc2,tr13,5468,32808).
route(prodloc12,prodloc3,tr0,20822,541372).
route(prodloc12,prodloc3,tr13,20822,124932).
route(prodloc12,prodloc4,tr0,12560,326560).
route(prodloc12,prodloc4,tr13,12560,75360).
route(prodloc12,prodloc5,tr0,5573,144898).
route(prodloc12,prodloc5,tr13,5573,33438).
route(prodloc12,prodloc6,tr0,23464,610064).
route(prodloc12,prodloc6,tr13,23464,140784).
route(prodloc12,prodloc7,tr0,17521,455546).
route(prodloc12,prodloc7,tr13,17521,105126).
route(prodloc12,prodloc8,tr0,2267,58942).
route(prodloc12,prodloc8,tr13,2267,13602).
route(prodloc12,prodloc9,tr0,25861,672386).
route(prodloc12,prodloc9,tr13,25861,155166).
route(prodloc12,prodloc10,tr0,6146,159796).
route(prodloc12,prodloc10,tr13,6146,36876).
route(prodloc12,prodloc11,tr0,8235,214110).
route(prodloc12,prodloc11,tr13,8235,49410).
route(prodloc12,prodloc13,tr0,3361,87386).
route(prodloc12,prodloc13,tr13,3361,20166).
route(prodloc12,prodloc14,tr0,5383,139958).
route(prodloc12,prodloc14,tr13,5383,32298).
route(prodloc13,harbor0,tr0,21197,551122).
route(prodloc13,harbor0,tr13,21197,127182).
route(prodloc13,harbor1,tr0,15980,415480).
route(prodloc13,harbor1,tr13,15980,95880).
route(prodloc13,harbor2,tr0,17361,451386).
route(prodloc13,harbor2,tr13,17361,104166).
route(prodloc13,harbor3,tr0,16568,430768).
route(prodloc13,harbor3,tr13,16568,99408).
route(prodloc13,harbor4,tr0,13621,354146).
route(prodloc13,harbor4,tr13,13621,81726).
route(prodloc13,harbor5,tr0,6787,176462).
route(prodloc13,harbor5,tr13,6787,40722).
route(prodloc13,prodloc0,tr0,17592,457392).
route(prodloc13,prodloc0,tr13,17592,105552).
route(prodloc13,prodloc1,tr0,2376,61776).
route(prodloc13,prodloc1,tr13,2376,14256).
route(prodloc13,prodloc2,tr0,19559,508534).
route(prodloc13,prodloc2,tr13,19559,117354).
route(prodloc13,prodloc3,tr0,17278,449228).
route(prodloc13,prodloc3,tr13,17278,103668).
route(prodloc13,prodloc4,tr0,14329,372554).
route(prodloc13,prodloc4,tr13,14329,85974).
route(prodloc13,prodloc5,tr0,11374,295724).
route(prodloc13,prodloc5,tr13,11374,68244).
route(prodloc13,prodloc6,tr0,19962,519012).
route(prodloc13,prodloc6,tr13,19962,119772).
route(prodloc13,prodloc7,tr0,6203,161278).
route(prodloc13,prodloc7,tr13,6203,37218).
route(prodloc13,prodloc8,tr0,10403,270478).
route(prodloc13,prodloc8,tr13,10403,62418).
route(prodloc13,prodloc9,tr0,17091,444366).
route(prodloc13,prodloc9,tr13,17091,102546).
route(prodloc13,prodloc10,tr0,4981,129506).
route(prodloc13,prodloc10,tr13,4981,29886).
route(prodloc13,prodloc11,tr0,20681,537706).
route(prodloc13,prodloc11,tr13,20681,124086).
route(prodloc13,prodloc12,tr0,21539,560014).
route(prodloc13,prodloc12,tr13,21539,129234).
route(prodloc13,prodloc14,tr0,19406,504556).
route(prodloc13,prodloc14,tr13,19406,116436).
route(prodloc14,harbor0,tr0,6345,164970).
route(prodloc14,harbor0,tr13,6345,38070).
route(prodloc14,harbor1,tr0,406,10556).
route(prodloc14,harbor1,tr13,406,2436).
route(prodloc14,harbor2,tr0,27228,707928).
route(prodloc14,harbor2,tr13,27228,163368).
route(prodloc14,harbor3,tr0,1363,35438).
route(prodloc14,harbor3,tr13,1363,8178).
route(prodloc14,harbor4,tr0,22576,586976).
route(prodloc14,harbor4,tr13,22576,135456).
route(prodloc14,harbor5,tr0,8616,224016).
route(prodloc14,harbor5,tr13,8616,51696).
route(prodloc14,prodloc0,tr0,27683,719758).
route(prodloc14,prodloc0,tr13,27683,166098).
route(prodloc14,prodloc1,tr0,10076,261976).
route(prodloc14,prodloc1,tr13,10076,60456).
route(prodloc14,prodloc2,tr0,27580,717080).
route(prodloc14,prodloc2,tr13,27580,165480).
route(prodloc14,prodloc3,tr0,22907,595582).
route(prodloc14,prodloc3,tr13,22907,137442).
route(prodloc14,prodloc4,tr0,13949,362674).
route(prodloc14,prodloc4,tr13,13949,83694).
route(prodloc14,prodloc5,tr0,15345,398970).
route(prodloc14,prodloc5,tr13,15345,92070).
route(prodloc14,prodloc6,tr0,6119,159094).
route(prodloc14,prodloc6,tr13,6119,36714).
route(prodloc14,prodloc7,tr0,22551,586326).
route(prodloc14,prodloc7,tr13,22551,135306).
route(prodloc14,prodloc8,tr0,22818,593268).
route(prodloc14,prodloc8,tr13,22818,136908).
route(prodloc14,prodloc9,tr0,17577,457002).
route(prodloc14,prodloc9,tr13,17577,105462).
route(prodloc14,prodloc10,tr0,2160,56160).
route(prodloc14,prodloc10,tr13,2160,12960).
route(prodloc14,prodloc11,tr0,22721,590746).
route(prodloc14,prodloc11,tr13,22721,136326).
route(prodloc14,prodloc12,tr0,20641,536666).
route(prodloc14,prodloc12,tr13,20641,123846).
route(prodloc14,prodloc13,tr0,13276,345176).
route(prodloc14,prodloc13,tr13,13276,79656).
hub(prodloc1).
hub(prodloc2).
hub(prodloc6).
hub(prodloc14).
