% Multibatching benchmark instance
% Source: instances.lp
% seed=10  harbors=6  prodlocs=15  hubs=4  disruptions=2

% ---- locations ----
location(harbor0).
location(harbor1).
location(harbor2).
location(harbor3).
location(harbor4).
location(harbor5).
location(prodloc0).
location(prodloc1).
location(prodloc2).
location(prodloc3).
location(prodloc4).
location(prodloc5).
location(prodloc6).
location(prodloc7).
location(prodloc8).
location(prodloc9).
location(prodloc10).
location(prodloc11).
location(prodloc12).
location(prodloc13).
location(prodloc14).

% ---- transport resources ----
transportCapacity(tr0,1800).
transportCO2(tr0,1680).
transportCost(tr0,26).
transportSpeed(tr0,12).
transportCapacity(tr1,65).
transportCO2(tr1,90).
transportCost(tr1,1).
transportSpeed(tr1,35).
transportCapacity(tr10,1).
transportCO2(tr10,700).
transportCost(tr10,4).
transportSpeed(tr10,40).
transportCapacity(tr11,65).
transportCO2(tr11,62).
transportCost(tr11,1).
transportSpeed(tr11,25).
transportCapacity(tr12,65).
transportCO2(tr12,709).
transportCost(tr12,3).
transportSpeed(tr12,55).
transportCapacity(tr13,68).
transportCO2(tr13,160).
transportCost(tr13,6).
transportSpeed(tr13,25).
transportCapacity(tr14,146).
transportCO2(tr14,780).
transportCost(tr14,4).
transportSpeed(tr14,50).
transportCapacity(tr15,2217).
transportCO2(tr15,49470).
transportCost(tr15,32).
transportSpeed(tr15,625).
transportCapacity(tr2,96).
transportCO2(tr2,709).
transportCost(tr2,3).
transportSpeed(tr2,55).
transportCapacity(tr3,1).
transportCO2(tr3,6250).
transportCost(tr3,108).
transportSpeed(tr3,25).
transportCapacity(tr4,148).
transportCO2(tr4,780).
transportCost(tr4,4).
transportSpeed(tr4,50).
transportCapacity(tr5,65).
transportCO2(tr5,780).
transportCost(tr5,3).
transportSpeed(tr5,50).
transportCapacity(tr6,1).
transportCO2(tr6,100).
transportCost(tr6,40).
transportSpeed(tr6,25).
transportCapacity(tr7,1).
transportCO2(tr7,18000).
transportCost(tr7,278).
transportSpeed(tr7,10).
transportCapacity(tr8,1).
transportCO2(tr8,14400).
transportCost(tr8,107).
transportSpeed(tr8,25).
transportCapacity(tr9,65).
transportCO2(tr9,708).
transportCost(tr9,2).
transportSpeed(tr9,60).

% ---- parts ----
part(part0).
partSize(part0,21).
valid_transport(part0,tr0).
valid_transport(part0,tr15).
valid_transport(part0,tr14).
valid_transport(part0,tr13).
valid_transport(part0,tr4).
part(part1).
partSize(part1,1).
valid_transport(part1,tr0).
valid_transport(part1,tr2).
valid_transport(part1,tr15).
valid_transport(part1,tr9).
valid_transport(part1,tr12).
valid_transport(part1,tr13).
valid_transport(part1,tr11).
part(part10).
partSize(part10,1).
valid_transport(part10,tr0).
valid_transport(part10,tr2).
valid_transport(part10,tr15).
valid_transport(part10,tr9).
valid_transport(part10,tr12).
valid_transport(part10,tr13).
valid_transport(part10,tr11).
part(part11).
partSize(part11,83).
valid_transport(part11,tr0).
valid_transport(part11,tr7).
valid_transport(part11,tr8).
valid_transport(part11,tr15).
valid_transport(part11,tr3).
valid_transport(part11,tr13).
part(part12).
partSize(part12,273).
valid_transport(part12,tr0).
valid_transport(part12,tr7).
valid_transport(part12,tr8).
valid_transport(part12,tr15).
valid_transport(part12,tr3).
valid_transport(part12,tr13).
part(part13).
partSize(part13,1).
valid_transport(part13,tr0).
valid_transport(part13,tr2).
valid_transport(part13,tr15).
valid_transport(part13,tr9).
valid_transport(part13,tr12).
valid_transport(part13,tr13).
valid_transport(part13,tr11).
part(part14).
partSize(part14,68).
valid_transport(part14,tr0).
valid_transport(part14,tr15).
valid_transport(part14,tr13).
part(part15).
partSize(part15,4).
valid_transport(part15,tr0).
valid_transport(part15,tr2).
valid_transport(part15,tr15).
valid_transport(part15,tr9).
valid_transport(part15,tr12).
valid_transport(part15,tr13).
valid_transport(part15,tr11).
part(part16).
partSize(part16,4).
valid_transport(part16,tr0).
valid_transport(part16,tr2).
valid_transport(part16,tr15).
valid_transport(part16,tr9).
valid_transport(part16,tr12).
valid_transport(part16,tr13).
valid_transport(part16,tr11).
part(part17).
partSize(part17,8).
valid_transport(part17,tr0).
valid_transport(part17,tr15).
valid_transport(part17,tr14).
valid_transport(part17,tr13).
valid_transport(part17,tr4).
part(part18).
partSize(part18,24).
valid_transport(part18,tr0).
valid_transport(part18,tr15).
valid_transport(part18,tr14).
valid_transport(part18,tr13).
valid_transport(part18,tr4).
part(part19).
partSize(part19,6).
valid_transport(part19,tr0).
valid_transport(part19,tr2).
valid_transport(part19,tr15).
valid_transport(part19,tr9).
valid_transport(part19,tr12).
valid_transport(part19,tr13).
valid_transport(part19,tr11).
part(part2).
partSize(part2,19).
valid_transport(part2,tr0).
valid_transport(part2,tr15).
valid_transport(part2,tr14).
valid_transport(part2,tr13).
valid_transport(part2,tr4).
part(part20).
partSize(part20,128).
valid_transport(part20,tr0).
valid_transport(part20,tr7).
valid_transport(part20,tr8).
valid_transport(part20,tr15).
valid_transport(part20,tr3).
valid_transport(part20,tr13).
part(part21).
partSize(part21,25).
valid_transport(part21,tr0).
valid_transport(part21,tr15).
valid_transport(part21,tr14).
valid_transport(part21,tr13).
valid_transport(part21,tr4).
part(part22).
partSize(part22,7).
valid_transport(part22,tr0).
valid_transport(part22,tr2).
valid_transport(part22,tr15).
valid_transport(part22,tr9).
valid_transport(part22,tr12).
valid_transport(part22,tr13).
valid_transport(part22,tr11).
part(part23).
partSize(part23,5).
valid_transport(part23,tr0).
valid_transport(part23,tr15).
valid_transport(part23,tr14).
valid_transport(part23,tr13).
valid_transport(part23,tr4).
part(part24).
partSize(part24,55).
valid_transport(part24,tr0).
valid_transport(part24,tr7).
valid_transport(part24,tr8).
valid_transport(part24,tr15).
valid_transport(part24,tr3).
valid_transport(part24,tr13).
part(part25).
partSize(part25,5).
valid_transport(part25,tr0).
valid_transport(part25,tr4).
valid_transport(part25,tr2).
valid_transport(part25,tr15).
valid_transport(part25,tr13).
part(part26).
partSize(part26,32).
valid_transport(part26,tr0).
valid_transport(part26,tr7).
valid_transport(part26,tr8).
valid_transport(part26,tr15).
valid_transport(part26,tr3).
valid_transport(part26,tr13).
part(part27).
partSize(part27,5).
valid_transport(part27,tr0).
valid_transport(part27,tr2).
valid_transport(part27,tr15).
valid_transport(part27,tr9).
valid_transport(part27,tr12).
valid_transport(part27,tr13).
valid_transport(part27,tr11).
part(part28).
partSize(part28,3).
valid_transport(part28,tr0).
valid_transport(part28,tr4).
valid_transport(part28,tr2).
valid_transport(part28,tr15).
valid_transport(part28,tr14).
valid_transport(part28,tr13).
part(part29).
partSize(part29,627).
part(part3).
partSize(part3,48).
valid_transport(part3,tr0).
valid_transport(part3,tr7).
valid_transport(part3,tr8).
valid_transport(part3,tr15).
valid_transport(part3,tr3).
valid_transport(part3,tr13).
part(part30).
partSize(part30,2).
valid_transport(part30,tr0).
valid_transport(part30,tr2).
valid_transport(part30,tr15).
valid_transport(part30,tr9).
valid_transport(part30,tr12).
valid_transport(part30,tr13).
valid_transport(part30,tr11).
part(part31).
partSize(part31,144).
valid_transport(part31,tr0).
valid_transport(part31,tr7).
valid_transport(part31,tr8).
valid_transport(part31,tr15).
valid_transport(part31,tr3).
valid_transport(part31,tr13).
part(part32).
partSize(part32,16).
valid_transport(part32,tr0).
valid_transport(part32,tr4).
valid_transport(part32,tr2).
valid_transport(part32,tr15).
valid_transport(part32,tr14).
valid_transport(part32,tr13).
part(part33).
partSize(part33,7).
valid_transport(part33,tr0).
valid_transport(part33,tr2).
valid_transport(part33,tr15).
valid_transport(part33,tr9).
valid_transport(part33,tr12).
valid_transport(part33,tr13).
valid_transport(part33,tr11).
part(part3345).
partSize(part3345,353).
valid_transport(part3345,tr0).
valid_transport(part3345,tr7).
valid_transport(part3345,tr8).
valid_transport(part3345,tr15).
valid_transport(part3345,tr3).
valid_transport(part3345,tr13).
part(part34).
partSize(part34,2).
valid_transport(part34,tr0).
valid_transport(part34,tr2).
valid_transport(part34,tr15).
valid_transport(part34,tr9).
valid_transport(part34,tr12).
valid_transport(part34,tr13).
valid_transport(part34,tr11).
part(part4).
partSize(part4,2).
valid_transport(part4,tr0).
valid_transport(part4,tr2).
valid_transport(part4,tr15).
valid_transport(part4,tr9).
valid_transport(part4,tr12).
valid_transport(part4,tr13).
valid_transport(part4,tr11).
part(part5).
partSize(part5,2).
valid_transport(part5,tr0).
valid_transport(part5,tr2).
valid_transport(part5,tr15).
valid_transport(part5,tr9).
valid_transport(part5,tr12).
valid_transport(part5,tr14).
valid_transport(part5,tr13).
valid_transport(part5,tr11).
part(part6).
partSize(part6,111).
valid_transport(part6,tr0).
valid_transport(part6,tr7).
valid_transport(part6,tr8).
valid_transport(part6,tr15).
valid_transport(part6,tr3).
valid_transport(part6,tr13).
part(part8).
partSize(part8,163).
valid_transport(part8,tr0).
valid_transport(part8,tr7).
valid_transport(part8,tr8).
valid_transport(part8,tr15).
valid_transport(part8,tr3).
valid_transport(part8,tr13).
part(part9).
partSize(part9,2).
valid_transport(part9,tr0).
valid_transport(part9,tr2).
valid_transport(part9,tr15).
valid_transport(part9,tr9).
valid_transport(part9,tr12).
valid_transport(part9,tr13).
valid_transport(part9,tr11).

% ---- demand ----
demandOffer(part0,prodloc9,40).
demandOffer(part0,prodloc0,40).
demandOffer(part0,prodloc6,-27).
demandOffer(part0,prodloc7,-53).
demandOffer(part1,prodloc9,20).
demandOffer(part1,prodloc0,20).
demandOffer(part1,prodloc3,-20).
demandOffer(part1,prodloc7,-20).
demandOffer(part10,prodloc13,20).
demandOffer(part10,prodloc7,20).
demandOffer(part10,prodloc4,-20).
demandOffer(part10,prodloc10,-20).
demandOffer(part12,prodloc12,10).
demandOffer(part12,prodloc2,20).
demandOffer(part12,prodloc0,-10).
demandOffer(part12,prodloc8,-10).
demandOffer(part12,prodloc7,-10).
demandOffer(part13,prodloc5,20).
demandOffer(part13,prodloc1,20).
demandOffer(part13,prodloc3,-20).
demandOffer(part13,prodloc11,-20).
demandOffer(part14,prodloc5,26).
demandOffer(part14,prodloc0,-26).
demandOffer(part15,prodloc6,53).
demandOffer(part15,prodloc13,27).
demandOffer(part15,prodloc2,-53).
demandOffer(part15,prodloc9,-27).
demandOffer(part16,prodloc5,53).
demandOffer(part16,prodloc6,27).
demandOffer(part16,prodloc13,-53).
demandOffer(part16,prodloc4,-27).
demandOffer(part17,prodloc13,20).
demandOffer(part17,prodloc10,-20).
demandOffer(part18,prodloc4,40).
demandOffer(part18,prodloc7,40).
demandOffer(part18,prodloc2,-27).
demandOffer(part18,prodloc10,-53).
demandOffer(part19,prodloc4,26).
demandOffer(part19,prodloc10,-26).
demandOffer(part2,prodloc5,40).
demandOffer(part2,prodloc2,40).
demandOffer(part2,prodloc7,-27).
demandOffer(part2,prodloc3,-53).
demandOffer(part20,prodloc7,53).
demandOffer(part20,prodloc9,27).
demandOffer(part20,prodloc6,-14).
demandOffer(part20,prodloc0,-46).
demandOffer(part20,prodloc13,-20).
demandOffer(part21,prodloc0,26).
demandOffer(part21,prodloc3,-26).
demandOffer(part22,prodloc2,53).
demandOffer(part22,prodloc3,27).
demandOffer(part22,prodloc4,-53).
demandOffer(part22,prodloc8,-27).
demandOffer(part23,prodloc5,20).
demandOffer(part23,prodloc12,20).
demandOffer(part23,prodloc3,-20).
demandOffer(part23,prodloc14,-20).
demandOffer(part25,prodloc10,20).
demandOffer(part25,prodloc8,-20).
demandOffer(part26,prodloc7,20).
demandOffer(part26,prodloc6,20).
demandOffer(part26,prodloc14,-14).
demandOffer(part26,prodloc1,-26).
demandOffer(part27,prodloc10,53).
demandOffer(part27,prodloc9,27).
demandOffer(part27,prodloc5,-53).
demandOffer(part27,prodloc8,-27).
demandOffer(part28,prodloc2,20).
demandOffer(part28,prodloc13,20).
demandOffer(part28,prodloc3,-20).
demandOffer(part28,prodloc6,-20).
demandOffer(part3,prodloc3,40).
demandOffer(part3,prodloc0,-14).
demandOffer(part3,prodloc13,-26).
demandOffer(part30,prodloc7,40).
demandOffer(part30,prodloc4,40).
demandOffer(part30,prodloc9,-27).
demandOffer(part30,prodloc10,-53).
demandOffer(part31,prodloc1,7).
demandOffer(part31,prodloc8,7).
demandOffer(part31,prodloc14,-14).
demandOffer(part32,prodloc2,53).
demandOffer(part32,prodloc6,27).
demandOffer(part32,prodloc9,-53).
demandOffer(part32,prodloc5,-27).
demandOffer(part33,prodloc14,53).
demandOffer(part33,prodloc9,27).
demandOffer(part33,prodloc2,-53).
demandOffer(part33,prodloc1,-27).
demandOffer(part34,prodloc12,20).
demandOffer(part34,prodloc14,-20).
demandOffer(part4,prodloc1,26).
demandOffer(part4,prodloc7,-26).
demandOffer(part5,prodloc2,20).
demandOffer(part5,prodloc12,-20).
demandOffer(part6,prodloc3,27).
demandOffer(part6,prodloc5,53).
demandOffer(part6,prodloc6,-24).
demandOffer(part6,prodloc12,-36).
demandOffer(part6,prodloc7,-10).
demandOffer(part6,prodloc14,-10).
demandOffer(part8,prodloc10,3).
demandOffer(part8,prodloc4,17).
demandOffer(part8,prodloc2,-10).
demandOffer(part8,prodloc9,-10).
demandOffer(part9,prodloc8,20).
demandOffer(part9,prodloc2,-20).

% ---- network (ASP-generated) ----
route(harbor0,harbor1,tr13,28370,170220).
route(harbor0,harbor1,tr2,28370,85110).
route(harbor0,harbor2,tr13,3945,23670).
route(harbor0,harbor2,tr2,3945,11835).
route(harbor0,harbor3,tr13,8779,52674).
route(harbor0,harbor3,tr2,8779,26337).
route(harbor0,harbor4,tr13,14963,89778).
route(harbor0,harbor4,tr2,14963,44889).
route(harbor0,harbor5,tr13,9944,59664).
route(harbor0,harbor5,tr2,9944,29832).
route(harbor0,prodloc0,tr0,5406,140556).
route(harbor0,prodloc0,tr13,5406,32436).
route(harbor0,prodloc1,tr0,21642,562692).
route(harbor0,prodloc1,tr13,21642,129852).
route(harbor0,prodloc2,tr0,21259,552734).
route(harbor0,prodloc2,tr13,21259,127554).
route(harbor0,prodloc3,tr0,26906,699556).
route(harbor0,prodloc3,tr13,26906,161436).
route(harbor0,prodloc4,tr0,5713,148538).
route(harbor0,prodloc4,tr13,5713,34278).
route(harbor0,prodloc5,tr0,25479,662454).
route(harbor0,prodloc5,tr13,25479,152874).
route(harbor0,prodloc6,tr0,5772,150072).
route(harbor0,prodloc6,tr13,5772,34632).
route(harbor0,prodloc7,tr0,15735,409110).
route(harbor0,prodloc7,tr13,15735,94410).
route(harbor0,prodloc8,tr0,25326,658476).
route(harbor0,prodloc8,tr13,25326,151956).
route(harbor0,prodloc9,tr0,11391,296166).
route(harbor0,prodloc9,tr13,11391,68346).
route(harbor0,prodloc10,tr0,10751,279526).
route(harbor0,prodloc10,tr13,10751,64506).
route(harbor0,prodloc11,tr0,14246,370396).
route(harbor0,prodloc11,tr13,14246,85476).
route(harbor0,prodloc12,tr0,7331,190606).
route(harbor0,prodloc12,tr13,7331,43986).
route(harbor0,prodloc13,tr0,166,4316).
route(harbor0,prodloc13,tr13,166,996).
route(harbor0,prodloc14,tr0,17855,464230).
route(harbor0,prodloc14,tr13,17855,107130).
route(harbor1,harbor0,tr13,23379,140274).
route(harbor1,harbor0,tr2,23379,70137).
route(harbor1,harbor2,tr13,1461,8766).
route(harbor1,harbor2,tr2,1461,4383).
route(harbor1,harbor3,tr13,10897,65382).
route(harbor1,harbor3,tr2,10897,32691).
route(harbor1,harbor4,tr13,10496,62976).
route(harbor1,harbor4,tr2,10496,31488).
route(harbor1,harbor5,tr13,7980,47880).
route(harbor1,harbor5,tr2,7980,23940).
route(harbor1,prodloc0,tr0,2620,68120).
route(harbor1,prodloc0,tr13,2620,15720).
route(harbor1,prodloc1,tr0,8579,223054).
route(harbor1,prodloc1,tr13,8579,51474).
route(harbor1,prodloc2,tr0,14683,381758).
route(harbor1,prodloc2,tr13,14683,88098).
route(harbor1,prodloc3,tr0,13266,344916).
route(harbor1,prodloc3,tr13,13266,79596).
route(harbor1,prodloc4,tr0,19100,496600).
route(harbor1,prodloc4,tr13,19100,114600).
route(harbor1,prodloc5,tr0,5186,134836).
route(harbor1,prodloc5,tr13,5186,31116).
route(harbor1,prodloc6,tr0,12800,332800).
route(harbor1,prodloc6,tr13,12800,76800).
route(harbor1,prodloc7,tr0,28495,740870).
route(harbor1,prodloc7,tr13,28495,170970).
route(harbor1,prodloc8,tr0,16247,422422).
route(harbor1,prodloc8,tr13,16247,97482).
route(harbor1,prodloc9,tr0,22066,573716).
route(harbor1,prodloc9,tr13,22066,132396).
route(harbor1,prodloc10,tr0,7912,205712).
route(harbor1,prodloc10,tr13,7912,47472).
route(harbor1,prodloc11,tr0,24129,627354).
route(harbor1,prodloc11,tr13,24129,144774).
route(harbor1,prodloc12,tr0,17216,447616).
route(harbor1,prodloc12,tr13,17216,103296).
route(harbor1,prodloc13,tr0,8904,231504).
route(harbor1,prodloc13,tr13,8904,53424).
route(harbor1,prodloc14,tr0,17044,443144).
route(harbor1,prodloc14,tr13,17044,102264).
route(harbor2,harbor0,tr13,15843,95058).
route(harbor2,harbor0,tr2,15843,47529).
route(harbor2,harbor1,tr13,19759,118554).
route(harbor2,harbor1,tr2,19759,59277).
route(harbor2,harbor3,tr13,16410,98460).
route(harbor2,harbor3,tr2,16410,49230).
route(harbor2,harbor4,tr13,2086,12516).
route(harbor2,harbor4,tr2,2086,6258).
route(harbor2,harbor5,tr13,5479,32874).
route(harbor2,harbor5,tr2,5479,16437).
route(harbor2,prodloc0,tr0,16038,416988).
route(harbor2,prodloc0,tr13,16038,96228).
route(harbor2,prodloc1,tr0,22097,574522).
route(harbor2,prodloc1,tr13,22097,132582).
route(harbor2,prodloc2,tr0,15122,393172).
route(harbor2,prodloc2,tr13,15122,90732).
route(harbor2,prodloc3,tr0,13146,341796).
route(harbor2,prodloc3,tr13,13146,78876).
route(harbor2,prodloc4,tr0,4450,115700).
route(harbor2,prodloc4,tr13,4450,26700).
route(harbor2,prodloc5,tr0,13778,358228).
route(harbor2,prodloc5,tr13,13778,82668).
route(harbor2,prodloc6,tr0,17739,461214).
route(harbor2,prodloc6,tr13,17739,106434).
route(harbor2,prodloc7,tr0,19169,498394).
route(harbor2,prodloc7,tr13,19169,115014).
route(harbor2,prodloc8,tr0,11445,297570).
route(harbor2,prodloc8,tr13,11445,68670).
route(harbor2,prodloc9,tr0,17653,458978).
route(harbor2,prodloc9,tr13,17653,105918).
route(harbor2,prodloc10,tr0,12710,330460).
route(harbor2,prodloc10,tr13,12710,76260).
route(harbor2,prodloc11,tr0,16054,417404).
route(harbor2,prodloc11,tr13,16054,96324).
route(harbor2,prodloc12,tr0,22997,597922).
route(harbor2,prodloc12,tr13,22997,137982).
route(harbor2,prodloc13,tr0,5434,141284).
route(harbor2,prodloc13,tr13,5434,32604).
route(harbor2,prodloc14,tr0,18310,476060).
route(harbor2,prodloc14,tr13,18310,109860).
route(harbor3,harbor0,tr13,14492,86952).
route(harbor3,harbor0,tr2,14492,43476).
route(harbor3,harbor1,tr13,3262,19572).
route(harbor3,harbor1,tr2,3262,9786).
route(harbor3,harbor2,tr13,13634,81804).
route(harbor3,harbor2,tr2,13634,40902).
route(harbor3,harbor4,tr13,27196,163176).
route(harbor3,harbor4,tr2,27196,81588).
route(harbor3,harbor5,tr13,1187,7122).
route(harbor3,harbor5,tr2,1187,3561).
route(harbor3,prodloc0,tr0,28576,742976).
route(harbor3,prodloc0,tr13,28576,171456).
route(harbor3,prodloc1,tr0,94,2444).
route(harbor3,prodloc1,tr13,94,564).
route(harbor3,prodloc2,tr0,14373,373698).
route(harbor3,prodloc2,tr13,14373,86238).
route(harbor3,prodloc3,tr0,17546,456196).
route(harbor3,prodloc3,tr13,17546,105276).
route(harbor3,prodloc4,tr0,2129,55354).
route(harbor3,prodloc4,tr13,2129,12774).
route(harbor3,prodloc5,tr0,1659,43134).
route(harbor3,prodloc5,tr13,1659,9954).
route(harbor3,prodloc6,tr0,11458,297908).
route(harbor3,prodloc6,tr13,11458,68748).
route(harbor3,prodloc7,tr0,3041,79066).
route(harbor3,prodloc7,tr13,3041,18246).
route(harbor3,prodloc8,tr0,4983,129558).
route(harbor3,prodloc8,tr13,4983,29898).
route(harbor3,prodloc9,tr0,3565,92690).
route(harbor3,prodloc9,tr13,3565,21390).
route(harbor3,prodloc10,tr0,19932,518232).
route(harbor3,prodloc10,tr13,19932,119592).
route(harbor3,prodloc11,tr0,14881,386906).
route(harbor3,prodloc11,tr13,14881,89286).
route(harbor3,prodloc12,tr0,27312,710112).
route(harbor3,prodloc12,tr13,27312,163872).
route(harbor3,prodloc13,tr0,26200,681200).
route(harbor3,prodloc13,tr13,26200,157200).
route(harbor3,prodloc14,tr0,15896,413296).
route(harbor3,prodloc14,tr13,15896,95376).
route(harbor4,harbor0,tr13,4594,27564).
route(harbor4,harbor0,tr2,4594,13782).
route(harbor4,harbor1,tr13,15058,90348).
route(harbor4,harbor1,tr2,15058,45174).
route(harbor4,harbor2,tr13,28277,169662).
route(harbor4,harbor2,tr2,28277,84831).
route(harbor4,harbor3,tr13,14333,85998).
route(harbor4,harbor3,tr2,14333,42999).
route(harbor4,harbor5,tr13,25412,152472).
route(harbor4,harbor5,tr2,25412,76236).
route(harbor4,prodloc0,tr0,16422,426972).
route(harbor4,prodloc0,tr13,16422,98532).
route(harbor4,prodloc1,tr0,14652,380952).
route(harbor4,prodloc1,tr13,14652,87912).
route(harbor4,prodloc2,tr0,11248,292448).
route(harbor4,prodloc2,tr13,11248,67488).
route(harbor4,prodloc3,tr0,23798,618748).
route(harbor4,prodloc3,tr13,23798,142788).
route(harbor4,prodloc4,tr0,8492,220792).
route(harbor4,prodloc4,tr13,8492,50952).
route(harbor4,prodloc5,tr0,25847,672022).
route(harbor4,prodloc5,tr13,25847,155082).
route(harbor4,prodloc6,tr0,22869,594594).
route(harbor4,prodloc6,tr13,22869,137214).
route(harbor4,prodloc7,tr0,15017,390442).
route(harbor4,prodloc7,tr13,15017,90102).
route(harbor4,prodloc8,tr0,13873,360698).
route(harbor4,prodloc8,tr13,13873,83238).
route(harbor4,prodloc9,tr0,10762,279812).
route(harbor4,prodloc9,tr13,10762,64572).
route(harbor4,prodloc10,tr0,21285,553410).
route(harbor4,prodloc10,tr13,21285,127710).
route(harbor4,prodloc11,tr0,17030,442780).
route(harbor4,prodloc11,tr13,17030,102180).
route(harbor4,prodloc12,tr0,17152,445952).
route(harbor4,prodloc12,tr13,17152,102912).
route(harbor4,prodloc13,tr0,5036,130936).
route(harbor4,prodloc13,tr13,5036,30216).
route(harbor4,prodloc14,tr0,24238,630188).
route(harbor4,prodloc14,tr13,24238,145428).
route(harbor5,harbor0,tr13,7807,46842).
route(harbor5,harbor0,tr2,7807,23421).
route(harbor5,harbor1,tr13,10616,63696).
route(harbor5,harbor1,tr2,10616,31848).
route(harbor5,harbor2,tr13,20317,121902).
route(harbor5,harbor2,tr2,20317,60951).
route(harbor5,harbor3,tr13,1108,6648).
route(harbor5,harbor3,tr2,1108,3324).
route(harbor5,harbor4,tr13,22542,135252).
route(harbor5,harbor4,tr2,22542,67626).
route(harbor5,prodloc0,tr0,6410,166660).
route(harbor5,prodloc0,tr13,6410,38460).
route(harbor5,prodloc1,tr0,21058,547508).
route(harbor5,prodloc1,tr13,21058,126348).
route(harbor5,prodloc2,tr0,19286,501436).
route(harbor5,prodloc2,tr13,19286,115716).
route(harbor5,prodloc3,tr0,18854,490204).
route(harbor5,prodloc3,tr13,18854,113124).
route(harbor5,prodloc4,tr0,27180,706680).
route(harbor5,prodloc4,tr13,27180,163080).
route(harbor5,prodloc5,tr0,20594,535444).
route(harbor5,prodloc5,tr13,20594,123564).
route(harbor5,prodloc6,tr0,15696,408096).
route(harbor5,prodloc6,tr13,15696,94176).
route(harbor5,prodloc7,tr0,818,21268).
route(harbor5,prodloc7,tr13,818,4908).
route(harbor5,prodloc8,tr0,26465,688090).
route(harbor5,prodloc8,tr13,26465,158790).
route(harbor5,prodloc9,tr0,3815,99190).
route(harbor5,prodloc9,tr13,3815,22890).
route(harbor5,prodloc10,tr0,9710,252460).
route(harbor5,prodloc10,tr13,9710,58260).
route(harbor5,prodloc11,tr0,14267,370942).
route(harbor5,prodloc11,tr13,14267,85602).
route(harbor5,prodloc12,tr0,27894,725244).
route(harbor5,prodloc12,tr13,27894,167364).
route(harbor5,prodloc13,tr0,28144,731744).
route(harbor5,prodloc13,tr13,28144,168864).
route(harbor5,prodloc14,tr0,8080,210080).
route(harbor5,prodloc14,tr13,8080,48480).
route(prodloc0,harbor0,tr0,23537,611962).
route(prodloc0,harbor0,tr13,23537,141222).
route(prodloc0,harbor1,tr0,9482,246532).
route(prodloc0,harbor1,tr13,9482,56892).
route(prodloc0,harbor2,tr0,2919,75894).
route(prodloc0,harbor2,tr13,2919,17514).
route(prodloc0,harbor3,tr0,1517,39442).
route(prodloc0,harbor3,tr13,1517,9102).
route(prodloc0,harbor4,tr0,19572,508872).
route(prodloc0,harbor4,tr13,19572,117432).
route(prodloc0,harbor5,tr0,18044,469144).
route(prodloc0,harbor5,tr13,18044,108264).
route(prodloc0,prodloc1,tr0,25129,653354).
route(prodloc0,prodloc1,tr13,25129,150774).
route(prodloc0,prodloc2,tr0,3462,90012).
route(prodloc0,prodloc2,tr13,3462,20772).
route(prodloc0,prodloc3,tr0,26764,695864).
route(prodloc0,prodloc3,tr13,26764,160584).
route(prodloc0,prodloc4,tr0,9356,243256).
route(prodloc0,prodloc4,tr13,9356,56136).
route(prodloc0,prodloc5,tr0,5331,138606).
route(prodloc0,prodloc5,tr13,5331,31986).
route(prodloc0,prodloc6,tr0,21956,570856).
route(prodloc0,prodloc6,tr15,21956,702592).
route(prodloc0,prodloc7,tr0,15643,406718).
route(prodloc0,prodloc7,tr13,15643,93858).
route(prodloc0,prodloc8,tr0,4631,120406).
route(prodloc0,prodloc8,tr13,4631,27786).
route(prodloc0,prodloc9,tr0,11830,307580).
route(prodloc0,prodloc9,tr13,11830,70980).
route(prodloc0,prodloc10,tr0,19503,507078).
route(prodloc0,prodloc10,tr13,19503,117018).
route(prodloc0,prodloc11,tr0,13131,341406).
route(prodloc0,prodloc11,tr13,13131,78786).
route(prodloc0,prodloc12,tr0,25785,670410).
route(prodloc0,prodloc12,tr13,25785,154710).
route(prodloc0,prodloc13,tr0,6292,163592).
route(prodloc0,prodloc13,tr13,6292,37752).
route(prodloc0,prodloc14,tr0,11466,298116).
route(prodloc0,prodloc14,tr13,11466,68796).
route(prodloc1,harbor0,tr0,5983,155558).
route(prodloc1,harbor0,tr13,5983,35898).
route(prodloc1,harbor1,tr0,2615,67990).
route(prodloc1,harbor1,tr13,2615,15690).
route(prodloc1,harbor2,tr0,19383,503958).
route(prodloc1,harbor2,tr13,19383,116298).
route(prodloc1,harbor3,tr0,6380,165880).
route(prodloc1,harbor3,tr13,6380,38280).
route(prodloc1,harbor4,tr0,13985,363610).
route(prodloc1,harbor4,tr13,13985,83910).
route(prodloc1,harbor5,tr0,6808,177008).
route(prodloc1,harbor5,tr13,6808,40848).
route(prodloc1,prodloc0,tr0,3147,81822).
route(prodloc1,prodloc0,tr13,3147,18882).
route(prodloc1,prodloc2,tr0,22427,583102).
route(prodloc1,prodloc2,tr13,22427,134562).
route(prodloc1,prodloc3,tr0,10111,262886).
route(prodloc1,prodloc3,tr15,10111,323552).
route(prodloc1,prodloc4,tr0,15198,395148).
route(prodloc1,prodloc4,tr13,15198,91188).
route(prodloc1,prodloc5,tr0,28286,735436).
route(prodloc1,prodloc5,tr13,28286,169716).
route(prodloc1,prodloc6,tr0,24371,633646).
route(prodloc1,prodloc6,tr13,24371,146226).
route(prodloc1,prodloc7,tr0,24624,640224).
route(prodloc1,prodloc7,tr13,24624,147744).
route(prodloc1,prodloc8,tr0,22783,592358).
route(prodloc1,prodloc8,tr13,22783,136698).
route(prodloc1,prodloc9,tr0,27112,704912).
route(prodloc1,prodloc9,tr13,27112,162672).
route(prodloc1,prodloc10,tr0,17121,445146).
route(prodloc1,prodloc10,tr13,17121,102726).
route(prodloc1,prodloc11,tr0,23676,615576).
route(prodloc1,prodloc11,tr13,23676,142056).
route(prodloc1,prodloc12,tr0,13878,360828).
route(prodloc1,prodloc12,tr13,13878,83268).
route(prodloc1,prodloc13,tr0,14669,381394).
route(prodloc1,prodloc13,tr13,14669,88014).
route(prodloc1,prodloc14,tr13,21762,130572).
route(prodloc1,prodloc14,tr15,21762,696384).
route(prodloc2,harbor0,tr0,24363,633438).
route(prodloc2,harbor0,tr13,24363,146178).
route(prodloc2,harbor1,tr0,18205,473330).
route(prodloc2,harbor1,tr13,18205,109230).
route(prodloc2,harbor2,tr0,6834,177684).
route(prodloc2,harbor2,tr13,6834,41004).
route(prodloc2,harbor3,tr0,8714,226564).
route(prodloc2,harbor3,tr13,8714,52284).
route(prodloc2,harbor4,tr0,19581,509106).
route(prodloc2,harbor4,tr13,19581,117486).
route(prodloc2,harbor5,tr0,11940,310440).
route(prodloc2,harbor5,tr13,11940,71640).
route(prodloc2,prodloc0,tr0,3800,98800).
route(prodloc2,prodloc0,tr13,3800,22800).
route(prodloc2,prodloc1,tr0,20556,534456).
route(prodloc2,prodloc1,tr13,20556,123336).
route(prodloc2,prodloc3,tr0,25651,666926).
route(prodloc2,prodloc3,tr13,25651,153906).
route(prodloc2,prodloc4,tr0,20551,534326).
route(prodloc2,prodloc4,tr15,20551,657632).
route(prodloc2,prodloc5,tr0,255,6630).
route(prodloc2,prodloc5,tr13,255,1530).
route(prodloc2,prodloc6,tr0,6869,178594).
route(prodloc2,prodloc6,tr13,6869,41214).
route(prodloc2,prodloc7,tr0,13891,361166).
route(prodloc2,prodloc7,tr13,13891,83346).
route(prodloc2,prodloc8,tr0,19983,519558).
route(prodloc2,prodloc8,tr13,19983,119898).
route(prodloc2,prodloc9,tr0,13386,348036).
route(prodloc2,prodloc9,tr13,13386,80316).
route(prodloc2,prodloc10,tr0,28671,745446).
route(prodloc2,prodloc10,tr13,28671,172026).
route(prodloc2,prodloc11,tr0,12514,325364).
route(prodloc2,prodloc11,tr13,12514,75084).
route(prodloc2,prodloc12,tr0,28553,742378).
route(prodloc2,prodloc12,tr15,28553,913696).
route(prodloc2,prodloc13,tr0,26613,691938).
route(prodloc2,prodloc13,tr13,26613,159678).
route(prodloc2,prodloc14,tr0,21375,555750).
route(prodloc2,prodloc14,tr13,21375,128250).
route(prodloc3,harbor0,tr0,6547,170222).
route(prodloc3,harbor0,tr13,6547,39282).
route(prodloc3,harbor1,tr0,2301,59826).
route(prodloc3,harbor1,tr13,2301,13806).
route(prodloc3,harbor2,tr0,25307,657982).
route(prodloc3,harbor2,tr13,25307,151842).
route(prodloc3,harbor3,tr0,13879,360854).
route(prodloc3,harbor3,tr13,13879,83274).
route(prodloc3,harbor4,tr0,26122,679172).
route(prodloc3,harbor4,tr13,26122,156732).
route(prodloc3,harbor5,tr0,2919,75894).
route(prodloc3,harbor5,tr13,2919,17514).
route(prodloc3,prodloc0,tr0,26999,701974).
route(prodloc3,prodloc0,tr13,26999,161994).
route(prodloc3,prodloc1,tr0,1812,47112).
route(prodloc3,prodloc1,tr13,1812,10872).
route(prodloc3,prodloc2,tr0,11405,296530).
route(prodloc3,prodloc2,tr13,11405,68430).
route(prodloc3,prodloc4,tr0,8347,217022).
route(prodloc3,prodloc4,tr13,8347,50082).
route(prodloc3,prodloc5,tr0,11805,306930).
route(prodloc3,prodloc5,tr13,11805,70830).
route(prodloc3,prodloc6,tr0,14972,389272).
route(prodloc3,prodloc6,tr13,14972,89832).
route(prodloc3,prodloc7,tr0,13901,361426).
route(prodloc3,prodloc7,tr13,13901,83406).
route(prodloc3,prodloc8,tr0,24886,647036).
route(prodloc3,prodloc8,tr13,24886,149316).
route(prodloc3,prodloc9,tr0,6346,164996).
route(prodloc3,prodloc9,tr13,6346,38076).
route(prodloc3,prodloc10,tr0,20607,535782).
route(prodloc3,prodloc10,tr13,20607,123642).
route(prodloc3,prodloc11,tr0,24559,638534).
route(prodloc3,prodloc11,tr13,24559,147354).
route(prodloc3,prodloc12,tr0,9258,240708).
route(prodloc3,prodloc12,tr13,9258,55548).
route(prodloc3,prodloc13,tr0,15294,397644).
route(prodloc3,prodloc13,tr15,15294,489408).
route(prodloc3,prodloc14,tr0,22778,592228).
route(prodloc3,prodloc14,tr13,22778,136668).
route(prodloc4,harbor0,tr0,9635,250510).
route(prodloc4,harbor0,tr13,9635,57810).
route(prodloc4,harbor1,tr0,16599,431574).
route(prodloc4,harbor1,tr13,16599,99594).
route(prodloc4,harbor2,tr0,16366,425516).
route(prodloc4,harbor2,tr13,16366,98196).
route(prodloc4,harbor3,tr0,16632,432432).
route(prodloc4,harbor3,tr13,16632,99792).
route(prodloc4,harbor4,tr0,8640,224640).
route(prodloc4,harbor4,tr13,8640,51840).
route(prodloc4,harbor5,tr0,13258,344708).
route(prodloc4,harbor5,tr13,13258,79548).
route(prodloc4,prodloc0,tr0,14473,376298).
route(prodloc4,prodloc0,tr13,14473,86838).
route(prodloc4,prodloc1,tr0,20957,544882).
route(prodloc4,prodloc1,tr13,20957,125742).
route(prodloc4,prodloc2,tr0,11193,291018).
route(prodloc4,prodloc2,tr13,11193,67158).
route(prodloc4,prodloc3,tr0,11437,297362).
route(prodloc4,prodloc3,tr13,11437,68622).
route(prodloc4,prodloc5,tr0,23809,619034).
route(prodloc4,prodloc5,tr13,23809,142854).
route(prodloc4,prodloc6,tr0,9080,236080).
route(prodloc4,prodloc6,tr13,9080,54480).
route(prodloc4,prodloc7,tr0,15815,411190).
route(prodloc4,prodloc7,tr13,15815,94890).
route(prodloc4,prodloc8,tr0,14641,380666).
route(prodloc4,prodloc8,tr13,14641,87846).
route(prodloc4,prodloc9,tr13,27962,167772).
route(prodloc4,prodloc9,tr15,27962,894784).
route(prodloc4,prodloc10,tr0,15632,406432).
route(prodloc4,prodloc10,tr13,15632,93792).
route(prodloc4,prodloc11,tr0,19242,500292).
route(prodloc4,prodloc11,tr13,19242,115452).
route(prodloc4,prodloc12,tr0,15727,408902).
route(prodloc4,prodloc12,tr13,15727,94362).
route(prodloc4,prodloc13,tr0,2752,71552).
route(prodloc4,prodloc13,tr13,2752,16512).
route(prodloc4,prodloc14,tr0,22600,587600).
route(prodloc4,prodloc14,tr13,22600,135600).
route(prodloc5,harbor0,tr0,17690,459940).
route(prodloc5,harbor0,tr13,17690,106140).
route(prodloc5,harbor1,tr0,23589,613314).
route(prodloc5,harbor1,tr13,23589,141534).
route(prodloc5,harbor2,tr0,12028,312728).
route(prodloc5,harbor2,tr13,12028,72168).
route(prodloc5,harbor3,tr0,26252,682552).
route(prodloc5,harbor3,tr13,26252,157512).
route(prodloc5,harbor4,tr0,23662,615212).
route(prodloc5,harbor4,tr13,23662,141972).
route(prodloc5,harbor5,tr0,13281,345306).
route(prodloc5,harbor5,tr13,13281,79686).
route(prodloc5,prodloc0,tr0,26004,676104).
route(prodloc5,prodloc0,tr13,26004,156024).
route(prodloc5,prodloc1,tr0,5523,143598).
route(prodloc5,prodloc1,tr13,5523,33138).
route(prodloc5,prodloc2,tr0,19758,513708).
route(prodloc5,prodloc2,tr13,19758,118548).
route(prodloc5,prodloc4,tr0,23616,614016).
route(prodloc5,prodloc4,tr13,23616,141696).
route(prodloc5,prodloc6,tr0,18490,480740).
route(prodloc5,prodloc6,tr13,18490,110940).
route(prodloc5,prodloc7,tr0,2147,55822).
route(prodloc5,prodloc7,tr13,2147,12882).
route(prodloc5,prodloc8,tr0,19516,507416).
route(prodloc5,prodloc8,tr13,19516,117096).
route(prodloc5,prodloc9,tr0,27765,721890).
route(prodloc5,prodloc9,tr13,27765,166590).
route(prodloc5,prodloc10,tr0,24038,624988).
route(prodloc5,prodloc10,tr13,24038,144228).
route(prodloc5,prodloc11,tr0,27411,712686).
route(prodloc5,prodloc11,tr13,27411,164466).
route(prodloc5,prodloc12,tr0,10034,260884).
route(prodloc5,prodloc12,tr13,10034,60204).
route(prodloc5,prodloc13,tr0,536,13936).
route(prodloc5,prodloc13,tr15,536,17152).
route(prodloc5,prodloc14,tr0,19393,504218).
route(prodloc5,prodloc14,tr13,19393,116358).
route(prodloc6,harbor0,tr0,10738,279188).
route(prodloc6,harbor0,tr13,10738,64428).
route(prodloc6,harbor1,tr0,21348,555048).
route(prodloc6,harbor1,tr13,21348,128088).
route(prodloc6,harbor2,tr0,10556,274456).
route(prodloc6,harbor2,tr13,10556,63336).
route(prodloc6,harbor3,tr0,2422,62972).
route(prodloc6,harbor3,tr13,2422,14532).
route(prodloc6,harbor4,tr0,24264,630864).
route(prodloc6,harbor4,tr13,24264,145584).
route(prodloc6,harbor5,tr0,12995,337870).
route(prodloc6,harbor5,tr13,12995,77970).
route(prodloc6,prodloc0,tr0,20000,520000).
route(prodloc6,prodloc0,tr13,20000,120000).
route(prodloc6,prodloc1,tr0,12256,318656).
route(prodloc6,prodloc1,tr13,12256,73536).
route(prodloc6,prodloc2,tr0,9253,240578).
route(prodloc6,prodloc2,tr13,9253,55518).
route(prodloc6,prodloc3,tr0,19850,516100).
route(prodloc6,prodloc3,tr13,19850,119100).
route(prodloc6,prodloc4,tr0,6108,158808).
route(prodloc6,prodloc4,tr13,6108,36648).
route(prodloc6,prodloc5,tr0,7894,205244).
route(prodloc6,prodloc5,tr15,7894,252608).
route(prodloc6,prodloc7,tr0,5524,143624).
route(prodloc6,prodloc7,tr13,5524,33144).
route(prodloc6,prodloc8,tr0,10085,262210).
route(prodloc6,prodloc8,tr13,10085,60510).
route(prodloc6,prodloc9,tr0,3129,81354).
route(prodloc6,prodloc9,tr15,3129,100128).
route(prodloc6,prodloc10,tr0,18224,473824).
route(prodloc6,prodloc10,tr13,18224,109344).
route(prodloc6,prodloc11,tr0,25907,673582).
route(prodloc6,prodloc11,tr13,25907,155442).
route(prodloc6,prodloc12,tr0,26777,696202).
route(prodloc6,prodloc12,tr13,26777,160662).
route(prodloc6,prodloc13,tr0,1749,45474).
route(prodloc6,prodloc13,tr13,1749,10494).
route(prodloc6,prodloc14,tr0,7206,187356).
route(prodloc6,prodloc14,tr13,7206,43236).
route(prodloc7,harbor0,tr0,18680,485680).
route(prodloc7,harbor0,tr13,18680,112080).
route(prodloc7,harbor1,tr0,24411,634686).
route(prodloc7,harbor1,tr13,24411,146466).
route(prodloc7,harbor2,tr0,2423,62998).
route(prodloc7,harbor2,tr13,2423,14538).
route(prodloc7,harbor3,tr0,13818,359268).
route(prodloc7,harbor3,tr13,13818,82908).
route(prodloc7,harbor4,tr0,6284,163384).
route(prodloc7,harbor4,tr13,6284,37704).
route(prodloc7,harbor5,tr0,18664,485264).
route(prodloc7,harbor5,tr13,18664,111984).
route(prodloc7,prodloc0,tr0,18741,487266).
route(prodloc7,prodloc0,tr13,18741,112446).
route(prodloc7,prodloc1,tr13,14397,86382).
route(prodloc7,prodloc1,tr15,14397,460704).
route(prodloc7,prodloc2,tr0,26365,685490).
route(prodloc7,prodloc2,tr15,26365,843680).
route(prodloc7,prodloc3,tr0,28496,740896).
route(prodloc7,prodloc3,tr13,28496,170976).
route(prodloc7,prodloc4,tr0,19447,505622).
route(prodloc7,prodloc4,tr15,19447,622304).
route(prodloc7,prodloc5,tr0,527,13702).
route(prodloc7,prodloc5,tr13,527,3162).
route(prodloc7,prodloc6,tr0,12862,334412).
route(prodloc7,prodloc6,tr13,12862,77172).
route(prodloc7,prodloc8,tr0,6599,171574).
route(prodloc7,prodloc8,tr13,6599,39594).
route(prodloc7,prodloc9,tr0,11121,289146).
route(prodloc7,prodloc9,tr13,11121,66726).
route(prodloc7,prodloc11,tr0,18818,489268).
route(prodloc7,prodloc11,tr13,18818,112908).
route(prodloc7,prodloc12,tr0,6253,162578).
route(prodloc7,prodloc12,tr13,6253,37518).
route(prodloc7,prodloc13,tr0,17133,445458).
route(prodloc7,prodloc13,tr15,17133,548256).
route(prodloc7,prodloc14,tr0,26537,689962).
route(prodloc7,prodloc14,tr13,26537,159222).
route(prodloc8,harbor0,tr0,18485,480610).
route(prodloc8,harbor0,tr13,18485,110910).
route(prodloc8,harbor1,tr0,25038,650988).
route(prodloc8,harbor1,tr13,25038,150228).
route(prodloc8,harbor2,tr0,25258,656708).
route(prodloc8,harbor2,tr13,25258,151548).
route(prodloc8,harbor3,tr0,27382,711932).
route(prodloc8,harbor3,tr13,27382,164292).
route(prodloc8,harbor4,tr0,10707,278382).
route(prodloc8,harbor4,tr13,10707,64242).
route(prodloc8,harbor5,tr0,28518,741468).
route(prodloc8,harbor5,tr13,28518,171108).
route(prodloc8,prodloc0,tr0,1563,40638).
route(prodloc8,prodloc0,tr13,1563,9378).
route(prodloc8,prodloc1,tr0,21551,560326).
route(prodloc8,prodloc1,tr13,21551,129306).
route(prodloc8,prodloc2,tr0,22686,589836).
route(prodloc8,prodloc2,tr13,22686,136116).
route(prodloc8,prodloc3,tr0,18950,492700).
route(prodloc8,prodloc3,tr13,18950,113700).
route(prodloc8,prodloc4,tr0,1644,42744).
route(prodloc8,prodloc4,tr13,1644,9864).
route(prodloc8,prodloc5,tr0,1199,31174).
route(prodloc8,prodloc5,tr13,1199,7194).
route(prodloc8,prodloc6,tr0,18521,481546).
route(prodloc8,prodloc6,tr13,18521,111126).
route(prodloc8,prodloc7,tr0,11993,311818).
route(prodloc8,prodloc7,tr13,11993,71958).
route(prodloc8,prodloc9,tr0,28173,732498).
route(prodloc8,prodloc9,tr13,28173,169038).
route(prodloc8,prodloc10,tr0,13011,338286).
route(prodloc8,prodloc10,tr13,13011,78066).
route(prodloc8,prodloc11,tr0,10637,276562).
route(prodloc8,prodloc11,tr13,10637,63822).
route(prodloc8,prodloc12,tr0,19700,512200).
route(prodloc8,prodloc12,tr13,19700,118200).
route(prodloc8,prodloc13,tr0,20919,543894).
route(prodloc8,prodloc13,tr13,20919,125514).
route(prodloc8,prodloc14,tr0,5619,146094).
route(prodloc8,prodloc14,tr13,5619,33714).
route(prodloc9,harbor0,tr0,25322,658372).
route(prodloc9,harbor0,tr13,25322,151932).
route(prodloc9,harbor1,tr0,5170,134420).
route(prodloc9,harbor1,tr13,5170,31020).
route(prodloc9,harbor2,tr0,3849,100074).
route(prodloc9,harbor2,tr13,3849,23094).
route(prodloc9,harbor3,tr0,19861,516386).
route(prodloc9,harbor3,tr13,19861,119166).
route(prodloc9,harbor4,tr0,25866,672516).
route(prodloc9,harbor4,tr13,25866,155196).
route(prodloc9,harbor5,tr0,28329,736554).
route(prodloc9,harbor5,tr13,28329,169974).
route(prodloc9,prodloc0,tr0,11320,294320).
route(prodloc9,prodloc0,tr13,11320,67920).
route(prodloc9,prodloc1,tr0,5385,140010).
route(prodloc9,prodloc1,tr15,5385,172320).
route(prodloc9,prodloc2,tr0,1022,26572).
route(prodloc9,prodloc2,tr13,1022,6132).
route(prodloc9,prodloc3,tr0,23690,615940).
route(prodloc9,prodloc3,tr13,23690,142140).
route(prodloc9,prodloc4,tr0,17588,457288).
route(prodloc9,prodloc4,tr13,17588,105528).
route(prodloc9,prodloc5,tr0,16750,435500).
route(prodloc9,prodloc5,tr13,16750,100500).
route(prodloc9,prodloc6,tr0,26395,686270).
route(prodloc9,prodloc6,tr13,26395,158370).
route(prodloc9,prodloc7,tr13,11449,68694).
route(prodloc9,prodloc7,tr15,11449,366368).
route(prodloc9,prodloc8,tr0,2892,75192).
route(prodloc9,prodloc8,tr13,2892,17352).
route(prodloc9,prodloc10,tr0,13024,338624).
route(prodloc9,prodloc10,tr13,13024,78144).
route(prodloc9,prodloc11,tr0,14395,374270).
route(prodloc9,prodloc11,tr13,14395,86370).
route(prodloc9,prodloc12,tr0,18938,492388).
route(prodloc9,prodloc12,tr13,18938,113628).
route(prodloc9,prodloc13,tr0,28867,750542).
route(prodloc9,prodloc13,tr15,28867,923744).
route(prodloc9,prodloc14,tr0,11395,296270).
route(prodloc9,prodloc14,tr13,11395,68370).
route(prodloc10,harbor0,tr0,1956,50856).
route(prodloc10,harbor0,tr13,1956,11736).
route(prodloc10,harbor1,tr0,4770,124020).
route(prodloc10,harbor1,tr13,4770,28620).
route(prodloc10,harbor2,tr0,28364,737464).
route(prodloc10,harbor2,tr13,28364,170184).
route(prodloc10,harbor3,tr0,14575,378950).
route(prodloc10,harbor3,tr13,14575,87450).
route(prodloc10,harbor4,tr0,23152,601952).
route(prodloc10,harbor4,tr13,23152,138912).
route(prodloc10,harbor5,tr0,15429,401154).
route(prodloc10,harbor5,tr13,15429,92574).
route(prodloc10,prodloc0,tr0,19985,519610).
route(prodloc10,prodloc0,tr13,19985,119910).
route(prodloc10,prodloc1,tr0,14800,384800).
route(prodloc10,prodloc1,tr13,14800,88800).
route(prodloc10,prodloc2,tr0,23678,615628).
route(prodloc10,prodloc2,tr13,23678,142068).
route(prodloc10,prodloc3,tr0,14482,376532).
route(prodloc10,prodloc3,tr13,14482,86892).
route(prodloc10,prodloc4,tr0,19799,514774).
route(prodloc10,prodloc4,tr13,19799,118794).
route(prodloc10,prodloc5,tr0,5739,149214).
route(prodloc10,prodloc5,tr15,5739,183648).
route(prodloc10,prodloc6,tr0,11594,301444).
route(prodloc10,prodloc6,tr13,11594,69564).
route(prodloc10,prodloc7,tr0,27008,702208).
route(prodloc10,prodloc7,tr13,27008,162048).
route(prodloc10,prodloc8,tr0,13881,360906).
route(prodloc10,prodloc8,tr13,13881,83286).
route(prodloc10,prodloc9,tr0,26947,700622).
route(prodloc10,prodloc9,tr15,26947,862304).
route(prodloc10,prodloc11,tr0,27033,702858).
route(prodloc10,prodloc11,tr13,27033,162198).
route(prodloc10,prodloc12,tr0,11252,292552).
route(prodloc10,prodloc12,tr13,11252,67512).
route(prodloc10,prodloc13,tr0,18311,476086).
route(prodloc10,prodloc13,tr13,18311,109866).
route(prodloc10,prodloc14,tr0,16805,436930).
route(prodloc10,prodloc14,tr13,16805,100830).
route(prodloc11,harbor0,tr0,15022,390572).
route(prodloc11,harbor0,tr13,15022,90132).
route(prodloc11,harbor1,tr0,12723,330798).
route(prodloc11,harbor1,tr13,12723,76338).
route(prodloc11,harbor2,tr0,6370,165620).
route(prodloc11,harbor2,tr13,6370,38220).
route(prodloc11,harbor3,tr0,3181,82706).
route(prodloc11,harbor3,tr13,3181,19086).
route(prodloc11,harbor4,tr0,14187,368862).
route(prodloc11,harbor4,tr13,14187,85122).
route(prodloc11,harbor5,tr0,21011,546286).
route(prodloc11,harbor5,tr13,21011,126066).
route(prodloc11,prodloc0,tr0,5001,130026).
route(prodloc11,prodloc0,tr13,5001,30006).
route(prodloc11,prodloc1,tr0,1356,35256).
route(prodloc11,prodloc1,tr13,1356,8136).
route(prodloc11,prodloc2,tr0,28187,732862).
route(prodloc11,prodloc2,tr13,28187,169122).
route(prodloc11,prodloc3,tr0,6144,159744).
route(prodloc11,prodloc3,tr13,6144,36864).
route(prodloc11,prodloc4,tr0,20975,545350).
route(prodloc11,prodloc4,tr13,20975,125850).
route(prodloc11,prodloc5,tr0,20773,540098).
route(prodloc11,prodloc5,tr13,20773,124638).
route(prodloc11,prodloc6,tr0,6232,162032).
route(prodloc11,prodloc6,tr13,6232,37392).
route(prodloc11,prodloc7,tr0,18680,485680).
route(prodloc11,prodloc7,tr13,18680,112080).
route(prodloc11,prodloc8,tr0,14051,365326).
route(prodloc11,prodloc8,tr13,14051,84306).
route(prodloc11,prodloc9,tr0,26006,676156).
route(prodloc11,prodloc9,tr13,26006,156036).
route(prodloc11,prodloc10,tr0,11804,306904).
route(prodloc11,prodloc10,tr13,11804,70824).
route(prodloc11,prodloc12,tr0,18323,476398).
route(prodloc11,prodloc12,tr13,18323,109938).
route(prodloc11,prodloc13,tr0,12326,320476).
route(prodloc11,prodloc13,tr13,12326,73956).
route(prodloc11,prodloc14,tr0,1637,42562).
route(prodloc11,prodloc14,tr13,1637,9822).
route(prodloc12,harbor0,tr0,19839,515814).
route(prodloc12,harbor0,tr13,19839,119034).
route(prodloc12,harbor1,tr0,1700,44200).
route(prodloc12,harbor1,tr13,1700,10200).
route(prodloc12,harbor2,tr0,5424,141024).
route(prodloc12,harbor2,tr13,5424,32544).
route(prodloc12,harbor3,tr0,10191,264966).
route(prodloc12,harbor3,tr13,10191,61146).
route(prodloc12,harbor4,tr0,7319,190294).
route(prodloc12,harbor4,tr13,7319,43914).
route(prodloc12,harbor5,tr0,1625,42250).
route(prodloc12,harbor5,tr13,1625,9750).
route(prodloc12,prodloc0,tr0,19007,494182).
route(prodloc12,prodloc0,tr13,19007,114042).
route(prodloc12,prodloc1,tr0,5793,150618).
route(prodloc12,prodloc1,tr13,5793,34758).
route(prodloc12,prodloc2,tr0,3267,84942).
route(prodloc12,prodloc2,tr13,3267,19602).
route(prodloc12,prodloc3,tr0,20848,542048).
route(prodloc12,prodloc3,tr13,20848,125088).
route(prodloc12,prodloc4,tr0,18501,481026).
route(prodloc12,prodloc4,tr13,18501,111006).
route(prodloc12,prodloc5,tr0,11813,307138).
route(prodloc12,prodloc5,tr13,11813,70878).
route(prodloc12,prodloc6,tr0,27395,712270).
route(prodloc12,prodloc6,tr13,27395,164370).
route(prodloc12,prodloc7,tr0,6082,158132).
route(prodloc12,prodloc7,tr13,6082,36492).
route(prodloc12,prodloc8,tr0,9918,257868).
route(prodloc12,prodloc8,tr15,9918,317376).
route(prodloc12,prodloc9,tr0,27864,724464).
route(prodloc12,prodloc9,tr13,27864,167184).
route(prodloc12,prodloc10,tr0,1403,36478).
route(prodloc12,prodloc10,tr13,1403,8418).
route(prodloc12,prodloc11,tr0,12971,337246).
route(prodloc12,prodloc11,tr13,12971,77826).
route(prodloc12,prodloc13,tr0,19599,509574).
route(prodloc12,prodloc13,tr13,19599,117594).
route(prodloc12,prodloc14,tr0,25017,650442).
route(prodloc12,prodloc14,tr13,25017,150102).
route(prodloc13,harbor0,tr0,14051,365326).
route(prodloc13,harbor0,tr13,14051,84306).
route(prodloc13,harbor1,tr0,2549,66274).
route(prodloc13,harbor1,tr13,2549,15294).
route(prodloc13,harbor2,tr0,11318,294268).
route(prodloc13,harbor2,tr13,11318,67908).
route(prodloc13,harbor3,tr0,24890,647140).
route(prodloc13,harbor3,tr13,24890,149340).
route(prodloc13,harbor4,tr0,6389,166114).
route(prodloc13,harbor4,tr13,6389,38334).
route(prodloc13,harbor5,tr0,16112,418912).
route(prodloc13,harbor5,tr13,16112,96672).
route(prodloc13,prodloc0,tr0,5336,138736).
route(prodloc13,prodloc0,tr13,5336,32016).
route(prodloc13,prodloc1,tr0,5519,143494).
route(prodloc13,prodloc1,tr13,5519,33114).
route(prodloc13,prodloc2,tr0,13293,345618).
route(prodloc13,prodloc2,tr13,13293,79758).
route(prodloc13,prodloc3,tr0,26506,689156).
route(prodloc13,prodloc3,tr13,26506,159036).
route(prodloc13,prodloc4,tr13,24654,147924).
route(prodloc13,prodloc4,tr15,24654,788928).
route(prodloc13,prodloc5,tr0,15344,398944).
route(prodloc13,prodloc5,tr13,15344,92064).
route(prodloc13,prodloc6,tr0,25473,662298).
route(prodloc13,prodloc6,tr13,25473,152838).
route(prodloc13,prodloc7,tr0,10758,279708).
route(prodloc13,prodloc7,tr13,10758,64548).
route(prodloc13,prodloc8,tr0,28794,748644).
route(prodloc13,prodloc8,tr13,28794,172764).
route(prodloc13,prodloc9,tr0,1225,31850).
route(prodloc13,prodloc9,tr13,1225,7350).
route(prodloc13,prodloc10,tr0,5674,147524).
route(prodloc13,prodloc10,tr13,5674,34044).
route(prodloc13,prodloc11,tr0,27309,710034).
route(prodloc13,prodloc11,tr13,27309,163854).
route(prodloc13,prodloc12,tr0,28826,749476).
route(prodloc13,prodloc12,tr13,28826,172956).
route(prodloc13,prodloc14,tr0,5775,150150).
route(prodloc13,prodloc14,tr13,5775,34650).
route(prodloc14,harbor0,tr0,19053,495378).
route(prodloc14,harbor0,tr13,19053,114318).
route(prodloc14,harbor1,tr0,23142,601692).
route(prodloc14,harbor1,tr13,23142,138852).
route(prodloc14,harbor2,tr0,13785,358410).
route(prodloc14,harbor2,tr13,13785,82710).
route(prodloc14,harbor3,tr0,5019,130494).
route(prodloc14,harbor3,tr13,5019,30114).
route(prodloc14,harbor4,tr0,16823,437398).
route(prodloc14,harbor4,tr13,16823,100938).
route(prodloc14,harbor5,tr0,21031,546806).
route(prodloc14,harbor5,tr13,21031,126186).
route(prodloc14,prodloc0,tr0,22836,593736).
route(prodloc14,prodloc0,tr13,22836,137016).
route(prodloc14,prodloc1,tr0,12845,333970).
route(prodloc14,prodloc1,tr13,12845,77070).
route(prodloc14,prodloc2,tr0,3091,80366).
route(prodloc14,prodloc2,tr13,3091,18546).
route(prodloc14,prodloc3,tr0,12997,337922).
route(prodloc14,prodloc3,tr13,12997,77982).
route(prodloc14,prodloc4,tr0,26647,692822).
route(prodloc14,prodloc4,tr13,26647,159882).
route(prodloc14,prodloc5,tr0,3881,100906).
route(prodloc14,prodloc5,tr13,3881,23286).
route(prodloc14,prodloc6,tr0,7704,200304).
route(prodloc14,prodloc6,tr13,7704,46224).
route(prodloc14,prodloc7,tr0,3502,91052).
route(prodloc14,prodloc7,tr13,3502,21012).
route(prodloc14,prodloc8,tr0,13851,360126).
route(prodloc14,prodloc8,tr13,13851,83106).
route(prodloc14,prodloc9,tr0,23650,614900).
route(prodloc14,prodloc9,tr13,23650,141900).
route(prodloc14,prodloc10,tr0,20934,544284).
route(prodloc14,prodloc10,tr13,20934,125604).
route(prodloc14,prodloc11,tr0,10187,264862).
route(prodloc14,prodloc11,tr13,10187,61122).
route(prodloc14,prodloc12,tr0,23701,616226).
route(prodloc14,prodloc12,tr13,23701,142206).
route(prodloc14,prodloc13,tr0,9503,247078).
route(prodloc14,prodloc13,tr13,9503,57018).
hub(harbor4).
hub(prodloc2).
hub(prodloc10).
hub(prodloc11).
