% Multibatching benchmark instance
% Source: instances.lp
% seed=15  harbors=6  prodlocs=15  hubs=4  disruptions=2

% ---- locations ----
location(harbor0).
location(harbor1).
location(harbor2).
location(harbor3).
location(harbor4).
location(harbor5).
location(prodloc0).
location(prodloc1).
location(prodloc2).
location(prodloc3).
location(prodloc4).
location(prodloc5).
location(prodloc6).
location(prodloc7).
location(prodloc8).
location(prodloc9).
location(prodloc10).
location(prodloc11).
location(prodloc12).
location(prodloc13).
location(prodloc14).

% ---- transport resources ----
transportCapacity(tr0,1800).
transportCO2(tr0,1680).
transportCost(tr0,26).
transportSpeed(tr0,12).
transportCapacity(tr1,65).
transportCO2(tr1,90).
transportCost(tr1,1).
transportSpeed(tr1,35).
transportCapacity(tr10,1).
transportCO2(tr10,700).
transportCost(tr10,4).
transportSpeed(tr10,40).
transportCapacity(tr11,65).
transportCO2(tr11,62).
transportCost(tr11,1).
transportSpeed(tr11,25).
transportCapacity(tr12,65).
transportCO2(tr12,709).
transportCost(tr12,3).
transportSpeed(tr12,55).
transportCapacity(tr13,68).
transportCO2(tr13,160).
transportCost(tr13,6).
transportSpeed(tr13,25).
transportCapacity(tr14,146).
transportCO2(tr14,780).
transportCost(tr14,4).
transportSpeed(tr14,50).
transportCapacity(tr15,2217).
transportCO2(tr15,49470).
transportCost(tr15,32).
transportSpeed(tr15,625).
transportCapacity(tr2,96).
transportCO2(tr2,709).
transportCost(tr2,3).
transportSpeed(tr2,55).
transportCapacity(tr3,1).
transportCO2(tr3,6250).
transportCost(tr3,108).
transportSpeed(tr3,25).
transportCapacity(tr4,148).
transportCO2(tr4,780).
transportCost(tr4,4).
transportSpeed(tr4,50).
transportCapacity(tr5,65).
transportCO2(tr5,780).
transportCost(tr5,3).
transportSpeed(tr5,50).
transportCapacity(tr6,1).
transportCO2(tr6,100).
transportCost(tr6,40).
transportSpeed(tr6,25).
transportCapacity(tr7,1).
transportCO2(tr7,18000).
transportCost(tr7,278).
transportSpeed(tr7,10).
transportCapacity(tr8,1).
transportCO2(tr8,14400).
transportCost(tr8,107).
transportSpeed(tr8,25).
transportCapacity(tr9,65).
transportCO2(tr9,708).
transportCost(tr9,2).
transportSpeed(tr9,60).

% ---- parts ----
part(part0).
partSize(part0,21).
valid_transport(part0,tr0).
valid_transport(part0,tr15).
valid_transport(part0,tr14).
valid_transport(part0,tr13).
valid_transport(part0,tr4).
part(part1).
partSize(part1,1).
valid_transport(part1,tr0).
valid_transport(part1,tr2).
valid_transport(part1,tr15).
valid_transport(part1,tr9).
valid_transport(part1,tr12).
valid_transport(part1,tr13).
valid_transport(part1,tr11).
part(part10).
partSize(part10,1).
valid_transport(part10,tr0).
valid_transport(part10,tr2).
valid_transport(part10,tr15).
valid_transport(part10,tr9).
valid_transport(part10,tr12).
valid_transport(part10,tr13).
valid_transport(part10,tr11).
part(part11).
partSize(part11,83).
valid_transport(part11,tr0).
valid_transport(part11,tr7).
valid_transport(part11,tr8).
valid_transport(part11,tr15).
valid_transport(part11,tr3).
valid_transport(part11,tr13).
part(part12).
partSize(part12,273).
valid_transport(part12,tr0).
valid_transport(part12,tr7).
valid_transport(part12,tr8).
valid_transport(part12,tr15).
valid_transport(part12,tr3).
valid_transport(part12,tr13).
part(part13).
partSize(part13,1).
valid_transport(part13,tr0).
valid_transport(part13,tr2).
valid_transport(part13,tr15).
valid_transport(part13,tr9).
valid_transport(part13,tr12).
valid_transport(part13,tr13).
valid_transport(part13,tr11).
part(part14).
partSize(part14,68).
valid_transport(part14,tr0).
valid_transport(part14,tr15).
valid_transport(part14,tr13).
part(part15).
partSize(part15,4).
valid_transport(part15,tr0).
valid_transport(part15,tr2).
valid_transport(part15,tr15).
valid_transport(part15,tr9).
valid_transport(part15,tr12).
valid_transport(part15,tr13).
valid_transport(part15,tr11).
part(part16).
partSize(part16,4).
valid_transport(part16,tr0).
valid_transport(part16,tr2).
valid_transport(part16,tr15).
valid_transport(part16,tr9).
valid_transport(part16,tr12).
valid_transport(part16,tr13).
valid_transport(part16,tr11).
part(part17).
partSize(part17,8).
valid_transport(part17,tr0).
valid_transport(part17,tr15).
valid_transport(part17,tr14).
valid_transport(part17,tr13).
valid_transport(part17,tr4).
part(part18).
partSize(part18,24).
valid_transport(part18,tr0).
valid_transport(part18,tr15).
valid_transport(part18,tr14).
valid_transport(part18,tr13).
valid_transport(part18,tr4).
part(part19).
partSize(part19,6).
valid_transport(part19,tr0).
valid_transport(part19,tr2).
valid_transport(part19,tr15).
valid_transport(part19,tr9).
valid_transport(part19,tr12).
valid_transport(part19,tr13).
valid_transport(part19,tr11).
part(part2).
partSize(part2,19).
valid_transport(part2,tr0).
valid_transport(part2,tr15).
valid_transport(part2,tr14).
valid_transport(part2,tr13).
valid_transport(part2,tr4).
part(part20).
partSize(part20,128).
valid_transport(part20,tr0).
valid_transport(part20,tr7).
valid_transport(part20,tr8).
valid_transport(part20,tr15).
valid_transport(part20,tr3).
valid_transport(part20,tr13).
part(part21).
partSize(part21,25).
valid_transport(part21,tr0).
valid_transport(part21,tr15).
valid_transport(part21,tr14).
valid_transport(part21,tr13).
valid_transport(part21,tr4).
part(part22).
partSize(part22,7).
valid_transport(part22,tr0).
valid_transport(part22,tr2).
valid_transport(part22,tr15).
valid_transport(part22,tr9).
valid_transport(part22,tr12).
valid_transport(part22,tr13).
valid_transport(part22,tr11).
part(part23).
partSize(part23,5).
valid_transport(part23,tr0).
valid_transport(part23,tr15).
valid_transport(part23,tr14).
valid_transport(part23,tr13).
valid_transport(part23,tr4).
part(part24).
partSize(part24,55).
valid_transport(part24,tr0).
valid_transport(part24,tr7).
valid_transport(part24,tr8).
valid_transport(part24,tr15).
valid_transport(part24,tr3).
valid_transport(part24,tr13).
part(part25).
partSize(part25,5).
valid_transport(part25,tr0).
valid_transport(part25,tr4).
valid_transport(part25,tr2).
valid_transport(part25,tr15).
valid_transport(part25,tr13).
part(part26).
partSize(part26,32).
valid_transport(part26,tr0).
valid_transport(part26,tr7).
valid_transport(part26,tr8).
valid_transport(part26,tr15).
valid_transport(part26,tr3).
valid_transport(part26,tr13).
part(part27).
partSize(part27,5).
valid_transport(part27,tr0).
valid_transport(part27,tr2).
valid_transport(part27,tr15).
valid_transport(part27,tr9).
valid_transport(part27,tr12).
valid_transport(part27,tr13).
valid_transport(part27,tr11).
part(part28).
partSize(part28,3).
valid_transport(part28,tr0).
valid_transport(part28,tr4).
valid_transport(part28,tr2).
valid_transport(part28,tr15).
valid_transport(part28,tr14).
valid_transport(part28,tr13).
part(part29).
partSize(part29,627).
part(part3).
partSize(part3,48).
valid_transport(part3,tr0).
valid_transport(part3,tr7).
valid_transport(part3,tr8).
valid_transport(part3,tr15).
valid_transport(part3,tr3).
valid_transport(part3,tr13).
part(part30).
partSize(part30,2).
valid_transport(part30,tr0).
valid_transport(part30,tr2).
valid_transport(part30,tr15).
valid_transport(part30,tr9).
valid_transport(part30,tr12).
valid_transport(part30,tr13).
valid_transport(part30,tr11).
part(part31).
partSize(part31,144).
valid_transport(part31,tr0).
valid_transport(part31,tr7).
valid_transport(part31,tr8).
valid_transport(part31,tr15).
valid_transport(part31,tr3).
valid_transport(part31,tr13).
part(part32).
partSize(part32,16).
valid_transport(part32,tr0).
valid_transport(part32,tr4).
valid_transport(part32,tr2).
valid_transport(part32,tr15).
valid_transport(part32,tr14).
valid_transport(part32,tr13).
part(part33).
partSize(part33,7).
valid_transport(part33,tr0).
valid_transport(part33,tr2).
valid_transport(part33,tr15).
valid_transport(part33,tr9).
valid_transport(part33,tr12).
valid_transport(part33,tr13).
valid_transport(part33,tr11).
part(part3345).
partSize(part3345,353).
valid_transport(part3345,tr0).
valid_transport(part3345,tr7).
valid_transport(part3345,tr8).
valid_transport(part3345,tr15).
valid_transport(part3345,tr3).
valid_transport(part3345,tr13).
part(part34).
partSize(part34,2).
valid_transport(part34,tr0).
valid_transport(part34,tr2).
valid_transport(part34,tr15).
valid_transport(part34,tr9).
valid_transport(part34,tr12).
valid_transport(part34,tr13).
valid_transport(part34,tr11).
part(part4).
partSize(part4,2).
valid_transport(part4,tr0).
valid_transport(part4,tr2).
valid_transport(part4,tr15).
valid_transport(part4,tr9).
valid_transport(part4,tr12).
valid_transport(part4,tr13).
valid_transport(part4,tr11).
part(part5).
partSize(part5,2).
valid_transport(part5,tr0).
valid_transport(part5,tr2).
valid_transport(part5,tr15).
valid_transport(part5,tr9).
valid_transport(part5,tr12).
valid_transport(part5,tr14).
valid_transport(part5,tr13).
valid_transport(part5,tr11).
part(part6).
partSize(part6,111).
valid_transport(part6,tr0).
valid_transport(part6,tr7).
valid_transport(part6,tr8).
valid_transport(part6,tr15).
valid_transport(part6,tr3).
valid_transport(part6,tr13).
part(part8).
partSize(part8,163).
valid_transport(part8,tr0).
valid_transport(part8,tr7).
valid_transport(part8,tr8).
valid_transport(part8,tr15).
valid_transport(part8,tr3).
valid_transport(part8,tr13).
part(part9).
partSize(part9,2).
valid_transport(part9,tr0).
valid_transport(part9,tr2).
valid_transport(part9,tr15).
valid_transport(part9,tr9).
valid_transport(part9,tr12).
valid_transport(part9,tr13).
valid_transport(part9,tr11).

% ---- demand ----
demandOffer(part0,prodloc3,40).
demandOffer(part0,prodloc0,40).
demandOffer(part0,prodloc8,-27).
demandOffer(part0,prodloc11,-53).
demandOffer(part1,prodloc0,20).
demandOffer(part1,prodloc2,20).
demandOffer(part1,prodloc3,-20).
demandOffer(part1,prodloc14,-20).
demandOffer(part10,prodloc0,20).
demandOffer(part10,prodloc12,20).
demandOffer(part10,prodloc10,-20).
demandOffer(part10,prodloc2,-20).
demandOffer(part12,prodloc13,10).
demandOffer(part12,prodloc11,20).
demandOffer(part12,prodloc5,-10).
demandOffer(part12,prodloc3,-10).
demandOffer(part12,prodloc1,-10).
demandOffer(part13,prodloc5,20).
demandOffer(part13,prodloc7,20).
demandOffer(part13,prodloc11,-20).
demandOffer(part13,prodloc14,-20).
demandOffer(part14,prodloc4,26).
demandOffer(part14,prodloc6,-26).
demandOffer(part15,prodloc4,53).
demandOffer(part15,prodloc5,27).
demandOffer(part15,prodloc3,-53).
demandOffer(part15,prodloc12,-27).
demandOffer(part16,prodloc13,53).
demandOffer(part16,prodloc5,27).
demandOffer(part16,prodloc12,-53).
demandOffer(part16,prodloc14,-27).
demandOffer(part17,prodloc3,20).
demandOffer(part17,prodloc4,-20).
demandOffer(part18,prodloc14,40).
demandOffer(part18,prodloc11,40).
demandOffer(part18,prodloc8,-27).
demandOffer(part18,prodloc6,-53).
demandOffer(part19,prodloc3,26).
demandOffer(part19,prodloc9,-26).
demandOffer(part2,prodloc7,40).
demandOffer(part2,prodloc13,40).
demandOffer(part2,prodloc6,-27).
demandOffer(part2,prodloc14,-53).
demandOffer(part20,prodloc1,53).
demandOffer(part20,prodloc7,27).
demandOffer(part20,prodloc9,-14).
demandOffer(part20,prodloc5,-46).
demandOffer(part20,prodloc13,-20).
demandOffer(part21,prodloc9,26).
demandOffer(part21,prodloc5,-26).
demandOffer(part22,prodloc14,53).
demandOffer(part22,prodloc11,27).
demandOffer(part22,prodloc10,-53).
demandOffer(part22,prodloc7,-27).
demandOffer(part23,prodloc6,20).
demandOffer(part23,prodloc12,20).
demandOffer(part23,prodloc13,-20).
demandOffer(part23,prodloc1,-20).
demandOffer(part25,prodloc7,20).
demandOffer(part25,prodloc13,-20).
demandOffer(part26,prodloc0,20).
demandOffer(part26,prodloc3,20).
demandOffer(part26,prodloc2,-14).
demandOffer(part26,prodloc8,-26).
demandOffer(part27,prodloc2,53).
demandOffer(part27,prodloc9,27).
demandOffer(part27,prodloc12,-53).
demandOffer(part27,prodloc11,-27).
demandOffer(part28,prodloc13,20).
demandOffer(part28,prodloc11,20).
demandOffer(part28,prodloc0,-20).
demandOffer(part28,prodloc4,-20).
demandOffer(part3,prodloc8,40).
demandOffer(part3,prodloc7,-14).
demandOffer(part3,prodloc2,-26).
demandOffer(part30,prodloc14,40).
demandOffer(part30,prodloc13,40).
demandOffer(part30,prodloc1,-27).
demandOffer(part30,prodloc12,-53).
demandOffer(part31,prodloc6,7).
demandOffer(part31,prodloc0,7).
demandOffer(part31,prodloc1,-14).
demandOffer(part32,prodloc7,53).
demandOffer(part32,prodloc11,27).
demandOffer(part32,prodloc8,-53).
demandOffer(part32,prodloc4,-27).
demandOffer(part33,prodloc6,53).
demandOffer(part33,prodloc8,27).
demandOffer(part33,prodloc3,-53).
demandOffer(part33,prodloc2,-27).
demandOffer(part34,prodloc8,20).
demandOffer(part34,prodloc14,-20).
demandOffer(part4,prodloc5,26).
demandOffer(part4,prodloc1,-26).
demandOffer(part5,prodloc3,20).
demandOffer(part5,prodloc4,-20).
demandOffer(part6,prodloc4,27).
demandOffer(part6,prodloc2,53).
demandOffer(part6,prodloc10,-24).
demandOffer(part6,prodloc5,-36).
demandOffer(part6,prodloc6,-10).
demandOffer(part6,prodloc7,-10).
demandOffer(part8,prodloc5,3).
demandOffer(part8,prodloc13,17).
demandOffer(part8,prodloc7,-10).
demandOffer(part8,prodloc1,-10).
demandOffer(part9,prodloc12,20).
demandOffer(part9,prodloc13,-20).

% ---- network (ASP-generated) ----
route(harbor0,harbor1,tr13,26118,156708).
route(harbor0,harbor1,tr2,26118,78354).
route(harbor0,harbor2,tr13,8957,53742).
route(harbor0,harbor2,tr2,8957,26871).
route(harbor0,harbor3,tr13,15576,93456).
route(harbor0,harbor3,tr2,15576,46728).
route(harbor0,harbor4,tr13,4687,28122).
route(harbor0,harbor4,tr2,4687,14061).
route(harbor0,harbor5,tr13,3811,22866).
route(harbor0,harbor5,tr2,3811,11433).
route(harbor0,prodloc0,tr0,22165,576290).
route(harbor0,prodloc0,tr13,22165,132990).
route(harbor0,prodloc1,tr0,16139,419614).
route(harbor0,prodloc1,tr13,16139,96834).
route(harbor0,prodloc2,tr0,12774,332124).
route(harbor0,prodloc2,tr13,12774,76644).
route(harbor0,prodloc3,tr0,12327,320502).
route(harbor0,prodloc3,tr13,12327,73962).
route(harbor0,prodloc4,tr0,506,13156).
route(harbor0,prodloc4,tr13,506,3036).
route(harbor0,prodloc5,tr0,27527,715702).
route(harbor0,prodloc5,tr13,27527,165162).
route(harbor0,prodloc6,tr0,8522,221572).
route(harbor0,prodloc6,tr13,8522,51132).
route(harbor0,prodloc7,tr0,24286,631436).
route(harbor0,prodloc7,tr13,24286,145716).
route(harbor0,prodloc8,tr0,3027,78702).
route(harbor0,prodloc8,tr13,3027,18162).
route(harbor0,prodloc9,tr0,9413,244738).
route(harbor0,prodloc9,tr13,9413,56478).
route(harbor0,prodloc10,tr0,2106,54756).
route(harbor0,prodloc10,tr13,2106,12636).
route(harbor0,prodloc11,tr0,1357,35282).
route(harbor0,prodloc11,tr13,1357,8142).
route(harbor0,prodloc12,tr0,14769,383994).
route(harbor0,prodloc12,tr13,14769,88614).
route(harbor0,prodloc13,tr0,1948,50648).
route(harbor0,prodloc13,tr13,1948,11688).
route(harbor0,prodloc14,tr0,8359,217334).
route(harbor0,prodloc14,tr13,8359,50154).
route(harbor1,harbor0,tr13,5219,31314).
route(harbor1,harbor0,tr2,5219,15657).
route(harbor1,harbor2,tr13,26991,161946).
route(harbor1,harbor2,tr2,26991,80973).
route(harbor1,harbor3,tr13,16411,98466).
route(harbor1,harbor3,tr2,16411,49233).
route(harbor1,harbor4,tr13,18544,111264).
route(harbor1,harbor4,tr2,18544,55632).
route(harbor1,harbor5,tr13,15790,94740).
route(harbor1,harbor5,tr2,15790,47370).
route(harbor1,prodloc0,tr0,28591,743366).
route(harbor1,prodloc0,tr13,28591,171546).
route(harbor1,prodloc1,tr0,16335,424710).
route(harbor1,prodloc1,tr13,16335,98010).
route(harbor1,prodloc2,tr0,1412,36712).
route(harbor1,prodloc2,tr13,1412,8472).
route(harbor1,prodloc3,tr0,16396,426296).
route(harbor1,prodloc3,tr13,16396,98376).
route(harbor1,prodloc4,tr0,2023,52598).
route(harbor1,prodloc4,tr13,2023,12138).
route(harbor1,prodloc5,tr0,15549,404274).
route(harbor1,prodloc5,tr13,15549,93294).
route(harbor1,prodloc6,tr0,27649,718874).
route(harbor1,prodloc6,tr13,27649,165894).
route(harbor1,prodloc7,tr0,2679,69654).
route(harbor1,prodloc7,tr13,2679,16074).
route(harbor1,prodloc8,tr0,18666,485316).
route(harbor1,prodloc8,tr13,18666,111996).
route(harbor1,prodloc9,tr0,15150,393900).
route(harbor1,prodloc9,tr13,15150,90900).
route(harbor1,prodloc10,tr0,7596,197496).
route(harbor1,prodloc10,tr13,7596,45576).
route(harbor1,prodloc11,tr0,25487,662662).
route(harbor1,prodloc11,tr13,25487,152922).
route(harbor1,prodloc12,tr0,24745,643370).
route(harbor1,prodloc12,tr13,24745,148470).
route(harbor1,prodloc13,tr0,19444,505544).
route(harbor1,prodloc13,tr13,19444,116664).
route(harbor1,prodloc14,tr0,14718,382668).
route(harbor1,prodloc14,tr13,14718,88308).
route(harbor2,harbor0,tr13,22719,136314).
route(harbor2,harbor0,tr2,22719,68157).
route(harbor2,harbor1,tr13,23652,141912).
route(harbor2,harbor1,tr2,23652,70956).
route(harbor2,harbor3,tr13,8406,50436).
route(harbor2,harbor3,tr2,8406,25218).
route(harbor2,harbor4,tr13,22255,133530).
route(harbor2,harbor4,tr2,22255,66765).
route(harbor2,harbor5,tr13,2812,16872).
route(harbor2,harbor5,tr2,2812,8436).
route(harbor2,prodloc0,tr0,20016,520416).
route(harbor2,prodloc0,tr13,20016,120096).
route(harbor2,prodloc1,tr0,294,7644).
route(harbor2,prodloc1,tr13,294,1764).
route(harbor2,prodloc2,tr0,1850,48100).
route(harbor2,prodloc2,tr13,1850,11100).
route(harbor2,prodloc3,tr0,10917,283842).
route(harbor2,prodloc3,tr13,10917,65502).
route(harbor2,prodloc4,tr0,24699,642174).
route(harbor2,prodloc4,tr13,24699,148194).
route(harbor2,prodloc5,tr0,21252,552552).
route(harbor2,prodloc5,tr13,21252,127512).
route(harbor2,prodloc6,tr0,27372,711672).
route(harbor2,prodloc6,tr13,27372,164232).
route(harbor2,prodloc7,tr0,12446,323596).
route(harbor2,prodloc7,tr13,12446,74676).
route(harbor2,prodloc8,tr0,14210,369460).
route(harbor2,prodloc8,tr13,14210,85260).
route(harbor2,prodloc9,tr0,11383,295958).
route(harbor2,prodloc9,tr13,11383,68298).
route(harbor2,prodloc10,tr0,1835,47710).
route(harbor2,prodloc10,tr13,1835,11010).
route(harbor2,prodloc11,tr0,20270,527020).
route(harbor2,prodloc11,tr13,20270,121620).
route(harbor2,prodloc12,tr0,23110,600860).
route(harbor2,prodloc12,tr13,23110,138660).
route(harbor2,prodloc13,tr0,9908,257608).
route(harbor2,prodloc13,tr13,9908,59448).
route(harbor2,prodloc14,tr0,19513,507338).
route(harbor2,prodloc14,tr13,19513,117078).
route(harbor3,harbor0,tr13,14632,87792).
route(harbor3,harbor0,tr2,14632,43896).
route(harbor3,harbor1,tr13,10245,61470).
route(harbor3,harbor1,tr2,10245,30735).
route(harbor3,harbor2,tr13,18002,108012).
route(harbor3,harbor2,tr2,18002,54006).
route(harbor3,harbor4,tr13,26956,161736).
route(harbor3,harbor4,tr2,26956,80868).
route(harbor3,harbor5,tr13,1042,6252).
route(harbor3,harbor5,tr2,1042,3126).
route(harbor3,prodloc0,tr0,26239,682214).
route(harbor3,prodloc0,tr13,26239,157434).
route(harbor3,prodloc1,tr0,14125,367250).
route(harbor3,prodloc1,tr13,14125,84750).
route(harbor3,prodloc2,tr0,28484,740584).
route(harbor3,prodloc2,tr13,28484,170904).
route(harbor3,prodloc3,tr0,12621,328146).
route(harbor3,prodloc3,tr13,12621,75726).
route(harbor3,prodloc4,tr0,494,12844).
route(harbor3,prodloc4,tr13,494,2964).
route(harbor3,prodloc5,tr0,21929,570154).
route(harbor3,prodloc5,tr13,21929,131574).
route(harbor3,prodloc6,tr0,11408,296608).
route(harbor3,prodloc6,tr13,11408,68448).
route(harbor3,prodloc7,tr0,20201,525226).
route(harbor3,prodloc7,tr13,20201,121206).
route(harbor3,prodloc8,tr0,12730,330980).
route(harbor3,prodloc8,tr13,12730,76380).
route(harbor3,prodloc9,tr0,16978,441428).
route(harbor3,prodloc9,tr13,16978,101868).
route(harbor3,prodloc10,tr0,94,2444).
route(harbor3,prodloc10,tr13,94,564).
route(harbor3,prodloc11,tr0,4716,122616).
route(harbor3,prodloc11,tr13,4716,28296).
route(harbor3,prodloc12,tr0,8226,213876).
route(harbor3,prodloc12,tr13,8226,49356).
route(harbor3,prodloc13,tr0,8175,212550).
route(harbor3,prodloc13,tr13,8175,49050).
route(harbor3,prodloc14,tr0,16353,425178).
route(harbor3,prodloc14,tr13,16353,98118).
route(harbor4,harbor0,tr13,16826,100956).
route(harbor4,harbor0,tr2,16826,50478).
route(harbor4,harbor1,tr13,10876,65256).
route(harbor4,harbor1,tr2,10876,32628).
route(harbor4,harbor2,tr13,10675,64050).
route(harbor4,harbor2,tr2,10675,32025).
route(harbor4,harbor3,tr13,8019,48114).
route(harbor4,harbor3,tr2,8019,24057).
route(harbor4,harbor5,tr13,22456,134736).
route(harbor4,harbor5,tr2,22456,67368).
route(harbor4,prodloc0,tr0,19233,500058).
route(harbor4,prodloc0,tr13,19233,115398).
route(harbor4,prodloc1,tr0,10317,268242).
route(harbor4,prodloc1,tr13,10317,61902).
route(harbor4,prodloc2,tr0,16121,419146).
route(harbor4,prodloc2,tr13,16121,96726).
route(harbor4,prodloc3,tr0,10445,271570).
route(harbor4,prodloc3,tr13,10445,62670).
route(harbor4,prodloc4,tr0,85,2210).
route(harbor4,prodloc4,tr13,85,510).
route(harbor4,prodloc5,tr0,19822,515372).
route(harbor4,prodloc5,tr13,19822,118932).
route(harbor4,prodloc6,tr0,11646,302796).
route(harbor4,prodloc6,tr13,11646,69876).
route(harbor4,prodloc7,tr0,23007,598182).
route(harbor4,prodloc7,tr13,23007,138042).
route(harbor4,prodloc8,tr0,7378,191828).
route(harbor4,prodloc8,tr13,7378,44268).
route(harbor4,prodloc9,tr0,11144,289744).
route(harbor4,prodloc9,tr13,11144,66864).
route(harbor4,prodloc10,tr0,1937,50362).
route(harbor4,prodloc10,tr13,1937,11622).
route(harbor4,prodloc11,tr0,28027,728702).
route(harbor4,prodloc11,tr13,28027,168162).
route(harbor4,prodloc12,tr0,5645,146770).
route(harbor4,prodloc12,tr13,5645,33870).
route(harbor4,prodloc13,tr0,21019,546494).
route(harbor4,prodloc13,tr13,21019,126114).
route(harbor4,prodloc14,tr0,28204,733304).
route(harbor4,prodloc14,tr13,28204,169224).
route(harbor5,harbor0,tr13,16595,99570).
route(harbor5,harbor0,tr2,16595,49785).
route(harbor5,harbor1,tr13,23913,143478).
route(harbor5,harbor1,tr2,23913,71739).
route(harbor5,harbor2,tr13,3577,21462).
route(harbor5,harbor2,tr2,3577,10731).
route(harbor5,harbor3,tr13,27395,164370).
route(harbor5,harbor3,tr2,27395,82185).
route(harbor5,harbor4,tr13,23746,142476).
route(harbor5,harbor4,tr2,23746,71238).
route(harbor5,prodloc0,tr0,18871,490646).
route(harbor5,prodloc0,tr13,18871,113226).
route(harbor5,prodloc1,tr0,13080,340080).
route(harbor5,prodloc1,tr13,13080,78480).
route(harbor5,prodloc2,tr0,10973,285298).
route(harbor5,prodloc2,tr13,10973,65838).
route(harbor5,prodloc3,tr0,28659,745134).
route(harbor5,prodloc3,tr13,28659,171954).
route(harbor5,prodloc4,tr0,28102,730652).
route(harbor5,prodloc4,tr13,28102,168612).
route(harbor5,prodloc5,tr0,4221,109746).
route(harbor5,prodloc5,tr13,4221,25326).
route(harbor5,prodloc6,tr0,11000,286000).
route(harbor5,prodloc6,tr13,11000,66000).
route(harbor5,prodloc7,tr0,3219,83694).
route(harbor5,prodloc7,tr13,3219,19314).
route(harbor5,prodloc8,tr0,10328,268528).
route(harbor5,prodloc8,tr13,10328,61968).
route(harbor5,prodloc9,tr0,11261,292786).
route(harbor5,prodloc9,tr13,11261,67566).
route(harbor5,prodloc10,tr0,15022,390572).
route(harbor5,prodloc10,tr13,15022,90132).
route(harbor5,prodloc11,tr0,24176,628576).
route(harbor5,prodloc11,tr13,24176,145056).
route(harbor5,prodloc12,tr0,20111,522886).
route(harbor5,prodloc12,tr13,20111,120666).
route(harbor5,prodloc13,tr0,17951,466726).
route(harbor5,prodloc13,tr13,17951,107706).
route(harbor5,prodloc14,tr0,20235,526110).
route(harbor5,prodloc14,tr13,20235,121410).
route(prodloc0,harbor0,tr0,15868,412568).
route(prodloc0,harbor0,tr13,15868,95208).
route(prodloc0,harbor1,tr0,18743,487318).
route(prodloc0,harbor1,tr13,18743,112458).
route(prodloc0,harbor2,tr0,3983,103558).
route(prodloc0,harbor2,tr13,3983,23898).
route(prodloc0,harbor3,tr0,12910,335660).
route(prodloc0,harbor3,tr13,12910,77460).
route(prodloc0,harbor4,tr0,25827,671502).
route(prodloc0,harbor4,tr13,25827,154962).
route(prodloc0,harbor5,tr0,19043,495118).
route(prodloc0,harbor5,tr13,19043,114258).
route(prodloc0,prodloc1,tr13,152,912).
route(prodloc0,prodloc1,tr15,152,4864).
route(prodloc0,prodloc2,tr0,3286,85436).
route(prodloc0,prodloc2,tr13,3286,19716).
route(prodloc0,prodloc3,tr0,25657,667082).
route(prodloc0,prodloc3,tr13,25657,153942).
route(prodloc0,prodloc4,tr0,27755,721630).
route(prodloc0,prodloc4,tr13,27755,166530).
route(prodloc0,prodloc5,tr0,5096,132496).
route(prodloc0,prodloc5,tr13,5096,30576).
route(prodloc0,prodloc6,tr0,23212,603512).
route(prodloc0,prodloc6,tr13,23212,139272).
route(prodloc0,prodloc7,tr0,21487,558662).
route(prodloc0,prodloc7,tr13,21487,128922).
route(prodloc0,prodloc8,tr0,15138,393588).
route(prodloc0,prodloc8,tr13,15138,90828).
route(prodloc0,prodloc9,tr0,27477,714402).
route(prodloc0,prodloc9,tr13,27477,164862).
route(prodloc0,prodloc10,tr0,5238,136188).
route(prodloc0,prodloc10,tr13,5238,31428).
route(prodloc0,prodloc11,tr0,21489,558714).
route(prodloc0,prodloc11,tr13,21489,128934).
route(prodloc0,prodloc12,tr0,6423,166998).
route(prodloc0,prodloc12,tr13,6423,38538).
route(prodloc0,prodloc13,tr0,18968,493168).
route(prodloc0,prodloc13,tr13,18968,113808).
route(prodloc0,prodloc14,tr0,17839,463814).
route(prodloc0,prodloc14,tr13,17839,107034).
route(prodloc1,harbor0,tr0,18025,468650).
route(prodloc1,harbor0,tr13,18025,108150).
route(prodloc1,harbor1,tr0,20227,525902).
route(prodloc1,harbor1,tr13,20227,121362).
route(prodloc1,harbor2,tr0,24624,640224).
route(prodloc1,harbor2,tr13,24624,147744).
route(prodloc1,harbor3,tr0,10559,274534).
route(prodloc1,harbor3,tr13,10559,63354).
route(prodloc1,harbor4,tr0,12086,314236).
route(prodloc1,harbor4,tr13,12086,72516).
route(prodloc1,harbor5,tr0,13296,345696).
route(prodloc1,harbor5,tr13,13296,79776).
route(prodloc1,prodloc0,tr0,7654,199004).
route(prodloc1,prodloc0,tr13,7654,45924).
route(prodloc1,prodloc2,tr0,18256,474656).
route(prodloc1,prodloc2,tr13,18256,109536).
route(prodloc1,prodloc3,tr0,21187,550862).
route(prodloc1,prodloc3,tr13,21187,127122).
route(prodloc1,prodloc4,tr0,17052,443352).
route(prodloc1,prodloc4,tr13,17052,102312).
route(prodloc1,prodloc5,tr13,20603,123618).
route(prodloc1,prodloc5,tr15,20603,659296).
route(prodloc1,prodloc6,tr0,3810,99060).
route(prodloc1,prodloc6,tr13,3810,22860).
route(prodloc1,prodloc7,tr0,17371,451646).
route(prodloc1,prodloc7,tr13,17371,104226).
route(prodloc1,prodloc8,tr0,23709,616434).
route(prodloc1,prodloc8,tr13,23709,142254).
route(prodloc1,prodloc9,tr13,15300,91800).
route(prodloc1,prodloc9,tr15,15300,489600).
route(prodloc1,prodloc10,tr0,19242,500292).
route(prodloc1,prodloc10,tr13,19242,115452).
route(prodloc1,prodloc11,tr0,5128,133328).
route(prodloc1,prodloc11,tr13,5128,30768).
route(prodloc1,prodloc12,tr0,27215,707590).
route(prodloc1,prodloc12,tr13,27215,163290).
route(prodloc1,prodloc13,tr0,23187,602862).
route(prodloc1,prodloc13,tr13,23187,139122).
route(prodloc1,prodloc14,tr0,22465,584090).
route(prodloc1,prodloc14,tr13,22465,134790).
route(prodloc2,harbor0,tr0,25511,663286).
route(prodloc2,harbor0,tr13,25511,153066).
route(prodloc2,harbor1,tr0,11102,288652).
route(prodloc2,harbor1,tr13,11102,66612).
route(prodloc2,harbor2,tr0,15060,391560).
route(prodloc2,harbor2,tr13,15060,90360).
route(prodloc2,harbor3,tr0,28359,737334).
route(prodloc2,harbor3,tr13,28359,170154).
route(prodloc2,harbor4,tr0,19810,515060).
route(prodloc2,harbor4,tr13,19810,118860).
route(prodloc2,harbor5,tr0,18570,482820).
route(prodloc2,harbor5,tr13,18570,111420).
route(prodloc2,prodloc0,tr0,21700,564200).
route(prodloc2,prodloc0,tr13,21700,130200).
route(prodloc2,prodloc1,tr0,13365,347490).
route(prodloc2,prodloc1,tr13,13365,80190).
route(prodloc2,prodloc3,tr0,938,24388).
route(prodloc2,prodloc3,tr15,938,30016).
route(prodloc2,prodloc4,tr0,8928,232128).
route(prodloc2,prodloc4,tr13,8928,53568).
route(prodloc2,prodloc5,tr0,11045,287170).
route(prodloc2,prodloc5,tr13,11045,66270).
route(prodloc2,prodloc6,tr13,4259,25554).
route(prodloc2,prodloc6,tr15,4259,136288).
route(prodloc2,prodloc7,tr0,24900,647400).
route(prodloc2,prodloc7,tr13,24900,149400).
route(prodloc2,prodloc8,tr0,8947,232622).
route(prodloc2,prodloc8,tr13,8947,53682).
route(prodloc2,prodloc9,tr0,11704,304304).
route(prodloc2,prodloc9,tr13,11704,70224).
route(prodloc2,prodloc10,tr0,6120,159120).
route(prodloc2,prodloc10,tr13,6120,36720).
route(prodloc2,prodloc11,tr0,1981,51506).
route(prodloc2,prodloc11,tr13,1981,11886).
route(prodloc2,prodloc12,tr0,15271,397046).
route(prodloc2,prodloc12,tr15,15271,488672).
route(prodloc2,prodloc13,tr0,22847,594022).
route(prodloc2,prodloc13,tr13,22847,137082).
route(prodloc2,prodloc14,tr0,19122,497172).
route(prodloc2,prodloc14,tr13,19122,114732).
route(prodloc3,harbor0,tr0,25688,667888).
route(prodloc3,harbor0,tr13,25688,154128).
route(prodloc3,harbor1,tr0,6970,181220).
route(prodloc3,harbor1,tr13,6970,41820).
route(prodloc3,harbor2,tr0,3254,84604).
route(prodloc3,harbor2,tr13,3254,19524).
route(prodloc3,harbor3,tr0,2203,57278).
route(prodloc3,harbor3,tr13,2203,13218).
route(prodloc3,harbor4,tr0,21173,550498).
route(prodloc3,harbor4,tr13,21173,127038).
route(prodloc3,harbor5,tr0,8256,214656).
route(prodloc3,harbor5,tr13,8256,49536).
route(prodloc3,prodloc0,tr0,6724,174824).
route(prodloc3,prodloc0,tr13,6724,40344).
route(prodloc3,prodloc1,tr0,24413,634738).
route(prodloc3,prodloc1,tr13,24413,146478).
route(prodloc3,prodloc2,tr0,22184,576784).
route(prodloc3,prodloc2,tr13,22184,133104).
route(prodloc3,prodloc4,tr0,2320,60320).
route(prodloc3,prodloc4,tr13,2320,13920).
route(prodloc3,prodloc5,tr0,26026,676676).
route(prodloc3,prodloc5,tr13,26026,156156).
route(prodloc3,prodloc6,tr0,28885,751010).
route(prodloc3,prodloc6,tr13,28885,173310).
route(prodloc3,prodloc7,tr0,23643,614718).
route(prodloc3,prodloc7,tr13,23643,141858).
route(prodloc3,prodloc9,tr13,17543,105258).
route(prodloc3,prodloc9,tr15,17543,561376).
route(prodloc3,prodloc10,tr0,5287,137462).
route(prodloc3,prodloc10,tr13,5287,31722).
route(prodloc3,prodloc11,tr13,7516,45096).
route(prodloc3,prodloc11,tr15,7516,240512).
route(prodloc3,prodloc12,tr0,10557,274482).
route(prodloc3,prodloc12,tr13,10557,63342).
route(prodloc3,prodloc13,tr0,5148,133848).
route(prodloc3,prodloc13,tr13,5148,30888).
route(prodloc3,prodloc14,tr0,20113,522938).
route(prodloc3,prodloc14,tr13,20113,120678).
route(prodloc4,harbor0,tr0,28362,737412).
route(prodloc4,harbor0,tr13,28362,170172).
route(prodloc4,harbor1,tr0,28788,748488).
route(prodloc4,harbor1,tr13,28788,172728).
route(prodloc4,harbor2,tr0,1827,47502).
route(prodloc4,harbor2,tr13,1827,10962).
route(prodloc4,harbor3,tr0,12070,313820).
route(prodloc4,harbor3,tr13,12070,72420).
route(prodloc4,harbor4,tr0,13698,356148).
route(prodloc4,harbor4,tr13,13698,82188).
route(prodloc4,harbor5,tr0,7409,192634).
route(prodloc4,harbor5,tr13,7409,44454).
route(prodloc4,prodloc0,tr0,13761,357786).
route(prodloc4,prodloc0,tr13,13761,82566).
route(prodloc4,prodloc1,tr0,24241,630266).
route(prodloc4,prodloc1,tr13,24241,145446).
route(prodloc4,prodloc2,tr0,28746,747396).
route(prodloc4,prodloc2,tr13,28746,172476).
route(prodloc4,prodloc3,tr0,5577,145002).
route(prodloc4,prodloc3,tr13,5577,33462).
route(prodloc4,prodloc5,tr0,12201,317226).
route(prodloc4,prodloc5,tr13,12201,73206).
route(prodloc4,prodloc6,tr13,24582,147492).
route(prodloc4,prodloc6,tr15,24582,786624).
route(prodloc4,prodloc7,tr0,18658,485108).
route(prodloc4,prodloc7,tr13,18658,111948).
route(prodloc4,prodloc8,tr0,4807,124982).
route(prodloc4,prodloc8,tr13,4807,28842).
route(prodloc4,prodloc9,tr0,16428,427128).
route(prodloc4,prodloc9,tr13,16428,98568).
route(prodloc4,prodloc10,tr0,5681,147706).
route(prodloc4,prodloc10,tr13,5681,34086).
route(prodloc4,prodloc11,tr0,15691,407966).
route(prodloc4,prodloc11,tr13,15691,94146).
route(prodloc4,prodloc12,tr13,15511,93066).
route(prodloc4,prodloc12,tr15,15511,496352).
route(prodloc4,prodloc13,tr0,15345,398970).
route(prodloc4,prodloc13,tr13,15345,92070).
route(prodloc4,prodloc14,tr0,15328,398528).
route(prodloc4,prodloc14,tr13,15328,91968).
route(prodloc5,harbor0,tr0,19542,508092).
route(prodloc5,harbor0,tr13,19542,117252).
route(prodloc5,harbor1,tr0,5607,145782).
route(prodloc5,harbor1,tr13,5607,33642).
route(prodloc5,harbor2,tr0,14172,368472).
route(prodloc5,harbor2,tr13,14172,85032).
route(prodloc5,harbor3,tr0,2243,58318).
route(prodloc5,harbor3,tr13,2243,13458).
route(prodloc5,harbor4,tr0,13865,360490).
route(prodloc5,harbor4,tr13,13865,83190).
route(prodloc5,harbor5,tr0,8981,233506).
route(prodloc5,harbor5,tr13,8981,53886).
route(prodloc5,prodloc0,tr0,14479,376454).
route(prodloc5,prodloc0,tr13,14479,86874).
route(prodloc5,prodloc1,tr13,24312,145872).
route(prodloc5,prodloc1,tr15,24312,777984).
route(prodloc5,prodloc2,tr0,8098,210548).
route(prodloc5,prodloc2,tr13,8098,48588).
route(prodloc5,prodloc3,tr0,21795,566670).
route(prodloc5,prodloc3,tr13,21795,130770).
route(prodloc5,prodloc4,tr0,782,20332).
route(prodloc5,prodloc4,tr13,782,4692).
route(prodloc5,prodloc6,tr0,14810,385060).
route(prodloc5,prodloc6,tr13,14810,88860).
route(prodloc5,prodloc7,tr0,10897,283322).
route(prodloc5,prodloc7,tr13,10897,65382).
route(prodloc5,prodloc8,tr0,13263,344838).
route(prodloc5,prodloc8,tr13,13263,79578).
route(prodloc5,prodloc9,tr0,21365,555490).
route(prodloc5,prodloc9,tr13,21365,128190).
route(prodloc5,prodloc10,tr0,5542,144092).
route(prodloc5,prodloc10,tr13,5542,33252).
route(prodloc5,prodloc11,tr0,1118,29068).
route(prodloc5,prodloc11,tr13,1118,6708).
route(prodloc5,prodloc12,tr13,21924,131544).
route(prodloc5,prodloc12,tr15,21924,701568).
route(prodloc5,prodloc13,tr0,19140,497640).
route(prodloc5,prodloc13,tr13,19140,114840).
route(prodloc5,prodloc14,tr0,125,3250).
route(prodloc5,prodloc14,tr13,125,750).
route(prodloc6,harbor0,tr0,20055,521430).
route(prodloc6,harbor0,tr13,20055,120330).
route(prodloc6,harbor1,tr0,22204,577304).
route(prodloc6,harbor1,tr13,22204,133224).
route(prodloc6,harbor2,tr0,15059,391534).
route(prodloc6,harbor2,tr13,15059,90354).
route(prodloc6,harbor3,tr0,14583,379158).
route(prodloc6,harbor3,tr13,14583,87498).
route(prodloc6,harbor4,tr0,1001,26026).
route(prodloc6,harbor4,tr13,1001,6006).
route(prodloc6,harbor5,tr0,11010,286260).
route(prodloc6,harbor5,tr13,11010,66060).
route(prodloc6,prodloc0,tr0,14781,384306).
route(prodloc6,prodloc0,tr13,14781,88686).
route(prodloc6,prodloc1,tr0,15202,395252).
route(prodloc6,prodloc1,tr13,15202,91212).
route(prodloc6,prodloc2,tr0,19551,508326).
route(prodloc6,prodloc2,tr13,19551,117306).
route(prodloc6,prodloc3,tr0,25848,672048).
route(prodloc6,prodloc3,tr13,25848,155088).
route(prodloc6,prodloc4,tr0,8583,223158).
route(prodloc6,prodloc4,tr13,8583,51498).
route(prodloc6,prodloc5,tr0,12793,332618).
route(prodloc6,prodloc5,tr13,12793,76758).
route(prodloc6,prodloc7,tr0,14892,387192).
route(prodloc6,prodloc7,tr13,14892,89352).
route(prodloc6,prodloc8,tr0,26404,686504).
route(prodloc6,prodloc8,tr13,26404,158424).
route(prodloc6,prodloc9,tr0,14486,376636).
route(prodloc6,prodloc9,tr13,14486,86916).
route(prodloc6,prodloc10,tr0,13279,345254).
route(prodloc6,prodloc10,tr13,13279,79674).
route(prodloc6,prodloc11,tr0,22827,593502).
route(prodloc6,prodloc11,tr13,22827,136962).
route(prodloc6,prodloc12,tr0,20820,541320).
route(prodloc6,prodloc12,tr13,20820,124920).
route(prodloc6,prodloc13,tr0,16452,427752).
route(prodloc6,prodloc13,tr15,16452,526464).
route(prodloc6,prodloc14,tr0,24864,646464).
route(prodloc6,prodloc14,tr13,24864,149184).
route(prodloc7,harbor0,tr0,4088,106288).
route(prodloc7,harbor0,tr13,4088,24528).
route(prodloc7,harbor1,tr0,5443,141518).
route(prodloc7,harbor1,tr13,5443,32658).
route(prodloc7,harbor2,tr0,21921,569946).
route(prodloc7,harbor2,tr13,21921,131526).
route(prodloc7,harbor3,tr0,10260,266760).
route(prodloc7,harbor3,tr13,10260,61560).
route(prodloc7,harbor4,tr0,14751,383526).
route(prodloc7,harbor4,tr13,14751,88506).
route(prodloc7,harbor5,tr0,15714,408564).
route(prodloc7,harbor5,tr13,15714,94284).
route(prodloc7,prodloc0,tr0,10828,281528).
route(prodloc7,prodloc0,tr13,10828,64968).
route(prodloc7,prodloc1,tr0,23261,604786).
route(prodloc7,prodloc1,tr13,23261,139566).
route(prodloc7,prodloc2,tr0,18717,486642).
route(prodloc7,prodloc2,tr13,18717,112302).
route(prodloc7,prodloc3,tr0,15352,399152).
route(prodloc7,prodloc3,tr13,15352,92112).
route(prodloc7,prodloc4,tr13,17037,102222).
route(prodloc7,prodloc4,tr15,17037,545184).
route(prodloc7,prodloc5,tr0,2777,72202).
route(prodloc7,prodloc5,tr13,2777,16662).
route(prodloc7,prodloc6,tr0,7001,182026).
route(prodloc7,prodloc6,tr13,7001,42006).
route(prodloc7,prodloc8,tr0,27787,722462).
route(prodloc7,prodloc8,tr13,27787,166722).
route(prodloc7,prodloc9,tr13,7212,43272).
route(prodloc7,prodloc9,tr15,7212,230784).
route(prodloc7,prodloc10,tr0,5570,144820).
route(prodloc7,prodloc10,tr13,5570,33420).
route(prodloc7,prodloc11,tr0,24923,647998).
route(prodloc7,prodloc11,tr13,24923,149538).
route(prodloc7,prodloc12,tr0,18074,469924).
route(prodloc7,prodloc12,tr13,18074,108444).
route(prodloc7,prodloc13,tr0,16580,431080).
route(prodloc7,prodloc13,tr15,16580,530560).
route(prodloc7,prodloc14,tr0,13086,340236).
route(prodloc7,prodloc14,tr13,13086,78516).
route(prodloc8,harbor0,tr0,21584,561184).
route(prodloc8,harbor0,tr13,21584,129504).
route(prodloc8,harbor1,tr0,3568,92768).
route(prodloc8,harbor1,tr13,3568,21408).
route(prodloc8,harbor2,tr0,22789,592514).
route(prodloc8,harbor2,tr13,22789,136734).
route(prodloc8,harbor3,tr0,13075,339950).
route(prodloc8,harbor3,tr13,13075,78450).
route(prodloc8,harbor4,tr0,22361,581386).
route(prodloc8,harbor4,tr13,22361,134166).
route(prodloc8,harbor5,tr0,10863,282438).
route(prodloc8,harbor5,tr13,10863,65178).
route(prodloc8,prodloc0,tr0,10598,275548).
route(prodloc8,prodloc0,tr13,10598,63588).
route(prodloc8,prodloc1,tr0,28278,735228).
route(prodloc8,prodloc1,tr13,28278,169668).
route(prodloc8,prodloc2,tr0,28417,738842).
route(prodloc8,prodloc2,tr13,28417,170502).
route(prodloc8,prodloc3,tr13,14740,88440).
route(prodloc8,prodloc3,tr15,14740,471680).
route(prodloc8,prodloc4,tr0,8327,216502).
route(prodloc8,prodloc4,tr13,8327,49962).
route(prodloc8,prodloc5,tr0,5766,149916).
route(prodloc8,prodloc5,tr13,5766,34596).
route(prodloc8,prodloc6,tr0,28419,738894).
route(prodloc8,prodloc6,tr13,28419,170514).
route(prodloc8,prodloc7,tr0,8882,230932).
route(prodloc8,prodloc7,tr13,8882,53292).
route(prodloc8,prodloc9,tr0,13570,352820).
route(prodloc8,prodloc9,tr13,13570,81420).
route(prodloc8,prodloc10,tr0,3950,102700).
route(prodloc8,prodloc10,tr13,3950,23700).
route(prodloc8,prodloc11,tr0,9962,259012).
route(prodloc8,prodloc11,tr13,9962,59772).
route(prodloc8,prodloc12,tr0,22593,587418).
route(prodloc8,prodloc12,tr13,22593,135558).
route(prodloc8,prodloc13,tr0,22557,586482).
route(prodloc8,prodloc13,tr13,22557,135342).
route(prodloc8,prodloc14,tr0,7193,187018).
route(prodloc8,prodloc14,tr13,7193,43158).
route(prodloc9,harbor0,tr0,8847,230022).
route(prodloc9,harbor0,tr13,8847,53082).
route(prodloc9,harbor1,tr0,5360,139360).
route(prodloc9,harbor1,tr13,5360,32160).
route(prodloc9,harbor2,tr0,18848,490048).
route(prodloc9,harbor2,tr13,18848,113088).
route(prodloc9,harbor3,tr0,8524,221624).
route(prodloc9,harbor3,tr13,8524,51144).
route(prodloc9,harbor4,tr0,9517,247442).
route(prodloc9,harbor4,tr13,9517,57102).
route(prodloc9,harbor5,tr0,4978,129428).
route(prodloc9,harbor5,tr13,4978,29868).
route(prodloc9,prodloc0,tr0,14721,382746).
route(prodloc9,prodloc0,tr13,14721,88326).
route(prodloc9,prodloc1,tr0,21630,562380).
route(prodloc9,prodloc1,tr13,21630,129780).
route(prodloc9,prodloc2,tr0,16737,435162).
route(prodloc9,prodloc2,tr13,16737,100422).
route(prodloc9,prodloc3,tr0,7880,204880).
route(prodloc9,prodloc3,tr13,7880,47280).
route(prodloc9,prodloc4,tr0,4896,127296).
route(prodloc9,prodloc4,tr13,4896,29376).
route(prodloc9,prodloc5,tr13,15781,94686).
route(prodloc9,prodloc5,tr15,15781,504992).
route(prodloc9,prodloc6,tr0,16972,441272).
route(prodloc9,prodloc6,tr13,16972,101832).
route(prodloc9,prodloc7,tr0,3947,102622).
route(prodloc9,prodloc7,tr13,3947,23682).
route(prodloc9,prodloc8,tr0,21469,558194).
route(prodloc9,prodloc8,tr13,21469,128814).
route(prodloc9,prodloc10,tr0,7938,206388).
route(prodloc9,prodloc10,tr13,7938,47628).
route(prodloc9,prodloc11,tr0,25965,675090).
route(prodloc9,prodloc11,tr13,25965,155790).
route(prodloc9,prodloc12,tr13,7100,42600).
route(prodloc9,prodloc12,tr15,7100,227200).
route(prodloc9,prodloc13,tr0,12946,336596).
route(prodloc9,prodloc13,tr13,12946,77676).
route(prodloc9,prodloc14,tr0,14039,365014).
route(prodloc9,prodloc14,tr13,14039,84234).
route(prodloc10,harbor0,tr0,7238,188188).
route(prodloc10,harbor0,tr13,7238,43428).
route(prodloc10,harbor1,tr0,20155,524030).
route(prodloc10,harbor1,tr13,20155,120930).
route(prodloc10,harbor2,tr0,9398,244348).
route(prodloc10,harbor2,tr13,9398,56388).
route(prodloc10,harbor3,tr0,26670,693420).
route(prodloc10,harbor3,tr13,26670,160020).
route(prodloc10,harbor4,tr0,13356,347256).
route(prodloc10,harbor4,tr13,13356,80136).
route(prodloc10,harbor5,tr0,22967,597142).
route(prodloc10,harbor5,tr13,22967,137802).
route(prodloc10,prodloc0,tr0,21148,549848).
route(prodloc10,prodloc0,tr13,21148,126888).
route(prodloc10,prodloc1,tr0,15394,400244).
route(prodloc10,prodloc1,tr13,15394,92364).
route(prodloc10,prodloc2,tr0,21274,553124).
route(prodloc10,prodloc2,tr13,21274,127644).
route(prodloc10,prodloc3,tr0,20568,534768).
route(prodloc10,prodloc3,tr13,20568,123408).
route(prodloc10,prodloc4,tr0,22162,576212).
route(prodloc10,prodloc4,tr13,22162,132972).
route(prodloc10,prodloc5,tr0,13197,343122).
route(prodloc10,prodloc5,tr13,13197,79182).
route(prodloc10,prodloc6,tr0,24340,632840).
route(prodloc10,prodloc6,tr13,24340,146040).
route(prodloc10,prodloc7,tr0,26549,690274).
route(prodloc10,prodloc7,tr13,26549,159294).
route(prodloc10,prodloc8,tr0,28476,740376).
route(prodloc10,prodloc8,tr13,28476,170856).
route(prodloc10,prodloc9,tr0,15414,400764).
route(prodloc10,prodloc9,tr13,15414,92484).
route(prodloc10,prodloc11,tr0,25354,659204).
route(prodloc10,prodloc11,tr13,25354,152124).
route(prodloc10,prodloc12,tr0,7400,192400).
route(prodloc10,prodloc12,tr13,7400,44400).
route(prodloc10,prodloc13,tr0,10539,274014).
route(prodloc10,prodloc13,tr13,10539,63234).
route(prodloc10,prodloc14,tr0,26331,684606).
route(prodloc10,prodloc14,tr13,26331,157986).
route(prodloc11,harbor0,tr0,12487,324662).
route(prodloc11,harbor0,tr13,12487,74922).
route(prodloc11,harbor1,tr0,11562,300612).
route(prodloc11,harbor1,tr13,11562,69372).
route(prodloc11,harbor2,tr0,11228,291928).
route(prodloc11,harbor2,tr13,11228,67368).
route(prodloc11,harbor3,tr0,12394,322244).
route(prodloc11,harbor3,tr13,12394,74364).
route(prodloc11,harbor4,tr0,10771,280046).
route(prodloc11,harbor4,tr13,10771,64626).
route(prodloc11,harbor5,tr0,21782,566332).
route(prodloc11,harbor5,tr13,21782,130692).
route(prodloc11,prodloc0,tr0,10958,284908).
route(prodloc11,prodloc0,tr13,10958,65748).
route(prodloc11,prodloc1,tr0,3162,82212).
route(prodloc11,prodloc1,tr13,3162,18972).
route(prodloc11,prodloc2,tr0,25369,659594).
route(prodloc11,prodloc2,tr13,25369,152214).
route(prodloc11,prodloc3,tr0,4318,112268).
route(prodloc11,prodloc3,tr13,4318,25908).
route(prodloc11,prodloc4,tr13,16265,97590).
route(prodloc11,prodloc4,tr15,16265,520480).
route(prodloc11,prodloc5,tr0,7394,192244).
route(prodloc11,prodloc5,tr15,7394,236608).
route(prodloc11,prodloc6,tr0,22051,573326).
route(prodloc11,prodloc6,tr13,22051,132306).
route(prodloc11,prodloc7,tr0,24097,626522).
route(prodloc11,prodloc7,tr13,24097,144582).
route(prodloc11,prodloc8,tr13,7468,44808).
route(prodloc11,prodloc8,tr15,7468,238976).
route(prodloc11,prodloc9,tr0,18693,486018).
route(prodloc11,prodloc9,tr13,18693,112158).
route(prodloc11,prodloc10,tr13,21527,129162).
route(prodloc11,prodloc10,tr15,21527,688864).
route(prodloc11,prodloc12,tr0,27108,704808).
route(prodloc11,prodloc12,tr13,27108,162648).
route(prodloc11,prodloc13,tr0,2386,62036).
route(prodloc11,prodloc13,tr13,2386,14316).
route(prodloc11,prodloc14,tr0,5864,152464).
route(prodloc11,prodloc14,tr13,5864,35184).
route(prodloc12,harbor0,tr0,22659,589134).
route(prodloc12,harbor0,tr13,22659,135954).
route(prodloc12,harbor1,tr0,17346,450996).
route(prodloc12,harbor1,tr13,17346,104076).
route(prodloc12,harbor2,tr0,23008,598208).
route(prodloc12,harbor2,tr13,23008,138048).
route(prodloc12,harbor3,tr0,10037,260962).
route(prodloc12,harbor3,tr13,10037,60222).
route(prodloc12,harbor4,tr0,8410,218660).
route(prodloc12,harbor4,tr13,8410,50460).
route(prodloc12,harbor5,tr0,7055,183430).
route(prodloc12,harbor5,tr13,7055,42330).
route(prodloc12,prodloc0,tr0,7827,203502).
route(prodloc12,prodloc0,tr13,7827,46962).
route(prodloc12,prodloc1,tr0,16307,423982).
route(prodloc12,prodloc1,tr13,16307,97842).
route(prodloc12,prodloc2,tr0,8225,213850).
route(prodloc12,prodloc2,tr13,8225,49350).
route(prodloc12,prodloc3,tr0,16184,420784).
route(prodloc12,prodloc3,tr13,16184,97104).
route(prodloc12,prodloc4,tr0,27954,726804).
route(prodloc12,prodloc4,tr13,27954,167724).
route(prodloc12,prodloc5,tr0,6063,157638).
route(prodloc12,prodloc5,tr13,6063,36378).
route(prodloc12,prodloc6,tr0,27471,714246).
route(prodloc12,prodloc6,tr13,27471,164826).
route(prodloc12,prodloc7,tr0,7683,199758).
route(prodloc12,prodloc7,tr13,7683,46098).
route(prodloc12,prodloc8,tr0,27585,717210).
route(prodloc12,prodloc8,tr13,27585,165510).
route(prodloc12,prodloc9,tr0,26359,685334).
route(prodloc12,prodloc9,tr13,26359,158154).
route(prodloc12,prodloc10,tr0,15916,413816).
route(prodloc12,prodloc10,tr13,15916,95496).
route(prodloc12,prodloc11,tr0,12160,316160).
route(prodloc12,prodloc11,tr13,12160,72960).
route(prodloc12,prodloc13,tr0,5272,137072).
route(prodloc12,prodloc13,tr15,5272,168704).
route(prodloc12,prodloc14,tr0,28680,745680).
route(prodloc12,prodloc14,tr13,28680,172080).
route(prodloc13,harbor0,tr0,17024,442624).
route(prodloc13,harbor0,tr13,17024,102144).
route(prodloc13,harbor1,tr0,21236,552136).
route(prodloc13,harbor1,tr13,21236,127416).
route(prodloc13,harbor2,tr0,21590,561340).
route(prodloc13,harbor2,tr13,21590,129540).
route(prodloc13,harbor3,tr0,7038,182988).
route(prodloc13,harbor3,tr13,7038,42228).
route(prodloc13,harbor4,tr0,18339,476814).
route(prodloc13,harbor4,tr13,18339,110034).
route(prodloc13,harbor5,tr0,27882,724932).
route(prodloc13,harbor5,tr13,27882,167292).
route(prodloc13,prodloc0,tr0,17411,452686).
route(prodloc13,prodloc0,tr13,17411,104466).
route(prodloc13,prodloc2,tr0,25286,657436).
route(prodloc13,prodloc2,tr13,25286,151716).
route(prodloc13,prodloc3,tr0,20798,540748).
route(prodloc13,prodloc3,tr13,20798,124788).
route(prodloc13,prodloc4,tr0,25844,671944).
route(prodloc13,prodloc4,tr13,25844,155064).
route(prodloc13,prodloc5,tr0,23339,606814).
route(prodloc13,prodloc5,tr13,23339,140034).
route(prodloc13,prodloc6,tr0,10775,280150).
route(prodloc13,prodloc6,tr13,10775,64650).
route(prodloc13,prodloc7,tr0,20401,530426).
route(prodloc13,prodloc7,tr15,20401,652832).
route(prodloc13,prodloc8,tr0,3696,96096).
route(prodloc13,prodloc8,tr13,3696,22176).
route(prodloc13,prodloc9,tr0,26586,691236).
route(prodloc13,prodloc9,tr13,26586,159516).
route(prodloc13,prodloc10,tr0,19593,509418).
route(prodloc13,prodloc10,tr13,19593,117558).
route(prodloc13,prodloc11,tr0,1380,35880).
route(prodloc13,prodloc11,tr13,1380,8280).
route(prodloc13,prodloc12,tr0,8567,222742).
route(prodloc13,prodloc12,tr15,8567,274144).
route(prodloc13,prodloc14,tr0,25149,653874).
route(prodloc13,prodloc14,tr13,25149,150894).
route(prodloc14,harbor0,tr0,1972,51272).
route(prodloc14,harbor0,tr13,1972,11832).
route(prodloc14,harbor1,tr0,7287,189462).
route(prodloc14,harbor1,tr13,7287,43722).
route(prodloc14,harbor2,tr0,1278,33228).
route(prodloc14,harbor2,tr13,1278,7668).
route(prodloc14,harbor3,tr0,11584,301184).
route(prodloc14,harbor3,tr13,11584,69504).
route(prodloc14,harbor4,tr0,27770,722020).
route(prodloc14,harbor4,tr13,27770,166620).
route(prodloc14,harbor5,tr0,12902,335452).
route(prodloc14,harbor5,tr13,12902,77412).
route(prodloc14,prodloc0,tr0,10806,280956).
route(prodloc14,prodloc0,tr13,10806,64836).
route(prodloc14,prodloc1,tr0,17039,443014).
route(prodloc14,prodloc1,tr13,17039,102234).
route(prodloc14,prodloc2,tr0,9709,252434).
route(prodloc14,prodloc2,tr13,9709,58254).
route(prodloc14,prodloc3,tr0,19337,502762).
route(prodloc14,prodloc3,tr13,19337,116022).
route(prodloc14,prodloc4,tr0,20901,543426).
route(prodloc14,prodloc4,tr13,20901,125406).
route(prodloc14,prodloc5,tr0,19229,499954).
route(prodloc14,prodloc5,tr13,19229,115374).
route(prodloc14,prodloc6,tr0,10376,269776).
route(prodloc14,prodloc6,tr13,10376,62256).
route(prodloc14,prodloc7,tr0,10564,274664).
route(prodloc14,prodloc7,tr13,10564,63384).
route(prodloc14,prodloc8,tr13,11832,70992).
route(prodloc14,prodloc8,tr15,11832,378624).
route(prodloc14,prodloc9,tr0,13823,359398).
route(prodloc14,prodloc9,tr13,13823,82938).
route(prodloc14,prodloc10,tr0,21497,558922).
route(prodloc14,prodloc10,tr13,21497,128982).
route(prodloc14,prodloc11,tr0,18159,472134).
route(prodloc14,prodloc11,tr13,18159,108954).
route(prodloc14,prodloc12,tr0,20595,535470).
route(prodloc14,prodloc12,tr15,20595,659040).
route(prodloc14,prodloc13,tr0,12493,324818).
route(prodloc14,prodloc13,tr13,12493,74958).
hub(harbor1).
hub(prodloc1).
hub(prodloc7).
hub(prodloc11).
