% Multibatching benchmark instance
% Source: instances.lp
% seed=17  harbors=6  prodlocs=15  hubs=4  disruptions=2

% ---- locations ----
location(harbor0).
location(harbor1).
location(harbor2).
location(harbor3).
location(harbor4).
location(harbor5).
location(prodloc0).
location(prodloc1).
location(prodloc2).
location(prodloc3).
location(prodloc4).
location(prodloc5).
location(prodloc6).
location(prodloc7).
location(prodloc8).
location(prodloc9).
location(prodloc10).
location(prodloc11).
location(prodloc12).
location(prodloc13).
location(prodloc14).

% ---- transport resources ----
transportCapacity(tr0,1800).
transportCO2(tr0,1680).
transportCost(tr0,26).
transportSpeed(tr0,12).
transportCapacity(tr1,65).
transportCO2(tr1,90).
transportCost(tr1,1).
transportSpeed(tr1,35).
transportCapacity(tr10,1).
transportCO2(tr10,700).
transportCost(tr10,4).
transportSpeed(tr10,40).
transportCapacity(tr11,65).
transportCO2(tr11,62).
transportCost(tr11,1).
transportSpeed(tr11,25).
transportCapacity(tr12,65).
transportCO2(tr12,709).
transportCost(tr12,3).
transportSpeed(tr12,55).
transportCapacity(tr13,68).
transportCO2(tr13,160).
transportCost(tr13,6).
transportSpeed(tr13,25).
transportCapacity(tr14,146).
transportCO2(tr14,780).
transportCost(tr14,4).
transportSpeed(tr14,50).
transportCapacity(tr15,2217).
transportCO2(tr15,49470).
transportCost(tr15,32).
transportSpeed(tr15,625).
transportCapacity(tr2,96).
transportCO2(tr2,709).
transportCost(tr2,3).
transportSpeed(tr2,55).
transportCapacity(tr3,1).
transportCO2(tr3,6250).
transportCost(tr3,108).
transportSpeed(tr3,25).
transportCapacity(tr4,148).
transportCO2(tr4,780).
transportCost(tr4,4).
transportSpeed(tr4,50).
transportCapacity(tr5,65).
transportCO2(tr5,780).
transportCost(tr5,3).
transportSpeed(tr5,50).
transportCapacity(tr6,1).
transportCO2(tr6,100).
transportCost(tr6,40).
transportSpeed(tr6,25).
transportCapacity(tr7,1).
transportCO2(tr7,18000).
transportCost(tr7,278).
transportSpeed(tr7,10).
transportCapacity(tr8,1).
transportCO2(tr8,14400).
transportCost(tr8,107).
transportSpeed(tr8,25).
transportCapacity(tr9,65).
transportCO2(tr9,708).
transportCost(tr9,2).
transportSpeed(tr9,60).

% ---- parts ----
part(part0).
partSize(part0,21).
valid_transport(part0,tr0).
valid_transport(part0,tr15).
valid_transport(part0,tr14).
valid_transport(part0,tr13).
valid_transport(part0,tr4).
part(part1).
partSize(part1,1).
valid_transport(part1,tr0).
valid_transport(part1,tr2).
valid_transport(part1,tr15).
valid_transport(part1,tr9).
valid_transport(part1,tr12).
valid_transport(part1,tr13).
valid_transport(part1,tr11).
part(part10).
partSize(part10,1).
valid_transport(part10,tr0).
valid_transport(part10,tr2).
valid_transport(part10,tr15).
valid_transport(part10,tr9).
valid_transport(part10,tr12).
valid_transport(part10,tr13).
valid_transport(part10,tr11).
part(part11).
partSize(part11,83).
valid_transport(part11,tr0).
valid_transport(part11,tr7).
valid_transport(part11,tr8).
valid_transport(part11,tr15).
valid_transport(part11,tr3).
valid_transport(part11,tr13).
part(part12).
partSize(part12,273).
valid_transport(part12,tr0).
valid_transport(part12,tr7).
valid_transport(part12,tr8).
valid_transport(part12,tr15).
valid_transport(part12,tr3).
valid_transport(part12,tr13).
part(part13).
partSize(part13,1).
valid_transport(part13,tr0).
valid_transport(part13,tr2).
valid_transport(part13,tr15).
valid_transport(part13,tr9).
valid_transport(part13,tr12).
valid_transport(part13,tr13).
valid_transport(part13,tr11).
part(part14).
partSize(part14,68).
valid_transport(part14,tr0).
valid_transport(part14,tr15).
valid_transport(part14,tr13).
part(part15).
partSize(part15,4).
valid_transport(part15,tr0).
valid_transport(part15,tr2).
valid_transport(part15,tr15).
valid_transport(part15,tr9).
valid_transport(part15,tr12).
valid_transport(part15,tr13).
valid_transport(part15,tr11).
part(part16).
partSize(part16,4).
valid_transport(part16,tr0).
valid_transport(part16,tr2).
valid_transport(part16,tr15).
valid_transport(part16,tr9).
valid_transport(part16,tr12).
valid_transport(part16,tr13).
valid_transport(part16,tr11).
part(part17).
partSize(part17,8).
valid_transport(part17,tr0).
valid_transport(part17,tr15).
valid_transport(part17,tr14).
valid_transport(part17,tr13).
valid_transport(part17,tr4).
part(part18).
partSize(part18,24).
valid_transport(part18,tr0).
valid_transport(part18,tr15).
valid_transport(part18,tr14).
valid_transport(part18,tr13).
valid_transport(part18,tr4).
part(part19).
partSize(part19,6).
valid_transport(part19,tr0).
valid_transport(part19,tr2).
valid_transport(part19,tr15).
valid_transport(part19,tr9).
valid_transport(part19,tr12).
valid_transport(part19,tr13).
valid_transport(part19,tr11).
part(part2).
partSize(part2,19).
valid_transport(part2,tr0).
valid_transport(part2,tr15).
valid_transport(part2,tr14).
valid_transport(part2,tr13).
valid_transport(part2,tr4).
part(part20).
partSize(part20,128).
valid_transport(part20,tr0).
valid_transport(part20,tr7).
valid_transport(part20,tr8).
valid_transport(part20,tr15).
valid_transport(part20,tr3).
valid_transport(part20,tr13).
part(part21).
partSize(part21,25).
valid_transport(part21,tr0).
valid_transport(part21,tr15).
valid_transport(part21,tr14).
valid_transport(part21,tr13).
valid_transport(part21,tr4).
part(part22).
partSize(part22,7).
valid_transport(part22,tr0).
valid_transport(part22,tr2).
valid_transport(part22,tr15).
valid_transport(part22,tr9).
valid_transport(part22,tr12).
valid_transport(part22,tr13).
valid_transport(part22,tr11).
part(part23).
partSize(part23,5).
valid_transport(part23,tr0).
valid_transport(part23,tr15).
valid_transport(part23,tr14).
valid_transport(part23,tr13).
valid_transport(part23,tr4).
part(part24).
partSize(part24,55).
valid_transport(part24,tr0).
valid_transport(part24,tr7).
valid_transport(part24,tr8).
valid_transport(part24,tr15).
valid_transport(part24,tr3).
valid_transport(part24,tr13).
part(part25).
partSize(part25,5).
valid_transport(part25,tr0).
valid_transport(part25,tr4).
valid_transport(part25,tr2).
valid_transport(part25,tr15).
valid_transport(part25,tr13).
part(part26).
partSize(part26,32).
valid_transport(part26,tr0).
valid_transport(part26,tr7).
valid_transport(part26,tr8).
valid_transport(part26,tr15).
valid_transport(part26,tr3).
valid_transport(part26,tr13).
part(part27).
partSize(part27,5).
valid_transport(part27,tr0).
valid_transport(part27,tr2).
valid_transport(part27,tr15).
valid_transport(part27,tr9).
valid_transport(part27,tr12).
valid_transport(part27,tr13).
valid_transport(part27,tr11).
part(part28).
partSize(part28,3).
valid_transport(part28,tr0).
valid_transport(part28,tr4).
valid_transport(part28,tr2).
valid_transport(part28,tr15).
valid_transport(part28,tr14).
valid_transport(part28,tr13).
part(part29).
partSize(part29,627).
part(part3).
partSize(part3,48).
valid_transport(part3,tr0).
valid_transport(part3,tr7).
valid_transport(part3,tr8).
valid_transport(part3,tr15).
valid_transport(part3,tr3).
valid_transport(part3,tr13).
part(part30).
partSize(part30,2).
valid_transport(part30,tr0).
valid_transport(part30,tr2).
valid_transport(part30,tr15).
valid_transport(part30,tr9).
valid_transport(part30,tr12).
valid_transport(part30,tr13).
valid_transport(part30,tr11).
part(part31).
partSize(part31,144).
valid_transport(part31,tr0).
valid_transport(part31,tr7).
valid_transport(part31,tr8).
valid_transport(part31,tr15).
valid_transport(part31,tr3).
valid_transport(part31,tr13).
part(part32).
partSize(part32,16).
valid_transport(part32,tr0).
valid_transport(part32,tr4).
valid_transport(part32,tr2).
valid_transport(part32,tr15).
valid_transport(part32,tr14).
valid_transport(part32,tr13).
part(part33).
partSize(part33,7).
valid_transport(part33,tr0).
valid_transport(part33,tr2).
valid_transport(part33,tr15).
valid_transport(part33,tr9).
valid_transport(part33,tr12).
valid_transport(part33,tr13).
valid_transport(part33,tr11).
part(part3345).
partSize(part3345,353).
valid_transport(part3345,tr0).
valid_transport(part3345,tr7).
valid_transport(part3345,tr8).
valid_transport(part3345,tr15).
valid_transport(part3345,tr3).
valid_transport(part3345,tr13).
part(part34).
partSize(part34,2).
valid_transport(part34,tr0).
valid_transport(part34,tr2).
valid_transport(part34,tr15).
valid_transport(part34,tr9).
valid_transport(part34,tr12).
valid_transport(part34,tr13).
valid_transport(part34,tr11).
part(part4).
partSize(part4,2).
valid_transport(part4,tr0).
valid_transport(part4,tr2).
valid_transport(part4,tr15).
valid_transport(part4,tr9).
valid_transport(part4,tr12).
valid_transport(part4,tr13).
valid_transport(part4,tr11).
part(part5).
partSize(part5,2).
valid_transport(part5,tr0).
valid_transport(part5,tr2).
valid_transport(part5,tr15).
valid_transport(part5,tr9).
valid_transport(part5,tr12).
valid_transport(part5,tr14).
valid_transport(part5,tr13).
valid_transport(part5,tr11).
part(part6).
partSize(part6,111).
valid_transport(part6,tr0).
valid_transport(part6,tr7).
valid_transport(part6,tr8).
valid_transport(part6,tr15).
valid_transport(part6,tr3).
valid_transport(part6,tr13).
part(part8).
partSize(part8,163).
valid_transport(part8,tr0).
valid_transport(part8,tr7).
valid_transport(part8,tr8).
valid_transport(part8,tr15).
valid_transport(part8,tr3).
valid_transport(part8,tr13).
part(part9).
partSize(part9,2).
valid_transport(part9,tr0).
valid_transport(part9,tr2).
valid_transport(part9,tr15).
valid_transport(part9,tr9).
valid_transport(part9,tr12).
valid_transport(part9,tr13).
valid_transport(part9,tr11).

% ---- demand ----
demandOffer(part0,prodloc8,40).
demandOffer(part0,prodloc6,40).
demandOffer(part0,prodloc12,-27).
demandOffer(part0,prodloc4,-53).
demandOffer(part1,prodloc5,20).
demandOffer(part1,prodloc4,20).
demandOffer(part1,prodloc2,-20).
demandOffer(part1,prodloc11,-20).
demandOffer(part10,prodloc11,20).
demandOffer(part10,prodloc8,20).
demandOffer(part10,prodloc10,-20).
demandOffer(part10,prodloc4,-20).
demandOffer(part12,prodloc1,10).
demandOffer(part12,prodloc0,20).
demandOffer(part12,prodloc3,-10).
demandOffer(part12,prodloc6,-10).
demandOffer(part12,prodloc11,-10).
demandOffer(part13,prodloc4,20).
demandOffer(part13,prodloc13,20).
demandOffer(part13,prodloc8,-20).
demandOffer(part13,prodloc5,-20).
demandOffer(part14,prodloc10,26).
demandOffer(part14,prodloc13,-26).
demandOffer(part15,prodloc10,53).
demandOffer(part15,prodloc11,27).
demandOffer(part15,prodloc6,-53).
demandOffer(part15,prodloc2,-27).
demandOffer(part16,prodloc8,53).
demandOffer(part16,prodloc0,27).
demandOffer(part16,prodloc2,-53).
demandOffer(part16,prodloc3,-27).
demandOffer(part17,prodloc2,20).
demandOffer(part17,prodloc11,-20).
demandOffer(part18,prodloc8,40).
demandOffer(part18,prodloc14,40).
demandOffer(part18,prodloc12,-27).
demandOffer(part18,prodloc10,-53).
demandOffer(part19,prodloc3,26).
demandOffer(part19,prodloc5,-26).
demandOffer(part2,prodloc8,40).
demandOffer(part2,prodloc1,40).
demandOffer(part2,prodloc11,-27).
demandOffer(part2,prodloc10,-53).
demandOffer(part20,prodloc1,53).
demandOffer(part20,prodloc4,27).
demandOffer(part20,prodloc6,-14).
demandOffer(part20,prodloc14,-46).
demandOffer(part20,prodloc8,-20).
demandOffer(part21,prodloc13,26).
demandOffer(part21,prodloc7,-26).
demandOffer(part22,prodloc10,53).
demandOffer(part22,prodloc9,27).
demandOffer(part22,prodloc2,-53).
demandOffer(part22,prodloc14,-27).
demandOffer(part23,prodloc12,20).
demandOffer(part23,prodloc6,20).
demandOffer(part23,prodloc8,-20).
demandOffer(part23,prodloc5,-20).
demandOffer(part25,prodloc0,20).
demandOffer(part25,prodloc6,-20).
demandOffer(part26,prodloc5,20).
demandOffer(part26,prodloc9,20).
demandOffer(part26,prodloc0,-14).
demandOffer(part26,prodloc11,-26).
demandOffer(part27,prodloc5,53).
demandOffer(part27,prodloc0,27).
demandOffer(part27,prodloc7,-53).
demandOffer(part27,prodloc14,-27).
demandOffer(part28,prodloc9,20).
demandOffer(part28,prodloc12,20).
demandOffer(part28,prodloc0,-20).
demandOffer(part28,prodloc6,-20).
demandOffer(part3,prodloc3,40).
demandOffer(part3,prodloc1,-14).
demandOffer(part3,prodloc8,-26).
demandOffer(part30,prodloc3,40).
demandOffer(part30,prodloc14,40).
demandOffer(part30,prodloc8,-27).
demandOffer(part30,prodloc5,-53).
demandOffer(part31,prodloc0,7).
demandOffer(part31,prodloc4,7).
demandOffer(part31,prodloc1,-14).
demandOffer(part32,prodloc12,53).
demandOffer(part32,prodloc4,27).
demandOffer(part32,prodloc3,-53).
demandOffer(part32,prodloc11,-27).
demandOffer(part33,prodloc9,53).
demandOffer(part33,prodloc13,27).
demandOffer(part33,prodloc8,-53).
demandOffer(part33,prodloc12,-27).
demandOffer(part34,prodloc8,20).
demandOffer(part34,prodloc2,-20).
demandOffer(part4,prodloc4,26).
demandOffer(part4,prodloc10,-26).
demandOffer(part5,prodloc4,20).
demandOffer(part5,prodloc5,-20).
demandOffer(part6,prodloc5,27).
demandOffer(part6,prodloc2,53).
demandOffer(part6,prodloc14,-24).
demandOffer(part6,prodloc1,-36).
demandOffer(part6,prodloc9,-10).
demandOffer(part6,prodloc10,-10).
demandOffer(part8,prodloc12,3).
demandOffer(part8,prodloc4,17).
demandOffer(part8,prodloc5,-10).
demandOffer(part8,prodloc0,-10).
demandOffer(part9,prodloc0,20).
demandOffer(part9,prodloc12,-20).

% ---- network (ASP-generated) ----
route(harbor0,harbor1,tr13,11433,68598).
route(harbor0,harbor1,tr2,11433,34299).
route(harbor0,harbor2,tr13,659,3954).
route(harbor0,harbor2,tr2,659,1977).
route(harbor0,harbor3,tr13,15337,92022).
route(harbor0,harbor3,tr2,15337,46011).
route(harbor0,harbor4,tr13,24430,146580).
route(harbor0,harbor4,tr2,24430,73290).
route(harbor0,harbor5,tr13,8959,53754).
route(harbor0,harbor5,tr2,8959,26877).
route(harbor0,prodloc0,tr0,15527,403702).
route(harbor0,prodloc0,tr13,15527,93162).
route(harbor0,prodloc1,tr0,20747,539422).
route(harbor0,prodloc1,tr13,20747,124482).
route(harbor0,prodloc2,tr0,1770,46020).
route(harbor0,prodloc2,tr13,1770,10620).
route(harbor0,prodloc3,tr0,23889,621114).
route(harbor0,prodloc3,tr13,23889,143334).
route(harbor0,prodloc4,tr0,6499,168974).
route(harbor0,prodloc4,tr13,6499,38994).
route(harbor0,prodloc5,tr0,10153,263978).
route(harbor0,prodloc5,tr13,10153,60918).
route(harbor0,prodloc6,tr0,8458,219908).
route(harbor0,prodloc6,tr13,8458,50748).
route(harbor0,prodloc7,tr0,2460,63960).
route(harbor0,prodloc7,tr13,2460,14760).
route(harbor0,prodloc8,tr0,24518,637468).
route(harbor0,prodloc8,tr13,24518,147108).
route(harbor0,prodloc9,tr0,23441,609466).
route(harbor0,prodloc9,tr13,23441,140646).
route(harbor0,prodloc10,tr0,15891,413166).
route(harbor0,prodloc10,tr13,15891,95346).
route(harbor0,prodloc11,tr0,679,17654).
route(harbor0,prodloc11,tr13,679,4074).
route(harbor0,prodloc12,tr0,20352,529152).
route(harbor0,prodloc12,tr13,20352,122112).
route(harbor0,prodloc13,tr0,18489,480714).
route(harbor0,prodloc13,tr13,18489,110934).
route(harbor0,prodloc14,tr0,17213,447538).
route(harbor0,prodloc14,tr13,17213,103278).
route(harbor1,harbor0,tr13,22508,135048).
route(harbor1,harbor0,tr2,22508,67524).
route(harbor1,harbor2,tr13,4564,27384).
route(harbor1,harbor2,tr2,4564,13692).
route(harbor1,harbor3,tr13,13235,79410).
route(harbor1,harbor3,tr2,13235,39705).
route(harbor1,harbor4,tr13,15918,95508).
route(harbor1,harbor4,tr2,15918,47754).
route(harbor1,harbor5,tr13,24004,144024).
route(harbor1,harbor5,tr2,24004,72012).
route(harbor1,prodloc0,tr0,19339,502814).
route(harbor1,prodloc0,tr13,19339,116034).
route(harbor1,prodloc1,tr0,26755,695630).
route(harbor1,prodloc1,tr13,26755,160530).
route(harbor1,prodloc2,tr0,12833,333658).
route(harbor1,prodloc2,tr13,12833,76998).
route(harbor1,prodloc3,tr0,6007,156182).
route(harbor1,prodloc3,tr13,6007,36042).
route(harbor1,prodloc4,tr0,6412,166712).
route(harbor1,prodloc4,tr13,6412,38472).
route(harbor1,prodloc5,tr0,8240,214240).
route(harbor1,prodloc5,tr13,8240,49440).
route(harbor1,prodloc6,tr0,4943,128518).
route(harbor1,prodloc6,tr13,4943,29658).
route(harbor1,prodloc7,tr0,22163,576238).
route(harbor1,prodloc7,tr13,22163,132978).
route(harbor1,prodloc8,tr0,3619,94094).
route(harbor1,prodloc8,tr13,3619,21714).
route(harbor1,prodloc9,tr0,6961,180986).
route(harbor1,prodloc9,tr13,6961,41766).
route(harbor1,prodloc10,tr0,1647,42822).
route(harbor1,prodloc10,tr13,1647,9882).
route(harbor1,prodloc11,tr0,27593,717418).
route(harbor1,prodloc11,tr13,27593,165558).
route(harbor1,prodloc12,tr0,17597,457522).
route(harbor1,prodloc12,tr13,17597,105582).
route(harbor1,prodloc13,tr0,10000,260000).
route(harbor1,prodloc13,tr13,10000,60000).
route(harbor1,prodloc14,tr0,26378,685828).
route(harbor1,prodloc14,tr13,26378,158268).
route(harbor2,harbor0,tr13,29184,175104).
route(harbor2,harbor0,tr2,29184,87552).
route(harbor2,harbor1,tr13,10368,62208).
route(harbor2,harbor1,tr2,10368,31104).
route(harbor2,harbor3,tr13,26597,159582).
route(harbor2,harbor3,tr2,26597,79791).
route(harbor2,harbor4,tr13,10389,62334).
route(harbor2,harbor4,tr2,10389,31167).
route(harbor2,harbor5,tr13,1650,9900).
route(harbor2,harbor5,tr2,1650,4950).
route(harbor2,prodloc0,tr0,5292,137592).
route(harbor2,prodloc0,tr13,5292,31752).
route(harbor2,prodloc1,tr0,13731,357006).
route(harbor2,prodloc1,tr13,13731,82386).
route(harbor2,prodloc2,tr0,3042,79092).
route(harbor2,prodloc2,tr13,3042,18252).
route(harbor2,prodloc3,tr0,22655,589030).
route(harbor2,prodloc3,tr13,22655,135930).
route(harbor2,prodloc4,tr0,25265,656890).
route(harbor2,prodloc4,tr13,25265,151590).
route(harbor2,prodloc5,tr0,10220,265720).
route(harbor2,prodloc5,tr13,10220,61320).
route(harbor2,prodloc6,tr0,27492,714792).
route(harbor2,prodloc6,tr13,27492,164952).
route(harbor2,prodloc7,tr0,8211,213486).
route(harbor2,prodloc7,tr13,8211,49266).
route(harbor2,prodloc8,tr0,21545,560170).
route(harbor2,prodloc8,tr13,21545,129270).
route(harbor2,prodloc9,tr0,13229,343954).
route(harbor2,prodloc9,tr13,13229,79374).
route(harbor2,prodloc10,tr0,15738,409188).
route(harbor2,prodloc10,tr13,15738,94428).
route(harbor2,prodloc11,tr0,2460,63960).
route(harbor2,prodloc11,tr13,2460,14760).
route(harbor2,prodloc12,tr0,17766,461916).
route(harbor2,prodloc12,tr13,17766,106596).
route(harbor2,prodloc13,tr0,2792,72592).
route(harbor2,prodloc13,tr13,2792,16752).
route(harbor2,prodloc14,tr0,17796,462696).
route(harbor2,prodloc14,tr13,17796,106776).
route(harbor3,harbor0,tr13,20886,125316).
route(harbor3,harbor0,tr2,20886,62658).
route(harbor3,harbor1,tr13,7950,47700).
route(harbor3,harbor1,tr2,7950,23850).
route(harbor3,harbor2,tr13,7400,44400).
route(harbor3,harbor2,tr2,7400,22200).
route(harbor3,harbor4,tr13,17471,104826).
route(harbor3,harbor4,tr2,17471,52413).
route(harbor3,harbor5,tr13,8720,52320).
route(harbor3,harbor5,tr2,8720,26160).
route(harbor3,prodloc0,tr0,18875,490750).
route(harbor3,prodloc0,tr13,18875,113250).
route(harbor3,prodloc1,tr0,5356,139256).
route(harbor3,prodloc1,tr13,5356,32136).
route(harbor3,prodloc2,tr0,26261,682786).
route(harbor3,prodloc2,tr13,26261,157566).
route(harbor3,prodloc3,tr0,9676,251576).
route(harbor3,prodloc3,tr13,9676,58056).
route(harbor3,prodloc4,tr0,1614,41964).
route(harbor3,prodloc4,tr13,1614,9684).
route(harbor3,prodloc5,tr0,23754,617604).
route(harbor3,prodloc5,tr13,23754,142524).
route(harbor3,prodloc6,tr0,15953,414778).
route(harbor3,prodloc6,tr13,15953,95718).
route(harbor3,prodloc7,tr0,19217,499642).
route(harbor3,prodloc7,tr13,19217,115302).
route(harbor3,prodloc8,tr0,12872,334672).
route(harbor3,prodloc8,tr13,12872,77232).
route(harbor3,prodloc9,tr0,27017,702442).
route(harbor3,prodloc9,tr13,27017,162102).
route(harbor3,prodloc10,tr0,15943,414518).
route(harbor3,prodloc10,tr13,15943,95658).
route(harbor3,prodloc11,tr0,7292,189592).
route(harbor3,prodloc11,tr13,7292,43752).
route(harbor3,prodloc12,tr0,18154,472004).
route(harbor3,prodloc12,tr13,18154,108924).
route(harbor3,prodloc13,tr0,13367,347542).
route(harbor3,prodloc13,tr13,13367,80202).
route(harbor3,prodloc14,tr0,16899,439374).
route(harbor3,prodloc14,tr13,16899,101394).
route(harbor4,harbor0,tr13,20569,123414).
route(harbor4,harbor0,tr2,20569,61707).
route(harbor4,harbor1,tr13,14613,87678).
route(harbor4,harbor1,tr2,14613,43839).
route(harbor4,harbor2,tr13,2566,15396).
route(harbor4,harbor2,tr2,2566,7698).
route(harbor4,harbor3,tr13,15082,90492).
route(harbor4,harbor3,tr2,15082,45246).
route(harbor4,harbor5,tr13,24662,147972).
route(harbor4,harbor5,tr2,24662,73986).
route(harbor4,prodloc0,tr0,7166,186316).
route(harbor4,prodloc0,tr13,7166,42996).
route(harbor4,prodloc1,tr0,7507,195182).
route(harbor4,prodloc1,tr13,7507,45042).
route(harbor4,prodloc2,tr0,15827,411502).
route(harbor4,prodloc2,tr13,15827,94962).
route(harbor4,prodloc3,tr0,10430,271180).
route(harbor4,prodloc3,tr13,10430,62580).
route(harbor4,prodloc4,tr0,26859,698334).
route(harbor4,prodloc4,tr13,26859,161154).
route(harbor4,prodloc5,tr0,6188,160888).
route(harbor4,prodloc5,tr13,6188,37128).
route(harbor4,prodloc6,tr0,11932,310232).
route(harbor4,prodloc6,tr13,11932,71592).
route(harbor4,prodloc7,tr0,19602,509652).
route(harbor4,prodloc7,tr13,19602,117612).
route(harbor4,prodloc8,tr0,931,24206).
route(harbor4,prodloc8,tr13,931,5586).
route(harbor4,prodloc9,tr0,24397,634322).
route(harbor4,prodloc9,tr13,24397,146382).
route(harbor4,prodloc10,tr0,18942,492492).
route(harbor4,prodloc10,tr13,18942,113652).
route(harbor4,prodloc11,tr0,18610,483860).
route(harbor4,prodloc11,tr13,18610,111660).
route(harbor4,prodloc12,tr0,17023,442598).
route(harbor4,prodloc12,tr13,17023,102138).
route(harbor4,prodloc13,tr0,13852,360152).
route(harbor4,prodloc13,tr13,13852,83112).
route(harbor4,prodloc14,tr0,1761,45786).
route(harbor4,prodloc14,tr13,1761,10566).
route(harbor5,harbor0,tr13,29306,175836).
route(harbor5,harbor0,tr2,29306,87918).
route(harbor5,harbor1,tr13,27302,163812).
route(harbor5,harbor1,tr2,27302,81906).
route(harbor5,harbor2,tr13,10802,64812).
route(harbor5,harbor2,tr2,10802,32406).
route(harbor5,harbor3,tr13,18989,113934).
route(harbor5,harbor3,tr2,18989,56967).
route(harbor5,harbor4,tr13,5571,33426).
route(harbor5,harbor4,tr2,5571,16713).
route(harbor5,prodloc0,tr0,18216,473616).
route(harbor5,prodloc0,tr13,18216,109296).
route(harbor5,prodloc1,tr0,7574,196924).
route(harbor5,prodloc1,tr13,7574,45444).
route(harbor5,prodloc2,tr0,20087,522262).
route(harbor5,prodloc2,tr13,20087,120522).
route(harbor5,prodloc3,tr0,10273,267098).
route(harbor5,prodloc3,tr13,10273,61638).
route(harbor5,prodloc4,tr0,12059,313534).
route(harbor5,prodloc4,tr13,12059,72354).
route(harbor5,prodloc5,tr0,5643,146718).
route(harbor5,prodloc5,tr13,5643,33858).
route(harbor5,prodloc6,tr0,24734,643084).
route(harbor5,prodloc6,tr13,24734,148404).
route(harbor5,prodloc7,tr0,6918,179868).
route(harbor5,prodloc7,tr13,6918,41508).
route(harbor5,prodloc8,tr0,9942,258492).
route(harbor5,prodloc8,tr13,9942,59652).
route(harbor5,prodloc9,tr0,14217,369642).
route(harbor5,prodloc9,tr13,14217,85302).
route(harbor5,prodloc10,tr0,11651,302926).
route(harbor5,prodloc10,tr13,11651,69906).
route(harbor5,prodloc11,tr0,14716,382616).
route(harbor5,prodloc11,tr13,14716,88296).
route(harbor5,prodloc12,tr0,19384,503984).
route(harbor5,prodloc12,tr13,19384,116304).
route(harbor5,prodloc13,tr0,3063,79638).
route(harbor5,prodloc13,tr13,3063,18378).
route(harbor5,prodloc14,tr0,16996,441896).
route(harbor5,prodloc14,tr13,16996,101976).
route(prodloc0,harbor0,tr0,3459,89934).
route(prodloc0,harbor0,tr13,3459,20754).
route(prodloc0,harbor1,tr0,17149,445874).
route(prodloc0,harbor1,tr13,17149,102894).
route(prodloc0,harbor2,tr0,346,8996).
route(prodloc0,harbor2,tr13,346,2076).
route(prodloc0,harbor3,tr0,6296,163696).
route(prodloc0,harbor3,tr13,6296,37776).
route(prodloc0,harbor4,tr0,18866,490516).
route(prodloc0,harbor4,tr13,18866,113196).
route(prodloc0,harbor5,tr0,23068,599768).
route(prodloc0,harbor5,tr13,23068,138408).
route(prodloc0,prodloc1,tr13,18138,108828).
route(prodloc0,prodloc1,tr15,18138,580416).
route(prodloc0,prodloc2,tr0,25069,651794).
route(prodloc0,prodloc2,tr13,25069,150414).
route(prodloc0,prodloc3,tr0,5859,152334).
route(prodloc0,prodloc3,tr13,5859,35154).
route(prodloc0,prodloc4,tr0,14727,382902).
route(prodloc0,prodloc4,tr13,14727,88362).
route(prodloc0,prodloc5,tr0,15194,395044).
route(prodloc0,prodloc5,tr13,15194,91164).
route(prodloc0,prodloc6,tr0,14602,379652).
route(prodloc0,prodloc6,tr13,14602,87612).
route(prodloc0,prodloc7,tr0,28040,729040).
route(prodloc0,prodloc7,tr15,28040,897280).
route(prodloc0,prodloc8,tr0,16525,429650).
route(prodloc0,prodloc8,tr13,16525,99150).
route(prodloc0,prodloc9,tr0,4496,116896).
route(prodloc0,prodloc9,tr13,4496,26976).
route(prodloc0,prodloc10,tr0,17573,456898).
route(prodloc0,prodloc10,tr13,17573,105438).
route(prodloc0,prodloc11,tr0,18003,468078).
route(prodloc0,prodloc11,tr13,18003,108018).
route(prodloc0,prodloc12,tr0,15564,404664).
route(prodloc0,prodloc12,tr15,15564,498048).
route(prodloc0,prodloc13,tr0,14839,385814).
route(prodloc0,prodloc13,tr13,14839,89034).
route(prodloc0,prodloc14,tr0,398,10348).
route(prodloc0,prodloc14,tr13,398,2388).
route(prodloc1,harbor0,tr0,9643,250718).
route(prodloc1,harbor0,tr13,9643,57858).
route(prodloc1,harbor1,tr0,8633,224458).
route(prodloc1,harbor1,tr13,8633,51798).
route(prodloc1,harbor2,tr0,6032,156832).
route(prodloc1,harbor2,tr13,6032,36192).
route(prodloc1,harbor3,tr0,270,7020).
route(prodloc1,harbor3,tr13,270,1620).
route(prodloc1,harbor4,tr0,27078,704028).
route(prodloc1,harbor4,tr13,27078,162468).
route(prodloc1,harbor5,tr0,15316,398216).
route(prodloc1,harbor5,tr13,15316,91896).
route(prodloc1,prodloc0,tr0,11056,287456).
route(prodloc1,prodloc0,tr13,11056,66336).
route(prodloc1,prodloc2,tr0,24642,640692).
route(prodloc1,prodloc2,tr13,24642,147852).
route(prodloc1,prodloc3,tr0,10774,280124).
route(prodloc1,prodloc3,tr15,10774,344768).
route(prodloc1,prodloc4,tr0,6924,180024).
route(prodloc1,prodloc4,tr13,6924,41544).
route(prodloc1,prodloc5,tr0,1699,44174).
route(prodloc1,prodloc5,tr13,1699,10194).
route(prodloc1,prodloc6,tr13,8756,52536).
route(prodloc1,prodloc6,tr15,8756,280192).
route(prodloc1,prodloc7,tr0,3231,84006).
route(prodloc1,prodloc7,tr13,3231,19386).
route(prodloc1,prodloc8,tr13,16963,101778).
route(prodloc1,prodloc8,tr15,16963,542816).
route(prodloc1,prodloc9,tr0,21862,568412).
route(prodloc1,prodloc9,tr13,21862,131172).
route(prodloc1,prodloc10,tr0,22916,595816).
route(prodloc1,prodloc10,tr13,22916,137496).
route(prodloc1,prodloc11,tr0,503,13078).
route(prodloc1,prodloc11,tr13,503,3018).
route(prodloc1,prodloc12,tr0,905,23530).
route(prodloc1,prodloc12,tr13,905,5430).
route(prodloc1,prodloc13,tr0,3698,96148).
route(prodloc1,prodloc13,tr13,3698,22188).
route(prodloc1,prodloc14,tr13,15459,92754).
route(prodloc1,prodloc14,tr15,15459,494688).
route(prodloc2,harbor0,tr0,23275,605150).
route(prodloc2,harbor0,tr13,23275,139650).
route(prodloc2,harbor1,tr0,9878,256828).
route(prodloc2,harbor1,tr13,9878,59268).
route(prodloc2,harbor2,tr0,20064,521664).
route(prodloc2,harbor2,tr13,20064,120384).
route(prodloc2,harbor3,tr0,6688,173888).
route(prodloc2,harbor3,tr13,6688,40128).
route(prodloc2,harbor4,tr0,25561,664586).
route(prodloc2,harbor4,tr13,25561,153366).
route(prodloc2,harbor5,tr0,3235,84110).
route(prodloc2,harbor5,tr13,3235,19410).
route(prodloc2,prodloc0,tr0,25496,662896).
route(prodloc2,prodloc0,tr13,25496,152976).
route(prodloc2,prodloc1,tr0,26871,698646).
route(prodloc2,prodloc1,tr13,26871,161226).
route(prodloc2,prodloc3,tr0,27441,713466).
route(prodloc2,prodloc3,tr13,27441,164646).
route(prodloc2,prodloc4,tr0,859,22334).
route(prodloc2,prodloc4,tr13,859,5154).
route(prodloc2,prodloc5,tr0,14923,387998).
route(prodloc2,prodloc5,tr13,14923,89538).
route(prodloc2,prodloc6,tr0,17584,457184).
route(prodloc2,prodloc6,tr13,17584,105504).
route(prodloc2,prodloc7,tr0,26913,699738).
route(prodloc2,prodloc7,tr13,26913,161478).
route(prodloc2,prodloc8,tr0,24882,646932).
route(prodloc2,prodloc8,tr13,24882,149292).
route(prodloc2,prodloc9,tr13,7278,43668).
route(prodloc2,prodloc9,tr15,7278,232896).
route(prodloc2,prodloc10,tr0,28422,738972).
route(prodloc2,prodloc10,tr13,28422,170532).
route(prodloc2,prodloc11,tr0,21278,553228).
route(prodloc2,prodloc11,tr13,21278,127668).
route(prodloc2,prodloc12,tr0,982,25532).
route(prodloc2,prodloc12,tr13,982,5892).
route(prodloc2,prodloc13,tr0,27871,724646).
route(prodloc2,prodloc13,tr13,27871,167226).
route(prodloc2,prodloc14,tr0,13108,340808).
route(prodloc2,prodloc14,tr13,13108,78648).
route(prodloc3,harbor0,tr0,26018,676468).
route(prodloc3,harbor0,tr13,26018,156108).
route(prodloc3,harbor1,tr0,4023,104598).
route(prodloc3,harbor1,tr13,4023,24138).
route(prodloc3,harbor2,tr0,14030,364780).
route(prodloc3,harbor2,tr13,14030,84180).
route(prodloc3,harbor3,tr0,1913,49738).
route(prodloc3,harbor3,tr13,1913,11478).
route(prodloc3,harbor4,tr0,24195,629070).
route(prodloc3,harbor4,tr13,24195,145170).
route(prodloc3,harbor5,tr0,17669,459394).
route(prodloc3,harbor5,tr13,17669,106014).
route(prodloc3,prodloc0,tr0,1962,51012).
route(prodloc3,prodloc0,tr13,1962,11772).
route(prodloc3,prodloc1,tr0,6165,160290).
route(prodloc3,prodloc1,tr13,6165,36990).
route(prodloc3,prodloc2,tr0,17654,459004).
route(prodloc3,prodloc2,tr13,17654,105924).
route(prodloc3,prodloc4,tr0,8598,223548).
route(prodloc3,prodloc4,tr13,8598,51588).
route(prodloc3,prodloc5,tr0,8830,229580).
route(prodloc3,prodloc5,tr15,8830,282560).
route(prodloc3,prodloc6,tr0,11696,304096).
route(prodloc3,prodloc6,tr13,11696,70176).
route(prodloc3,prodloc7,tr0,11382,295932).
route(prodloc3,prodloc7,tr13,11382,68292).
route(prodloc3,prodloc8,tr0,17819,463294).
route(prodloc3,prodloc8,tr13,17819,106914).
route(prodloc3,prodloc9,tr0,19049,495274).
route(prodloc3,prodloc9,tr13,19049,114294).
route(prodloc3,prodloc10,tr0,26858,698308).
route(prodloc3,prodloc10,tr13,26858,161148).
route(prodloc3,prodloc11,tr0,13654,355004).
route(prodloc3,prodloc11,tr13,13654,81924).
route(prodloc3,prodloc12,tr0,13290,345540).
route(prodloc3,prodloc12,tr13,13290,79740).
route(prodloc3,prodloc13,tr0,246,6396).
route(prodloc3,prodloc13,tr13,246,1476).
route(prodloc3,prodloc14,tr0,17229,447954).
route(prodloc3,prodloc14,tr13,17229,103374).
route(prodloc4,harbor0,tr0,24583,639158).
route(prodloc4,harbor0,tr13,24583,147498).
route(prodloc4,harbor1,tr0,11118,289068).
route(prodloc4,harbor1,tr13,11118,66708).
route(prodloc4,harbor2,tr0,2653,68978).
route(prodloc4,harbor2,tr13,2653,15918).
route(prodloc4,harbor3,tr0,24827,645502).
route(prodloc4,harbor3,tr13,24827,148962).
route(prodloc4,harbor4,tr0,24561,638586).
route(prodloc4,harbor4,tr13,24561,147366).
route(prodloc4,harbor5,tr0,27218,707668).
route(prodloc4,harbor5,tr13,27218,163308).
route(prodloc4,prodloc0,tr0,26020,676520).
route(prodloc4,prodloc0,tr13,26020,156120).
route(prodloc4,prodloc1,tr0,1100,28600).
route(prodloc4,prodloc1,tr13,1100,6600).
route(prodloc4,prodloc2,tr0,20529,533754).
route(prodloc4,prodloc2,tr13,20529,123174).
route(prodloc4,prodloc3,tr0,23949,622674).
route(prodloc4,prodloc3,tr13,23949,143694).
route(prodloc4,prodloc6,tr13,9335,56010).
route(prodloc4,prodloc6,tr15,9335,298720).
route(prodloc4,prodloc7,tr0,10664,277264).
route(prodloc4,prodloc7,tr13,10664,63984).
route(prodloc4,prodloc8,tr13,10541,63246).
route(prodloc4,prodloc8,tr15,10541,337312).
route(prodloc4,prodloc9,tr0,3851,100126).
route(prodloc4,prodloc9,tr13,3851,23106).
route(prodloc4,prodloc10,tr0,10954,284804).
route(prodloc4,prodloc10,tr13,10954,65724).
route(prodloc4,prodloc11,tr0,4171,108446).
route(prodloc4,prodloc11,tr13,4171,25026).
route(prodloc4,prodloc12,tr0,17643,458718).
route(prodloc4,prodloc12,tr13,17643,105858).
route(prodloc4,prodloc13,tr0,27430,713180).
route(prodloc4,prodloc13,tr13,27430,164580).
route(prodloc4,prodloc14,tr0,7973,207298).
route(prodloc4,prodloc14,tr13,7973,47838).
route(prodloc5,harbor0,tr0,16204,421304).
route(prodloc5,harbor0,tr13,16204,97224).
route(prodloc5,harbor1,tr0,26931,700206).
route(prodloc5,harbor1,tr13,26931,161586).
route(prodloc5,harbor2,tr0,9285,241410).
route(prodloc5,harbor2,tr13,9285,55710).
route(prodloc5,harbor3,tr0,14503,377078).
route(prodloc5,harbor3,tr13,14503,87018).
route(prodloc5,harbor4,tr0,4086,106236).
route(prodloc5,harbor4,tr13,4086,24516).
route(prodloc5,harbor5,tr0,8356,217256).
route(prodloc5,harbor5,tr13,8356,50136).
route(prodloc5,prodloc0,tr0,8193,213018).
route(prodloc5,prodloc0,tr13,8193,49158).
route(prodloc5,prodloc1,tr0,2417,62842).
route(prodloc5,prodloc1,tr15,2417,77344).
route(prodloc5,prodloc2,tr0,22314,580164).
route(prodloc5,prodloc2,tr15,22314,714048).
route(prodloc5,prodloc3,tr0,13780,358280).
route(prodloc5,prodloc3,tr13,13780,82680).
route(prodloc5,prodloc4,tr0,10177,264602).
route(prodloc5,prodloc4,tr13,10177,61062).
route(prodloc5,prodloc6,tr0,22443,583518).
route(prodloc5,prodloc6,tr13,22443,134658).
route(prodloc5,prodloc7,tr0,6565,170690).
route(prodloc5,prodloc7,tr13,6565,39390).
route(prodloc5,prodloc8,tr0,15823,411398).
route(prodloc5,prodloc8,tr13,15823,94938).
route(prodloc5,prodloc9,tr0,11981,311506).
route(prodloc5,prodloc9,tr13,11981,71886).
route(prodloc5,prodloc10,tr0,4202,109252).
route(prodloc5,prodloc10,tr13,4202,25212).
route(prodloc5,prodloc11,tr0,7002,182052).
route(prodloc5,prodloc11,tr13,7002,42012).
route(prodloc5,prodloc12,tr0,16544,430144).
route(prodloc5,prodloc12,tr13,16544,99264).
route(prodloc5,prodloc13,tr0,25798,670748).
route(prodloc5,prodloc13,tr13,25798,154788).
route(prodloc5,prodloc14,tr0,18746,487396).
route(prodloc5,prodloc14,tr13,18746,112476).
route(prodloc6,harbor0,tr0,4971,129246).
route(prodloc6,harbor0,tr13,4971,29826).
route(prodloc6,harbor1,tr0,25713,668538).
route(prodloc6,harbor1,tr13,25713,154278).
route(prodloc6,harbor2,tr0,9629,250354).
route(prodloc6,harbor2,tr13,9629,57774).
route(prodloc6,harbor3,tr0,2728,70928).
route(prodloc6,harbor3,tr13,2728,16368).
route(prodloc6,harbor4,tr0,14285,371410).
route(prodloc6,harbor4,tr13,14285,85710).
route(prodloc6,harbor5,tr0,14338,372788).
route(prodloc6,harbor5,tr13,14338,86028).
route(prodloc6,prodloc0,tr0,17305,449930).
route(prodloc6,prodloc0,tr13,17305,103830).
route(prodloc6,prodloc1,tr0,12730,330980).
route(prodloc6,prodloc1,tr13,12730,76380).
route(prodloc6,prodloc2,tr0,25594,665444).
route(prodloc6,prodloc2,tr13,25594,153564).
route(prodloc6,prodloc3,tr0,17150,445900).
route(prodloc6,prodloc3,tr13,17150,102900).
route(prodloc6,prodloc4,tr0,19807,514982).
route(prodloc6,prodloc4,tr13,19807,118842).
route(prodloc6,prodloc5,tr0,24909,647634).
route(prodloc6,prodloc5,tr15,24909,797088).
route(prodloc6,prodloc7,tr0,5053,131378).
route(prodloc6,prodloc7,tr13,5053,30318).
route(prodloc6,prodloc8,tr0,21735,565110).
route(prodloc6,prodloc8,tr13,21735,130410).
route(prodloc6,prodloc9,tr0,18326,476476).
route(prodloc6,prodloc9,tr13,18326,109956).
route(prodloc6,prodloc10,tr0,4676,121576).
route(prodloc6,prodloc10,tr13,4676,28056).
route(prodloc6,prodloc11,tr0,5391,140166).
route(prodloc6,prodloc11,tr13,5391,32346).
route(prodloc6,prodloc12,tr0,19219,499694).
route(prodloc6,prodloc12,tr15,19219,615008).
route(prodloc6,prodloc13,tr0,17526,455676).
route(prodloc6,prodloc13,tr13,17526,105156).
route(prodloc6,prodloc14,tr0,10392,270192).
route(prodloc6,prodloc14,tr13,10392,62352).
route(prodloc7,harbor0,tr0,16162,420212).
route(prodloc7,harbor0,tr13,16162,96972).
route(prodloc7,harbor1,tr0,26320,684320).
route(prodloc7,harbor1,tr13,26320,157920).
route(prodloc7,harbor2,tr0,28614,743964).
route(prodloc7,harbor2,tr13,28614,171684).
route(prodloc7,harbor3,tr0,28870,750620).
route(prodloc7,harbor3,tr13,28870,173220).
route(prodloc7,harbor4,tr0,9228,239928).
route(prodloc7,harbor4,tr13,9228,55368).
route(prodloc7,harbor5,tr0,13343,346918).
route(prodloc7,harbor5,tr13,13343,80058).
route(prodloc7,prodloc0,tr0,2159,56134).
route(prodloc7,prodloc0,tr13,2159,12954).
route(prodloc7,prodloc1,tr0,20211,525486).
route(prodloc7,prodloc1,tr13,20211,121266).
route(prodloc7,prodloc2,tr0,7740,201240).
route(prodloc7,prodloc2,tr13,7740,46440).
route(prodloc7,prodloc3,tr0,5527,143702).
route(prodloc7,prodloc3,tr13,5527,33162).
route(prodloc7,prodloc4,tr0,23320,606320).
route(prodloc7,prodloc4,tr13,23320,139920).
route(prodloc7,prodloc5,tr0,4947,128622).
route(prodloc7,prodloc5,tr13,4947,29682).
route(prodloc7,prodloc6,tr0,25496,662896).
route(prodloc7,prodloc6,tr13,25496,152976).
route(prodloc7,prodloc8,tr0,7723,200798).
route(prodloc7,prodloc8,tr13,7723,46338).
route(prodloc7,prodloc9,tr0,13994,363844).
route(prodloc7,prodloc9,tr13,13994,83964).
route(prodloc7,prodloc10,tr0,17934,466284).
route(prodloc7,prodloc10,tr13,17934,107604).
route(prodloc7,prodloc11,tr0,10543,274118).
route(prodloc7,prodloc11,tr13,10543,63258).
route(prodloc7,prodloc12,tr0,17713,460538).
route(prodloc7,prodloc12,tr13,17713,106278).
route(prodloc7,prodloc13,tr0,24842,645892).
route(prodloc7,prodloc13,tr13,24842,149052).
route(prodloc7,prodloc14,tr0,14524,377624).
route(prodloc7,prodloc14,tr13,14524,87144).
route(prodloc8,harbor0,tr0,24589,639314).
route(prodloc8,harbor0,tr13,24589,147534).
route(prodloc8,harbor1,tr0,16446,427596).
route(prodloc8,harbor1,tr13,16446,98676).
route(prodloc8,harbor2,tr0,26193,681018).
route(prodloc8,harbor2,tr13,26193,157158).
route(prodloc8,harbor3,tr0,4212,109512).
route(prodloc8,harbor3,tr13,4212,25272).
route(prodloc8,harbor4,tr0,9461,245986).
route(prodloc8,harbor4,tr13,9461,56766).
route(prodloc8,harbor5,tr0,7951,206726).
route(prodloc8,harbor5,tr13,7951,47706).
route(prodloc8,prodloc0,tr0,16245,422370).
route(prodloc8,prodloc0,tr13,16245,97470).
route(prodloc8,prodloc1,tr0,8215,213590).
route(prodloc8,prodloc1,tr13,8215,49290).
route(prodloc8,prodloc2,tr0,16463,428038).
route(prodloc8,prodloc2,tr13,16463,98778).
route(prodloc8,prodloc3,tr0,6261,162786).
route(prodloc8,prodloc3,tr13,6261,37566).
route(prodloc8,prodloc4,tr0,12206,317356).
route(prodloc8,prodloc4,tr13,12206,73236).
route(prodloc8,prodloc5,tr0,231,6006).
route(prodloc8,prodloc5,tr13,231,1386).
route(prodloc8,prodloc6,tr0,20825,541450).
route(prodloc8,prodloc6,tr13,20825,124950).
route(prodloc8,prodloc7,tr0,4013,104338).
route(prodloc8,prodloc7,tr13,4013,24078).
route(prodloc8,prodloc9,tr0,10979,285454).
route(prodloc8,prodloc9,tr13,10979,65874).
route(prodloc8,prodloc11,tr0,2520,65520).
route(prodloc8,prodloc11,tr13,2520,15120).
route(prodloc8,prodloc12,tr0,14110,366860).
route(prodloc8,prodloc12,tr13,14110,84660).
route(prodloc8,prodloc13,tr0,2838,73788).
route(prodloc8,prodloc13,tr13,2838,17028).
route(prodloc8,prodloc14,tr0,16885,439010).
route(prodloc8,prodloc14,tr13,16885,101310).
route(prodloc9,harbor0,tr0,12395,322270).
route(prodloc9,harbor0,tr13,12395,74370).
route(prodloc9,harbor1,tr0,7990,207740).
route(prodloc9,harbor1,tr13,7990,47940).
route(prodloc9,harbor2,tr0,5583,145158).
route(prodloc9,harbor2,tr13,5583,33498).
route(prodloc9,harbor3,tr0,2314,60164).
route(prodloc9,harbor3,tr13,2314,13884).
route(prodloc9,harbor4,tr0,9723,252798).
route(prodloc9,harbor4,tr13,9723,58338).
route(prodloc9,harbor5,tr0,2388,62088).
route(prodloc9,harbor5,tr13,2388,14328).
route(prodloc9,prodloc0,tr0,9455,245830).
route(prodloc9,prodloc0,tr13,9455,56730).
route(prodloc9,prodloc1,tr0,11135,289510).
route(prodloc9,prodloc1,tr13,11135,66810).
route(prodloc9,prodloc2,tr0,25024,650624).
route(prodloc9,prodloc2,tr15,25024,800768).
route(prodloc9,prodloc3,tr0,15159,394134).
route(prodloc9,prodloc3,tr13,15159,90954).
route(prodloc9,prodloc4,tr0,10531,273806).
route(prodloc9,prodloc4,tr13,10531,63186).
route(prodloc9,prodloc5,tr0,4869,126594).
route(prodloc9,prodloc5,tr13,4869,29214).
route(prodloc9,prodloc6,tr0,4900,127400).
route(prodloc9,prodloc6,tr13,4900,29400).
route(prodloc9,prodloc7,tr0,24364,633464).
route(prodloc9,prodloc7,tr13,24364,146184).
route(prodloc9,prodloc8,tr13,8719,52314).
route(prodloc9,prodloc8,tr15,8719,279008).
route(prodloc9,prodloc10,tr0,10104,262704).
route(prodloc9,prodloc10,tr13,10104,60624).
route(prodloc9,prodloc11,tr0,12565,326690).
route(prodloc9,prodloc11,tr13,12565,75390).
route(prodloc9,prodloc12,tr13,28294,169764).
route(prodloc9,prodloc12,tr15,28294,905408).
route(prodloc9,prodloc13,tr0,10669,277394).
route(prodloc9,prodloc13,tr13,10669,64014).
route(prodloc9,prodloc14,tr13,18836,113016).
route(prodloc9,prodloc14,tr15,18836,602752).
route(prodloc10,harbor0,tr0,16844,437944).
route(prodloc10,harbor0,tr13,16844,101064).
route(prodloc10,harbor1,tr0,20720,538720).
route(prodloc10,harbor1,tr13,20720,124320).
route(prodloc10,harbor2,tr0,4705,122330).
route(prodloc10,harbor2,tr13,4705,28230).
route(prodloc10,harbor3,tr0,14296,371696).
route(prodloc10,harbor3,tr13,14296,85776).
route(prodloc10,harbor4,tr0,3412,88712).
route(prodloc10,harbor4,tr13,3412,20472).
route(prodloc10,harbor5,tr0,26803,696878).
route(prodloc10,harbor5,tr13,26803,160818).
route(prodloc10,prodloc0,tr0,24738,643188).
route(prodloc10,prodloc0,tr13,24738,148428).
route(prodloc10,prodloc1,tr0,21428,557128).
route(prodloc10,prodloc1,tr13,21428,128568).
route(prodloc10,prodloc2,tr0,20500,533000).
route(prodloc10,prodloc2,tr13,20500,123000).
route(prodloc10,prodloc3,tr0,25359,659334).
route(prodloc10,prodloc3,tr13,25359,152154).
route(prodloc10,prodloc4,tr0,26008,676208).
route(prodloc10,prodloc4,tr13,26008,156048).
route(prodloc10,prodloc5,tr0,8438,219388).
route(prodloc10,prodloc5,tr13,8438,50628).
route(prodloc10,prodloc6,tr0,7772,202072).
route(prodloc10,prodloc6,tr13,7772,46632).
route(prodloc10,prodloc7,tr0,7103,184678).
route(prodloc10,prodloc7,tr13,7103,42618).
route(prodloc10,prodloc8,tr0,6989,181714).
route(prodloc10,prodloc8,tr13,6989,41934).
route(prodloc10,prodloc9,tr0,17847,464022).
route(prodloc10,prodloc9,tr13,17847,107082).
route(prodloc10,prodloc11,tr0,28432,739232).
route(prodloc10,prodloc11,tr13,28432,170592).
route(prodloc10,prodloc12,tr0,12104,314704).
route(prodloc10,prodloc12,tr13,12104,72624).
route(prodloc10,prodloc13,tr0,27502,715052).
route(prodloc10,prodloc13,tr13,27502,165012).
route(prodloc10,prodloc14,tr0,23813,619138).
route(prodloc10,prodloc14,tr13,23813,142878).
route(prodloc11,harbor0,tr0,14294,371644).
route(prodloc11,harbor0,tr13,14294,85764).
route(prodloc11,harbor1,tr0,12304,319904).
route(prodloc11,harbor1,tr13,12304,73824).
route(prodloc11,harbor2,tr0,8857,230282).
route(prodloc11,harbor2,tr13,8857,53142).
route(prodloc11,harbor3,tr0,2582,67132).
route(prodloc11,harbor3,tr13,2582,15492).
route(prodloc11,harbor4,tr0,10085,262210).
route(prodloc11,harbor4,tr13,10085,60510).
route(prodloc11,harbor5,tr0,13254,344604).
route(prodloc11,harbor5,tr13,13254,79524).
route(prodloc11,prodloc0,tr0,21189,550914).
route(prodloc11,prodloc0,tr13,21189,127134).
route(prodloc11,prodloc1,tr0,6666,173316).
route(prodloc11,prodloc1,tr13,6666,39996).
route(prodloc11,prodloc2,tr0,28879,750854).
route(prodloc11,prodloc2,tr15,28879,924128).
route(prodloc11,prodloc3,tr0,10351,269126).
route(prodloc11,prodloc3,tr13,10351,62106).
route(prodloc11,prodloc4,tr0,392,10192).
route(prodloc11,prodloc4,tr13,392,2352).
route(prodloc11,prodloc5,tr0,1154,30004).
route(prodloc11,prodloc5,tr13,1154,6924).
route(prodloc11,prodloc6,tr0,28476,740376).
route(prodloc11,prodloc6,tr13,28476,170856).
route(prodloc11,prodloc7,tr0,18643,484718).
route(prodloc11,prodloc7,tr13,18643,111858).
route(prodloc11,prodloc8,tr0,19074,495924).
route(prodloc11,prodloc8,tr13,19074,114444).
route(prodloc11,prodloc9,tr0,1970,51220).
route(prodloc11,prodloc9,tr13,1970,11820).
route(prodloc11,prodloc10,tr13,11537,69222).
route(prodloc11,prodloc10,tr15,11537,369184).
route(prodloc11,prodloc12,tr0,22116,575016).
route(prodloc11,prodloc12,tr13,22116,132696).
route(prodloc11,prodloc13,tr0,21301,553826).
route(prodloc11,prodloc13,tr13,21301,127806).
route(prodloc11,prodloc14,tr0,16124,419224).
route(prodloc11,prodloc14,tr13,16124,96744).
route(prodloc12,harbor0,tr0,13237,344162).
route(prodloc12,harbor0,tr13,13237,79422).
route(prodloc12,harbor1,tr0,13868,360568).
route(prodloc12,harbor1,tr13,13868,83208).
route(prodloc12,harbor2,tr0,19991,519766).
route(prodloc12,harbor2,tr13,19991,119946).
route(prodloc12,harbor3,tr0,8499,220974).
route(prodloc12,harbor3,tr13,8499,50994).
route(prodloc12,harbor4,tr0,22589,587314).
route(prodloc12,harbor4,tr13,22589,135534).
route(prodloc12,harbor5,tr0,9916,257816).
route(prodloc12,harbor5,tr13,9916,59496).
route(prodloc12,prodloc0,tr0,14725,382850).
route(prodloc12,prodloc0,tr13,14725,88350).
route(prodloc12,prodloc1,tr0,25303,657878).
route(prodloc12,prodloc1,tr13,25303,151818).
route(prodloc12,prodloc2,tr0,5321,138346).
route(prodloc12,prodloc2,tr13,5321,31926).
route(prodloc12,prodloc3,tr0,24642,640692).
route(prodloc12,prodloc3,tr13,24642,147852).
route(prodloc12,prodloc4,tr0,13597,353522).
route(prodloc12,prodloc4,tr13,13597,81582).
route(prodloc12,prodloc5,tr13,6980,41880).
route(prodloc12,prodloc5,tr15,6980,223360).
route(prodloc12,prodloc6,tr0,6206,161356).
route(prodloc12,prodloc6,tr13,6206,37236).
route(prodloc12,prodloc7,tr0,6819,177294).
route(prodloc12,prodloc7,tr13,6819,40914).
route(prodloc12,prodloc8,tr0,27981,727506).
route(prodloc12,prodloc8,tr15,27981,895392).
route(prodloc12,prodloc9,tr0,11889,309114).
route(prodloc12,prodloc9,tr13,11889,71334).
route(prodloc12,prodloc10,tr0,24156,628056).
route(prodloc12,prodloc10,tr13,24156,144936).
route(prodloc12,prodloc11,tr13,28701,172206).
route(prodloc12,prodloc11,tr15,28701,918432).
route(prodloc12,prodloc13,tr0,23175,602550).
route(prodloc12,prodloc13,tr13,23175,139050).
route(prodloc12,prodloc14,tr0,6421,166946).
route(prodloc12,prodloc14,tr13,6421,38526).
route(prodloc13,harbor0,tr0,7538,195988).
route(prodloc13,harbor0,tr13,7538,45228).
route(prodloc13,harbor1,tr0,25048,651248).
route(prodloc13,harbor1,tr13,25048,150288).
route(prodloc13,harbor2,tr0,20757,539682).
route(prodloc13,harbor2,tr13,20757,124542).
route(prodloc13,harbor3,tr0,27593,717418).
route(prodloc13,harbor3,tr13,27593,165558).
route(prodloc13,harbor4,tr0,12445,323570).
route(prodloc13,harbor4,tr13,12445,74670).
route(prodloc13,harbor5,tr0,2339,60814).
route(prodloc13,harbor5,tr13,2339,14034).
route(prodloc13,prodloc0,tr0,14929,388154).
route(prodloc13,prodloc0,tr13,14929,89574).
route(prodloc13,prodloc1,tr0,21594,561444).
route(prodloc13,prodloc1,tr13,21594,129564).
route(prodloc13,prodloc2,tr0,6477,168402).
route(prodloc13,prodloc2,tr13,6477,38862).
route(prodloc13,prodloc3,tr0,11635,302510).
route(prodloc13,prodloc3,tr13,11635,69810).
route(prodloc13,prodloc4,tr0,23646,614796).
route(prodloc13,prodloc4,tr13,23646,141876).
route(prodloc13,prodloc5,tr13,16406,98436).
route(prodloc13,prodloc5,tr15,16406,524992).
route(prodloc13,prodloc6,tr0,25628,666328).
route(prodloc13,prodloc6,tr13,25628,153768).
route(prodloc13,prodloc7,tr0,4099,106574).
route(prodloc13,prodloc7,tr15,4099,131168).
route(prodloc13,prodloc8,tr13,19143,114858).
route(prodloc13,prodloc8,tr15,19143,612576).
route(prodloc13,prodloc9,tr0,15867,412542).
route(prodloc13,prodloc9,tr13,15867,95202).
route(prodloc13,prodloc10,tr0,24173,628498).
route(prodloc13,prodloc10,tr13,24173,145038).
route(prodloc13,prodloc11,tr0,14476,376376).
route(prodloc13,prodloc11,tr13,14476,86856).
route(prodloc13,prodloc12,tr0,26674,693524).
route(prodloc13,prodloc12,tr13,26674,160044).
route(prodloc13,prodloc14,tr0,21179,550654).
route(prodloc13,prodloc14,tr13,21179,127074).
route(prodloc14,harbor0,tr0,2880,74880).
route(prodloc14,harbor0,tr13,2880,17280).
route(prodloc14,harbor1,tr0,4304,111904).
route(prodloc14,harbor1,tr13,4304,25824).
route(prodloc14,harbor2,tr0,7724,200824).
route(prodloc14,harbor2,tr13,7724,46344).
route(prodloc14,harbor3,tr0,28787,748462).
route(prodloc14,harbor3,tr13,28787,172722).
route(prodloc14,harbor4,tr0,14288,371488).
route(prodloc14,harbor4,tr13,14288,85728).
route(prodloc14,harbor5,tr0,25167,654342).
route(prodloc14,harbor5,tr13,25167,151002).
route(prodloc14,prodloc0,tr0,12904,335504).
route(prodloc14,prodloc0,tr13,12904,77424).
route(prodloc14,prodloc1,tr0,7464,194064).
route(prodloc14,prodloc1,tr13,7464,44784).
route(prodloc14,prodloc2,tr0,22459,583934).
route(prodloc14,prodloc2,tr13,22459,134754).
route(prodloc14,prodloc3,tr0,13169,342394).
route(prodloc14,prodloc3,tr13,13169,79014).
route(prodloc14,prodloc4,tr0,12402,322452).
route(prodloc14,prodloc4,tr13,12402,74412).
route(prodloc14,prodloc5,tr0,15928,414128).
route(prodloc14,prodloc5,tr15,15928,509696).
route(prodloc14,prodloc6,tr0,10963,285038).
route(prodloc14,prodloc6,tr13,10963,65778).
route(prodloc14,prodloc7,tr0,27916,725816).
route(prodloc14,prodloc7,tr13,27916,167496).
route(prodloc14,prodloc8,tr13,28562,171372).
route(prodloc14,prodloc8,tr15,28562,913984).
route(prodloc14,prodloc9,tr0,22701,590226).
route(prodloc14,prodloc9,tr13,22701,136206).
route(prodloc14,prodloc10,tr0,26034,676884).
route(prodloc14,prodloc10,tr13,26034,156204).
route(prodloc14,prodloc11,tr0,7838,203788).
route(prodloc14,prodloc11,tr13,7838,47028).
route(prodloc14,prodloc12,tr0,10707,278382).
route(prodloc14,prodloc12,tr15,10707,342624).
route(prodloc14,prodloc13,tr0,12646,328796).
route(prodloc14,prodloc13,tr13,12646,75876).
hub(harbor2).
hub(harbor3).
hub(prodloc10).
hub(prodloc13).
