% Multibatching benchmark instance
% Source: instances.lp
% seed=13  harbors=6  prodlocs=15  hubs=4  disruptions=2

% ---- locations ----
location(harbor0).
location(harbor1).
location(harbor2).
location(harbor3).
location(harbor4).
location(harbor5).
location(prodloc0).
location(prodloc1).
location(prodloc2).
location(prodloc3).
location(prodloc4).
location(prodloc5).
location(prodloc6).
location(prodloc7).
location(prodloc8).
location(prodloc9).
location(prodloc10).
location(prodloc11).
location(prodloc12).
location(prodloc13).
location(prodloc14).

% ---- transport resources ----
transportCapacity(tr0,1800).
transportCO2(tr0,1680).
transportCost(tr0,26).
transportSpeed(tr0,12).
transportCapacity(tr1,65).
transportCO2(tr1,90).
transportCost(tr1,1).
transportSpeed(tr1,35).
transportCapacity(tr10,1).
transportCO2(tr10,700).
transportCost(tr10,4).
transportSpeed(tr10,40).
transportCapacity(tr11,65).
transportCO2(tr11,62).
transportCost(tr11,1).
transportSpeed(tr11,25).
transportCapacity(tr12,65).
transportCO2(tr12,709).
transportCost(tr12,3).
transportSpeed(tr12,55).
transportCapacity(tr13,68).
transportCO2(tr13,160).
transportCost(tr13,6).
transportSpeed(tr13,25).
transportCapacity(tr14,146).
transportCO2(tr14,780).
transportCost(tr14,4).
transportSpeed(tr14,50).
transportCapacity(tr15,2217).
transportCO2(tr15,49470).
transportCost(tr15,32).
transportSpeed(tr15,625).
transportCapacity(tr2,96).
transportCO2(tr2,709).
transportCost(tr2,3).
transportSpeed(tr2,55).
transportCapacity(tr3,1).
transportCO2(tr3,6250).
transportCost(tr3,108).
transportSpeed(tr3,25).
transportCapacity(tr4,148).
transportCO2(tr4,780).
transportCost(tr4,4).
transportSpeed(tr4,50).
transportCapacity(tr5,65).
transportCO2(tr5,780).
transportCost(tr5,3).
transportSpeed(tr5,50).
transportCapacity(tr6,1).
transportCO2(tr6,100).
transportCost(tr6,40).
transportSpeed(tr6,25).
transportCapacity(tr7,1).
transportCO2(tr7,18000).
transportCost(tr7,278).
transportSpeed(tr7,10).
transportCapacity(tr8,1).
transportCO2(tr8,14400).
transportCost(tr8,107).
transportSpeed(tr8,25).
transportCapacity(tr9,65).
transportCO2(tr9,708).
transportCost(tr9,2).
transportSpeed(tr9,60).

% ---- parts ----
part(part0).
partSize(part0,21).
valid_transport(part0,tr0).
valid_transport(part0,tr15).
valid_transport(part0,tr14).
valid_transport(part0,tr13).
valid_transport(part0,tr4).
part(part1).
partSize(part1,1).
valid_transport(part1,tr0).
valid_transport(part1,tr2).
valid_transport(part1,tr15).
valid_transport(part1,tr9).
valid_transport(part1,tr12).
valid_transport(part1,tr13).
valid_transport(part1,tr11).
part(part10).
partSize(part10,1).
valid_transport(part10,tr0).
valid_transport(part10,tr2).
valid_transport(part10,tr15).
valid_transport(part10,tr9).
valid_transport(part10,tr12).
valid_transport(part10,tr13).
valid_transport(part10,tr11).
part(part11).
partSize(part11,83).
valid_transport(part11,tr0).
valid_transport(part11,tr7).
valid_transport(part11,tr8).
valid_transport(part11,tr15).
valid_transport(part11,tr3).
valid_transport(part11,tr13).
part(part12).
partSize(part12,273).
valid_transport(part12,tr0).
valid_transport(part12,tr7).
valid_transport(part12,tr8).
valid_transport(part12,tr15).
valid_transport(part12,tr3).
valid_transport(part12,tr13).
part(part13).
partSize(part13,1).
valid_transport(part13,tr0).
valid_transport(part13,tr2).
valid_transport(part13,tr15).
valid_transport(part13,tr9).
valid_transport(part13,tr12).
valid_transport(part13,tr13).
valid_transport(part13,tr11).
part(part14).
partSize(part14,68).
valid_transport(part14,tr0).
valid_transport(part14,tr15).
valid_transport(part14,tr13).
part(part15).
partSize(part15,4).
valid_transport(part15,tr0).
valid_transport(part15,tr2).
valid_transport(part15,tr15).
valid_transport(part15,tr9).
valid_transport(part15,tr12).
valid_transport(part15,tr13).
valid_transport(part15,tr11).
part(part16).
partSize(part16,4).
valid_transport(part16,tr0).
valid_transport(part16,tr2).
valid_transport(part16,tr15).
valid_transport(part16,tr9).
valid_transport(part16,tr12).
valid_transport(part16,tr13).
valid_transport(part16,tr11).
part(part17).
partSize(part17,8).
valid_transport(part17,tr0).
valid_transport(part17,tr15).
valid_transport(part17,tr14).
valid_transport(part17,tr13).
valid_transport(part17,tr4).
part(part18).
partSize(part18,24).
valid_transport(part18,tr0).
valid_transport(part18,tr15).
valid_transport(part18,tr14).
valid_transport(part18,tr13).
valid_transport(part18,tr4).
part(part19).
partSize(part19,6).
valid_transport(part19,tr0).
valid_transport(part19,tr2).
valid_transport(part19,tr15).
valid_transport(part19,tr9).
valid_transport(part19,tr12).
valid_transport(part19,tr13).
valid_transport(part19,tr11).
part(part2).
partSize(part2,19).
valid_transport(part2,tr0).
valid_transport(part2,tr15).
valid_transport(part2,tr14).
valid_transport(part2,tr13).
valid_transport(part2,tr4).
part(part20).
partSize(part20,128).
valid_transport(part20,tr0).
valid_transport(part20,tr7).
valid_transport(part20,tr8).
valid_transport(part20,tr15).
valid_transport(part20,tr3).
valid_transport(part20,tr13).
part(part21).
partSize(part21,25).
valid_transport(part21,tr0).
valid_transport(part21,tr15).
valid_transport(part21,tr14).
valid_transport(part21,tr13).
valid_transport(part21,tr4).
part(part22).
partSize(part22,7).
valid_transport(part22,tr0).
valid_transport(part22,tr2).
valid_transport(part22,tr15).
valid_transport(part22,tr9).
valid_transport(part22,tr12).
valid_transport(part22,tr13).
valid_transport(part22,tr11).
part(part23).
partSize(part23,5).
valid_transport(part23,tr0).
valid_transport(part23,tr15).
valid_transport(part23,tr14).
valid_transport(part23,tr13).
valid_transport(part23,tr4).
part(part24).
partSize(part24,55).
valid_transport(part24,tr0).
valid_transport(part24,tr7).
valid_transport(part24,tr8).
valid_transport(part24,tr15).
valid_transport(part24,tr3).
valid_transport(part24,tr13).
part(part25).
partSize(part25,5).
valid_transport(part25,tr0).
valid_transport(part25,tr4).
valid_transport(part25,tr2).
valid_transport(part25,tr15).
valid_transport(part25,tr13).
part(part26).
partSize(part26,32).
valid_transport(part26,tr0).
valid_transport(part26,tr7).
valid_transport(part26,tr8).
valid_transport(part26,tr15).
valid_transport(part26,tr3).
valid_transport(part26,tr13).
part(part27).
partSize(part27,5).
valid_transport(part27,tr0).
valid_transport(part27,tr2).
valid_transport(part27,tr15).
valid_transport(part27,tr9).
valid_transport(part27,tr12).
valid_transport(part27,tr13).
valid_transport(part27,tr11).
part(part28).
partSize(part28,3).
valid_transport(part28,tr0).
valid_transport(part28,tr4).
valid_transport(part28,tr2).
valid_transport(part28,tr15).
valid_transport(part28,tr14).
valid_transport(part28,tr13).
part(part29).
partSize(part29,627).
part(part3).
partSize(part3,48).
valid_transport(part3,tr0).
valid_transport(part3,tr7).
valid_transport(part3,tr8).
valid_transport(part3,tr15).
valid_transport(part3,tr3).
valid_transport(part3,tr13).
part(part30).
partSize(part30,2).
valid_transport(part30,tr0).
valid_transport(part30,tr2).
valid_transport(part30,tr15).
valid_transport(part30,tr9).
valid_transport(part30,tr12).
valid_transport(part30,tr13).
valid_transport(part30,tr11).
part(part31).
partSize(part31,144).
valid_transport(part31,tr0).
valid_transport(part31,tr7).
valid_transport(part31,tr8).
valid_transport(part31,tr15).
valid_transport(part31,tr3).
valid_transport(part31,tr13).
part(part32).
partSize(part32,16).
valid_transport(part32,tr0).
valid_transport(part32,tr4).
valid_transport(part32,tr2).
valid_transport(part32,tr15).
valid_transport(part32,tr14).
valid_transport(part32,tr13).
part(part33).
partSize(part33,7).
valid_transport(part33,tr0).
valid_transport(part33,tr2).
valid_transport(part33,tr15).
valid_transport(part33,tr9).
valid_transport(part33,tr12).
valid_transport(part33,tr13).
valid_transport(part33,tr11).
part(part3345).
partSize(part3345,353).
valid_transport(part3345,tr0).
valid_transport(part3345,tr7).
valid_transport(part3345,tr8).
valid_transport(part3345,tr15).
valid_transport(part3345,tr3).
valid_transport(part3345,tr13).
part(part34).
partSize(part34,2).
valid_transport(part34,tr0).
valid_transport(part34,tr2).
valid_transport(part34,tr15).
valid_transport(part34,tr9).
valid_transport(part34,tr12).
valid_transport(part34,tr13).
valid_transport(part34,tr11).
part(part4).
partSize(part4,2).
valid_transport(part4,tr0).
valid_transport(part4,tr2).
valid_transport(part4,tr15).
valid_transport(part4,tr9).
valid_transport(part4,tr12).
valid_transport(part4,tr13).
valid_transport(part4,tr11).
part(part5).
partSize(part5,2).
valid_transport(part5,tr0).
valid_transport(part5,tr2).
valid_transport(part5,tr15).
valid_transport(part5,tr9).
valid_transport(part5,tr12).
valid_transport(part5,tr14).
valid_transport(part5,tr13).
valid_transport(part5,tr11).
part(part6).
partSize(part6,111).
valid_transport(part6,tr0).
valid_transport(part6,tr7).
valid_transport(part6,tr8).
valid_transport(part6,tr15).
valid_transport(part6,tr3).
valid_transport(part6,tr13).
part(part8).
partSize(part8,163).
valid_transport(part8,tr0).
valid_transport(part8,tr7).
valid_transport(part8,tr8).
valid_transport(part8,tr15).
valid_transport(part8,tr3).
valid_transport(part8,tr13).
part(part9).
partSize(part9,2).
valid_transport(part9,tr0).
valid_transport(part9,tr2).
valid_transport(part9,tr15).
valid_transport(part9,tr9).
valid_transport(part9,tr12).
valid_transport(part9,tr13).
valid_transport(part9,tr11).

% ---- demand ----
demandOffer(part0,prodloc4,40).
demandOffer(part0,prodloc14,40).
demandOffer(part0,prodloc10,-27).
demandOffer(part0,prodloc12,-53).
demandOffer(part1,prodloc12,20).
demandOffer(part1,prodloc13,20).
demandOffer(part1,prodloc2,-20).
demandOffer(part1,prodloc10,-20).
demandOffer(part10,prodloc3,20).
demandOffer(part10,prodloc10,20).
demandOffer(part10,prodloc2,-20).
demandOffer(part10,prodloc14,-20).
demandOffer(part12,prodloc10,10).
demandOffer(part12,prodloc11,20).
demandOffer(part12,prodloc2,-10).
demandOffer(part12,prodloc12,-10).
demandOffer(part12,prodloc1,-10).
demandOffer(part13,prodloc8,20).
demandOffer(part13,prodloc13,20).
demandOffer(part13,prodloc3,-20).
demandOffer(part13,prodloc11,-20).
demandOffer(part14,prodloc4,26).
demandOffer(part14,prodloc0,-26).
demandOffer(part15,prodloc6,53).
demandOffer(part15,prodloc2,27).
demandOffer(part15,prodloc10,-53).
demandOffer(part15,prodloc9,-27).
demandOffer(part16,prodloc0,53).
demandOffer(part16,prodloc4,27).
demandOffer(part16,prodloc2,-53).
demandOffer(part16,prodloc1,-27).
demandOffer(part17,prodloc13,20).
demandOffer(part17,prodloc12,-20).
demandOffer(part18,prodloc12,40).
demandOffer(part18,prodloc14,40).
demandOffer(part18,prodloc4,-27).
demandOffer(part18,prodloc7,-53).
demandOffer(part19,prodloc11,26).
demandOffer(part19,prodloc6,-26).
demandOffer(part2,prodloc2,40).
demandOffer(part2,prodloc12,40).
demandOffer(part2,prodloc4,-27).
demandOffer(part2,prodloc5,-53).
demandOffer(part20,prodloc13,53).
demandOffer(part20,prodloc3,27).
demandOffer(part20,prodloc7,-14).
demandOffer(part20,prodloc8,-46).
demandOffer(part20,prodloc9,-20).
demandOffer(part21,prodloc6,26).
demandOffer(part21,prodloc10,-26).
demandOffer(part22,prodloc5,53).
demandOffer(part22,prodloc6,27).
demandOffer(part22,prodloc10,-53).
demandOffer(part22,prodloc14,-27).
demandOffer(part23,prodloc10,20).
demandOffer(part23,prodloc1,20).
demandOffer(part23,prodloc5,-20).
demandOffer(part23,prodloc9,-20).
demandOffer(part25,prodloc12,20).
demandOffer(part25,prodloc10,-20).
demandOffer(part26,prodloc4,20).
demandOffer(part26,prodloc11,20).
demandOffer(part26,prodloc7,-14).
demandOffer(part26,prodloc8,-26).
demandOffer(part27,prodloc9,53).
demandOffer(part27,prodloc11,27).
demandOffer(part27,prodloc2,-53).
demandOffer(part27,prodloc7,-27).
demandOffer(part28,prodloc10,20).
demandOffer(part28,prodloc11,20).
demandOffer(part28,prodloc7,-20).
demandOffer(part28,prodloc8,-20).
demandOffer(part3,prodloc2,40).
demandOffer(part3,prodloc4,-14).
demandOffer(part3,prodloc3,-26).
demandOffer(part30,prodloc2,40).
demandOffer(part30,prodloc8,40).
demandOffer(part30,prodloc5,-27).
demandOffer(part30,prodloc4,-53).
demandOffer(part31,prodloc5,7).
demandOffer(part31,prodloc7,7).
demandOffer(part31,prodloc4,-14).
demandOffer(part32,prodloc9,53).
demandOffer(part32,prodloc4,27).
demandOffer(part32,prodloc6,-53).
demandOffer(part32,prodloc2,-27).
demandOffer(part33,prodloc9,53).
demandOffer(part33,prodloc7,27).
demandOffer(part33,prodloc8,-53).
demandOffer(part33,prodloc3,-27).
demandOffer(part34,prodloc9,20).
demandOffer(part34,prodloc3,-20).
demandOffer(part4,prodloc14,26).
demandOffer(part4,prodloc3,-26).
demandOffer(part5,prodloc11,20).
demandOffer(part5,prodloc5,-20).
demandOffer(part6,prodloc2,27).
demandOffer(part6,prodloc1,53).
demandOffer(part6,prodloc6,-24).
demandOffer(part6,prodloc10,-36).
demandOffer(part6,prodloc11,-10).
demandOffer(part6,prodloc7,-10).
demandOffer(part8,prodloc6,3).
demandOffer(part8,prodloc0,17).
demandOffer(part8,prodloc11,-10).
demandOffer(part8,prodloc14,-10).
demandOffer(part9,prodloc14,20).
demandOffer(part9,prodloc13,-20).

% ---- network (ASP-generated) ----
route(harbor0,harbor1,tr13,1445,8670).
route(harbor0,harbor1,tr2,1445,4335).
route(harbor0,harbor2,tr13,7399,44394).
route(harbor0,harbor2,tr2,7399,22197).
route(harbor0,harbor3,tr13,4674,28044).
route(harbor0,harbor3,tr2,4674,14022).
route(harbor0,harbor4,tr13,16349,98094).
route(harbor0,harbor4,tr2,16349,49047).
route(harbor0,harbor5,tr13,26444,158664).
route(harbor0,harbor5,tr2,26444,79332).
route(harbor0,prodloc0,tr0,22878,594828).
route(harbor0,prodloc0,tr13,22878,137268).
route(harbor0,prodloc1,tr0,27466,714116).
route(harbor0,prodloc1,tr13,27466,164796).
route(harbor0,prodloc2,tr0,14587,379262).
route(harbor0,prodloc2,tr13,14587,87522).
route(harbor0,prodloc3,tr0,20942,544492).
route(harbor0,prodloc3,tr13,20942,125652).
route(harbor0,prodloc4,tr0,8315,216190).
route(harbor0,prodloc4,tr13,8315,49890).
route(harbor0,prodloc5,tr0,5236,136136).
route(harbor0,prodloc5,tr13,5236,31416).
route(harbor0,prodloc6,tr0,24025,624650).
route(harbor0,prodloc6,tr13,24025,144150).
route(harbor0,prodloc7,tr0,13551,352326).
route(harbor0,prodloc7,tr13,13551,81306).
route(harbor0,prodloc8,tr0,24127,627302).
route(harbor0,prodloc8,tr13,24127,144762).
route(harbor0,prodloc9,tr0,28452,739752).
route(harbor0,prodloc9,tr13,28452,170712).
route(harbor0,prodloc10,tr0,8235,214110).
route(harbor0,prodloc10,tr13,8235,49410).
route(harbor0,prodloc11,tr0,24904,647504).
route(harbor0,prodloc11,tr13,24904,149424).
route(harbor0,prodloc12,tr0,26320,684320).
route(harbor0,prodloc12,tr13,26320,157920).
route(harbor0,prodloc13,tr0,11490,298740).
route(harbor0,prodloc13,tr13,11490,68940).
route(harbor0,prodloc14,tr0,6655,173030).
route(harbor0,prodloc14,tr13,6655,39930).
route(harbor1,harbor0,tr13,23144,138864).
route(harbor1,harbor0,tr2,23144,69432).
route(harbor1,harbor2,tr13,28002,168012).
route(harbor1,harbor2,tr2,28002,84006).
route(harbor1,harbor3,tr13,20690,124140).
route(harbor1,harbor3,tr2,20690,62070).
route(harbor1,harbor4,tr13,12310,73860).
route(harbor1,harbor4,tr2,12310,36930).
route(harbor1,harbor5,tr13,17080,102480).
route(harbor1,harbor5,tr2,17080,51240).
route(harbor1,prodloc0,tr0,23480,610480).
route(harbor1,prodloc0,tr13,23480,140880).
route(harbor1,prodloc1,tr0,21525,559650).
route(harbor1,prodloc1,tr13,21525,129150).
route(harbor1,prodloc2,tr0,4491,116766).
route(harbor1,prodloc2,tr13,4491,26946).
route(harbor1,prodloc3,tr0,23067,599742).
route(harbor1,prodloc3,tr13,23067,138402).
route(harbor1,prodloc4,tr0,19777,514202).
route(harbor1,prodloc4,tr13,19777,118662).
route(harbor1,prodloc5,tr0,7789,202514).
route(harbor1,prodloc5,tr13,7789,46734).
route(harbor1,prodloc6,tr0,23683,615758).
route(harbor1,prodloc6,tr13,23683,142098).
route(harbor1,prodloc7,tr0,16266,422916).
route(harbor1,prodloc7,tr13,16266,97596).
route(harbor1,prodloc8,tr0,6939,180414).
route(harbor1,prodloc8,tr13,6939,41634).
route(harbor1,prodloc9,tr0,28233,734058).
route(harbor1,prodloc9,tr13,28233,169398).
route(harbor1,prodloc10,tr0,20227,525902).
route(harbor1,prodloc10,tr13,20227,121362).
route(harbor1,prodloc11,tr0,1396,36296).
route(harbor1,prodloc11,tr13,1396,8376).
route(harbor1,prodloc12,tr0,19036,494936).
route(harbor1,prodloc12,tr13,19036,114216).
route(harbor1,prodloc13,tr0,22998,597948).
route(harbor1,prodloc13,tr13,22998,137988).
route(harbor1,prodloc14,tr0,19375,503750).
route(harbor1,prodloc14,tr13,19375,116250).
route(harbor2,harbor0,tr13,1296,7776).
route(harbor2,harbor0,tr2,1296,3888).
route(harbor2,harbor1,tr13,11805,70830).
route(harbor2,harbor1,tr2,11805,35415).
route(harbor2,harbor3,tr13,19134,114804).
route(harbor2,harbor3,tr2,19134,57402).
route(harbor2,harbor4,tr13,23875,143250).
route(harbor2,harbor4,tr2,23875,71625).
route(harbor2,harbor5,tr13,18704,112224).
route(harbor2,harbor5,tr2,18704,56112).
route(harbor2,prodloc0,tr0,11186,290836).
route(harbor2,prodloc0,tr13,11186,67116).
route(harbor2,prodloc1,tr0,5970,155220).
route(harbor2,prodloc1,tr13,5970,35820).
route(harbor2,prodloc2,tr0,9679,251654).
route(harbor2,prodloc2,tr13,9679,58074).
route(harbor2,prodloc3,tr0,6322,164372).
route(harbor2,prodloc3,tr13,6322,37932).
route(harbor2,prodloc4,tr0,5391,140166).
route(harbor2,prodloc4,tr13,5391,32346).
route(harbor2,prodloc5,tr0,25803,670878).
route(harbor2,prodloc5,tr13,25803,154818).
route(harbor2,prodloc6,tr0,22416,582816).
route(harbor2,prodloc6,tr13,22416,134496).
route(harbor2,prodloc7,tr0,18197,473122).
route(harbor2,prodloc7,tr13,18197,109182).
route(harbor2,prodloc8,tr0,3680,95680).
route(harbor2,prodloc8,tr13,3680,22080).
route(harbor2,prodloc9,tr0,7393,192218).
route(harbor2,prodloc9,tr13,7393,44358).
route(harbor2,prodloc10,tr0,5485,142610).
route(harbor2,prodloc10,tr13,5485,32910).
route(harbor2,prodloc11,tr0,2267,58942).
route(harbor2,prodloc11,tr13,2267,13602).
route(harbor2,prodloc12,tr0,14064,365664).
route(harbor2,prodloc12,tr13,14064,84384).
route(harbor2,prodloc13,tr0,21089,548314).
route(harbor2,prodloc13,tr13,21089,126534).
route(harbor2,prodloc14,tr0,19502,507052).
route(harbor2,prodloc14,tr13,19502,117012).
route(harbor3,harbor0,tr13,18254,109524).
route(harbor3,harbor0,tr2,18254,54762).
route(harbor3,harbor1,tr13,26474,158844).
route(harbor3,harbor1,tr2,26474,79422).
route(harbor3,harbor2,tr13,17833,106998).
route(harbor3,harbor2,tr2,17833,53499).
route(harbor3,harbor4,tr13,22808,136848).
route(harbor3,harbor4,tr2,22808,68424).
route(harbor3,harbor5,tr13,1302,7812).
route(harbor3,harbor5,tr2,1302,3906).
route(harbor3,prodloc0,tr0,14406,374556).
route(harbor3,prodloc0,tr13,14406,86436).
route(harbor3,prodloc1,tr0,27047,703222).
route(harbor3,prodloc1,tr13,27047,162282).
route(harbor3,prodloc2,tr0,11243,292318).
route(harbor3,prodloc2,tr13,11243,67458).
route(harbor3,prodloc3,tr0,21140,549640).
route(harbor3,prodloc3,tr13,21140,126840).
route(harbor3,prodloc4,tr0,3038,78988).
route(harbor3,prodloc4,tr13,3038,18228).
route(harbor3,prodloc5,tr0,17257,448682).
route(harbor3,prodloc5,tr13,17257,103542).
route(harbor3,prodloc6,tr0,99,2574).
route(harbor3,prodloc6,tr13,99,594).
route(harbor3,prodloc7,tr0,4146,107796).
route(harbor3,prodloc7,tr13,4146,24876).
route(harbor3,prodloc8,tr0,10179,264654).
route(harbor3,prodloc8,tr13,10179,61074).
route(harbor3,prodloc9,tr0,3983,103558).
route(harbor3,prodloc9,tr13,3983,23898).
route(harbor3,prodloc10,tr0,13372,347672).
route(harbor3,prodloc10,tr13,13372,80232).
route(harbor3,prodloc11,tr0,9881,256906).
route(harbor3,prodloc11,tr13,9881,59286).
route(harbor3,prodloc12,tr0,8814,229164).
route(harbor3,prodloc12,tr13,8814,52884).
route(harbor3,prodloc13,tr0,18517,481442).
route(harbor3,prodloc13,tr13,18517,111102).
route(harbor3,prodloc14,tr0,19572,508872).
route(harbor3,prodloc14,tr13,19572,117432).
route(harbor4,harbor0,tr13,22935,137610).
route(harbor4,harbor0,tr2,22935,68805).
route(harbor4,harbor1,tr13,2567,15402).
route(harbor4,harbor1,tr2,2567,7701).
route(harbor4,harbor2,tr13,15427,92562).
route(harbor4,harbor2,tr2,15427,46281).
route(harbor4,harbor3,tr13,17135,102810).
route(harbor4,harbor3,tr2,17135,51405).
route(harbor4,harbor5,tr13,12045,72270).
route(harbor4,harbor5,tr2,12045,36135).
route(harbor4,prodloc0,tr0,27908,725608).
route(harbor4,prodloc0,tr13,27908,167448).
route(harbor4,prodloc1,tr0,27347,711022).
route(harbor4,prodloc1,tr13,27347,164082).
route(harbor4,prodloc2,tr0,1174,30524).
route(harbor4,prodloc2,tr13,1174,7044).
route(harbor4,prodloc3,tr0,189,4914).
route(harbor4,prodloc3,tr13,189,1134).
route(harbor4,prodloc4,tr0,10477,272402).
route(harbor4,prodloc4,tr13,10477,62862).
route(harbor4,prodloc5,tr0,10971,285246).
route(harbor4,prodloc5,tr13,10971,65826).
route(harbor4,prodloc6,tr0,5083,132158).
route(harbor4,prodloc6,tr13,5083,30498).
route(harbor4,prodloc7,tr0,16273,423098).
route(harbor4,prodloc7,tr13,16273,97638).
route(harbor4,prodloc8,tr0,18344,476944).
route(harbor4,prodloc8,tr13,18344,110064).
route(harbor4,prodloc9,tr0,17459,453934).
route(harbor4,prodloc9,tr13,17459,104754).
route(harbor4,prodloc10,tr0,16932,440232).
route(harbor4,prodloc10,tr13,16932,101592).
route(harbor4,prodloc11,tr0,27014,702364).
route(harbor4,prodloc11,tr13,27014,162084).
route(harbor4,prodloc12,tr0,15541,404066).
route(harbor4,prodloc12,tr13,15541,93246).
route(harbor4,prodloc13,tr0,7310,190060).
route(harbor4,prodloc13,tr13,7310,43860).
route(harbor4,prodloc14,tr0,21940,570440).
route(harbor4,prodloc14,tr13,21940,131640).
route(harbor5,harbor0,tr13,6820,40920).
route(harbor5,harbor0,tr2,6820,20460).
route(harbor5,harbor1,tr13,9747,58482).
route(harbor5,harbor1,tr2,9747,29241).
route(harbor5,harbor2,tr13,26205,157230).
route(harbor5,harbor2,tr2,26205,78615).
route(harbor5,harbor3,tr13,1070,6420).
route(harbor5,harbor3,tr2,1070,3210).
route(harbor5,harbor4,tr13,12356,74136).
route(harbor5,harbor4,tr2,12356,37068).
route(harbor5,prodloc0,tr0,16431,427206).
route(harbor5,prodloc0,tr13,16431,98586).
route(harbor5,prodloc1,tr0,23405,608530).
route(harbor5,prodloc1,tr13,23405,140430).
route(harbor5,prodloc2,tr0,5149,133874).
route(harbor5,prodloc2,tr13,5149,30894).
route(harbor5,prodloc3,tr0,24197,629122).
route(harbor5,prodloc3,tr13,24197,145182).
route(harbor5,prodloc4,tr0,4798,124748).
route(harbor5,prodloc4,tr13,4798,28788).
route(harbor5,prodloc5,tr0,8466,220116).
route(harbor5,prodloc5,tr13,8466,50796).
route(harbor5,prodloc6,tr0,13940,362440).
route(harbor5,prodloc6,tr13,13940,83640).
route(harbor5,prodloc7,tr0,22416,582816).
route(harbor5,prodloc7,tr13,22416,134496).
route(harbor5,prodloc8,tr0,27009,702234).
route(harbor5,prodloc8,tr13,27009,162054).
route(harbor5,prodloc9,tr0,27825,723450).
route(harbor5,prodloc9,tr13,27825,166950).
route(harbor5,prodloc10,tr0,7052,183352).
route(harbor5,prodloc10,tr13,7052,42312).
route(harbor5,prodloc11,tr0,8474,220324).
route(harbor5,prodloc11,tr13,8474,50844).
route(harbor5,prodloc12,tr0,13923,361998).
route(harbor5,prodloc12,tr13,13923,83538).
route(harbor5,prodloc13,tr0,19269,500994).
route(harbor5,prodloc13,tr13,19269,115614).
route(harbor5,prodloc14,tr0,7727,200902).
route(harbor5,prodloc14,tr13,7727,46362).
route(prodloc0,harbor0,tr0,11653,302978).
route(prodloc0,harbor0,tr13,11653,69918).
route(prodloc0,harbor1,tr0,25328,658528).
route(prodloc0,harbor1,tr13,25328,151968).
route(prodloc0,harbor2,tr0,8005,208130).
route(prodloc0,harbor2,tr13,8005,48030).
route(prodloc0,harbor3,tr0,19403,504478).
route(prodloc0,harbor3,tr13,19403,116418).
route(prodloc0,harbor4,tr0,9418,244868).
route(prodloc0,harbor4,tr13,9418,56508).
route(prodloc0,harbor5,tr0,14023,364598).
route(prodloc0,harbor5,tr13,14023,84138).
route(prodloc0,prodloc1,tr0,6681,173706).
route(prodloc0,prodloc1,tr15,6681,213792).
route(prodloc0,prodloc2,tr0,20996,545896).
route(prodloc0,prodloc2,tr13,20996,125976).
route(prodloc0,prodloc3,tr0,11497,298922).
route(prodloc0,prodloc3,tr13,11497,68982).
route(prodloc0,prodloc4,tr0,13942,362492).
route(prodloc0,prodloc4,tr13,13942,83652).
route(prodloc0,prodloc5,tr0,1250,32500).
route(prodloc0,prodloc5,tr13,1250,7500).
route(prodloc0,prodloc6,tr0,10387,270062).
route(prodloc0,prodloc6,tr13,10387,62322).
route(prodloc0,prodloc7,tr0,13031,338806).
route(prodloc0,prodloc7,tr13,13031,78186).
route(prodloc0,prodloc8,tr0,15097,392522).
route(prodloc0,prodloc8,tr13,15097,90582).
route(prodloc0,prodloc9,tr0,2844,73944).
route(prodloc0,prodloc9,tr13,2844,17064).
route(prodloc0,prodloc10,tr0,2249,58474).
route(prodloc0,prodloc10,tr13,2249,13494).
route(prodloc0,prodloc11,tr0,24844,645944).
route(prodloc0,prodloc11,tr13,24844,149064).
route(prodloc0,prodloc12,tr0,1496,38896).
route(prodloc0,prodloc12,tr13,1496,8976).
route(prodloc0,prodloc13,tr0,19656,511056).
route(prodloc0,prodloc13,tr13,19656,117936).
route(prodloc0,prodloc14,tr0,136,3536).
route(prodloc0,prodloc14,tr13,136,816).
route(prodloc1,harbor0,tr0,21410,556660).
route(prodloc1,harbor0,tr13,21410,128460).
route(prodloc1,harbor1,tr0,25359,659334).
route(prodloc1,harbor1,tr13,25359,152154).
route(prodloc1,harbor2,tr0,10041,261066).
route(prodloc1,harbor2,tr13,10041,60246).
route(prodloc1,harbor3,tr0,6241,162266).
route(prodloc1,harbor3,tr13,6241,37446).
route(prodloc1,harbor4,tr0,14731,383006).
route(prodloc1,harbor4,tr13,14731,88386).
route(prodloc1,harbor5,tr0,15754,409604).
route(prodloc1,harbor5,tr13,15754,94524).
route(prodloc1,prodloc0,tr0,18176,472576).
route(prodloc1,prodloc0,tr13,18176,109056).
route(prodloc1,prodloc2,tr0,12771,332046).
route(prodloc1,prodloc2,tr13,12771,76626).
route(prodloc1,prodloc3,tr0,10909,283634).
route(prodloc1,prodloc3,tr13,10909,65454).
route(prodloc1,prodloc4,tr0,2010,52260).
route(prodloc1,prodloc4,tr13,2010,12060).
route(prodloc1,prodloc5,tr0,9486,246636).
route(prodloc1,prodloc5,tr13,9486,56916).
route(prodloc1,prodloc6,tr0,17305,449930).
route(prodloc1,prodloc6,tr13,17305,103830).
route(prodloc1,prodloc7,tr0,14254,370604).
route(prodloc1,prodloc7,tr13,14254,85524).
route(prodloc1,prodloc8,tr0,4490,116740).
route(prodloc1,prodloc8,tr13,4490,26940).
route(prodloc1,prodloc9,tr0,4863,126438).
route(prodloc1,prodloc9,tr13,4863,29178).
route(prodloc1,prodloc10,tr0,28299,735774).
route(prodloc1,prodloc10,tr13,28299,169794).
route(prodloc1,prodloc11,tr0,1725,44850).
route(prodloc1,prodloc11,tr13,1725,10350).
route(prodloc1,prodloc12,tr0,3669,95394).
route(prodloc1,prodloc12,tr13,3669,22014).
route(prodloc1,prodloc13,tr0,12078,314028).
route(prodloc1,prodloc13,tr13,12078,72468).
route(prodloc1,prodloc14,tr0,26986,701636).
route(prodloc1,prodloc14,tr13,26986,161916).
route(prodloc2,harbor0,tr0,5122,133172).
route(prodloc2,harbor0,tr13,5122,30732).
route(prodloc2,harbor1,tr0,7154,186004).
route(prodloc2,harbor1,tr13,7154,42924).
route(prodloc2,harbor2,tr0,10093,262418).
route(prodloc2,harbor2,tr13,10093,60558).
route(prodloc2,harbor3,tr0,9942,258492).
route(prodloc2,harbor3,tr13,9942,59652).
route(prodloc2,harbor4,tr0,19768,513968).
route(prodloc2,harbor4,tr13,19768,118608).
route(prodloc2,harbor5,tr0,12727,330902).
route(prodloc2,harbor5,tr13,12727,76362).
route(prodloc2,prodloc0,tr0,9535,247910).
route(prodloc2,prodloc0,tr13,9535,57210).
route(prodloc2,prodloc1,tr0,1095,28470).
route(prodloc2,prodloc1,tr13,1095,6570).
route(prodloc2,prodloc3,tr0,11392,296192).
route(prodloc2,prodloc3,tr13,11392,68352).
route(prodloc2,prodloc5,tr13,3267,19602).
route(prodloc2,prodloc5,tr15,3267,104544).
route(prodloc2,prodloc6,tr0,11832,307632).
route(prodloc2,prodloc6,tr13,11832,70992).
route(prodloc2,prodloc7,tr0,16087,418262).
route(prodloc2,prodloc7,tr13,16087,96522).
route(prodloc2,prodloc8,tr0,14481,376506).
route(prodloc2,prodloc8,tr13,14481,86886).
route(prodloc2,prodloc9,tr13,19179,115074).
route(prodloc2,prodloc9,tr15,19179,613728).
route(prodloc2,prodloc10,tr0,28721,746746).
route(prodloc2,prodloc10,tr13,28721,172326).
route(prodloc2,prodloc11,tr0,19115,496990).
route(prodloc2,prodloc11,tr13,19115,114690).
route(prodloc2,prodloc12,tr0,14231,370006).
route(prodloc2,prodloc12,tr13,14231,85386).
route(prodloc2,prodloc13,tr0,1429,37154).
route(prodloc2,prodloc13,tr13,1429,8574).
route(prodloc2,prodloc14,tr0,11504,299104).
route(prodloc2,prodloc14,tr13,11504,69024).
route(prodloc3,harbor0,tr0,17534,455884).
route(prodloc3,harbor0,tr13,17534,105204).
route(prodloc3,harbor1,tr0,9684,251784).
route(prodloc3,harbor1,tr13,9684,58104).
route(prodloc3,harbor2,tr0,4240,110240).
route(prodloc3,harbor2,tr13,4240,25440).
route(prodloc3,harbor3,tr0,26336,684736).
route(prodloc3,harbor3,tr13,26336,158016).
route(prodloc3,harbor4,tr0,1613,41938).
route(prodloc3,harbor4,tr13,1613,9678).
route(prodloc3,harbor5,tr0,10576,274976).
route(prodloc3,harbor5,tr13,10576,63456).
route(prodloc3,prodloc0,tr0,5462,142012).
route(prodloc3,prodloc0,tr13,5462,32772).
route(prodloc3,prodloc1,tr0,17873,464698).
route(prodloc3,prodloc1,tr13,17873,107238).
route(prodloc3,prodloc2,tr0,24239,630214).
route(prodloc3,prodloc2,tr15,24239,775648).
route(prodloc3,prodloc4,tr0,4118,107068).
route(prodloc3,prodloc4,tr13,4118,24708).
route(prodloc3,prodloc5,tr0,163,4238).
route(prodloc3,prodloc5,tr13,163,978).
route(prodloc3,prodloc6,tr0,8132,211432).
route(prodloc3,prodloc6,tr13,8132,48792).
route(prodloc3,prodloc7,tr0,28446,739596).
route(prodloc3,prodloc7,tr13,28446,170676).
route(prodloc3,prodloc8,tr0,22336,580736).
route(prodloc3,prodloc8,tr13,22336,134016).
route(prodloc3,prodloc9,tr13,4908,29448).
route(prodloc3,prodloc9,tr15,4908,157056).
route(prodloc3,prodloc10,tr0,2940,76440).
route(prodloc3,prodloc10,tr13,2940,17640).
route(prodloc3,prodloc11,tr0,15695,408070).
route(prodloc3,prodloc11,tr13,15695,94170).
route(prodloc3,prodloc12,tr0,12180,316680).
route(prodloc3,prodloc12,tr13,12180,73080).
route(prodloc3,prodloc13,tr0,2307,59982).
route(prodloc3,prodloc13,tr13,2307,13842).
route(prodloc3,prodloc14,tr0,11306,293956).
route(prodloc3,prodloc14,tr13,11306,67836).
route(prodloc4,harbor0,tr0,8654,225004).
route(prodloc4,harbor0,tr13,8654,51924).
route(prodloc4,harbor1,tr0,26274,683124).
route(prodloc4,harbor1,tr13,26274,157644).
route(prodloc4,harbor2,tr0,26921,699946).
route(prodloc4,harbor2,tr13,26921,161526).
route(prodloc4,harbor3,tr0,7006,182156).
route(prodloc4,harbor3,tr13,7006,42036).
route(prodloc4,harbor4,tr0,1540,40040).
route(prodloc4,harbor4,tr13,1540,9240).
route(prodloc4,harbor5,tr0,23541,612066).
route(prodloc4,harbor5,tr13,23541,141246).
route(prodloc4,prodloc0,tr0,7794,202644).
route(prodloc4,prodloc0,tr13,7794,46764).
route(prodloc4,prodloc1,tr0,21844,567944).
route(prodloc4,prodloc1,tr13,21844,131064).
route(prodloc4,prodloc2,tr0,27130,705380).
route(prodloc4,prodloc2,tr13,27130,162780).
route(prodloc4,prodloc3,tr0,7824,203424).
route(prodloc4,prodloc3,tr13,7824,46944).
route(prodloc4,prodloc5,tr0,17037,442962).
route(prodloc4,prodloc5,tr13,17037,102222).
route(prodloc4,prodloc6,tr13,25763,154578).
route(prodloc4,prodloc6,tr15,25763,824416).
route(prodloc4,prodloc7,tr0,25019,650494).
route(prodloc4,prodloc7,tr13,25019,150114).
route(prodloc4,prodloc8,tr0,14437,375362).
route(prodloc4,prodloc8,tr15,14437,461984).
route(prodloc4,prodloc9,tr0,6393,166218).
route(prodloc4,prodloc9,tr13,6393,38358).
route(prodloc4,prodloc10,tr0,18787,488462).
route(prodloc4,prodloc10,tr13,18787,112722).
route(prodloc4,prodloc11,tr0,12882,334932).
route(prodloc4,prodloc11,tr13,12882,77292).
route(prodloc4,prodloc12,tr13,20337,122022).
route(prodloc4,prodloc12,tr15,20337,650784).
route(prodloc4,prodloc13,tr0,1778,46228).
route(prodloc4,prodloc13,tr13,1778,10668).
route(prodloc4,prodloc14,tr0,27515,715390).
route(prodloc4,prodloc14,tr13,27515,165090).
route(prodloc5,harbor0,tr0,17929,466154).
route(prodloc5,harbor0,tr13,17929,107574).
route(prodloc5,harbor1,tr0,1704,44304).
route(prodloc5,harbor1,tr13,1704,10224).
route(prodloc5,harbor2,tr0,3782,98332).
route(prodloc5,harbor2,tr13,3782,22692).
route(prodloc5,harbor3,tr0,20099,522574).
route(prodloc5,harbor3,tr13,20099,120594).
route(prodloc5,harbor4,tr0,4496,116896).
route(prodloc5,harbor4,tr13,4496,26976).
route(prodloc5,harbor5,tr0,17495,454870).
route(prodloc5,harbor5,tr13,17495,104970).
route(prodloc5,prodloc0,tr0,24905,647530).
route(prodloc5,prodloc0,tr13,24905,149430).
route(prodloc5,prodloc1,tr0,26623,692198).
route(prodloc5,prodloc1,tr13,26623,159738).
route(prodloc5,prodloc2,tr0,12150,315900).
route(prodloc5,prodloc2,tr13,12150,72900).
route(prodloc5,prodloc3,tr0,17486,454636).
route(prodloc5,prodloc3,tr13,17486,104916).
route(prodloc5,prodloc4,tr13,12996,77976).
route(prodloc5,prodloc4,tr15,12996,415872).
route(prodloc5,prodloc6,tr0,9816,255216).
route(prodloc5,prodloc6,tr13,9816,58896).
route(prodloc5,prodloc7,tr0,4884,126984).
route(prodloc5,prodloc7,tr13,4884,29304).
route(prodloc5,prodloc8,tr0,17876,464776).
route(prodloc5,prodloc8,tr13,17876,107256).
route(prodloc5,prodloc9,tr0,9762,253812).
route(prodloc5,prodloc9,tr13,9762,58572).
route(prodloc5,prodloc10,tr0,8546,222196).
route(prodloc5,prodloc10,tr13,8546,51276).
route(prodloc5,prodloc11,tr0,2849,74074).
route(prodloc5,prodloc11,tr13,2849,17094).
route(prodloc5,prodloc12,tr0,12213,317538).
route(prodloc5,prodloc12,tr13,12213,73278).
route(prodloc5,prodloc13,tr0,1708,44408).
route(prodloc5,prodloc13,tr13,1708,10248).
route(prodloc5,prodloc14,tr0,998,25948).
route(prodloc5,prodloc14,tr13,998,5988).
route(prodloc6,harbor0,tr0,5475,142350).
route(prodloc6,harbor0,tr13,5475,32850).
route(prodloc6,harbor1,tr0,23822,619372).
route(prodloc6,harbor1,tr13,23822,142932).
route(prodloc6,harbor2,tr0,512,13312).
route(prodloc6,harbor2,tr13,512,3072).
route(prodloc6,harbor3,tr0,3513,91338).
route(prodloc6,harbor3,tr13,3513,21078).
route(prodloc6,harbor4,tr0,17176,446576).
route(prodloc6,harbor4,tr13,17176,103056).
route(prodloc6,harbor5,tr0,23468,610168).
route(prodloc6,harbor5,tr13,23468,140808).
route(prodloc6,prodloc0,tr0,8891,231166).
route(prodloc6,prodloc0,tr13,8891,53346).
route(prodloc6,prodloc1,tr0,28390,738140).
route(prodloc6,prodloc1,tr13,28390,170340).
route(prodloc6,prodloc2,tr0,2981,77506).
route(prodloc6,prodloc2,tr13,2981,17886).
route(prodloc6,prodloc3,tr0,10934,284284).
route(prodloc6,prodloc3,tr13,10934,65604).
route(prodloc6,prodloc4,tr0,26513,689338).
route(prodloc6,prodloc4,tr13,26513,159078).
route(prodloc6,prodloc5,tr0,20560,534560).
route(prodloc6,prodloc5,tr13,20560,123360).
route(prodloc6,prodloc7,tr0,13907,361582).
route(prodloc6,prodloc7,tr13,13907,83442).
route(prodloc6,prodloc8,tr0,5262,136812).
route(prodloc6,prodloc8,tr13,5262,31572).
route(prodloc6,prodloc9,tr13,20388,122328).
route(prodloc6,prodloc9,tr15,20388,652416).
route(prodloc6,prodloc10,tr0,27303,709878).
route(prodloc6,prodloc10,tr15,27303,873696).
route(prodloc6,prodloc11,tr13,22096,132576).
route(prodloc6,prodloc11,tr15,22096,707072).
route(prodloc6,prodloc12,tr0,23464,610064).
route(prodloc6,prodloc12,tr13,23464,140784).
route(prodloc6,prodloc13,tr0,22966,597116).
route(prodloc6,prodloc13,tr13,22966,137796).
route(prodloc6,prodloc14,tr0,9518,247468).
route(prodloc6,prodloc14,tr13,9518,57108).
route(prodloc7,harbor0,tr0,24971,649246).
route(prodloc7,harbor0,tr13,24971,149826).
route(prodloc7,harbor1,tr0,1338,34788).
route(prodloc7,harbor1,tr13,1338,8028).
route(prodloc7,harbor2,tr0,3587,93262).
route(prodloc7,harbor2,tr13,3587,21522).
route(prodloc7,harbor3,tr0,3104,80704).
route(prodloc7,harbor3,tr13,3104,18624).
route(prodloc7,harbor4,tr0,10109,262834).
route(prodloc7,harbor4,tr13,10109,60654).
route(prodloc7,harbor5,tr0,13297,345722).
route(prodloc7,harbor5,tr13,13297,79782).
route(prodloc7,prodloc0,tr0,12705,330330).
route(prodloc7,prodloc0,tr13,12705,76230).
route(prodloc7,prodloc1,tr0,15443,401518).
route(prodloc7,prodloc1,tr13,15443,92658).
route(prodloc7,prodloc2,tr0,12784,332384).
route(prodloc7,prodloc2,tr13,12784,76704).
route(prodloc7,prodloc3,tr0,8775,228150).
route(prodloc7,prodloc3,tr13,8775,52650).
route(prodloc7,prodloc4,tr0,4945,128570).
route(prodloc7,prodloc4,tr15,4945,158240).
route(prodloc7,prodloc5,tr0,25719,668694).
route(prodloc7,prodloc5,tr13,25719,154314).
route(prodloc7,prodloc6,tr0,4900,127400).
route(prodloc7,prodloc6,tr13,4900,29400).
route(prodloc7,prodloc8,tr0,14753,383578).
route(prodloc7,prodloc8,tr13,14753,88518).
route(prodloc7,prodloc9,tr0,9862,256412).
route(prodloc7,prodloc9,tr13,9862,59172).
route(prodloc7,prodloc10,tr0,122,3172).
route(prodloc7,prodloc10,tr13,122,732).
route(prodloc7,prodloc11,tr0,17248,448448).
route(prodloc7,prodloc11,tr13,17248,103488).
route(prodloc7,prodloc12,tr0,960,24960).
route(prodloc7,prodloc12,tr13,960,5760).
route(prodloc7,prodloc13,tr0,17441,453466).
route(prodloc7,prodloc13,tr13,17441,104646).
route(prodloc7,prodloc14,tr0,8489,220714).
route(prodloc7,prodloc14,tr13,8489,50934).
route(prodloc8,harbor0,tr0,9054,235404).
route(prodloc8,harbor0,tr13,9054,54324).
route(prodloc8,harbor1,tr0,10879,282854).
route(prodloc8,harbor1,tr13,10879,65274).
route(prodloc8,harbor2,tr0,7419,192894).
route(prodloc8,harbor2,tr13,7419,44514).
route(prodloc8,harbor3,tr0,8105,210730).
route(prodloc8,harbor3,tr13,8105,48630).
route(prodloc8,harbor4,tr0,27857,724282).
route(prodloc8,harbor4,tr13,27857,167142).
route(prodloc8,harbor5,tr0,27970,727220).
route(prodloc8,harbor5,tr13,27970,167820).
route(prodloc8,prodloc0,tr0,12289,319514).
route(prodloc8,prodloc0,tr13,12289,73734).
route(prodloc8,prodloc1,tr0,13638,354588).
route(prodloc8,prodloc1,tr13,13638,81828).
route(prodloc8,prodloc2,tr0,5132,133432).
route(prodloc8,prodloc2,tr13,5132,30792).
route(prodloc8,prodloc3,tr0,27395,712270).
route(prodloc8,prodloc3,tr13,27395,164370).
route(prodloc8,prodloc4,tr0,24966,649116).
route(prodloc8,prodloc4,tr13,24966,149796).
route(prodloc8,prodloc5,tr0,26246,682396).
route(prodloc8,prodloc5,tr13,26246,157476).
route(prodloc8,prodloc6,tr0,15863,412438).
route(prodloc8,prodloc6,tr13,15863,95178).
route(prodloc8,prodloc7,tr0,13410,348660).
route(prodloc8,prodloc7,tr13,13410,80460).
route(prodloc8,prodloc9,tr0,8569,222794).
route(prodloc8,prodloc9,tr13,8569,51414).
route(prodloc8,prodloc10,tr0,5083,132158).
route(prodloc8,prodloc10,tr13,5083,30498).
route(prodloc8,prodloc11,tr0,15110,392860).
route(prodloc8,prodloc11,tr13,15110,90660).
route(prodloc8,prodloc12,tr0,18948,492648).
route(prodloc8,prodloc12,tr13,18948,113688).
route(prodloc8,prodloc13,tr0,17588,457288).
route(prodloc8,prodloc13,tr13,17588,105528).
route(prodloc8,prodloc14,tr0,15178,394628).
route(prodloc8,prodloc14,tr13,15178,91068).
route(prodloc9,harbor0,tr0,6355,165230).
route(prodloc9,harbor0,tr13,6355,38130).
route(prodloc9,harbor1,tr0,25111,652886).
route(prodloc9,harbor1,tr13,25111,150666).
route(prodloc9,harbor2,tr0,12308,320008).
route(prodloc9,harbor2,tr13,12308,73848).
route(prodloc9,harbor3,tr0,23401,608426).
route(prodloc9,harbor3,tr13,23401,140406).
route(prodloc9,harbor4,tr0,15602,405652).
route(prodloc9,harbor4,tr13,15602,93612).
route(prodloc9,harbor5,tr0,27245,708370).
route(prodloc9,harbor5,tr13,27245,163470).
route(prodloc9,prodloc0,tr0,6251,162526).
route(prodloc9,prodloc0,tr13,6251,37506).
route(prodloc9,prodloc1,tr0,954,24804).
route(prodloc9,prodloc1,tr13,954,5724).
route(prodloc9,prodloc2,tr0,18775,488150).
route(prodloc9,prodloc2,tr13,18775,112650).
route(prodloc9,prodloc3,tr0,1122,29172).
route(prodloc9,prodloc3,tr13,1122,6732).
route(prodloc9,prodloc4,tr0,15794,410644).
route(prodloc9,prodloc4,tr13,15794,94764).
route(prodloc9,prodloc5,tr0,26912,699712).
route(prodloc9,prodloc5,tr13,26912,161472).
route(prodloc9,prodloc6,tr0,16411,426686).
route(prodloc9,prodloc6,tr13,16411,98466).
route(prodloc9,prodloc7,tr13,5858,35148).
route(prodloc9,prodloc7,tr15,5858,187456).
route(prodloc9,prodloc8,tr13,4107,24642).
route(prodloc9,prodloc8,tr15,4107,131424).
route(prodloc9,prodloc10,tr0,3373,87698).
route(prodloc9,prodloc10,tr13,3373,20238).
route(prodloc9,prodloc11,tr0,182,4732).
route(prodloc9,prodloc11,tr13,182,1092).
route(prodloc9,prodloc12,tr0,19298,501748).
route(prodloc9,prodloc12,tr13,19298,115788).
route(prodloc9,prodloc13,tr0,4357,113282).
route(prodloc9,prodloc13,tr13,4357,26142).
route(prodloc9,prodloc14,tr0,10070,261820).
route(prodloc9,prodloc14,tr13,10070,60420).
route(prodloc10,harbor0,tr0,2645,68770).
route(prodloc10,harbor0,tr13,2645,15870).
route(prodloc10,harbor1,tr0,16285,423410).
route(prodloc10,harbor1,tr13,16285,97710).
route(prodloc10,harbor2,tr0,18718,486668).
route(prodloc10,harbor2,tr13,18718,112308).
route(prodloc10,harbor3,tr0,17086,444236).
route(prodloc10,harbor3,tr13,17086,102516).
route(prodloc10,harbor4,tr0,23748,617448).
route(prodloc10,harbor4,tr13,23748,142488).
route(prodloc10,harbor5,tr0,27347,711022).
route(prodloc10,harbor5,tr13,27347,164082).
route(prodloc10,prodloc0,tr0,1817,47242).
route(prodloc10,prodloc0,tr13,1817,10902).
route(prodloc10,prodloc1,tr0,7024,182624).
route(prodloc10,prodloc1,tr13,7024,42144).
route(prodloc10,prodloc2,tr0,23116,601016).
route(prodloc10,prodloc2,tr13,23116,138696).
route(prodloc10,prodloc3,tr0,24425,635050).
route(prodloc10,prodloc3,tr13,24425,146550).
route(prodloc10,prodloc4,tr0,21269,552994).
route(prodloc10,prodloc4,tr13,21269,127614).
route(prodloc10,prodloc5,tr0,22654,589004).
route(prodloc10,prodloc5,tr15,22654,724928).
route(prodloc10,prodloc6,tr0,14041,365066).
route(prodloc10,prodloc6,tr13,14041,84246).
route(prodloc10,prodloc7,tr0,887,23062).
route(prodloc10,prodloc7,tr13,887,5322).
route(prodloc10,prodloc8,tr0,17422,452972).
route(prodloc10,prodloc8,tr15,17422,557504).
route(prodloc10,prodloc9,tr0,723,18798).
route(prodloc10,prodloc9,tr13,723,4338).
route(prodloc10,prodloc11,tr0,25459,661934).
route(prodloc10,prodloc11,tr13,25459,152754).
route(prodloc10,prodloc12,tr0,28256,734656).
route(prodloc10,prodloc12,tr15,28256,904192).
route(prodloc10,prodloc13,tr0,22321,580346).
route(prodloc10,prodloc13,tr13,22321,133926).
route(prodloc10,prodloc14,tr0,4701,122226).
route(prodloc10,prodloc14,tr13,4701,28206).
route(prodloc11,harbor0,tr0,9771,254046).
route(prodloc11,harbor0,tr13,9771,58626).
route(prodloc11,harbor1,tr0,27518,715468).
route(prodloc11,harbor1,tr13,27518,165108).
route(prodloc11,harbor2,tr0,20299,527774).
route(prodloc11,harbor2,tr13,20299,121794).
route(prodloc11,harbor3,tr0,5039,131014).
route(prodloc11,harbor3,tr13,5039,30234).
route(prodloc11,harbor4,tr0,21312,554112).
route(prodloc11,harbor4,tr13,21312,127872).
route(prodloc11,harbor5,tr0,1757,45682).
route(prodloc11,harbor5,tr13,1757,10542).
route(prodloc11,prodloc0,tr0,23987,623662).
route(prodloc11,prodloc0,tr13,23987,143922).
route(prodloc11,prodloc1,tr13,16408,98448).
route(prodloc11,prodloc1,tr15,16408,525056).
route(prodloc11,prodloc2,tr0,14025,364650).
route(prodloc11,prodloc2,tr15,14025,448800).
route(prodloc11,prodloc3,tr0,24605,639730).
route(prodloc11,prodloc3,tr13,24605,147630).
route(prodloc11,prodloc4,tr0,8436,219336).
route(prodloc11,prodloc4,tr13,8436,50616).
route(prodloc11,prodloc5,tr0,7398,192348).
route(prodloc11,prodloc5,tr13,7398,44388).
route(prodloc11,prodloc6,tr0,15943,414518).
route(prodloc11,prodloc6,tr13,15943,95658).
route(prodloc11,prodloc8,tr13,19926,119556).
route(prodloc11,prodloc8,tr15,19926,637632).
route(prodloc11,prodloc9,tr0,3080,80080).
route(prodloc11,prodloc9,tr13,3080,18480).
route(prodloc11,prodloc10,tr0,7986,207636).
route(prodloc11,prodloc10,tr13,7986,47916).
route(prodloc11,prodloc12,tr13,10367,62202).
route(prodloc11,prodloc12,tr15,10367,331744).
route(prodloc11,prodloc13,tr0,17380,451880).
route(prodloc11,prodloc13,tr13,17380,104280).
route(prodloc11,prodloc14,tr0,16517,429442).
route(prodloc11,prodloc14,tr13,16517,99102).
route(prodloc12,harbor0,tr0,316,8216).
route(prodloc12,harbor0,tr13,316,1896).
route(prodloc12,harbor1,tr0,18722,486772).
route(prodloc12,harbor1,tr13,18722,112332).
route(prodloc12,harbor2,tr0,14727,382902).
route(prodloc12,harbor2,tr13,14727,88362).
route(prodloc12,harbor3,tr0,24898,647348).
route(prodloc12,harbor3,tr13,24898,149388).
route(prodloc12,harbor4,tr0,11140,289640).
route(prodloc12,harbor4,tr13,11140,66840).
route(prodloc12,harbor5,tr0,21397,556322).
route(prodloc12,harbor5,tr13,21397,128382).
route(prodloc12,prodloc0,tr0,7225,187850).
route(prodloc12,prodloc0,tr13,7225,43350).
route(prodloc12,prodloc1,tr0,19929,518154).
route(prodloc12,prodloc1,tr13,19929,119574).
route(prodloc12,prodloc2,tr0,1667,43342).
route(prodloc12,prodloc2,tr13,1667,10002).
route(prodloc12,prodloc3,tr0,17192,446992).
route(prodloc12,prodloc3,tr13,17192,103152).
route(prodloc12,prodloc4,tr0,22959,596934).
route(prodloc12,prodloc4,tr13,22959,137754).
route(prodloc12,prodloc5,tr13,14000,84000).
route(prodloc12,prodloc5,tr15,14000,448000).
route(prodloc12,prodloc6,tr0,7716,200616).
route(prodloc12,prodloc6,tr13,7716,46296).
route(prodloc12,prodloc7,tr0,16714,434564).
route(prodloc12,prodloc7,tr13,16714,100284).
route(prodloc12,prodloc8,tr0,24268,630968).
route(prodloc12,prodloc8,tr13,24268,145608).
route(prodloc12,prodloc9,tr0,418,10868).
route(prodloc12,prodloc9,tr13,418,2508).
route(prodloc12,prodloc10,tr0,3291,85566).
route(prodloc12,prodloc10,tr13,3291,19746).
route(prodloc12,prodloc11,tr0,12092,314392).
route(prodloc12,prodloc11,tr13,12092,72552).
route(prodloc12,prodloc13,tr0,4863,126438).
route(prodloc12,prodloc13,tr13,4863,29178).
route(prodloc12,prodloc14,tr0,15297,397722).
route(prodloc12,prodloc14,tr13,15297,91782).
route(prodloc13,harbor0,tr0,26773,696098).
route(prodloc13,harbor0,tr13,26773,160638).
route(prodloc13,harbor1,tr0,11551,300326).
route(prodloc13,harbor1,tr13,11551,69306).
route(prodloc13,harbor2,tr0,27241,708266).
route(prodloc13,harbor2,tr13,27241,163446).
route(prodloc13,harbor3,tr0,4370,113620).
route(prodloc13,harbor3,tr13,4370,26220).
route(prodloc13,harbor4,tr0,22328,580528).
route(prodloc13,harbor4,tr13,22328,133968).
route(prodloc13,harbor5,tr0,11299,293774).
route(prodloc13,harbor5,tr13,11299,67794).
route(prodloc13,prodloc0,tr0,23622,614172).
route(prodloc13,prodloc0,tr13,23622,141732).
route(prodloc13,prodloc1,tr0,7427,193102).
route(prodloc13,prodloc1,tr13,7427,44562).
route(prodloc13,prodloc2,tr0,21864,568464).
route(prodloc13,prodloc2,tr13,21864,131184).
route(prodloc13,prodloc3,tr0,9291,241566).
route(prodloc13,prodloc3,tr13,9291,55746).
route(prodloc13,prodloc4,tr0,19358,503308).
route(prodloc13,prodloc4,tr13,19358,116148).
route(prodloc13,prodloc5,tr0,3044,79144).
route(prodloc13,prodloc5,tr13,3044,18264).
route(prodloc13,prodloc6,tr0,8429,219154).
route(prodloc13,prodloc6,tr13,8429,50574).
route(prodloc13,prodloc7,tr0,23360,607360).
route(prodloc13,prodloc7,tr13,23360,140160).
route(prodloc13,prodloc8,tr0,4377,113802).
route(prodloc13,prodloc8,tr13,4377,26262).
route(prodloc13,prodloc9,tr0,4109,106834).
route(prodloc13,prodloc9,tr13,4109,24654).
route(prodloc13,prodloc10,tr0,23798,618748).
route(prodloc13,prodloc10,tr13,23798,142788).
route(prodloc13,prodloc11,tr0,5848,152048).
route(prodloc13,prodloc11,tr13,5848,35088).
route(prodloc13,prodloc12,tr0,19548,508248).
route(prodloc13,prodloc12,tr13,19548,117288).
route(prodloc13,prodloc14,tr0,3425,89050).
route(prodloc13,prodloc14,tr13,3425,20550).
route(prodloc14,harbor0,tr0,1852,48152).
route(prodloc14,harbor0,tr13,1852,11112).
route(prodloc14,harbor1,tr0,17918,465868).
route(prodloc14,harbor1,tr13,17918,107508).
route(prodloc14,harbor2,tr0,21029,546754).
route(prodloc14,harbor2,tr13,21029,126174).
route(prodloc14,harbor3,tr0,4645,120770).
route(prodloc14,harbor3,tr13,4645,27870).
route(prodloc14,harbor4,tr0,19992,519792).
route(prodloc14,harbor4,tr13,19992,119952).
route(prodloc14,harbor5,tr0,24097,626522).
route(prodloc14,harbor5,tr13,24097,144582).
route(prodloc14,prodloc0,tr0,16764,435864).
route(prodloc14,prodloc0,tr13,16764,100584).
route(prodloc14,prodloc1,tr0,855,22230).
route(prodloc14,prodloc1,tr13,855,5130).
route(prodloc14,prodloc2,tr0,25398,660348).
route(prodloc14,prodloc2,tr13,25398,152388).
route(prodloc14,prodloc3,tr0,15139,393614).
route(prodloc14,prodloc3,tr13,15139,90834).
route(prodloc14,prodloc4,tr0,28717,746642).
route(prodloc14,prodloc4,tr13,28717,172302).
route(prodloc14,prodloc5,tr0,11677,303602).
route(prodloc14,prodloc5,tr13,11677,70062).
route(prodloc14,prodloc6,tr0,12490,324740).
route(prodloc14,prodloc6,tr13,12490,74940).
route(prodloc14,prodloc7,tr0,18943,492518).
route(prodloc14,prodloc7,tr13,18943,113658).
route(prodloc14,prodloc8,tr0,26698,694148).
route(prodloc14,prodloc8,tr13,26698,160188).
route(prodloc14,prodloc9,tr0,18714,486564).
route(prodloc14,prodloc9,tr13,18714,112284).
route(prodloc14,prodloc10,tr0,16361,425386).
route(prodloc14,prodloc10,tr13,16361,98166).
route(prodloc14,prodloc11,tr0,26376,685776).
route(prodloc14,prodloc11,tr13,26376,158256).
route(prodloc14,prodloc12,tr0,18742,487292).
route(prodloc14,prodloc12,tr13,18742,112452).
route(prodloc14,prodloc13,tr0,16820,437320).
route(prodloc14,prodloc13,tr13,16820,100920).
hub(harbor1).
hub(harbor2).
hub(harbor5).
hub(prodloc1).
