% Multibatching benchmark instance
% Source: instances.lp
% seed=20  harbors=6  prodlocs=15  hubs=4  disruptions=2

% ---- locations ----
location(harbor0).
location(harbor1).
location(harbor2).
location(harbor3).
location(harbor4).
location(harbor5).
location(prodloc0).
location(prodloc1).
location(prodloc2).
location(prodloc3).
location(prodloc4).
location(prodloc5).
location(prodloc6).
location(prodloc7).
location(prodloc8).
location(prodloc9).
location(prodloc10).
location(prodloc11).
location(prodloc12).
location(prodloc13).
location(prodloc14).

% ---- transport resources ----
transportCapacity(tr0,1800).
transportCO2(tr0,1680).
transportCost(tr0,26).
transportSpeed(tr0,12).
transportCapacity(tr1,65).
transportCO2(tr1,90).
transportCost(tr1,1).
transportSpeed(tr1,35).
transportCapacity(tr10,1).
transportCO2(tr10,700).
transportCost(tr10,4).
transportSpeed(tr10,40).
transportCapacity(tr11,65).
transportCO2(tr11,62).
transportCost(tr11,1).
transportSpeed(tr11,25).
transportCapacity(tr12,65).
transportCO2(tr12,709).
transportCost(tr12,3).
transportSpeed(tr12,55).
transportCapacity(tr13,68).
transportCO2(tr13,160).
transportCost(tr13,6).
transportSpeed(tr13,25).
transportCapacity(tr14,146).
transportCO2(tr14,780).
transportCost(tr14,4).
transportSpeed(tr14,50).
transportCapacity(tr15,2217).
transportCO2(tr15,49470).
transportCost(tr15,32).
transportSpeed(tr15,625).
transportCapacity(tr2,96).
transportCO2(tr2,709).
transportCost(tr2,3).
transportSpeed(tr2,55).
transportCapacity(tr3,1).
transportCO2(tr3,6250).
transportCost(tr3,108).
transportSpeed(tr3,25).
transportCapacity(tr4,148).
transportCO2(tr4,780).
transportCost(tr4,4).
transportSpeed(tr4,50).
transportCapacity(tr5,65).
transportCO2(tr5,780).
transportCost(tr5,3).
transportSpeed(tr5,50).
transportCapacity(tr6,1).
transportCO2(tr6,100).
transportCost(tr6,40).
transportSpeed(tr6,25).
transportCapacity(tr7,1).
transportCO2(tr7,18000).
transportCost(tr7,278).
transportSpeed(tr7,10).
transportCapacity(tr8,1).
transportCO2(tr8,14400).
transportCost(tr8,107).
transportSpeed(tr8,25).
transportCapacity(tr9,65).
transportCO2(tr9,708).
transportCost(tr9,2).
transportSpeed(tr9,60).

% ---- parts ----
part(part0).
partSize(part0,21).
valid_transport(part0,tr0).
valid_transport(part0,tr15).
valid_transport(part0,tr14).
valid_transport(part0,tr13).
valid_transport(part0,tr4).
part(part1).
partSize(part1,1).
valid_transport(part1,tr0).
valid_transport(part1,tr2).
valid_transport(part1,tr15).
valid_transport(part1,tr9).
valid_transport(part1,tr12).
valid_transport(part1,tr13).
valid_transport(part1,tr11).
part(part10).
partSize(part10,1).
valid_transport(part10,tr0).
valid_transport(part10,tr2).
valid_transport(part10,tr15).
valid_transport(part10,tr9).
valid_transport(part10,tr12).
valid_transport(part10,tr13).
valid_transport(part10,tr11).
part(part11).
partSize(part11,83).
valid_transport(part11,tr0).
valid_transport(part11,tr7).
valid_transport(part11,tr8).
valid_transport(part11,tr15).
valid_transport(part11,tr3).
valid_transport(part11,tr13).
part(part12).
partSize(part12,273).
valid_transport(part12,tr0).
valid_transport(part12,tr7).
valid_transport(part12,tr8).
valid_transport(part12,tr15).
valid_transport(part12,tr3).
valid_transport(part12,tr13).
part(part13).
partSize(part13,1).
valid_transport(part13,tr0).
valid_transport(part13,tr2).
valid_transport(part13,tr15).
valid_transport(part13,tr9).
valid_transport(part13,tr12).
valid_transport(part13,tr13).
valid_transport(part13,tr11).
part(part14).
partSize(part14,68).
valid_transport(part14,tr0).
valid_transport(part14,tr15).
valid_transport(part14,tr13).
part(part15).
partSize(part15,4).
valid_transport(part15,tr0).
valid_transport(part15,tr2).
valid_transport(part15,tr15).
valid_transport(part15,tr9).
valid_transport(part15,tr12).
valid_transport(part15,tr13).
valid_transport(part15,tr11).
part(part16).
partSize(part16,4).
valid_transport(part16,tr0).
valid_transport(part16,tr2).
valid_transport(part16,tr15).
valid_transport(part16,tr9).
valid_transport(part16,tr12).
valid_transport(part16,tr13).
valid_transport(part16,tr11).
part(part17).
partSize(part17,8).
valid_transport(part17,tr0).
valid_transport(part17,tr15).
valid_transport(part17,tr14).
valid_transport(part17,tr13).
valid_transport(part17,tr4).
part(part18).
partSize(part18,24).
valid_transport(part18,tr0).
valid_transport(part18,tr15).
valid_transport(part18,tr14).
valid_transport(part18,tr13).
valid_transport(part18,tr4).
part(part19).
partSize(part19,6).
valid_transport(part19,tr0).
valid_transport(part19,tr2).
valid_transport(part19,tr15).
valid_transport(part19,tr9).
valid_transport(part19,tr12).
valid_transport(part19,tr13).
valid_transport(part19,tr11).
part(part2).
partSize(part2,19).
valid_transport(part2,tr0).
valid_transport(part2,tr15).
valid_transport(part2,tr14).
valid_transport(part2,tr13).
valid_transport(part2,tr4).
part(part20).
partSize(part20,128).
valid_transport(part20,tr0).
valid_transport(part20,tr7).
valid_transport(part20,tr8).
valid_transport(part20,tr15).
valid_transport(part20,tr3).
valid_transport(part20,tr13).
part(part21).
partSize(part21,25).
valid_transport(part21,tr0).
valid_transport(part21,tr15).
valid_transport(part21,tr14).
valid_transport(part21,tr13).
valid_transport(part21,tr4).
part(part22).
partSize(part22,7).
valid_transport(part22,tr0).
valid_transport(part22,tr2).
valid_transport(part22,tr15).
valid_transport(part22,tr9).
valid_transport(part22,tr12).
valid_transport(part22,tr13).
valid_transport(part22,tr11).
part(part23).
partSize(part23,5).
valid_transport(part23,tr0).
valid_transport(part23,tr15).
valid_transport(part23,tr14).
valid_transport(part23,tr13).
valid_transport(part23,tr4).
part(part24).
partSize(part24,55).
valid_transport(part24,tr0).
valid_transport(part24,tr7).
valid_transport(part24,tr8).
valid_transport(part24,tr15).
valid_transport(part24,tr3).
valid_transport(part24,tr13).
part(part25).
partSize(part25,5).
valid_transport(part25,tr0).
valid_transport(part25,tr4).
valid_transport(part25,tr2).
valid_transport(part25,tr15).
valid_transport(part25,tr13).
part(part26).
partSize(part26,32).
valid_transport(part26,tr0).
valid_transport(part26,tr7).
valid_transport(part26,tr8).
valid_transport(part26,tr15).
valid_transport(part26,tr3).
valid_transport(part26,tr13).
part(part27).
partSize(part27,5).
valid_transport(part27,tr0).
valid_transport(part27,tr2).
valid_transport(part27,tr15).
valid_transport(part27,tr9).
valid_transport(part27,tr12).
valid_transport(part27,tr13).
valid_transport(part27,tr11).
part(part28).
partSize(part28,3).
valid_transport(part28,tr0).
valid_transport(part28,tr4).
valid_transport(part28,tr2).
valid_transport(part28,tr15).
valid_transport(part28,tr14).
valid_transport(part28,tr13).
part(part29).
partSize(part29,627).
part(part3).
partSize(part3,48).
valid_transport(part3,tr0).
valid_transport(part3,tr7).
valid_transport(part3,tr8).
valid_transport(part3,tr15).
valid_transport(part3,tr3).
valid_transport(part3,tr13).
part(part30).
partSize(part30,2).
valid_transport(part30,tr0).
valid_transport(part30,tr2).
valid_transport(part30,tr15).
valid_transport(part30,tr9).
valid_transport(part30,tr12).
valid_transport(part30,tr13).
valid_transport(part30,tr11).
part(part31).
partSize(part31,144).
valid_transport(part31,tr0).
valid_transport(part31,tr7).
valid_transport(part31,tr8).
valid_transport(part31,tr15).
valid_transport(part31,tr3).
valid_transport(part31,tr13).
part(part32).
partSize(part32,16).
valid_transport(part32,tr0).
valid_transport(part32,tr4).
valid_transport(part32,tr2).
valid_transport(part32,tr15).
valid_transport(part32,tr14).
valid_transport(part32,tr13).
part(part33).
partSize(part33,7).
valid_transport(part33,tr0).
valid_transport(part33,tr2).
valid_transport(part33,tr15).
valid_transport(part33,tr9).
valid_transport(part33,tr12).
valid_transport(part33,tr13).
valid_transport(part33,tr11).
part(part3345).
partSize(part3345,353).
valid_transport(part3345,tr0).
valid_transport(part3345,tr7).
valid_transport(part3345,tr8).
valid_transport(part3345,tr15).
valid_transport(part3345,tr3).
valid_transport(part3345,tr13).
part(part34).
partSize(part34,2).
valid_transport(part34,tr0).
valid_transport(part34,tr2).
valid_transport(part34,tr15).
valid_transport(part34,tr9).
valid_transport(part34,tr12).
valid_transport(part34,tr13).
valid_transport(part34,tr11).
part(part4).
partSize(part4,2).
valid_transport(part4,tr0).
valid_transport(part4,tr2).
valid_transport(part4,tr15).
valid_transport(part4,tr9).
valid_transport(part4,tr12).
valid_transport(part4,tr13).
valid_transport(part4,tr11).
part(part5).
partSize(part5,2).
valid_transport(part5,tr0).
valid_transport(part5,tr2).
valid_transport(part5,tr15).
valid_transport(part5,tr9).
valid_transport(part5,tr12).
valid_transport(part5,tr14).
valid_transport(part5,tr13).
valid_transport(part5,tr11).
part(part6).
partSize(part6,111).
valid_transport(part6,tr0).
valid_transport(part6,tr7).
valid_transport(part6,tr8).
valid_transport(part6,tr15).
valid_transport(part6,tr3).
valid_transport(part6,tr13).
part(part8).
partSize(part8,163).
valid_transport(part8,tr0).
valid_transport(part8,tr7).
valid_transport(part8,tr8).
valid_transport(part8,tr15).
valid_transport(part8,tr3).
valid_transport(part8,tr13).
part(part9).
partSize(part9,2).
valid_transport(part9,tr0).
valid_transport(part9,tr2).
valid_transport(part9,tr15).
valid_transport(part9,tr9).
valid_transport(part9,tr12).
valid_transport(part9,tr13).
valid_transport(part9,tr11).

% ---- demand ----
demandOffer(part0,prodloc14,40).
demandOffer(part0,prodloc11,40).
demandOffer(part0,prodloc10,-27).
demandOffer(part0,prodloc2,-53).
demandOffer(part1,prodloc4,20).
demandOffer(part1,prodloc10,20).
demandOffer(part1,prodloc13,-20).
demandOffer(part1,prodloc1,-20).
demandOffer(part10,prodloc13,20).
demandOffer(part10,prodloc5,20).
demandOffer(part10,prodloc9,-20).
demandOffer(part10,prodloc2,-20).
demandOffer(part12,prodloc0,10).
demandOffer(part12,prodloc6,20).
demandOffer(part12,prodloc13,-10).
demandOffer(part12,prodloc1,-10).
demandOffer(part12,prodloc11,-10).
demandOffer(part13,prodloc2,20).
demandOffer(part13,prodloc5,20).
demandOffer(part13,prodloc7,-20).
demandOffer(part13,prodloc9,-20).
demandOffer(part14,prodloc7,26).
demandOffer(part14,prodloc6,-26).
demandOffer(part15,prodloc3,53).
demandOffer(part15,prodloc14,27).
demandOffer(part15,prodloc5,-53).
demandOffer(part15,prodloc10,-27).
demandOffer(part16,prodloc14,53).
demandOffer(part16,prodloc10,27).
demandOffer(part16,prodloc5,-53).
demandOffer(part16,prodloc12,-27).
demandOffer(part17,prodloc6,20).
demandOffer(part17,prodloc1,-20).
demandOffer(part18,prodloc10,40).
demandOffer(part18,prodloc8,40).
demandOffer(part18,prodloc12,-27).
demandOffer(part18,prodloc7,-53).
demandOffer(part19,prodloc6,26).
demandOffer(part19,prodloc1,-26).
demandOffer(part2,prodloc3,40).
demandOffer(part2,prodloc9,40).
demandOffer(part2,prodloc14,-27).
demandOffer(part2,prodloc0,-53).
demandOffer(part20,prodloc3,53).
demandOffer(part20,prodloc1,27).
demandOffer(part20,prodloc13,-14).
demandOffer(part20,prodloc14,-46).
demandOffer(part20,prodloc4,-20).
demandOffer(part21,prodloc11,26).
demandOffer(part21,prodloc12,-26).
demandOffer(part22,prodloc4,53).
demandOffer(part22,prodloc14,27).
demandOffer(part22,prodloc11,-53).
demandOffer(part22,prodloc13,-27).
demandOffer(part23,prodloc2,20).
demandOffer(part23,prodloc9,20).
demandOffer(part23,prodloc1,-20).
demandOffer(part23,prodloc0,-20).
demandOffer(part25,prodloc4,20).
demandOffer(part25,prodloc11,-20).
demandOffer(part26,prodloc3,20).
demandOffer(part26,prodloc13,20).
demandOffer(part26,prodloc14,-14).
demandOffer(part26,prodloc9,-26).
demandOffer(part27,prodloc3,53).
demandOffer(part27,prodloc0,27).
demandOffer(part27,prodloc13,-53).
demandOffer(part27,prodloc10,-27).
demandOffer(part28,prodloc9,20).
demandOffer(part28,prodloc4,20).
demandOffer(part28,prodloc13,-20).
demandOffer(part28,prodloc2,-20).
demandOffer(part3,prodloc11,40).
demandOffer(part3,prodloc10,-14).
demandOffer(part3,prodloc5,-26).
demandOffer(part30,prodloc9,40).
demandOffer(part30,prodloc11,40).
demandOffer(part30,prodloc7,-27).
demandOffer(part30,prodloc2,-53).
demandOffer(part31,prodloc14,7).
demandOffer(part31,prodloc10,7).
demandOffer(part31,prodloc4,-14).
demandOffer(part32,prodloc8,53).
demandOffer(part32,prodloc13,27).
demandOffer(part32,prodloc6,-53).
demandOffer(part32,prodloc2,-27).
demandOffer(part33,prodloc2,53).
demandOffer(part33,prodloc6,27).
demandOffer(part33,prodloc11,-53).
demandOffer(part33,prodloc1,-27).
demandOffer(part34,prodloc11,20).
demandOffer(part34,prodloc2,-20).
demandOffer(part4,prodloc12,26).
demandOffer(part4,prodloc9,-26).
demandOffer(part5,prodloc6,20).
demandOffer(part5,prodloc5,-20).
demandOffer(part6,prodloc3,27).
demandOffer(part6,prodloc1,53).
demandOffer(part6,prodloc9,-24).
demandOffer(part6,prodloc0,-36).
demandOffer(part6,prodloc8,-10).
demandOffer(part6,prodloc14,-10).
demandOffer(part8,prodloc6,3).
demandOffer(part8,prodloc2,17).
demandOffer(part8,prodloc13,-10).
demandOffer(part8,prodloc1,-10).
demandOffer(part9,prodloc1,20).
demandOffer(part9,prodloc12,-20).

% ---- network (ASP-generated) ----
route(harbor0,harbor1,tr13,29003,174018).
route(harbor0,harbor1,tr2,29003,87009).
route(harbor0,harbor2,tr13,9646,57876).
route(harbor0,harbor2,tr2,9646,28938).
route(harbor0,harbor3,tr13,95,570).
route(harbor0,harbor3,tr2,95,285).
route(harbor0,harbor4,tr13,26572,159432).
route(harbor0,harbor4,tr2,26572,79716).
route(harbor0,harbor5,tr13,21377,128262).
route(harbor0,harbor5,tr2,21377,64131).
route(harbor0,prodloc0,tr0,26162,680212).
route(harbor0,prodloc0,tr13,26162,156972).
route(harbor0,prodloc1,tr0,10334,268684).
route(harbor0,prodloc1,tr13,10334,62004).
route(harbor0,prodloc2,tr0,22030,572780).
route(harbor0,prodloc2,tr13,22030,132180).
route(harbor0,prodloc3,tr0,23915,621790).
route(harbor0,prodloc3,tr13,23915,143490).
route(harbor0,prodloc4,tr0,13177,342602).
route(harbor0,prodloc4,tr13,13177,79062).
route(harbor0,prodloc5,tr0,14990,389740).
route(harbor0,prodloc5,tr13,14990,89940).
route(harbor0,prodloc6,tr0,17380,451880).
route(harbor0,prodloc6,tr13,17380,104280).
route(harbor0,prodloc7,tr0,24791,644566).
route(harbor0,prodloc7,tr13,24791,148746).
route(harbor0,prodloc8,tr0,25001,650026).
route(harbor0,prodloc8,tr13,25001,150006).
route(harbor0,prodloc9,tr0,23774,618124).
route(harbor0,prodloc9,tr13,23774,142644).
route(harbor0,prodloc10,tr0,1783,46358).
route(harbor0,prodloc10,tr13,1783,10698).
route(harbor0,prodloc11,tr0,27390,712140).
route(harbor0,prodloc11,tr13,27390,164340).
route(harbor0,prodloc12,tr0,21869,568594).
route(harbor0,prodloc12,tr13,21869,131214).
route(harbor0,prodloc13,tr0,5379,139854).
route(harbor0,prodloc13,tr13,5379,32274).
route(harbor0,prodloc14,tr0,3853,100178).
route(harbor0,prodloc14,tr13,3853,23118).
route(harbor1,harbor0,tr13,14946,89676).
route(harbor1,harbor0,tr2,14946,44838).
route(harbor1,harbor2,tr13,18290,109740).
route(harbor1,harbor2,tr2,18290,54870).
route(harbor1,harbor3,tr13,10959,65754).
route(harbor1,harbor3,tr2,10959,32877).
route(harbor1,harbor4,tr13,445,2670).
route(harbor1,harbor4,tr2,445,1335).
route(harbor1,harbor5,tr13,2425,14550).
route(harbor1,harbor5,tr2,2425,7275).
route(harbor1,prodloc0,tr0,18805,488930).
route(harbor1,prodloc0,tr13,18805,112830).
route(harbor1,prodloc1,tr0,24487,636662).
route(harbor1,prodloc1,tr13,24487,146922).
route(harbor1,prodloc2,tr0,3560,92560).
route(harbor1,prodloc2,tr13,3560,21360).
route(harbor1,prodloc3,tr0,3058,79508).
route(harbor1,prodloc3,tr13,3058,18348).
route(harbor1,prodloc4,tr0,10906,283556).
route(harbor1,prodloc4,tr13,10906,65436).
route(harbor1,prodloc5,tr0,8433,219258).
route(harbor1,prodloc5,tr13,8433,50598).
route(harbor1,prodloc6,tr0,21061,547586).
route(harbor1,prodloc6,tr13,21061,126366).
route(harbor1,prodloc7,tr0,2817,73242).
route(harbor1,prodloc7,tr13,2817,16902).
route(harbor1,prodloc8,tr0,21703,564278).
route(harbor1,prodloc8,tr13,21703,130218).
route(harbor1,prodloc9,tr0,25598,665548).
route(harbor1,prodloc9,tr13,25598,153588).
route(harbor1,prodloc10,tr0,9865,256490).
route(harbor1,prodloc10,tr13,9865,59190).
route(harbor1,prodloc11,tr0,21748,565448).
route(harbor1,prodloc11,tr13,21748,130488).
route(harbor1,prodloc12,tr0,1454,37804).
route(harbor1,prodloc12,tr13,1454,8724).
route(harbor1,prodloc13,tr0,25811,671086).
route(harbor1,prodloc13,tr13,25811,154866).
route(harbor1,prodloc14,tr0,891,23166).
route(harbor1,prodloc14,tr13,891,5346).
route(harbor2,harbor0,tr13,6400,38400).
route(harbor2,harbor0,tr2,6400,19200).
route(harbor2,harbor1,tr13,7227,43362).
route(harbor2,harbor1,tr2,7227,21681).
route(harbor2,harbor3,tr13,16844,101064).
route(harbor2,harbor3,tr2,16844,50532).
route(harbor2,harbor4,tr13,16631,99786).
route(harbor2,harbor4,tr2,16631,49893).
route(harbor2,harbor5,tr13,22993,137958).
route(harbor2,harbor5,tr2,22993,68979).
route(harbor2,prodloc0,tr0,400,10400).
route(harbor2,prodloc0,tr13,400,2400).
route(harbor2,prodloc1,tr0,5132,133432).
route(harbor2,prodloc1,tr13,5132,30792).
route(harbor2,prodloc2,tr0,781,20306).
route(harbor2,prodloc2,tr13,781,4686).
route(harbor2,prodloc3,tr0,21844,567944).
route(harbor2,prodloc3,tr13,21844,131064).
route(harbor2,prodloc4,tr0,24405,634530).
route(harbor2,prodloc4,tr13,24405,146430).
route(harbor2,prodloc5,tr0,17280,449280).
route(harbor2,prodloc5,tr13,17280,103680).
route(harbor2,prodloc6,tr0,4429,115154).
route(harbor2,prodloc6,tr13,4429,26574).
route(harbor2,prodloc7,tr0,10228,265928).
route(harbor2,prodloc7,tr13,10228,61368).
route(harbor2,prodloc8,tr0,28670,745420).
route(harbor2,prodloc8,tr13,28670,172020).
route(harbor2,prodloc9,tr0,4131,107406).
route(harbor2,prodloc9,tr13,4131,24786).
route(harbor2,prodloc10,tr0,13731,357006).
route(harbor2,prodloc10,tr13,13731,82386).
route(harbor2,prodloc11,tr0,9014,234364).
route(harbor2,prodloc11,tr13,9014,54084).
route(harbor2,prodloc12,tr0,3581,93106).
route(harbor2,prodloc12,tr13,3581,21486).
route(harbor2,prodloc13,tr0,12717,330642).
route(harbor2,prodloc13,tr13,12717,76302).
route(harbor2,prodloc14,tr0,3234,84084).
route(harbor2,prodloc14,tr13,3234,19404).
route(harbor3,harbor0,tr13,7173,43038).
route(harbor3,harbor0,tr2,7173,21519).
route(harbor3,harbor1,tr13,7887,47322).
route(harbor3,harbor1,tr2,7887,23661).
route(harbor3,harbor2,tr13,6502,39012).
route(harbor3,harbor2,tr2,6502,19506).
route(harbor3,harbor4,tr13,28183,169098).
route(harbor3,harbor4,tr2,28183,84549).
route(harbor3,harbor5,tr13,7448,44688).
route(harbor3,harbor5,tr2,7448,22344).
route(harbor3,prodloc0,tr0,3187,82862).
route(harbor3,prodloc0,tr13,3187,19122).
route(harbor3,prodloc1,tr0,9878,256828).
route(harbor3,prodloc1,tr13,9878,59268).
route(harbor3,prodloc2,tr0,4110,106860).
route(harbor3,prodloc2,tr13,4110,24660).
route(harbor3,prodloc3,tr0,18188,472888).
route(harbor3,prodloc3,tr13,18188,109128).
route(harbor3,prodloc4,tr0,12773,332098).
route(harbor3,prodloc4,tr13,12773,76638).
route(harbor3,prodloc5,tr0,4572,118872).
route(harbor3,prodloc5,tr13,4572,27432).
route(harbor3,prodloc6,tr0,21234,552084).
route(harbor3,prodloc6,tr13,21234,127404).
route(harbor3,prodloc7,tr0,2713,70538).
route(harbor3,prodloc7,tr13,2713,16278).
route(harbor3,prodloc8,tr0,14699,382174).
route(harbor3,prodloc8,tr13,14699,88194).
route(harbor3,prodloc9,tr0,15972,415272).
route(harbor3,prodloc9,tr13,15972,95832).
route(harbor3,prodloc10,tr0,108,2808).
route(harbor3,prodloc10,tr13,108,648).
route(harbor3,prodloc11,tr0,5859,152334).
route(harbor3,prodloc11,tr13,5859,35154).
route(harbor3,prodloc12,tr0,6180,160680).
route(harbor3,prodloc12,tr13,6180,37080).
route(harbor3,prodloc13,tr0,26673,693498).
route(harbor3,prodloc13,tr13,26673,160038).
route(harbor3,prodloc14,tr0,20783,540358).
route(harbor3,prodloc14,tr13,20783,124698).
route(harbor4,harbor0,tr13,10230,61380).
route(harbor4,harbor0,tr2,10230,30690).
route(harbor4,harbor1,tr13,13303,79818).
route(harbor4,harbor1,tr2,13303,39909).
route(harbor4,harbor2,tr13,27787,166722).
route(harbor4,harbor2,tr2,27787,83361).
route(harbor4,harbor3,tr13,3142,18852).
route(harbor4,harbor3,tr2,3142,9426).
route(harbor4,harbor5,tr13,27181,163086).
route(harbor4,harbor5,tr2,27181,81543).
route(harbor4,prodloc0,tr0,9717,252642).
route(harbor4,prodloc0,tr13,9717,58302).
route(harbor4,prodloc1,tr0,6785,176410).
route(harbor4,prodloc1,tr13,6785,40710).
route(harbor4,prodloc2,tr0,11945,310570).
route(harbor4,prodloc2,tr13,11945,71670).
route(harbor4,prodloc3,tr0,20413,530738).
route(harbor4,prodloc3,tr13,20413,122478).
route(harbor4,prodloc4,tr0,9774,254124).
route(harbor4,prodloc4,tr13,9774,58644).
route(harbor4,prodloc5,tr0,4715,122590).
route(harbor4,prodloc5,tr13,4715,28290).
route(harbor4,prodloc6,tr0,22168,576368).
route(harbor4,prodloc6,tr13,22168,133008).
route(harbor4,prodloc7,tr0,23777,618202).
route(harbor4,prodloc7,tr13,23777,142662).
route(harbor4,prodloc8,tr0,3235,84110).
route(harbor4,prodloc8,tr13,3235,19410).
route(harbor4,prodloc9,tr0,161,4186).
route(harbor4,prodloc9,tr13,161,966).
route(harbor4,prodloc10,tr0,9053,235378).
route(harbor4,prodloc10,tr13,9053,54318).
route(harbor4,prodloc11,tr0,2026,52676).
route(harbor4,prodloc11,tr13,2026,12156).
route(harbor4,prodloc12,tr0,28789,748514).
route(harbor4,prodloc12,tr13,28789,172734).
route(harbor4,prodloc13,tr0,12698,330148).
route(harbor4,prodloc13,tr13,12698,76188).
route(harbor4,prodloc14,tr0,12232,318032).
route(harbor4,prodloc14,tr13,12232,73392).
route(harbor5,harbor0,tr13,24130,144780).
route(harbor5,harbor0,tr2,24130,72390).
route(harbor5,harbor1,tr13,9287,55722).
route(harbor5,harbor1,tr2,9287,27861).
route(harbor5,harbor2,tr13,13002,78012).
route(harbor5,harbor2,tr2,13002,39006).
route(harbor5,harbor3,tr13,27454,164724).
route(harbor5,harbor3,tr2,27454,82362).
route(harbor5,harbor4,tr13,15185,91110).
route(harbor5,harbor4,tr2,15185,45555).
route(harbor5,prodloc0,tr0,26550,690300).
route(harbor5,prodloc0,tr13,26550,159300).
route(harbor5,prodloc1,tr0,3258,84708).
route(harbor5,prodloc1,tr13,3258,19548).
route(harbor5,prodloc2,tr0,2184,56784).
route(harbor5,prodloc2,tr13,2184,13104).
route(harbor5,prodloc3,tr0,18930,492180).
route(harbor5,prodloc3,tr13,18930,113580).
route(harbor5,prodloc4,tr0,15379,399854).
route(harbor5,prodloc4,tr13,15379,92274).
route(harbor5,prodloc5,tr0,6926,180076).
route(harbor5,prodloc5,tr13,6926,41556).
route(harbor5,prodloc6,tr0,330,8580).
route(harbor5,prodloc6,tr13,330,1980).
route(harbor5,prodloc7,tr0,22969,597194).
route(harbor5,prodloc7,tr13,22969,137814).
route(harbor5,prodloc8,tr0,23970,623220).
route(harbor5,prodloc8,tr13,23970,143820).
route(harbor5,prodloc9,tr0,17345,450970).
route(harbor5,prodloc9,tr13,17345,104070).
route(harbor5,prodloc10,tr0,2295,59670).
route(harbor5,prodloc10,tr13,2295,13770).
route(harbor5,prodloc11,tr0,24615,639990).
route(harbor5,prodloc11,tr13,24615,147690).
route(harbor5,prodloc12,tr0,17928,466128).
route(harbor5,prodloc12,tr13,17928,107568).
route(harbor5,prodloc13,tr0,20399,530374).
route(harbor5,prodloc13,tr13,20399,122394).
route(harbor5,prodloc14,tr0,11169,290394).
route(harbor5,prodloc14,tr13,11169,67014).
route(prodloc0,harbor0,tr0,23425,609050).
route(prodloc0,harbor0,tr13,23425,140550).
route(prodloc0,harbor1,tr0,510,13260).
route(prodloc0,harbor1,tr13,510,3060).
route(prodloc0,harbor2,tr0,5866,152516).
route(prodloc0,harbor2,tr13,5866,35196).
route(prodloc0,harbor3,tr0,9098,236548).
route(prodloc0,harbor3,tr13,9098,54588).
route(prodloc0,harbor4,tr0,9636,250536).
route(prodloc0,harbor4,tr13,9636,57816).
route(prodloc0,harbor5,tr0,19963,519038).
route(prodloc0,harbor5,tr13,19963,119778).
route(prodloc0,prodloc1,tr0,27723,720798).
route(prodloc0,prodloc1,tr13,27723,166338).
route(prodloc0,prodloc2,tr0,3275,85150).
route(prodloc0,prodloc2,tr13,3275,19650).
route(prodloc0,prodloc3,tr0,81,2106).
route(prodloc0,prodloc3,tr13,81,486).
route(prodloc0,prodloc4,tr0,1353,35178).
route(prodloc0,prodloc4,tr13,1353,8118).
route(prodloc0,prodloc5,tr0,6926,180076).
route(prodloc0,prodloc5,tr13,6926,41556).
route(prodloc0,prodloc6,tr0,24568,638768).
route(prodloc0,prodloc6,tr13,24568,147408).
route(prodloc0,prodloc7,tr0,6783,176358).
route(prodloc0,prodloc7,tr13,6783,40698).
route(prodloc0,prodloc8,tr0,20261,526786).
route(prodloc0,prodloc8,tr13,20261,121566).
route(prodloc0,prodloc9,tr0,13308,346008).
route(prodloc0,prodloc9,tr13,13308,79848).
route(prodloc0,prodloc10,tr0,22565,586690).
route(prodloc0,prodloc10,tr13,22565,135390).
route(prodloc0,prodloc11,tr0,19703,512278).
route(prodloc0,prodloc11,tr13,19703,118218).
route(prodloc0,prodloc12,tr0,2564,66664).
route(prodloc0,prodloc12,tr13,2564,15384).
route(prodloc0,prodloc13,tr0,19081,496106).
route(prodloc0,prodloc13,tr15,19081,610592).
route(prodloc0,prodloc14,tr0,27773,722098).
route(prodloc0,prodloc14,tr13,27773,166638).
route(prodloc1,harbor0,tr0,11789,306514).
route(prodloc1,harbor0,tr13,11789,70734).
route(prodloc1,harbor1,tr0,25875,672750).
route(prodloc1,harbor1,tr13,25875,155250).
route(prodloc1,harbor2,tr0,9273,241098).
route(prodloc1,harbor2,tr13,9273,55638).
route(prodloc1,harbor3,tr0,14511,377286).
route(prodloc1,harbor3,tr13,14511,87066).
route(prodloc1,harbor4,tr0,1636,42536).
route(prodloc1,harbor4,tr13,1636,9816).
route(prodloc1,harbor5,tr0,26546,690196).
route(prodloc1,harbor5,tr13,26546,159276).
route(prodloc1,prodloc0,tr0,21466,558116).
route(prodloc1,prodloc0,tr13,21466,128796).
route(prodloc1,prodloc2,tr0,4514,117364).
route(prodloc1,prodloc2,tr13,4514,27084).
route(prodloc1,prodloc3,tr0,28856,750256).
route(prodloc1,prodloc3,tr13,28856,173136).
route(prodloc1,prodloc4,tr0,20408,530608).
route(prodloc1,prodloc4,tr13,20408,122448).
route(prodloc1,prodloc5,tr0,12321,320346).
route(prodloc1,prodloc5,tr13,12321,73926).
route(prodloc1,prodloc6,tr0,28117,731042).
route(prodloc1,prodloc6,tr13,28117,168702).
route(prodloc1,prodloc7,tr0,18433,479258).
route(prodloc1,prodloc7,tr13,18433,110598).
route(prodloc1,prodloc8,tr13,13021,78126).
route(prodloc1,prodloc8,tr15,13021,416672).
route(prodloc1,prodloc9,tr13,12914,77484).
route(prodloc1,prodloc9,tr15,12914,413248).
route(prodloc1,prodloc10,tr0,8337,216762).
route(prodloc1,prodloc10,tr13,8337,50022).
route(prodloc1,prodloc11,tr0,121,3146).
route(prodloc1,prodloc11,tr13,121,726).
route(prodloc1,prodloc12,tr0,26238,682188).
route(prodloc1,prodloc12,tr13,26238,157428).
route(prodloc1,prodloc13,tr0,25525,663650).
route(prodloc1,prodloc13,tr13,25525,153150).
route(prodloc1,prodloc14,tr13,15038,90228).
route(prodloc1,prodloc14,tr15,15038,481216).
route(prodloc2,harbor0,tr0,3006,78156).
route(prodloc2,harbor0,tr13,3006,18036).
route(prodloc2,harbor1,tr0,19071,495846).
route(prodloc2,harbor1,tr13,19071,114426).
route(prodloc2,harbor2,tr0,28553,742378).
route(prodloc2,harbor2,tr13,28553,171318).
route(prodloc2,harbor3,tr0,16124,419224).
route(prodloc2,harbor3,tr13,16124,96744).
route(prodloc2,harbor4,tr0,10459,271934).
route(prodloc2,harbor4,tr13,10459,62754).
route(prodloc2,harbor5,tr0,7544,196144).
route(prodloc2,harbor5,tr13,7544,45264).
route(prodloc2,prodloc0,tr0,25379,659854).
route(prodloc2,prodloc0,tr13,25379,152274).
route(prodloc2,prodloc1,tr0,6589,171314).
route(prodloc2,prodloc1,tr13,6589,39534).
route(prodloc2,prodloc3,tr0,9600,249600).
route(prodloc2,prodloc3,tr13,9600,57600).
route(prodloc2,prodloc4,tr0,14766,383916).
route(prodloc2,prodloc4,tr13,14766,88596).
route(prodloc2,prodloc5,tr0,11033,286858).
route(prodloc2,prodloc5,tr13,11033,66198).
route(prodloc2,prodloc6,tr0,12459,323934).
route(prodloc2,prodloc6,tr13,12459,74754).
route(prodloc2,prodloc7,tr0,6770,176020).
route(prodloc2,prodloc7,tr13,6770,40620).
route(prodloc2,prodloc8,tr0,20429,531154).
route(prodloc2,prodloc8,tr13,20429,122574).
route(prodloc2,prodloc9,tr0,1718,44668).
route(prodloc2,prodloc9,tr13,1718,10308).
route(prodloc2,prodloc10,tr0,11411,296686).
route(prodloc2,prodloc10,tr13,11411,68466).
route(prodloc2,prodloc11,tr0,4422,114972).
route(prodloc2,prodloc11,tr13,4422,26532).
route(prodloc2,prodloc12,tr0,2991,77766).
route(prodloc2,prodloc12,tr13,2991,17946).
route(prodloc2,prodloc13,tr0,24532,637832).
route(prodloc2,prodloc13,tr15,24532,785024).
route(prodloc2,prodloc14,tr0,26871,698646).
route(prodloc2,prodloc14,tr13,26871,161226).
route(prodloc3,harbor0,tr0,12039,313014).
route(prodloc3,harbor0,tr13,12039,72234).
route(prodloc3,harbor1,tr0,663,17238).
route(prodloc3,harbor1,tr13,663,3978).
route(prodloc3,harbor2,tr0,24923,647998).
route(prodloc3,harbor2,tr13,24923,149538).
route(prodloc3,harbor3,tr0,3866,100516).
route(prodloc3,harbor3,tr13,3866,23196).
route(prodloc3,harbor4,tr0,15633,406458).
route(prodloc3,harbor4,tr13,15633,93798).
route(prodloc3,harbor5,tr0,7851,204126).
route(prodloc3,harbor5,tr13,7851,47106).
route(prodloc3,prodloc0,tr0,17757,461682).
route(prodloc3,prodloc0,tr13,17757,106542).
route(prodloc3,prodloc1,tr0,4644,120744).
route(prodloc3,prodloc1,tr13,4644,27864).
route(prodloc3,prodloc2,tr0,9698,252148).
route(prodloc3,prodloc2,tr13,9698,58188).
route(prodloc3,prodloc4,tr0,25416,660816).
route(prodloc3,prodloc4,tr13,25416,152496).
route(prodloc3,prodloc5,tr0,23869,620594).
route(prodloc3,prodloc5,tr15,23869,763808).
route(prodloc3,prodloc6,tr0,220,5720).
route(prodloc3,prodloc6,tr13,220,1320).
route(prodloc3,prodloc7,tr0,4580,119080).
route(prodloc3,prodloc7,tr13,4580,27480).
route(prodloc3,prodloc8,tr0,22328,580528).
route(prodloc3,prodloc8,tr13,22328,133968).
route(prodloc3,prodloc9,tr0,11910,309660).
route(prodloc3,prodloc9,tr13,11910,71460).
route(prodloc3,prodloc10,tr0,11467,298142).
route(prodloc3,prodloc10,tr13,11467,68802).
route(prodloc3,prodloc11,tr0,17380,451880).
route(prodloc3,prodloc11,tr13,17380,104280).
route(prodloc3,prodloc12,tr0,4807,124982).
route(prodloc3,prodloc12,tr13,4807,28842).
route(prodloc3,prodloc13,tr0,621,16146).
route(prodloc3,prodloc13,tr15,621,19872).
route(prodloc4,harbor0,tr0,14178,368628).
route(prodloc4,harbor0,tr13,14178,85068).
route(prodloc4,harbor1,tr0,17251,448526).
route(prodloc4,harbor1,tr13,17251,103506).
route(prodloc4,harbor2,tr0,14713,382538).
route(prodloc4,harbor2,tr13,14713,88278).
route(prodloc4,harbor3,tr0,8102,210652).
route(prodloc4,harbor3,tr13,8102,48612).
route(prodloc4,harbor4,tr0,12819,333294).
route(prodloc4,harbor4,tr13,12819,76914).
route(prodloc4,harbor5,tr0,12720,330720).
route(prodloc4,harbor5,tr13,12720,76320).
route(prodloc4,prodloc0,tr0,22631,588406).
route(prodloc4,prodloc0,tr13,22631,135786).
route(prodloc4,prodloc1,tr0,17567,456742).
route(prodloc4,prodloc1,tr13,17567,105402).
route(prodloc4,prodloc2,tr0,27556,716456).
route(prodloc4,prodloc2,tr13,27556,165336).
route(prodloc4,prodloc3,tr0,23011,598286).
route(prodloc4,prodloc3,tr13,23011,138066).
route(prodloc4,prodloc5,tr0,9524,247624).
route(prodloc4,prodloc5,tr13,9524,57144).
route(prodloc4,prodloc6,tr0,16579,431054).
route(prodloc4,prodloc6,tr13,16579,99474).
route(prodloc4,prodloc7,tr0,19960,518960).
route(prodloc4,prodloc7,tr13,19960,119760).
route(prodloc4,prodloc8,tr0,21268,552968).
route(prodloc4,prodloc8,tr13,21268,127608).
route(prodloc4,prodloc9,tr0,23428,609128).
route(prodloc4,prodloc9,tr13,23428,140568).
route(prodloc4,prodloc10,tr0,9717,252642).
route(prodloc4,prodloc10,tr13,9717,58302).
route(prodloc4,prodloc11,tr0,20339,528814).
route(prodloc4,prodloc11,tr13,20339,122034).
route(prodloc4,prodloc12,tr0,25041,651066).
route(prodloc4,prodloc12,tr13,25041,150246).
route(prodloc4,prodloc13,tr0,25280,657280).
route(prodloc4,prodloc13,tr15,25280,808960).
route(prodloc4,prodloc14,tr0,2728,70928).
route(prodloc4,prodloc14,tr13,2728,16368).
route(prodloc5,harbor0,tr0,21439,557414).
route(prodloc5,harbor0,tr13,21439,128634).
route(prodloc5,harbor1,tr0,16168,420368).
route(prodloc5,harbor1,tr13,16168,97008).
route(prodloc5,harbor2,tr0,8805,228930).
route(prodloc5,harbor2,tr13,8805,52830).
route(prodloc5,harbor3,tr0,11553,300378).
route(prodloc5,harbor3,tr13,11553,69318).
route(prodloc5,harbor4,tr0,24214,629564).
route(prodloc5,harbor4,tr13,24214,145284).
route(prodloc5,harbor5,tr0,4119,107094).
route(prodloc5,harbor5,tr13,4119,24714).
route(prodloc5,prodloc0,tr0,15242,396292).
route(prodloc5,prodloc0,tr13,15242,91452).
route(prodloc5,prodloc1,tr0,21602,561652).
route(prodloc5,prodloc1,tr13,21602,129612).
route(prodloc5,prodloc2,tr0,24110,626860).
route(prodloc5,prodloc2,tr15,24110,771520).
route(prodloc5,prodloc3,tr0,27915,725790).
route(prodloc5,prodloc3,tr13,27915,167490).
route(prodloc5,prodloc4,tr0,7727,200902).
route(prodloc5,prodloc4,tr13,7727,46362).
route(prodloc5,prodloc6,tr0,15876,412776).
route(prodloc5,prodloc6,tr13,15876,95256).
route(prodloc5,prodloc7,tr0,4248,110448).
route(prodloc5,prodloc7,tr13,4248,25488).
route(prodloc5,prodloc8,tr0,11586,301236).
route(prodloc5,prodloc8,tr13,11586,69516).
route(prodloc5,prodloc9,tr13,27946,167676).
route(prodloc5,prodloc9,tr15,27946,894272).
route(prodloc5,prodloc10,tr0,10740,279240).
route(prodloc5,prodloc10,tr13,10740,64440).
route(prodloc5,prodloc11,tr0,20597,535522).
route(prodloc5,prodloc11,tr13,20597,123582).
route(prodloc5,prodloc12,tr0,18393,478218).
route(prodloc5,prodloc12,tr13,18393,110358).
route(prodloc5,prodloc13,tr0,4635,120510).
route(prodloc5,prodloc13,tr13,4635,27810).
route(prodloc5,prodloc14,tr0,20944,544544).
route(prodloc5,prodloc14,tr13,20944,125664).
route(prodloc6,harbor0,tr0,24440,635440).
route(prodloc6,harbor0,tr13,24440,146640).
route(prodloc6,harbor1,tr0,23041,599066).
route(prodloc6,harbor1,tr13,23041,138246).
route(prodloc6,harbor2,tr0,23614,613964).
route(prodloc6,harbor2,tr13,23614,141684).
route(prodloc6,harbor3,tr0,22365,581490).
route(prodloc6,harbor3,tr13,22365,134190).
route(prodloc6,harbor4,tr0,22498,584948).
route(prodloc6,harbor4,tr13,22498,134988).
route(prodloc6,harbor5,tr0,17660,459160).
route(prodloc6,harbor5,tr13,17660,105960).
route(prodloc6,prodloc0,tr0,24653,640978).
route(prodloc6,prodloc0,tr13,24653,147918).
route(prodloc6,prodloc2,tr0,24463,636038).
route(prodloc6,prodloc2,tr13,24463,146778).
route(prodloc6,prodloc3,tr0,8788,228488).
route(prodloc6,prodloc3,tr13,8788,52728).
route(prodloc6,prodloc4,tr0,21148,549848).
route(prodloc6,prodloc4,tr13,21148,126888).
route(prodloc6,prodloc5,tr0,1279,33254).
route(prodloc6,prodloc5,tr15,1279,40928).
route(prodloc6,prodloc7,tr0,17338,450788).
route(prodloc6,prodloc7,tr13,17338,104028).
route(prodloc6,prodloc8,tr0,6210,161460).
route(prodloc6,prodloc8,tr13,6210,37260).
route(prodloc6,prodloc9,tr0,12141,315666).
route(prodloc6,prodloc9,tr13,12141,72846).
route(prodloc6,prodloc10,tr0,12805,332930).
route(prodloc6,prodloc10,tr13,12805,76830).
route(prodloc6,prodloc11,tr0,7011,182286).
route(prodloc6,prodloc11,tr13,7011,42066).
route(prodloc6,prodloc12,tr0,17910,465660).
route(prodloc6,prodloc12,tr13,17910,107460).
route(prodloc6,prodloc13,tr0,16637,432562).
route(prodloc6,prodloc13,tr15,16637,532384).
route(prodloc6,prodloc14,tr0,23090,600340).
route(prodloc6,prodloc14,tr13,23090,138540).
route(prodloc7,harbor0,tr0,10063,261638).
route(prodloc7,harbor0,tr13,10063,60378).
route(prodloc7,harbor1,tr0,26632,692432).
route(prodloc7,harbor1,tr13,26632,159792).
route(prodloc7,harbor2,tr0,15432,401232).
route(prodloc7,harbor2,tr13,15432,92592).
route(prodloc7,harbor3,tr0,20653,536978).
route(prodloc7,harbor3,tr13,20653,123918).
route(prodloc7,harbor4,tr0,5878,152828).
route(prodloc7,harbor4,tr13,5878,35268).
route(prodloc7,harbor5,tr0,4474,116324).
route(prodloc7,harbor5,tr13,4474,26844).
route(prodloc7,prodloc0,tr0,4223,109798).
route(prodloc7,prodloc0,tr13,4223,25338).
route(prodloc7,prodloc1,tr0,9002,234052).
route(prodloc7,prodloc1,tr13,9002,54012).
route(prodloc7,prodloc2,tr0,28817,749242).
route(prodloc7,prodloc2,tr13,28817,172902).
route(prodloc7,prodloc3,tr0,828,21528).
route(prodloc7,prodloc3,tr13,828,4968).
route(prodloc7,prodloc4,tr0,18574,482924).
route(prodloc7,prodloc4,tr13,18574,111444).
route(prodloc7,prodloc5,tr0,21893,569218).
route(prodloc7,prodloc5,tr13,21893,131358).
route(prodloc7,prodloc6,tr0,2518,65468).
route(prodloc7,prodloc6,tr13,2518,15108).
route(prodloc7,prodloc8,tr0,28893,751218).
route(prodloc7,prodloc8,tr13,28893,173358).
route(prodloc7,prodloc9,tr0,25557,664482).
route(prodloc7,prodloc9,tr13,25557,153342).
route(prodloc7,prodloc10,tr0,5599,145574).
route(prodloc7,prodloc10,tr13,5599,33594).
route(prodloc7,prodloc11,tr0,11133,289458).
route(prodloc7,prodloc11,tr13,11133,66798).
route(prodloc7,prodloc12,tr0,9000,234000).
route(prodloc7,prodloc12,tr13,9000,54000).
route(prodloc7,prodloc13,tr0,8042,209092).
route(prodloc7,prodloc13,tr13,8042,48252).
route(prodloc7,prodloc14,tr0,25517,663442).
route(prodloc7,prodloc14,tr13,25517,153102).
route(prodloc8,harbor0,tr0,21679,563654).
route(prodloc8,harbor0,tr13,21679,130074).
route(prodloc8,harbor1,tr0,10417,270842).
route(prodloc8,harbor1,tr13,10417,62502).
route(prodloc8,harbor2,tr0,2788,72488).
route(prodloc8,harbor2,tr13,2788,16728).
route(prodloc8,harbor3,tr0,4786,124436).
route(prodloc8,harbor3,tr13,4786,28716).
route(prodloc8,harbor4,tr0,8650,224900).
route(prodloc8,harbor4,tr13,8650,51900).
route(prodloc8,harbor5,tr0,8493,220818).
route(prodloc8,harbor5,tr13,8493,50958).
route(prodloc8,prodloc0,tr0,3144,81744).
route(prodloc8,prodloc0,tr13,3144,18864).
route(prodloc8,prodloc1,tr0,4339,112814).
route(prodloc8,prodloc1,tr13,4339,26034).
route(prodloc8,prodloc2,tr0,9970,259220).
route(prodloc8,prodloc2,tr13,9970,59820).
route(prodloc8,prodloc3,tr0,2484,64584).
route(prodloc8,prodloc3,tr13,2484,14904).
route(prodloc8,prodloc4,tr0,16231,422006).
route(prodloc8,prodloc4,tr13,16231,97386).
route(prodloc8,prodloc5,tr0,1294,33644).
route(prodloc8,prodloc5,tr13,1294,7764).
route(prodloc8,prodloc6,tr0,16517,429442).
route(prodloc8,prodloc6,tr13,16517,99102).
route(prodloc8,prodloc7,tr0,1454,37804).
route(prodloc8,prodloc7,tr13,1454,8724).
route(prodloc8,prodloc9,tr0,15586,405236).
route(prodloc8,prodloc9,tr13,15586,93516).
route(prodloc8,prodloc10,tr0,15486,402636).
route(prodloc8,prodloc10,tr13,15486,92916).
route(prodloc8,prodloc11,tr0,12827,333502).
route(prodloc8,prodloc11,tr13,12827,76962).
route(prodloc8,prodloc12,tr0,23358,607308).
route(prodloc8,prodloc12,tr13,23358,140148).
route(prodloc8,prodloc13,tr0,28521,741546).
route(prodloc8,prodloc13,tr13,28521,171126).
route(prodloc8,prodloc14,tr0,16662,433212).
route(prodloc8,prodloc14,tr13,16662,99972).
route(prodloc9,harbor0,tr0,24240,630240).
route(prodloc9,harbor0,tr13,24240,145440).
route(prodloc9,harbor1,tr0,21976,571376).
route(prodloc9,harbor1,tr13,21976,131856).
route(prodloc9,harbor2,tr0,3123,81198).
route(prodloc9,harbor2,tr13,3123,18738).
route(prodloc9,harbor3,tr0,21428,557128).
route(prodloc9,harbor3,tr13,21428,128568).
route(prodloc9,harbor4,tr0,4415,114790).
route(prodloc9,harbor4,tr13,4415,26490).
route(prodloc9,harbor5,tr0,26907,699582).
route(prodloc9,harbor5,tr13,26907,161442).
route(prodloc9,prodloc0,tr0,23099,600574).
route(prodloc9,prodloc0,tr13,23099,138594).
route(prodloc9,prodloc1,tr0,10179,264654).
route(prodloc9,prodloc1,tr13,10179,61074).
route(prodloc9,prodloc2,tr0,16462,428012).
route(prodloc9,prodloc2,tr15,16462,526784).
route(prodloc9,prodloc3,tr0,18021,468546).
route(prodloc9,prodloc3,tr13,18021,108126).
route(prodloc9,prodloc4,tr0,13727,356902).
route(prodloc9,prodloc4,tr13,13727,82362).
route(prodloc9,prodloc5,tr0,5607,145782).
route(prodloc9,prodloc5,tr13,5607,33642).
route(prodloc9,prodloc6,tr0,14930,388180).
route(prodloc9,prodloc6,tr13,14930,89580).
route(prodloc9,prodloc7,tr13,14519,87114).
route(prodloc9,prodloc7,tr15,14519,464608).
route(prodloc9,prodloc8,tr0,22463,584038).
route(prodloc9,prodloc8,tr13,22463,134778).
route(prodloc9,prodloc10,tr0,25476,662376).
route(prodloc9,prodloc10,tr13,25476,152856).
route(prodloc9,prodloc11,tr0,16991,441766).
route(prodloc9,prodloc11,tr13,16991,101946).
route(prodloc9,prodloc12,tr0,15850,412100).
route(prodloc9,prodloc12,tr13,15850,95100).
route(prodloc9,prodloc13,tr0,27319,710294).
route(prodloc9,prodloc13,tr13,27319,163914).
route(prodloc9,prodloc14,tr13,5024,30144).
route(prodloc9,prodloc14,tr15,5024,160768).
route(prodloc10,harbor0,tr0,5842,151892).
route(prodloc10,harbor0,tr13,5842,35052).
route(prodloc10,harbor1,tr0,6225,161850).
route(prodloc10,harbor1,tr13,6225,37350).
route(prodloc10,harbor2,tr0,6596,171496).
route(prodloc10,harbor2,tr13,6596,39576).
route(prodloc10,harbor3,tr0,9492,246792).
route(prodloc10,harbor3,tr13,9492,56952).
route(prodloc10,harbor4,tr0,3858,100308).
route(prodloc10,harbor4,tr13,3858,23148).
route(prodloc10,harbor5,tr0,6238,162188).
route(prodloc10,harbor5,tr13,6238,37428).
route(prodloc10,prodloc0,tr0,14617,380042).
route(prodloc10,prodloc0,tr13,14617,87702).
route(prodloc10,prodloc1,tr0,13141,341666).
route(prodloc10,prodloc1,tr13,13141,78846).
route(prodloc10,prodloc2,tr0,15330,398580).
route(prodloc10,prodloc2,tr13,15330,91980).
route(prodloc10,prodloc3,tr0,2231,58006).
route(prodloc10,prodloc3,tr13,2231,13386).
route(prodloc10,prodloc4,tr0,27902,725452).
route(prodloc10,prodloc4,tr13,27902,167412).
route(prodloc10,prodloc5,tr0,25203,655278).
route(prodloc10,prodloc5,tr15,25203,806496).
route(prodloc10,prodloc6,tr0,27861,724386).
route(prodloc10,prodloc6,tr13,27861,167166).
route(prodloc10,prodloc7,tr0,25190,654940).
route(prodloc10,prodloc7,tr13,25190,151140).
route(prodloc10,prodloc8,tr0,10047,261222).
route(prodloc10,prodloc8,tr13,10047,60282).
route(prodloc10,prodloc9,tr0,20855,542230).
route(prodloc10,prodloc9,tr13,20855,125130).
route(prodloc10,prodloc11,tr0,17523,455598).
route(prodloc10,prodloc11,tr13,17523,105138).
route(prodloc10,prodloc12,tr0,3755,97630).
route(prodloc10,prodloc12,tr15,3755,120160).
route(prodloc10,prodloc13,tr13,26164,156984).
route(prodloc10,prodloc13,tr15,26164,837248).
route(prodloc10,prodloc14,tr0,7126,185276).
route(prodloc10,prodloc14,tr13,7126,42756).
route(prodloc11,harbor0,tr0,23626,614276).
route(prodloc11,harbor0,tr13,23626,141756).
route(prodloc11,harbor1,tr0,27127,705302).
route(prodloc11,harbor1,tr13,27127,162762).
route(prodloc11,harbor2,tr0,28651,744926).
route(prodloc11,harbor2,tr13,28651,171906).
route(prodloc11,harbor3,tr0,6766,175916).
route(prodloc11,harbor3,tr13,6766,40596).
route(prodloc11,harbor4,tr0,23841,619866).
route(prodloc11,harbor4,tr13,23841,143046).
route(prodloc11,harbor5,tr0,10010,260260).
route(prodloc11,harbor5,tr13,10010,60060).
route(prodloc11,prodloc0,tr0,28481,740506).
route(prodloc11,prodloc0,tr13,28481,170886).
route(prodloc11,prodloc1,tr0,6786,176436).
route(prodloc11,prodloc1,tr13,6786,40716).
route(prodloc11,prodloc2,tr0,16602,431652).
route(prodloc11,prodloc2,tr15,16602,531264).
route(prodloc11,prodloc3,tr0,9469,246194).
route(prodloc11,prodloc3,tr13,9469,56814).
route(prodloc11,prodloc4,tr0,14279,371254).
route(prodloc11,prodloc4,tr13,14279,85674).
route(prodloc11,prodloc5,tr13,27981,167886).
route(prodloc11,prodloc5,tr15,27981,895392).
route(prodloc11,prodloc6,tr0,15512,403312).
route(prodloc11,prodloc6,tr13,15512,93072).
route(prodloc11,prodloc7,tr0,3109,80834).
route(prodloc11,prodloc7,tr13,3109,18654).
route(prodloc11,prodloc8,tr0,11930,310180).
route(prodloc11,prodloc8,tr13,11930,71580).
route(prodloc11,prodloc9,tr0,16995,441870).
route(prodloc11,prodloc9,tr13,16995,101970).
route(prodloc11,prodloc10,tr13,8023,48138).
route(prodloc11,prodloc10,tr15,8023,256736).
route(prodloc11,prodloc12,tr0,24518,637468).
route(prodloc11,prodloc12,tr15,24518,784576).
route(prodloc11,prodloc13,tr0,26624,692224).
route(prodloc11,prodloc13,tr13,26624,159744).
route(prodloc11,prodloc14,tr0,6023,156598).
route(prodloc11,prodloc14,tr13,6023,36138).
route(prodloc12,harbor0,tr0,18369,477594).
route(prodloc12,harbor0,tr13,18369,110214).
route(prodloc12,harbor1,tr0,18746,487396).
route(prodloc12,harbor1,tr13,18746,112476).
route(prodloc12,harbor2,tr0,12194,317044).
route(prodloc12,harbor2,tr13,12194,73164).
route(prodloc12,harbor3,tr0,26683,693758).
route(prodloc12,harbor3,tr13,26683,160098).
route(prodloc12,harbor4,tr0,9580,249080).
route(prodloc12,harbor4,tr13,9580,57480).
route(prodloc12,harbor5,tr0,4944,128544).
route(prodloc12,harbor5,tr13,4944,29664).
route(prodloc12,prodloc0,tr0,354,9204).
route(prodloc12,prodloc0,tr13,354,2124).
route(prodloc12,prodloc1,tr0,10986,285636).
route(prodloc12,prodloc1,tr13,10986,65916).
route(prodloc12,prodloc2,tr0,26303,683878).
route(prodloc12,prodloc2,tr13,26303,157818).
route(prodloc12,prodloc3,tr0,12378,321828).
route(prodloc12,prodloc3,tr13,12378,74268).
route(prodloc12,prodloc4,tr0,4821,125346).
route(prodloc12,prodloc4,tr13,4821,28926).
route(prodloc12,prodloc5,tr0,9345,242970).
route(prodloc12,prodloc5,tr13,9345,56070).
route(prodloc12,prodloc6,tr0,16774,436124).
route(prodloc12,prodloc6,tr13,16774,100644).
route(prodloc12,prodloc7,tr0,28561,742586).
route(prodloc12,prodloc7,tr13,28561,171366).
route(prodloc12,prodloc8,tr0,28788,748488).
route(prodloc12,prodloc8,tr13,28788,172728).
route(prodloc12,prodloc9,tr0,23956,622856).
route(prodloc12,prodloc9,tr13,23956,143736).
route(prodloc12,prodloc10,tr0,4218,109668).
route(prodloc12,prodloc10,tr13,4218,25308).
route(prodloc12,prodloc11,tr0,16724,434824).
route(prodloc12,prodloc11,tr13,16724,100344).
route(prodloc12,prodloc13,tr0,2176,56576).
route(prodloc12,prodloc13,tr13,2176,13056).
route(prodloc12,prodloc14,tr0,5852,152152).
route(prodloc12,prodloc14,tr13,5852,35112).
route(prodloc13,harbor0,tr0,19496,506896).
route(prodloc13,harbor0,tr13,19496,116976).
route(prodloc13,harbor1,tr0,26977,701402).
route(prodloc13,harbor1,tr13,26977,161862).
route(prodloc13,harbor2,tr0,16523,429598).
route(prodloc13,harbor2,tr13,16523,99138).
route(prodloc13,harbor3,tr0,17100,444600).
route(prodloc13,harbor3,tr13,17100,102600).
route(prodloc13,harbor4,tr0,1206,31356).
route(prodloc13,harbor4,tr13,1206,7236).
route(prodloc13,harbor5,tr0,3815,99190).
route(prodloc13,harbor5,tr13,3815,22890).
route(prodloc13,prodloc0,tr0,28336,736736).
route(prodloc13,prodloc0,tr13,28336,170016).
route(prodloc13,prodloc1,tr0,9177,238602).
route(prodloc13,prodloc1,tr13,9177,55062).
route(prodloc13,prodloc2,tr0,28711,746486).
route(prodloc13,prodloc2,tr15,28711,918752).
route(prodloc13,prodloc3,tr0,13687,355862).
route(prodloc13,prodloc3,tr13,13687,82122).
route(prodloc13,prodloc4,tr0,18436,479336).
route(prodloc13,prodloc4,tr13,18436,110616).
route(prodloc13,prodloc5,tr0,2939,76414).
route(prodloc13,prodloc5,tr13,2939,17634).
route(prodloc13,prodloc6,tr0,17474,454324).
route(prodloc13,prodloc6,tr13,17474,104844).
route(prodloc13,prodloc7,tr0,6294,163644).
route(prodloc13,prodloc7,tr13,6294,37764).
route(prodloc13,prodloc8,tr0,19759,513734).
route(prodloc13,prodloc8,tr13,19759,118554).
route(prodloc13,prodloc9,tr0,27429,713154).
route(prodloc13,prodloc9,tr13,27429,164574).
route(prodloc13,prodloc10,tr0,22446,583596).
route(prodloc13,prodloc10,tr13,22446,134676).
route(prodloc13,prodloc11,tr0,14483,376558).
route(prodloc13,prodloc11,tr13,14483,86898).
route(prodloc13,prodloc12,tr0,14565,378690).
route(prodloc13,prodloc12,tr13,14565,87390).
route(prodloc13,prodloc14,tr0,13352,347152).
route(prodloc13,prodloc14,tr13,13352,80112).
route(prodloc14,harbor0,tr0,23473,610298).
route(prodloc14,harbor0,tr13,23473,140838).
route(prodloc14,harbor1,tr0,1425,37050).
route(prodloc14,harbor1,tr13,1425,8550).
route(prodloc14,harbor2,tr0,23495,610870).
route(prodloc14,harbor2,tr13,23495,140970).
route(prodloc14,harbor3,tr0,22409,582634).
route(prodloc14,harbor3,tr13,22409,134454).
route(prodloc14,harbor4,tr0,5749,149474).
route(prodloc14,harbor4,tr13,5749,34494).
route(prodloc14,harbor5,tr0,27249,708474).
route(prodloc14,harbor5,tr13,27249,163494).
route(prodloc14,prodloc0,tr0,5687,147862).
route(prodloc14,prodloc0,tr13,5687,34122).
route(prodloc14,prodloc1,tr0,27056,703456).
route(prodloc14,prodloc1,tr13,27056,162336).
route(prodloc14,prodloc2,tr0,26440,687440).
route(prodloc14,prodloc2,tr13,26440,158640).
route(prodloc14,prodloc3,tr0,3134,81484).
route(prodloc14,prodloc3,tr13,3134,18804).
route(prodloc14,prodloc4,tr0,16268,422968).
route(prodloc14,prodloc4,tr13,16268,97608).
route(prodloc14,prodloc5,tr0,23077,600002).
route(prodloc14,prodloc5,tr15,23077,738464).
route(prodloc14,prodloc6,tr0,19610,509860).
route(prodloc14,prodloc6,tr13,19610,117660).
route(prodloc14,prodloc7,tr0,18478,480428).
route(prodloc14,prodloc7,tr13,18478,110868).
route(prodloc14,prodloc8,tr0,24565,638690).
route(prodloc14,prodloc8,tr13,24565,147390).
route(prodloc14,prodloc9,tr0,20587,535262).
route(prodloc14,prodloc9,tr13,20587,123522).
route(prodloc14,prodloc10,tr0,9777,254202).
route(prodloc14,prodloc10,tr13,9777,58662).
route(prodloc14,prodloc11,tr0,5187,134862).
route(prodloc14,prodloc11,tr13,5187,31122).
route(prodloc14,prodloc12,tr0,7966,207116).
route(prodloc14,prodloc12,tr13,7966,47796).
route(prodloc14,prodloc13,tr0,9021,234546).
route(prodloc14,prodloc13,tr13,9021,54126).
hub(harbor0).
hub(harbor5).
hub(prodloc0).
hub(prodloc9).
