% Multibatching benchmark instance
% Source: instances.lp
% seed=3  harbors=6  prodlocs=15  hubs=4  disruptions=2

% ---- locations ----
location(harbor0).
location(harbor1).
location(harbor2).
location(harbor3).
location(harbor4).
location(harbor5).
location(prodloc0).
location(prodloc1).
location(prodloc2).
location(prodloc3).
location(prodloc4).
location(prodloc5).
location(prodloc6).
location(prodloc7).
location(prodloc8).
location(prodloc9).
location(prodloc10).
location(prodloc11).
location(prodloc12).
location(prodloc13).
location(prodloc14).

% ---- transport resources ----
transportCapacity(tr0,1800).
transportCO2(tr0,1680).
transportCost(tr0,26).
transportSpeed(tr0,12).
transportCapacity(tr1,65).
transportCO2(tr1,90).
transportCost(tr1,1).
transportSpeed(tr1,35).
transportCapacity(tr10,1).
transportCO2(tr10,700).
transportCost(tr10,4).
transportSpeed(tr10,40).
transportCapacity(tr11,65).
transportCO2(tr11,62).
transportCost(tr11,1).
transportSpeed(tr11,25).
transportCapacity(tr12,65).
transportCO2(tr12,709).
transportCost(tr12,3).
transportSpeed(tr12,55).
transportCapacity(tr13,68).
transportCO2(tr13,160).
transportCost(tr13,6).
transportSpeed(tr13,25).
transportCapacity(tr14,146).
transportCO2(tr14,780).
transportCost(tr14,4).
transportSpeed(tr14,50).
transportCapacity(tr15,2217).
transportCO2(tr15,49470).
transportCost(tr15,32).
transportSpeed(tr15,625).
transportCapacity(tr2,96).
transportCO2(tr2,709).
transportCost(tr2,3).
transportSpeed(tr2,55).
transportCapacity(tr3,1).
transportCO2(tr3,6250).
transportCost(tr3,108).
transportSpeed(tr3,25).
transportCapacity(tr4,148).
transportCO2(tr4,780).
transportCost(tr4,4).
transportSpeed(tr4,50).
transportCapacity(tr5,65).
transportCO2(tr5,780).
transportCost(tr5,3).
transportSpeed(tr5,50).
transportCapacity(tr6,1).
transportCO2(tr6,100).
transportCost(tr6,40).
transportSpeed(tr6,25).
transportCapacity(tr7,1).
transportCO2(tr7,18000).
transportCost(tr7,278).
transportSpeed(tr7,10).
transportCapacity(tr8,1).
transportCO2(tr8,14400).
transportCost(tr8,107).
transportSpeed(tr8,25).
transportCapacity(tr9,65).
transportCO2(tr9,708).
transportCost(tr9,2).
transportSpeed(tr9,60).

% ---- parts ----
part(part0).
partSize(part0,21).
valid_transport(part0,tr0).
valid_transport(part0,tr15).
valid_transport(part0,tr14).
valid_transport(part0,tr13).
valid_transport(part0,tr4).
part(part1).
partSize(part1,1).
valid_transport(part1,tr0).
valid_transport(part1,tr2).
valid_transport(part1,tr15).
valid_transport(part1,tr9).
valid_transport(part1,tr12).
valid_transport(part1,tr13).
valid_transport(part1,tr11).
part(part10).
partSize(part10,1).
valid_transport(part10,tr0).
valid_transport(part10,tr2).
valid_transport(part10,tr15).
valid_transport(part10,tr9).
valid_transport(part10,tr12).
valid_transport(part10,tr13).
valid_transport(part10,tr11).
part(part11).
partSize(part11,83).
valid_transport(part11,tr0).
valid_transport(part11,tr7).
valid_transport(part11,tr8).
valid_transport(part11,tr15).
valid_transport(part11,tr3).
valid_transport(part11,tr13).
part(part12).
partSize(part12,273).
valid_transport(part12,tr0).
valid_transport(part12,tr7).
valid_transport(part12,tr8).
valid_transport(part12,tr15).
valid_transport(part12,tr3).
valid_transport(part12,tr13).
part(part13).
partSize(part13,1).
valid_transport(part13,tr0).
valid_transport(part13,tr2).
valid_transport(part13,tr15).
valid_transport(part13,tr9).
valid_transport(part13,tr12).
valid_transport(part13,tr13).
valid_transport(part13,tr11).
part(part14).
partSize(part14,68).
valid_transport(part14,tr0).
valid_transport(part14,tr15).
valid_transport(part14,tr13).
part(part15).
partSize(part15,4).
valid_transport(part15,tr0).
valid_transport(part15,tr2).
valid_transport(part15,tr15).
valid_transport(part15,tr9).
valid_transport(part15,tr12).
valid_transport(part15,tr13).
valid_transport(part15,tr11).
part(part16).
partSize(part16,4).
valid_transport(part16,tr0).
valid_transport(part16,tr2).
valid_transport(part16,tr15).
valid_transport(part16,tr9).
valid_transport(part16,tr12).
valid_transport(part16,tr13).
valid_transport(part16,tr11).
part(part17).
partSize(part17,8).
valid_transport(part17,tr0).
valid_transport(part17,tr15).
valid_transport(part17,tr14).
valid_transport(part17,tr13).
valid_transport(part17,tr4).
part(part18).
partSize(part18,24).
valid_transport(part18,tr0).
valid_transport(part18,tr15).
valid_transport(part18,tr14).
valid_transport(part18,tr13).
valid_transport(part18,tr4).
part(part19).
partSize(part19,6).
valid_transport(part19,tr0).
valid_transport(part19,tr2).
valid_transport(part19,tr15).
valid_transport(part19,tr9).
valid_transport(part19,tr12).
valid_transport(part19,tr13).
valid_transport(part19,tr11).
part(part2).
partSize(part2,19).
valid_transport(part2,tr0).
valid_transport(part2,tr15).
valid_transport(part2,tr14).
valid_transport(part2,tr13).
valid_transport(part2,tr4).
part(part20).
partSize(part20,128).
valid_transport(part20,tr0).
valid_transport(part20,tr7).
valid_transport(part20,tr8).
valid_transport(part20,tr15).
valid_transport(part20,tr3).
valid_transport(part20,tr13).
part(part21).
partSize(part21,25).
valid_transport(part21,tr0).
valid_transport(part21,tr15).
valid_transport(part21,tr14).
valid_transport(part21,tr13).
valid_transport(part21,tr4).
part(part22).
partSize(part22,7).
valid_transport(part22,tr0).
valid_transport(part22,tr2).
valid_transport(part22,tr15).
valid_transport(part22,tr9).
valid_transport(part22,tr12).
valid_transport(part22,tr13).
valid_transport(part22,tr11).
part(part23).
partSize(part23,5).
valid_transport(part23,tr0).
valid_transport(part23,tr15).
valid_transport(part23,tr14).
valid_transport(part23,tr13).
valid_transport(part23,tr4).
part(part24).
partSize(part24,55).
valid_transport(part24,tr0).
valid_transport(part24,tr7).
valid_transport(part24,tr8).
valid_transport(part24,tr15).
valid_transport(part24,tr3).
valid_transport(part24,tr13).
part(part25).
partSize(part25,5).
valid_transport(part25,tr0).
valid_transport(part25,tr4).
valid_transport(part25,tr2).
valid_transport(part25,tr15).
valid_transport(part25,tr13).
part(part26).
partSize(part26,32).
valid_transport(part26,tr0).
valid_transport(part26,tr7).
valid_transport(part26,tr8).
valid_transport(part26,tr15).
valid_transport(part26,tr3).
valid_transport(part26,tr13).
part(part27).
partSize(part27,5).
valid_transport(part27,tr0).
valid_transport(part27,tr2).
valid_transport(part27,tr15).
valid_transport(part27,tr9).
valid_transport(part27,tr12).
valid_transport(part27,tr13).
valid_transport(part27,tr11).
part(part28).
partSize(part28,3).
valid_transport(part28,tr0).
valid_transport(part28,tr4).
valid_transport(part28,tr2).
valid_transport(part28,tr15).
valid_transport(part28,tr14).
valid_transport(part28,tr13).
part(part29).
partSize(part29,627).
part(part3).
partSize(part3,48).
valid_transport(part3,tr0).
valid_transport(part3,tr7).
valid_transport(part3,tr8).
valid_transport(part3,tr15).
valid_transport(part3,tr3).
valid_transport(part3,tr13).
part(part30).
partSize(part30,2).
valid_transport(part30,tr0).
valid_transport(part30,tr2).
valid_transport(part30,tr15).
valid_transport(part30,tr9).
valid_transport(part30,tr12).
valid_transport(part30,tr13).
valid_transport(part30,tr11).
part(part31).
partSize(part31,144).
valid_transport(part31,tr0).
valid_transport(part31,tr7).
valid_transport(part31,tr8).
valid_transport(part31,tr15).
valid_transport(part31,tr3).
valid_transport(part31,tr13).
part(part32).
partSize(part32,16).
valid_transport(part32,tr0).
valid_transport(part32,tr4).
valid_transport(part32,tr2).
valid_transport(part32,tr15).
valid_transport(part32,tr14).
valid_transport(part32,tr13).
part(part33).
partSize(part33,7).
valid_transport(part33,tr0).
valid_transport(part33,tr2).
valid_transport(part33,tr15).
valid_transport(part33,tr9).
valid_transport(part33,tr12).
valid_transport(part33,tr13).
valid_transport(part33,tr11).
part(part3345).
partSize(part3345,353).
valid_transport(part3345,tr0).
valid_transport(part3345,tr7).
valid_transport(part3345,tr8).
valid_transport(part3345,tr15).
valid_transport(part3345,tr3).
valid_transport(part3345,tr13).
part(part34).
partSize(part34,2).
valid_transport(part34,tr0).
valid_transport(part34,tr2).
valid_transport(part34,tr15).
valid_transport(part34,tr9).
valid_transport(part34,tr12).
valid_transport(part34,tr13).
valid_transport(part34,tr11).
part(part4).
partSize(part4,2).
valid_transport(part4,tr0).
valid_transport(part4,tr2).
valid_transport(part4,tr15).
valid_transport(part4,tr9).
valid_transport(part4,tr12).
valid_transport(part4,tr13).
valid_transport(part4,tr11).
part(part5).
partSize(part5,2).
valid_transport(part5,tr0).
valid_transport(part5,tr2).
valid_transport(part5,tr15).
valid_transport(part5,tr9).
valid_transport(part5,tr12).
valid_transport(part5,tr14).
valid_transport(part5,tr13).
valid_transport(part5,tr11).
part(part6).
partSize(part6,111).
valid_transport(part6,tr0).
valid_transport(part6,tr7).
valid_transport(part6,tr8).
valid_transport(part6,tr15).
valid_transport(part6,tr3).
valid_transport(part6,tr13).
part(part8).
partSize(part8,163).
valid_transport(part8,tr0).
valid_transport(part8,tr7).
valid_transport(part8,tr8).
valid_transport(part8,tr15).
valid_transport(part8,tr3).
valid_transport(part8,tr13).
part(part9).
partSize(part9,2).
valid_transport(part9,tr0).
valid_transport(part9,tr2).
valid_transport(part9,tr15).
valid_transport(part9,tr9).
valid_transport(part9,tr12).
valid_transport(part9,tr13).
valid_transport(part9,tr11).

% ---- demand ----
demandOffer(part0,prodloc3,40).
demandOffer(part0,prodloc9,40).
demandOffer(part0,prodloc8,-27).
demandOffer(part0,prodloc2,-53).
demandOffer(part1,prodloc5,20).
demandOffer(part1,prodloc9,20).
demandOffer(part1,prodloc7,-20).
demandOffer(part1,prodloc10,-20).
demandOffer(part10,prodloc9,20).
demandOffer(part10,prodloc1,20).
demandOffer(part10,prodloc14,-20).
demandOffer(part10,prodloc0,-20).
demandOffer(part12,prodloc14,10).
demandOffer(part12,prodloc13,20).
demandOffer(part12,prodloc7,-10).
demandOffer(part12,prodloc4,-10).
demandOffer(part12,prodloc8,-10).
demandOffer(part13,prodloc3,20).
demandOffer(part13,prodloc14,20).
demandOffer(part13,prodloc11,-20).
demandOffer(part13,prodloc7,-20).
demandOffer(part14,prodloc8,26).
demandOffer(part14,prodloc13,-26).
demandOffer(part15,prodloc8,53).
demandOffer(part15,prodloc7,27).
demandOffer(part15,prodloc6,-53).
demandOffer(part15,prodloc10,-27).
demandOffer(part16,prodloc13,53).
demandOffer(part16,prodloc2,27).
demandOffer(part16,prodloc3,-53).
demandOffer(part16,prodloc10,-27).
demandOffer(part17,prodloc2,20).
demandOffer(part17,prodloc13,-20).
demandOffer(part18,prodloc14,40).
demandOffer(part18,prodloc8,40).
demandOffer(part18,prodloc6,-27).
demandOffer(part18,prodloc11,-53).
demandOffer(part19,prodloc0,26).
demandOffer(part19,prodloc10,-26).
demandOffer(part2,prodloc12,40).
demandOffer(part2,prodloc1,40).
demandOffer(part2,prodloc2,-27).
demandOffer(part2,prodloc9,-53).
demandOffer(part20,prodloc0,53).
demandOffer(part20,prodloc4,27).
demandOffer(part20,prodloc12,-14).
demandOffer(part20,prodloc14,-46).
demandOffer(part20,prodloc13,-20).
demandOffer(part21,prodloc7,26).
demandOffer(part21,prodloc9,-26).
demandOffer(part22,prodloc11,53).
demandOffer(part22,prodloc6,27).
demandOffer(part22,prodloc14,-53).
demandOffer(part22,prodloc13,-27).
demandOffer(part23,prodloc6,20).
demandOffer(part23,prodloc11,20).
demandOffer(part23,prodloc12,-20).
demandOffer(part23,prodloc9,-20).
demandOffer(part25,prodloc7,20).
demandOffer(part25,prodloc2,-20).
demandOffer(part26,prodloc14,20).
demandOffer(part26,prodloc5,20).
demandOffer(part26,prodloc1,-14).
demandOffer(part26,prodloc0,-26).
demandOffer(part27,prodloc2,53).
demandOffer(part27,prodloc7,27).
demandOffer(part27,prodloc3,-53).
demandOffer(part27,prodloc4,-27).
demandOffer(part28,prodloc10,20).
demandOffer(part28,prodloc6,20).
demandOffer(part28,prodloc12,-20).
demandOffer(part28,prodloc14,-20).
demandOffer(part3,prodloc13,40).
demandOffer(part3,prodloc4,-14).
demandOffer(part3,prodloc6,-26).
demandOffer(part30,prodloc8,40).
demandOffer(part30,prodloc13,40).
demandOffer(part30,prodloc6,-27).
demandOffer(part30,prodloc9,-53).
demandOffer(part31,prodloc5,7).
demandOffer(part31,prodloc8,7).
demandOffer(part31,prodloc9,-14).
demandOffer(part32,prodloc6,53).
demandOffer(part32,prodloc9,27).
demandOffer(part32,prodloc3,-53).
demandOffer(part32,prodloc5,-27).
demandOffer(part33,prodloc10,53).
demandOffer(part33,prodloc0,27).
demandOffer(part33,prodloc4,-53).
demandOffer(part33,prodloc9,-27).
demandOffer(part34,prodloc10,20).
demandOffer(part34,prodloc11,-20).
demandOffer(part4,prodloc2,26).
demandOffer(part4,prodloc11,-26).
demandOffer(part5,prodloc13,20).
demandOffer(part5,prodloc5,-20).
demandOffer(part6,prodloc8,27).
demandOffer(part6,prodloc9,53).
demandOffer(part6,prodloc13,-24).
demandOffer(part6,prodloc1,-36).
demandOffer(part6,prodloc10,-10).
demandOffer(part6,prodloc3,-10).
demandOffer(part8,prodloc10,3).
demandOffer(part8,prodloc13,17).
demandOffer(part8,prodloc9,-10).
demandOffer(part8,prodloc4,-10).
demandOffer(part9,prodloc4,20).
demandOffer(part9,prodloc1,-20).

% ---- network (ASP-generated) ----
route(harbor0,harbor1,tr13,2109,12654).
route(harbor0,harbor1,tr2,2109,6327).
route(harbor0,harbor2,tr13,15824,94944).
route(harbor0,harbor2,tr2,15824,47472).
route(harbor0,harbor3,tr13,28011,168066).
route(harbor0,harbor3,tr2,28011,84033).
route(harbor0,harbor4,tr13,20960,125760).
route(harbor0,harbor4,tr2,20960,62880).
route(harbor0,harbor5,tr13,15873,95238).
route(harbor0,harbor5,tr2,15873,47619).
route(harbor0,prodloc0,tr0,2902,75452).
route(harbor0,prodloc0,tr13,2902,17412).
route(harbor0,prodloc1,tr0,11276,293176).
route(harbor0,prodloc1,tr13,11276,67656).
route(harbor0,prodloc2,tr0,26235,682110).
route(harbor0,prodloc2,tr13,26235,157410).
route(harbor0,prodloc3,tr0,2184,56784).
route(harbor0,prodloc3,tr13,2184,13104).
route(harbor0,prodloc4,tr0,13452,349752).
route(harbor0,prodloc4,tr13,13452,80712).
route(harbor0,prodloc5,tr0,4942,128492).
route(harbor0,prodloc5,tr13,4942,29652).
route(harbor0,prodloc6,tr0,661,17186).
route(harbor0,prodloc6,tr13,661,3966).
route(harbor0,prodloc7,tr0,9632,250432).
route(harbor0,prodloc7,tr13,9632,57792).
route(harbor0,prodloc8,tr0,13998,363948).
route(harbor0,prodloc8,tr13,13998,83988).
route(harbor0,prodloc9,tr0,25193,655018).
route(harbor0,prodloc9,tr13,25193,151158).
route(harbor0,prodloc10,tr0,13607,353782).
route(harbor0,prodloc10,tr13,13607,81642).
route(harbor0,prodloc11,tr0,28600,743600).
route(harbor0,prodloc11,tr13,28600,171600).
route(harbor0,prodloc12,tr0,3898,101348).
route(harbor0,prodloc12,tr13,3898,23388).
route(harbor0,prodloc13,tr0,1450,37700).
route(harbor0,prodloc13,tr13,1450,8700).
route(harbor0,prodloc14,tr0,19826,515476).
route(harbor0,prodloc14,tr13,19826,118956).
route(harbor1,harbor0,tr13,20167,121002).
route(harbor1,harbor0,tr2,20167,60501).
route(harbor1,harbor2,tr13,24987,149922).
route(harbor1,harbor2,tr2,24987,74961).
route(harbor1,harbor3,tr13,1502,9012).
route(harbor1,harbor3,tr2,1502,4506).
route(harbor1,harbor4,tr13,12409,74454).
route(harbor1,harbor4,tr2,12409,37227).
route(harbor1,harbor5,tr13,23571,141426).
route(harbor1,harbor5,tr2,23571,70713).
route(harbor1,prodloc0,tr0,19216,499616).
route(harbor1,prodloc0,tr13,19216,115296).
route(harbor1,prodloc1,tr0,10846,281996).
route(harbor1,prodloc1,tr13,10846,65076).
route(harbor1,prodloc2,tr0,18052,469352).
route(harbor1,prodloc2,tr13,18052,108312).
route(harbor1,prodloc3,tr0,28867,750542).
route(harbor1,prodloc3,tr13,28867,173202).
route(harbor1,prodloc4,tr0,9146,237796).
route(harbor1,prodloc4,tr13,9146,54876).
route(harbor1,prodloc5,tr0,16563,430638).
route(harbor1,prodloc5,tr13,16563,99378).
route(harbor1,prodloc6,tr0,7733,201058).
route(harbor1,prodloc6,tr13,7733,46398).
route(harbor1,prodloc7,tr0,1182,30732).
route(harbor1,prodloc7,tr13,1182,7092).
route(harbor1,prodloc8,tr0,10149,263874).
route(harbor1,prodloc8,tr13,10149,60894).
route(harbor1,prodloc9,tr0,239,6214).
route(harbor1,prodloc9,tr13,239,1434).
route(harbor1,prodloc10,tr0,2524,65624).
route(harbor1,prodloc10,tr13,2524,15144).
route(harbor1,prodloc11,tr0,3544,92144).
route(harbor1,prodloc11,tr13,3544,21264).
route(harbor1,prodloc12,tr0,19655,511030).
route(harbor1,prodloc12,tr13,19655,117930).
route(harbor1,prodloc13,tr0,17551,456326).
route(harbor1,prodloc13,tr13,17551,105306).
route(harbor1,prodloc14,tr0,1030,26780).
route(harbor1,prodloc14,tr13,1030,6180).
route(harbor2,harbor0,tr13,6497,38982).
route(harbor2,harbor0,tr2,6497,19491).
route(harbor2,harbor1,tr13,13397,80382).
route(harbor2,harbor1,tr2,13397,40191).
route(harbor2,harbor3,tr13,9585,57510).
route(harbor2,harbor3,tr2,9585,28755).
route(harbor2,harbor4,tr13,20033,120198).
route(harbor2,harbor4,tr2,20033,60099).
route(harbor2,harbor5,tr13,8660,51960).
route(harbor2,harbor5,tr2,8660,25980).
route(harbor2,prodloc0,tr0,5120,133120).
route(harbor2,prodloc0,tr13,5120,30720).
route(harbor2,prodloc1,tr0,22603,587678).
route(harbor2,prodloc1,tr13,22603,135618).
route(harbor2,prodloc2,tr0,1392,36192).
route(harbor2,prodloc2,tr13,1392,8352).
route(harbor2,prodloc3,tr0,28437,739362).
route(harbor2,prodloc3,tr13,28437,170622).
route(harbor2,prodloc4,tr0,11137,289562).
route(harbor2,prodloc4,tr13,11137,66822).
route(harbor2,prodloc5,tr0,10285,267410).
route(harbor2,prodloc5,tr13,10285,61710).
route(harbor2,prodloc6,tr0,11804,306904).
route(harbor2,prodloc6,tr13,11804,70824).
route(harbor2,prodloc7,tr0,4534,117884).
route(harbor2,prodloc7,tr13,4534,27204).
route(harbor2,prodloc8,tr0,28238,734188).
route(harbor2,prodloc8,tr13,28238,169428).
route(harbor2,prodloc9,tr0,12381,321906).
route(harbor2,prodloc9,tr13,12381,74286).
route(harbor2,prodloc10,tr0,12347,321022).
route(harbor2,prodloc10,tr13,12347,74082).
route(harbor2,prodloc11,tr0,15088,392288).
route(harbor2,prodloc11,tr13,15088,90528).
route(harbor2,prodloc12,tr0,28506,741156).
route(harbor2,prodloc12,tr13,28506,171036).
route(harbor2,prodloc13,tr0,17043,443118).
route(harbor2,prodloc13,tr13,17043,102258).
route(harbor2,prodloc14,tr0,12656,329056).
route(harbor2,prodloc14,tr13,12656,75936).
route(harbor3,harbor0,tr13,21128,126768).
route(harbor3,harbor0,tr2,21128,63384).
route(harbor3,harbor1,tr13,28434,170604).
route(harbor3,harbor1,tr2,28434,85302).
route(harbor3,harbor2,tr13,19548,117288).
route(harbor3,harbor2,tr2,19548,58644).
route(harbor3,harbor4,tr13,22344,134064).
route(harbor3,harbor4,tr2,22344,67032).
route(harbor3,harbor5,tr13,18355,110130).
route(harbor3,harbor5,tr2,18355,55065).
route(harbor3,prodloc0,tr0,3363,87438).
route(harbor3,prodloc0,tr13,3363,20178).
route(harbor3,prodloc1,tr0,20322,528372).
route(harbor3,prodloc1,tr13,20322,121932).
route(harbor3,prodloc2,tr0,26593,691418).
route(harbor3,prodloc2,tr13,26593,159558).
route(harbor3,prodloc3,tr0,16616,432016).
route(harbor3,prodloc3,tr13,16616,99696).
route(harbor3,prodloc4,tr0,8891,231166).
route(harbor3,prodloc4,tr13,8891,53346).
route(harbor3,prodloc5,tr0,14131,367406).
route(harbor3,prodloc5,tr13,14131,84786).
route(harbor3,prodloc6,tr0,20786,540436).
route(harbor3,prodloc6,tr13,20786,124716).
route(harbor3,prodloc7,tr0,23605,613730).
route(harbor3,prodloc7,tr13,23605,141630).
route(harbor3,prodloc8,tr0,23451,609726).
route(harbor3,prodloc8,tr13,23451,140706).
route(harbor3,prodloc9,tr0,7788,202488).
route(harbor3,prodloc9,tr13,7788,46728).
route(harbor3,prodloc10,tr0,9868,256568).
route(harbor3,prodloc10,tr13,9868,59208).
route(harbor3,prodloc11,tr0,14336,372736).
route(harbor3,prodloc11,tr13,14336,86016).
route(harbor3,prodloc12,tr0,8463,220038).
route(harbor3,prodloc12,tr13,8463,50778).
route(harbor3,prodloc13,tr0,17078,444028).
route(harbor3,prodloc13,tr13,17078,102468).
route(harbor3,prodloc14,tr0,9930,258180).
route(harbor3,prodloc14,tr13,9930,59580).
route(harbor4,harbor0,tr13,18000,108000).
route(harbor4,harbor0,tr2,18000,54000).
route(harbor4,harbor1,tr13,11135,66810).
route(harbor4,harbor1,tr2,11135,33405).
route(harbor4,harbor2,tr13,405,2430).
route(harbor4,harbor2,tr2,405,1215).
route(harbor4,harbor3,tr13,25864,155184).
route(harbor4,harbor3,tr2,25864,77592).
route(harbor4,harbor5,tr13,13635,81810).
route(harbor4,harbor5,tr2,13635,40905).
route(harbor4,prodloc0,tr0,19006,494156).
route(harbor4,prodloc0,tr13,19006,114036).
route(harbor4,prodloc1,tr0,10319,268294).
route(harbor4,prodloc1,tr13,10319,61914).
route(harbor4,prodloc2,tr0,659,17134).
route(harbor4,prodloc2,tr13,659,3954).
route(harbor4,prodloc3,tr0,12339,320814).
route(harbor4,prodloc3,tr13,12339,74034).
route(harbor4,prodloc4,tr0,20180,524680).
route(harbor4,prodloc4,tr13,20180,121080).
route(harbor4,prodloc5,tr0,19309,502034).
route(harbor4,prodloc5,tr13,19309,115854).
route(harbor4,prodloc6,tr0,20717,538642).
route(harbor4,prodloc6,tr13,20717,124302).
route(harbor4,prodloc7,tr0,4368,113568).
route(harbor4,prodloc7,tr13,4368,26208).
route(harbor4,prodloc8,tr0,1970,51220).
route(harbor4,prodloc8,tr13,1970,11820).
route(harbor4,prodloc9,tr0,20761,539786).
route(harbor4,prodloc9,tr13,20761,124566).
route(harbor4,prodloc10,tr0,20558,534508).
route(harbor4,prodloc10,tr13,20558,123348).
route(harbor4,prodloc11,tr0,10895,283270).
route(harbor4,prodloc11,tr13,10895,65370).
route(harbor4,prodloc12,tr0,15280,397280).
route(harbor4,prodloc12,tr13,15280,91680).
route(harbor4,prodloc13,tr0,11566,300716).
route(harbor4,prodloc13,tr13,11566,69396).
route(harbor4,prodloc14,tr0,22260,578760).
route(harbor4,prodloc14,tr13,22260,133560).
route(harbor5,harbor0,tr13,11583,69498).
route(harbor5,harbor0,tr2,11583,34749).
route(harbor5,harbor1,tr13,19981,119886).
route(harbor5,harbor1,tr2,19981,59943).
route(harbor5,harbor2,tr13,23195,139170).
route(harbor5,harbor2,tr2,23195,69585).
route(harbor5,harbor3,tr13,9169,55014).
route(harbor5,harbor3,tr2,9169,27507).
route(harbor5,harbor4,tr13,24213,145278).
route(harbor5,harbor4,tr2,24213,72639).
route(harbor5,prodloc0,tr0,16042,417092).
route(harbor5,prodloc0,tr13,16042,96252).
route(harbor5,prodloc1,tr0,728,18928).
route(harbor5,prodloc1,tr13,728,4368).
route(harbor5,prodloc2,tr0,19314,502164).
route(harbor5,prodloc2,tr13,19314,115884).
route(harbor5,prodloc3,tr0,1986,51636).
route(harbor5,prodloc3,tr13,1986,11916).
route(harbor5,prodloc4,tr0,22153,575978).
route(harbor5,prodloc4,tr13,22153,132918).
route(harbor5,prodloc5,tr0,698,18148).
route(harbor5,prodloc5,tr13,698,4188).
route(harbor5,prodloc6,tr0,12098,314548).
route(harbor5,prodloc6,tr13,12098,72588).
route(harbor5,prodloc7,tr0,8230,213980).
route(harbor5,prodloc7,tr13,8230,49380).
route(harbor5,prodloc8,tr0,20579,535054).
route(harbor5,prodloc8,tr13,20579,123474).
route(harbor5,prodloc9,tr0,14954,388804).
route(harbor5,prodloc9,tr13,14954,89724).
route(harbor5,prodloc10,tr0,9787,254462).
route(harbor5,prodloc10,tr13,9787,58722).
route(harbor5,prodloc11,tr0,19422,504972).
route(harbor5,prodloc11,tr13,19422,116532).
route(harbor5,prodloc12,tr0,19710,512460).
route(harbor5,prodloc12,tr13,19710,118260).
route(harbor5,prodloc13,tr0,10488,272688).
route(harbor5,prodloc13,tr13,10488,62928).
route(harbor5,prodloc14,tr0,5815,151190).
route(harbor5,prodloc14,tr13,5815,34890).
route(prodloc0,harbor0,tr0,11928,310128).
route(prodloc0,harbor0,tr13,11928,71568).
route(prodloc0,harbor1,tr0,6072,157872).
route(prodloc0,harbor1,tr13,6072,36432).
route(prodloc0,harbor2,tr0,10247,266422).
route(prodloc0,harbor2,tr13,10247,61482).
route(prodloc0,harbor3,tr0,24843,645918).
route(prodloc0,harbor3,tr13,24843,149058).
route(prodloc0,harbor4,tr0,12098,314548).
route(prodloc0,harbor4,tr13,12098,72588).
route(prodloc0,harbor5,tr0,27652,718952).
route(prodloc0,harbor5,tr13,27652,165912).
route(prodloc0,prodloc1,tr0,19519,507494).
route(prodloc0,prodloc1,tr13,19519,117114).
route(prodloc0,prodloc2,tr0,8657,225082).
route(prodloc0,prodloc2,tr13,8657,51942).
route(prodloc0,prodloc3,tr0,9845,255970).
route(prodloc0,prodloc3,tr13,9845,59070).
route(prodloc0,prodloc4,tr0,25800,670800).
route(prodloc0,prodloc4,tr13,25800,154800).
route(prodloc0,prodloc5,tr0,12360,321360).
route(prodloc0,prodloc5,tr13,12360,74160).
route(prodloc0,prodloc6,tr0,3438,89388).
route(prodloc0,prodloc6,tr13,3438,20628).
route(prodloc0,prodloc7,tr0,25307,657982).
route(prodloc0,prodloc7,tr13,25307,151842).
route(prodloc0,prodloc8,tr0,26644,692744).
route(prodloc0,prodloc8,tr13,26644,159864).
route(prodloc0,prodloc9,tr13,884,5304).
route(prodloc0,prodloc9,tr15,884,28288).
route(prodloc0,prodloc10,tr0,18655,485030).
route(prodloc0,prodloc10,tr13,18655,111930).
route(prodloc0,prodloc11,tr0,22406,582556).
route(prodloc0,prodloc11,tr13,22406,134436).
route(prodloc0,prodloc12,tr0,24092,626392).
route(prodloc0,prodloc12,tr15,24092,770944).
route(prodloc0,prodloc13,tr0,4308,112008).
route(prodloc0,prodloc13,tr13,4308,25848).
route(prodloc0,prodloc14,tr0,10160,264160).
route(prodloc0,prodloc14,tr13,10160,60960).
route(prodloc1,harbor0,tr0,16386,426036).
route(prodloc1,harbor0,tr13,16386,98316).
route(prodloc1,harbor1,tr0,7294,189644).
route(prodloc1,harbor1,tr13,7294,43764).
route(prodloc1,harbor2,tr0,21423,556998).
route(prodloc1,harbor2,tr13,21423,128538).
route(prodloc1,harbor3,tr0,26341,684866).
route(prodloc1,harbor3,tr13,26341,158046).
route(prodloc1,harbor4,tr0,8828,229528).
route(prodloc1,harbor4,tr13,8828,52968).
route(prodloc1,harbor5,tr0,7823,203398).
route(prodloc1,harbor5,tr13,7823,46938).
route(prodloc1,prodloc0,tr0,10742,279292).
route(prodloc1,prodloc0,tr13,10742,64452).
route(prodloc1,prodloc2,tr0,6142,159692).
route(prodloc1,prodloc2,tr15,6142,196544).
route(prodloc1,prodloc3,tr0,22220,577720).
route(prodloc1,prodloc3,tr13,22220,133320).
route(prodloc1,prodloc4,tr0,14263,370838).
route(prodloc1,prodloc4,tr13,14263,85578).
route(prodloc1,prodloc5,tr0,21286,553436).
route(prodloc1,prodloc5,tr13,21286,127716).
route(prodloc1,prodloc6,tr0,22876,594776).
route(prodloc1,prodloc6,tr13,22876,137256).
route(prodloc1,prodloc7,tr0,3181,82706).
route(prodloc1,prodloc7,tr13,3181,19086).
route(prodloc1,prodloc8,tr0,3339,86814).
route(prodloc1,prodloc8,tr13,3339,20034).
route(prodloc1,prodloc9,tr13,19686,118116).
route(prodloc1,prodloc9,tr15,19686,629952).
route(prodloc1,prodloc10,tr0,10552,274352).
route(prodloc1,prodloc10,tr13,10552,63312).
route(prodloc1,prodloc11,tr0,10938,284388).
route(prodloc1,prodloc11,tr13,10938,65628).
route(prodloc1,prodloc12,tr0,22118,575068).
route(prodloc1,prodloc12,tr13,22118,132708).
route(prodloc1,prodloc13,tr0,27315,710190).
route(prodloc1,prodloc13,tr13,27315,163890).
route(prodloc1,prodloc14,tr13,7357,44142).
route(prodloc1,prodloc14,tr15,7357,235424).
route(prodloc2,harbor0,tr0,14368,373568).
route(prodloc2,harbor0,tr13,14368,86208).
route(prodloc2,harbor1,tr0,26536,689936).
route(prodloc2,harbor1,tr13,26536,159216).
route(prodloc2,harbor2,tr0,28036,728936).
route(prodloc2,harbor2,tr13,28036,168216).
route(prodloc2,harbor3,tr0,5549,144274).
route(prodloc2,harbor3,tr13,5549,33294).
route(prodloc2,harbor4,tr0,2621,68146).
route(prodloc2,harbor4,tr13,2621,15726).
route(prodloc2,harbor5,tr0,11035,286910).
route(prodloc2,harbor5,tr13,11035,66210).
route(prodloc2,prodloc0,tr0,24318,632268).
route(prodloc2,prodloc0,tr13,24318,145908).
route(prodloc2,prodloc1,tr0,21308,554008).
route(prodloc2,prodloc1,tr13,21308,127848).
route(prodloc2,prodloc3,tr0,7146,185796).
route(prodloc2,prodloc3,tr13,7146,42876).
route(prodloc2,prodloc4,tr13,18627,111762).
route(prodloc2,prodloc4,tr15,18627,596064).
route(prodloc2,prodloc5,tr0,14783,384358).
route(prodloc2,prodloc5,tr13,14783,88698).
route(prodloc2,prodloc6,tr0,8869,230594).
route(prodloc2,prodloc6,tr13,8869,53214).
route(prodloc2,prodloc7,tr0,7375,191750).
route(prodloc2,prodloc7,tr13,7375,44250).
route(prodloc2,prodloc8,tr0,25790,670540).
route(prodloc2,prodloc8,tr13,25790,154740).
route(prodloc2,prodloc9,tr0,3964,103064).
route(prodloc2,prodloc9,tr13,3964,23784).
route(prodloc2,prodloc10,tr0,1113,28938).
route(prodloc2,prodloc10,tr13,1113,6678).
route(prodloc2,prodloc11,tr0,17356,451256).
route(prodloc2,prodloc11,tr13,17356,104136).
route(prodloc2,prodloc12,tr0,6254,162604).
route(prodloc2,prodloc12,tr13,6254,37524).
route(prodloc2,prodloc13,tr0,10328,268528).
route(prodloc2,prodloc13,tr15,10328,330496).
route(prodloc2,prodloc14,tr0,26438,687388).
route(prodloc2,prodloc14,tr13,26438,158628).
route(prodloc3,harbor0,tr0,27402,712452).
route(prodloc3,harbor0,tr13,27402,164412).
route(prodloc3,harbor1,tr0,27477,714402).
route(prodloc3,harbor1,tr13,27477,164862).
route(prodloc3,harbor2,tr0,18838,489788).
route(prodloc3,harbor2,tr13,18838,113028).
route(prodloc3,harbor3,tr0,6017,156442).
route(prodloc3,harbor3,tr13,6017,36102).
route(prodloc3,harbor4,tr0,28304,735904).
route(prodloc3,harbor4,tr13,28304,169824).
route(prodloc3,harbor5,tr0,9130,237380).
route(prodloc3,harbor5,tr13,9130,54780).
route(prodloc3,prodloc0,tr0,11146,289796).
route(prodloc3,prodloc0,tr13,11146,66876).
route(prodloc3,prodloc1,tr0,26453,687778).
route(prodloc3,prodloc1,tr13,26453,158718).
route(prodloc3,prodloc2,tr0,27132,705432).
route(prodloc3,prodloc2,tr15,27132,868224).
route(prodloc3,prodloc4,tr0,21037,546962).
route(prodloc3,prodloc4,tr13,21037,126222).
route(prodloc3,prodloc5,tr0,2804,72904).
route(prodloc3,prodloc5,tr13,2804,16824).
route(prodloc3,prodloc6,tr0,26421,686946).
route(prodloc3,prodloc6,tr13,26421,158526).
route(prodloc3,prodloc7,tr0,20296,527696).
route(prodloc3,prodloc7,tr13,20296,121776).
route(prodloc3,prodloc8,tr0,11316,294216).
route(prodloc3,prodloc8,tr13,11316,67896).
route(prodloc3,prodloc9,tr0,19318,502268).
route(prodloc3,prodloc9,tr13,19318,115908).
route(prodloc3,prodloc10,tr0,4251,110526).
route(prodloc3,prodloc10,tr13,4251,25506).
route(prodloc3,prodloc11,tr13,13806,82836).
route(prodloc3,prodloc11,tr15,13806,441792).
route(prodloc3,prodloc12,tr0,9568,248768).
route(prodloc3,prodloc12,tr13,9568,57408).
route(prodloc3,prodloc13,tr0,16988,441688).
route(prodloc3,prodloc13,tr13,16988,101928).
route(prodloc3,prodloc14,tr0,26015,676390).
route(prodloc3,prodloc14,tr13,26015,156090).
route(prodloc4,harbor0,tr0,27853,724178).
route(prodloc4,harbor0,tr13,27853,167118).
route(prodloc4,harbor1,tr0,8887,231062).
route(prodloc4,harbor1,tr13,8887,53322).
route(prodloc4,harbor2,tr0,15229,395954).
route(prodloc4,harbor2,tr13,15229,91374).
route(prodloc4,harbor3,tr0,11351,295126).
route(prodloc4,harbor3,tr13,11351,68106).
route(prodloc4,harbor4,tr0,20782,540332).
route(prodloc4,harbor4,tr13,20782,124692).
route(prodloc4,harbor5,tr0,13663,355238).
route(prodloc4,harbor5,tr13,13663,81978).
route(prodloc4,prodloc0,tr0,9517,247442).
route(prodloc4,prodloc0,tr13,9517,57102).
route(prodloc4,prodloc1,tr0,13757,357682).
route(prodloc4,prodloc1,tr13,13757,82542).
route(prodloc4,prodloc2,tr0,18625,484250).
route(prodloc4,prodloc2,tr13,18625,111750).
route(prodloc4,prodloc3,tr0,13421,348946).
route(prodloc4,prodloc3,tr13,13421,80526).
route(prodloc4,prodloc5,tr0,1166,30316).
route(prodloc4,prodloc5,tr13,1166,6996).
route(prodloc4,prodloc6,tr0,13543,352118).
route(prodloc4,prodloc6,tr13,13543,81258).
route(prodloc4,prodloc7,tr0,5113,132938).
route(prodloc4,prodloc7,tr13,5113,30678).
route(prodloc4,prodloc8,tr0,6541,170066).
route(prodloc4,prodloc8,tr13,6541,39246).
route(prodloc4,prodloc9,tr0,154,4004).
route(prodloc4,prodloc9,tr13,154,924).
route(prodloc4,prodloc10,tr0,15643,406718).
route(prodloc4,prodloc10,tr13,15643,93858).
route(prodloc4,prodloc11,tr0,27282,709332).
route(prodloc4,prodloc11,tr13,27282,163692).
route(prodloc4,prodloc12,tr13,28837,173022).
route(prodloc4,prodloc12,tr15,28837,922784).
route(prodloc4,prodloc13,tr0,20405,530530).
route(prodloc4,prodloc13,tr13,20405,122430).
route(prodloc4,prodloc14,tr0,16718,434668).
route(prodloc4,prodloc14,tr13,16718,100308).
route(prodloc5,harbor0,tr0,14234,370084).
route(prodloc5,harbor0,tr13,14234,85404).
route(prodloc5,harbor1,tr0,18315,476190).
route(prodloc5,harbor1,tr13,18315,109890).
route(prodloc5,harbor2,tr0,23505,611130).
route(prodloc5,harbor2,tr13,23505,141030).
route(prodloc5,harbor3,tr0,7279,189254).
route(prodloc5,harbor3,tr13,7279,43674).
route(prodloc5,harbor4,tr0,1061,27586).
route(prodloc5,harbor4,tr13,1061,6366).
route(prodloc5,harbor5,tr0,24431,635206).
route(prodloc5,harbor5,tr13,24431,146586).
route(prodloc5,prodloc0,tr0,14966,389116).
route(prodloc5,prodloc0,tr13,14966,89796).
route(prodloc5,prodloc1,tr13,27418,164508).
route(prodloc5,prodloc1,tr15,27418,877376).
route(prodloc5,prodloc2,tr0,24688,641888).
route(prodloc5,prodloc2,tr13,24688,148128).
route(prodloc5,prodloc3,tr0,21726,564876).
route(prodloc5,prodloc3,tr13,21726,130356).
route(prodloc5,prodloc4,tr0,24512,637312).
route(prodloc5,prodloc4,tr13,24512,147072).
route(prodloc5,prodloc6,tr0,17009,442234).
route(prodloc5,prodloc6,tr13,17009,102054).
route(prodloc5,prodloc7,tr0,9473,246298).
route(prodloc5,prodloc7,tr13,9473,56838).
route(prodloc5,prodloc8,tr0,17823,463398).
route(prodloc5,prodloc8,tr13,17823,106938).
route(prodloc5,prodloc9,tr0,11178,290628).
route(prodloc5,prodloc9,tr13,11178,67068).
route(prodloc5,prodloc10,tr0,7455,193830).
route(prodloc5,prodloc10,tr13,7455,44730).
route(prodloc5,prodloc11,tr0,28232,734032).
route(prodloc5,prodloc11,tr13,28232,169392).
route(prodloc5,prodloc12,tr0,2232,58032).
route(prodloc5,prodloc12,tr13,2232,13392).
route(prodloc5,prodloc13,tr0,28116,731016).
route(prodloc5,prodloc13,tr13,28116,168696).
route(prodloc5,prodloc14,tr0,19291,501566).
route(prodloc5,prodloc14,tr13,19291,115746).
route(prodloc6,harbor0,tr0,9406,244556).
route(prodloc6,harbor0,tr13,9406,56436).
route(prodloc6,harbor1,tr0,3934,102284).
route(prodloc6,harbor1,tr13,3934,23604).
route(prodloc6,harbor2,tr0,26550,690300).
route(prodloc6,harbor2,tr13,26550,159300).
route(prodloc6,harbor3,tr0,8014,208364).
route(prodloc6,harbor3,tr13,8014,48084).
route(prodloc6,harbor4,tr0,1479,38454).
route(prodloc6,harbor4,tr13,1479,8874).
route(prodloc6,harbor5,tr0,1153,29978).
route(prodloc6,harbor5,tr13,1153,6918).
route(prodloc6,prodloc0,tr0,26313,684138).
route(prodloc6,prodloc0,tr13,26313,157878).
route(prodloc6,prodloc1,tr0,22733,591058).
route(prodloc6,prodloc1,tr13,22733,136398).
route(prodloc6,prodloc2,tr0,16788,436488).
route(prodloc6,prodloc2,tr13,16788,100728).
route(prodloc6,prodloc3,tr0,6505,169130).
route(prodloc6,prodloc3,tr13,6505,39030).
route(prodloc6,prodloc4,tr0,14088,366288).
route(prodloc6,prodloc4,tr13,14088,84528).
route(prodloc6,prodloc5,tr0,18907,491582).
route(prodloc6,prodloc5,tr15,18907,605024).
route(prodloc6,prodloc7,tr0,1619,42094).
route(prodloc6,prodloc7,tr13,1619,9714).
route(prodloc6,prodloc8,tr0,432,11232).
route(prodloc6,prodloc8,tr13,432,2592).
route(prodloc6,prodloc9,tr0,15764,409864).
route(prodloc6,prodloc9,tr15,15764,504448).
route(prodloc6,prodloc10,tr0,24423,634998).
route(prodloc6,prodloc10,tr13,24423,146538).
route(prodloc6,prodloc11,tr0,3960,102960).
route(prodloc6,prodloc11,tr13,3960,23760).
route(prodloc6,prodloc12,tr0,5632,146432).
route(prodloc6,prodloc12,tr15,5632,180224).
route(prodloc6,prodloc13,tr0,16490,428740).
route(prodloc6,prodloc13,tr13,16490,98940).
route(prodloc6,prodloc14,tr0,9828,255528).
route(prodloc6,prodloc14,tr13,9828,58968).
route(prodloc7,harbor0,tr0,7835,203710).
route(prodloc7,harbor0,tr13,7835,47010).
route(prodloc7,harbor1,tr0,21723,564798).
route(prodloc7,harbor1,tr13,21723,130338).
route(prodloc7,harbor2,tr0,652,16952).
route(prodloc7,harbor2,tr13,652,3912).
route(prodloc7,harbor3,tr0,17204,447304).
route(prodloc7,harbor3,tr13,17204,103224).
route(prodloc7,harbor4,tr0,17598,457548).
route(prodloc7,harbor4,tr13,17598,105588).
route(prodloc7,harbor5,tr0,13559,352534).
route(prodloc7,harbor5,tr13,13559,81354).
route(prodloc7,prodloc0,tr0,1746,45396).
route(prodloc7,prodloc0,tr13,1746,10476).
route(prodloc7,prodloc1,tr0,20061,521586).
route(prodloc7,prodloc1,tr13,20061,120366).
route(prodloc7,prodloc2,tr0,3724,96824).
route(prodloc7,prodloc2,tr13,3724,22344).
route(prodloc7,prodloc3,tr0,11187,290862).
route(prodloc7,prodloc3,tr13,11187,67122).
route(prodloc7,prodloc4,tr0,4111,106886).
route(prodloc7,prodloc4,tr15,4111,131552).
route(prodloc7,prodloc5,tr0,8275,215150).
route(prodloc7,prodloc5,tr13,8275,49650).
route(prodloc7,prodloc6,tr0,28237,734162).
route(prodloc7,prodloc6,tr13,28237,169422).
route(prodloc7,prodloc8,tr0,17728,460928).
route(prodloc7,prodloc8,tr13,17728,106368).
route(prodloc7,prodloc9,tr0,15638,406588).
route(prodloc7,prodloc9,tr13,15638,93828).
route(prodloc7,prodloc10,tr0,26594,691444).
route(prodloc7,prodloc10,tr13,26594,159564).
route(prodloc7,prodloc11,tr0,25637,666562).
route(prodloc7,prodloc11,tr13,25637,153822).
route(prodloc7,prodloc12,tr0,2012,52312).
route(prodloc7,prodloc12,tr13,2012,12072).
route(prodloc7,prodloc13,tr0,11531,299806).
route(prodloc7,prodloc13,tr13,11531,69186).
route(prodloc7,prodloc14,tr0,7237,188162).
route(prodloc7,prodloc14,tr13,7237,43422).
route(prodloc8,harbor0,tr0,6468,168168).
route(prodloc8,harbor0,tr13,6468,38808).
route(prodloc8,harbor1,tr0,4006,104156).
route(prodloc8,harbor1,tr13,4006,24036).
route(prodloc8,harbor2,tr0,17520,455520).
route(prodloc8,harbor2,tr13,17520,105120).
route(prodloc8,harbor3,tr0,26767,695942).
route(prodloc8,harbor3,tr13,26767,160602).
route(prodloc8,harbor4,tr0,3908,101608).
route(prodloc8,harbor4,tr13,3908,23448).
route(prodloc8,harbor5,tr0,5615,145990).
route(prodloc8,harbor5,tr13,5615,33690).
route(prodloc8,prodloc0,tr0,7848,204048).
route(prodloc8,prodloc0,tr13,7848,47088).
route(prodloc8,prodloc1,tr0,25943,674518).
route(prodloc8,prodloc1,tr13,25943,155658).
route(prodloc8,prodloc2,tr0,8972,233272).
route(prodloc8,prodloc2,tr13,8972,53832).
route(prodloc8,prodloc3,tr0,26414,686764).
route(prodloc8,prodloc3,tr13,26414,158484).
route(prodloc8,prodloc4,tr0,4212,109512).
route(prodloc8,prodloc4,tr13,4212,25272).
route(prodloc8,prodloc5,tr0,26986,701636).
route(prodloc8,prodloc5,tr13,26986,161916).
route(prodloc8,prodloc7,tr0,15976,415376).
route(prodloc8,prodloc7,tr13,15976,95856).
route(prodloc8,prodloc9,tr13,20600,123600).
route(prodloc8,prodloc9,tr15,20600,659200).
route(prodloc8,prodloc10,tr0,18709,486434).
route(prodloc8,prodloc10,tr13,18709,112254).
route(prodloc8,prodloc11,tr0,28266,734916).
route(prodloc8,prodloc11,tr13,28266,169596).
route(prodloc8,prodloc12,tr0,13118,341068).
route(prodloc8,prodloc12,tr13,13118,78708).
route(prodloc8,prodloc13,tr0,1638,42588).
route(prodloc8,prodloc13,tr13,1638,9828).
route(prodloc8,prodloc14,tr0,24790,644540).
route(prodloc8,prodloc14,tr13,24790,148740).
route(prodloc9,harbor0,tr0,8895,231270).
route(prodloc9,harbor0,tr13,8895,53370).
route(prodloc9,harbor1,tr0,8136,211536).
route(prodloc9,harbor1,tr13,8136,48816).
route(prodloc9,harbor2,tr0,8803,228878).
route(prodloc9,harbor2,tr13,8803,52818).
route(prodloc9,harbor3,tr0,20255,526630).
route(prodloc9,harbor3,tr13,20255,121530).
route(prodloc9,harbor4,tr0,17279,449254).
route(prodloc9,harbor4,tr13,17279,103674).
route(prodloc9,harbor5,tr0,17030,442780).
route(prodloc9,harbor5,tr13,17030,102180).
route(prodloc9,prodloc0,tr0,13862,360412).
route(prodloc9,prodloc0,tr13,13862,83172).
route(prodloc9,prodloc1,tr0,1672,43472).
route(prodloc9,prodloc1,tr15,1672,53504).
route(prodloc9,prodloc2,tr0,15497,402922).
route(prodloc9,prodloc2,tr13,15497,92982).
route(prodloc9,prodloc3,tr0,10589,275314).
route(prodloc9,prodloc3,tr13,10589,63534).
route(prodloc9,prodloc4,tr0,25446,661596).
route(prodloc9,prodloc4,tr13,25446,152676).
route(prodloc9,prodloc5,tr13,26856,161136).
route(prodloc9,prodloc5,tr15,26856,859392).
route(prodloc9,prodloc6,tr0,61,1586).
route(prodloc9,prodloc6,tr13,61,366).
route(prodloc9,prodloc7,tr0,28084,730184).
route(prodloc9,prodloc7,tr13,28084,168504).
route(prodloc9,prodloc8,tr0,1798,46748).
route(prodloc9,prodloc8,tr13,1798,10788).
route(prodloc9,prodloc10,tr0,25405,660530).
route(prodloc9,prodloc10,tr13,25405,152430).
route(prodloc9,prodloc11,tr0,4159,108134).
route(prodloc9,prodloc11,tr13,4159,24954).
route(prodloc9,prodloc12,tr0,1515,39390).
route(prodloc9,prodloc12,tr13,1515,9090).
route(prodloc9,prodloc13,tr0,4085,106210).
route(prodloc9,prodloc13,tr13,4085,24510).
route(prodloc9,prodloc14,tr13,1634,9804).
route(prodloc9,prodloc14,tr15,1634,52288).
route(prodloc10,harbor0,tr0,2243,58318).
route(prodloc10,harbor0,tr13,2243,13458).
route(prodloc10,harbor1,tr0,15822,411372).
route(prodloc10,harbor1,tr13,15822,94932).
route(prodloc10,harbor2,tr0,1083,28158).
route(prodloc10,harbor2,tr13,1083,6498).
route(prodloc10,harbor3,tr0,28000,728000).
route(prodloc10,harbor3,tr13,28000,168000).
route(prodloc10,harbor4,tr0,23356,607256).
route(prodloc10,harbor4,tr13,23356,140136).
route(prodloc10,harbor5,tr0,2824,73424).
route(prodloc10,harbor5,tr13,2824,16944).
route(prodloc10,prodloc0,tr0,16890,439140).
route(prodloc10,prodloc0,tr13,16890,101340).
route(prodloc10,prodloc1,tr0,16455,427830).
route(prodloc10,prodloc1,tr13,16455,98730).
route(prodloc10,prodloc2,tr0,16058,417508).
route(prodloc10,prodloc2,tr13,16058,96348).
route(prodloc10,prodloc3,tr0,10353,269178).
route(prodloc10,prodloc3,tr13,10353,62118).
route(prodloc10,prodloc4,tr0,5147,133822).
route(prodloc10,prodloc4,tr13,5147,30882).
route(prodloc10,prodloc5,tr0,10310,268060).
route(prodloc10,prodloc5,tr13,10310,61860).
route(prodloc10,prodloc6,tr0,2353,61178).
route(prodloc10,prodloc6,tr13,2353,14118).
route(prodloc10,prodloc7,tr0,11513,299338).
route(prodloc10,prodloc7,tr13,11513,69078).
route(prodloc10,prodloc8,tr0,12643,328718).
route(prodloc10,prodloc8,tr13,12643,75858).
route(prodloc10,prodloc9,tr0,21200,551200).
route(prodloc10,prodloc9,tr13,21200,127200).
route(prodloc10,prodloc11,tr0,12769,331994).
route(prodloc10,prodloc11,tr13,12769,76614).
route(prodloc10,prodloc12,tr0,19224,499824).
route(prodloc10,prodloc12,tr15,19224,615168).
route(prodloc10,prodloc13,tr0,9967,259142).
route(prodloc10,prodloc13,tr13,9967,59802).
route(prodloc10,prodloc14,tr0,11825,307450).
route(prodloc10,prodloc14,tr13,11825,70950).
route(prodloc11,harbor0,tr0,8683,225758).
route(prodloc11,harbor0,tr13,8683,52098).
route(prodloc11,harbor1,tr0,6263,162838).
route(prodloc11,harbor1,tr13,6263,37578).
route(prodloc11,harbor2,tr0,10775,280150).
route(prodloc11,harbor2,tr13,10775,64650).
route(prodloc11,harbor3,tr0,14049,365274).
route(prodloc11,harbor3,tr13,14049,84294).
route(prodloc11,harbor4,tr0,4057,105482).
route(prodloc11,harbor4,tr13,4057,24342).
route(prodloc11,harbor5,tr0,4183,108758).
route(prodloc11,harbor5,tr13,4183,25098).
route(prodloc11,prodloc0,tr0,18205,473330).
route(prodloc11,prodloc0,tr13,18205,109230).
route(prodloc11,prodloc1,tr0,116,3016).
route(prodloc11,prodloc1,tr13,116,696).
route(prodloc11,prodloc2,tr0,23465,610090).
route(prodloc11,prodloc2,tr13,23465,140790).
route(prodloc11,prodloc3,tr0,23694,616044).
route(prodloc11,prodloc3,tr13,23694,142164).
route(prodloc11,prodloc4,tr0,12461,323986).
route(prodloc11,prodloc4,tr13,12461,74766).
route(prodloc11,prodloc5,tr0,26062,677612).
route(prodloc11,prodloc5,tr13,26062,156372).
route(prodloc11,prodloc6,tr0,2620,68120).
route(prodloc11,prodloc6,tr13,2620,15720).
route(prodloc11,prodloc7,tr0,18572,482872).
route(prodloc11,prodloc7,tr13,18572,111432).
route(prodloc11,prodloc8,tr0,5852,152152).
route(prodloc11,prodloc8,tr13,5852,35112).
route(prodloc11,prodloc9,tr0,1409,36634).
route(prodloc11,prodloc9,tr13,1409,8454).
route(prodloc11,prodloc10,tr0,12233,318058).
route(prodloc11,prodloc10,tr13,12233,73398).
route(prodloc11,prodloc12,tr0,15102,392652).
route(prodloc11,prodloc12,tr13,15102,90612).
route(prodloc11,prodloc13,tr0,19808,515008).
route(prodloc11,prodloc13,tr15,19808,633856).
route(prodloc11,prodloc14,tr0,21310,554060).
route(prodloc11,prodloc14,tr13,21310,127860).
route(prodloc12,harbor0,tr0,25646,666796).
route(prodloc12,harbor0,tr13,25646,153876).
route(prodloc12,harbor1,tr0,17740,461240).
route(prodloc12,harbor1,tr13,17740,106440).
route(prodloc12,harbor2,tr0,12462,324012).
route(prodloc12,harbor2,tr13,12462,74772).
route(prodloc12,harbor3,tr0,20864,542464).
route(prodloc12,harbor3,tr13,20864,125184).
route(prodloc12,harbor4,tr0,26254,682604).
route(prodloc12,harbor4,tr13,26254,157524).
route(prodloc12,harbor5,tr0,1425,37050).
route(prodloc12,harbor5,tr13,1425,8550).
route(prodloc12,prodloc0,tr0,20414,530764).
route(prodloc12,prodloc0,tr13,20414,122484).
route(prodloc12,prodloc1,tr0,14144,367744).
route(prodloc12,prodloc1,tr13,14144,84864).
route(prodloc12,prodloc2,tr0,1740,45240).
route(prodloc12,prodloc2,tr13,1740,10440).
route(prodloc12,prodloc3,tr0,12205,317330).
route(prodloc12,prodloc3,tr13,12205,73230).
route(prodloc12,prodloc4,tr0,20562,534612).
route(prodloc12,prodloc4,tr13,20562,123372).
route(prodloc12,prodloc5,tr0,16259,422734).
route(prodloc12,prodloc5,tr13,16259,97554).
route(prodloc12,prodloc6,tr0,24907,647582).
route(prodloc12,prodloc6,tr13,24907,149442).
route(prodloc12,prodloc7,tr0,23033,598858).
route(prodloc12,prodloc7,tr13,23033,138198).
route(prodloc12,prodloc8,tr0,10322,268372).
route(prodloc12,prodloc8,tr13,10322,61932).
route(prodloc12,prodloc9,tr0,13781,358306).
route(prodloc12,prodloc9,tr13,13781,82686).
route(prodloc12,prodloc10,tr0,22747,591422).
route(prodloc12,prodloc10,tr13,22747,136482).
route(prodloc12,prodloc11,tr0,13708,356408).
route(prodloc12,prodloc11,tr13,13708,82248).
route(prodloc12,prodloc13,tr0,15102,392652).
route(prodloc12,prodloc13,tr13,15102,90612).
route(prodloc12,prodloc14,tr0,589,15314).
route(prodloc12,prodloc14,tr13,589,3534).
route(prodloc13,harbor0,tr0,8032,208832).
route(prodloc13,harbor0,tr13,8032,48192).
route(prodloc13,harbor1,tr0,7166,186316).
route(prodloc13,harbor1,tr13,7166,42996).
route(prodloc13,harbor2,tr0,17560,456560).
route(prodloc13,harbor2,tr13,17560,105360).
route(prodloc13,harbor3,tr0,8852,230152).
route(prodloc13,harbor3,tr13,8852,53112).
route(prodloc13,harbor4,tr0,22781,592306).
route(prodloc13,harbor4,tr13,22781,136686).
route(prodloc13,harbor5,tr0,19331,502606).
route(prodloc13,harbor5,tr13,19331,115986).
route(prodloc13,prodloc0,tr0,2347,61022).
route(prodloc13,prodloc0,tr13,2347,14082).
route(prodloc13,prodloc1,tr0,26319,684294).
route(prodloc13,prodloc1,tr13,26319,157914).
route(prodloc13,prodloc2,tr0,13924,362024).
route(prodloc13,prodloc2,tr13,13924,83544).
route(prodloc13,prodloc3,tr0,7356,191256).
route(prodloc13,prodloc3,tr13,7356,44136).
route(prodloc13,prodloc5,tr0,4273,111098).
route(prodloc13,prodloc5,tr13,4273,25638).
route(prodloc13,prodloc6,tr0,28827,749502).
route(prodloc13,prodloc6,tr13,28827,172962).
route(prodloc13,prodloc7,tr13,922,5532).
route(prodloc13,prodloc7,tr15,922,29504).
route(prodloc13,prodloc8,tr0,10670,277420).
route(prodloc13,prodloc8,tr13,10670,64020).
route(prodloc13,prodloc9,tr0,12264,318864).
route(prodloc13,prodloc9,tr13,12264,73584).
route(prodloc13,prodloc10,tr13,18321,109926).
route(prodloc13,prodloc10,tr15,18321,586272).
route(prodloc13,prodloc11,tr0,25918,673868).
route(prodloc13,prodloc11,tr13,25918,155508).
route(prodloc13,prodloc12,tr0,28521,741546).
route(prodloc13,prodloc12,tr13,28521,171126).
route(prodloc13,prodloc14,tr0,8593,223418).
route(prodloc13,prodloc14,tr13,8593,51558).
route(prodloc14,harbor0,tr0,3981,103506).
route(prodloc14,harbor0,tr13,3981,23886).
route(prodloc14,harbor1,tr0,15211,395486).
route(prodloc14,harbor1,tr13,15211,91266).
route(prodloc14,harbor2,tr0,22630,588380).
route(prodloc14,harbor2,tr13,22630,135780).
route(prodloc14,harbor3,tr0,4037,104962).
route(prodloc14,harbor3,tr13,4037,24222).
route(prodloc14,harbor4,tr0,26649,692874).
route(prodloc14,harbor4,tr13,26649,159894).
route(prodloc14,harbor5,tr0,23972,623272).
route(prodloc14,harbor5,tr13,23972,143832).
route(prodloc14,prodloc0,tr0,21703,564278).
route(prodloc14,prodloc0,tr13,21703,130218).
route(prodloc14,prodloc1,tr0,27847,724022).
route(prodloc14,prodloc1,tr13,27847,167082).
route(prodloc14,prodloc2,tr0,17374,451724).
route(prodloc14,prodloc2,tr13,17374,104244).
route(prodloc14,prodloc3,tr0,25969,675194).
route(prodloc14,prodloc3,tr13,25969,155814).
route(prodloc14,prodloc4,tr0,12336,320736).
route(prodloc14,prodloc4,tr13,12336,74016).
route(prodloc14,prodloc5,tr0,21876,568776).
route(prodloc14,prodloc5,tr13,21876,131256).
route(prodloc14,prodloc6,tr0,3561,92586).
route(prodloc14,prodloc6,tr13,3561,21366).
route(prodloc14,prodloc7,tr0,24045,625170).
route(prodloc14,prodloc7,tr13,24045,144270).
route(prodloc14,prodloc8,tr13,10435,62610).
route(prodloc14,prodloc8,tr15,10435,333920).
route(prodloc14,prodloc9,tr0,18478,480428).
route(prodloc14,prodloc9,tr13,18478,110868).
route(prodloc14,prodloc10,tr0,17433,453258).
route(prodloc14,prodloc10,tr13,17433,104598).
route(prodloc14,prodloc11,tr0,3381,87906).
route(prodloc14,prodloc11,tr15,3381,108192).
route(prodloc14,prodloc12,tr0,26597,691522).
route(prodloc14,prodloc12,tr13,26597,159582).
route(prodloc14,prodloc13,tr0,19261,500786).
route(prodloc14,prodloc13,tr13,19261,115566).
hub(harbor1).
hub(harbor4).
hub(prodloc6).
hub(prodloc9).
