% Multibatching benchmark instance
% Source: instances.lp
% seed=5  harbors=6  prodlocs=15  hubs=4  disruptions=2

% ---- locations ----
location(harbor0).
location(harbor1).
location(harbor2).
location(harbor3).
location(harbor4).
location(harbor5).
location(prodloc0).
location(prodloc1).
location(prodloc2).
location(prodloc3).
location(prodloc4).
location(prodloc5).
location(prodloc6).
location(prodloc7).
location(prodloc8).
location(prodloc9).
location(prodloc10).
location(prodloc11).
location(prodloc12).
location(prodloc13).
location(prodloc14).

% ---- transport resources ----
transportCapacity(tr0,1800).
transportCO2(tr0,1680).
transportCost(tr0,26).
transportSpeed(tr0,12).
transportCapacity(tr1,65).
transportCO2(tr1,90).
transportCost(tr1,1).
transportSpeed(tr1,35).
transportCapacity(tr10,1).
transportCO2(tr10,700).
transportCost(tr10,4).
transportSpeed(tr10,40).
transportCapacity(tr11,65).
transportCO2(tr11,62).
transportCost(tr11,1).
transportSpeed(tr11,25).
transportCapacity(tr12,65).
transportCO2(tr12,709).
transportCost(tr12,3).
transportSpeed(tr12,55).
transportCapacity(tr13,68).
transportCO2(tr13,160).
transportCost(tr13,6).
transportSpeed(tr13,25).
transportCapacity(tr14,146).
transportCO2(tr14,780).
transportCost(tr14,4).
transportSpeed(tr14,50).
transportCapacity(tr15,2217).
transportCO2(tr15,49470).
transportCost(tr15,32).
transportSpeed(tr15,625).
transportCapacity(tr2,96).
transportCO2(tr2,709).
transportCost(tr2,3).
transportSpeed(tr2,55).
transportCapacity(tr3,1).
transportCO2(tr3,6250).
transportCost(tr3,108).
transportSpeed(tr3,25).
transportCapacity(tr4,148).
transportCO2(tr4,780).
transportCost(tr4,4).
transportSpeed(tr4,50).
transportCapacity(tr5,65).
transportCO2(tr5,780).
transportCost(tr5,3).
transportSpeed(tr5,50).
transportCapacity(tr6,1).
transportCO2(tr6,100).
transportCost(tr6,40).
transportSpeed(tr6,25).
transportCapacity(tr7,1).
transportCO2(tr7,18000).
transportCost(tr7,278).
transportSpeed(tr7,10).
transportCapacity(tr8,1).
transportCO2(tr8,14400).
transportCost(tr8,107).
transportSpeed(tr8,25).
transportCapacity(tr9,65).
transportCO2(tr9,708).
transportCost(tr9,2).
transportSpeed(tr9,60).

% ---- parts ----
part(part0).
partSize(part0,21).
valid_transport(part0,tr0).
valid_transport(part0,tr15).
valid_transport(part0,tr14).
valid_transport(part0,tr13).
valid_transport(part0,tr4).
part(part1).
partSize(part1,1).
valid_transport(part1,tr0).
valid_transport(part1,tr2).
valid_transport(part1,tr15).
valid_transport(part1,tr9).
valid_transport(part1,tr12).
valid_transport(part1,tr13).
valid_transport(part1,tr11).
part(part10).
partSize(part10,1).
valid_transport(part10,tr0).
valid_transport(part10,tr2).
valid_transport(part10,tr15).
valid_transport(part10,tr9).
valid_transport(part10,tr12).
valid_transport(part10,tr13).
valid_transport(part10,tr11).
part(part11).
partSize(part11,83).
valid_transport(part11,tr0).
valid_transport(part11,tr7).
valid_transport(part11,tr8).
valid_transport(part11,tr15).
valid_transport(part11,tr3).
valid_transport(part11,tr13).
part(part12).
partSize(part12,273).
valid_transport(part12,tr0).
valid_transport(part12,tr7).
valid_transport(part12,tr8).
valid_transport(part12,tr15).
valid_transport(part12,tr3).
valid_transport(part12,tr13).
part(part13).
partSize(part13,1).
valid_transport(part13,tr0).
valid_transport(part13,tr2).
valid_transport(part13,tr15).
valid_transport(part13,tr9).
valid_transport(part13,tr12).
valid_transport(part13,tr13).
valid_transport(part13,tr11).
part(part14).
partSize(part14,68).
valid_transport(part14,tr0).
valid_transport(part14,tr15).
valid_transport(part14,tr13).
part(part15).
partSize(part15,4).
valid_transport(part15,tr0).
valid_transport(part15,tr2).
valid_transport(part15,tr15).
valid_transport(part15,tr9).
valid_transport(part15,tr12).
valid_transport(part15,tr13).
valid_transport(part15,tr11).
part(part16).
partSize(part16,4).
valid_transport(part16,tr0).
valid_transport(part16,tr2).
valid_transport(part16,tr15).
valid_transport(part16,tr9).
valid_transport(part16,tr12).
valid_transport(part16,tr13).
valid_transport(part16,tr11).
part(part17).
partSize(part17,8).
valid_transport(part17,tr0).
valid_transport(part17,tr15).
valid_transport(part17,tr14).
valid_transport(part17,tr13).
valid_transport(part17,tr4).
part(part18).
partSize(part18,24).
valid_transport(part18,tr0).
valid_transport(part18,tr15).
valid_transport(part18,tr14).
valid_transport(part18,tr13).
valid_transport(part18,tr4).
part(part19).
partSize(part19,6).
valid_transport(part19,tr0).
valid_transport(part19,tr2).
valid_transport(part19,tr15).
valid_transport(part19,tr9).
valid_transport(part19,tr12).
valid_transport(part19,tr13).
valid_transport(part19,tr11).
part(part2).
partSize(part2,19).
valid_transport(part2,tr0).
valid_transport(part2,tr15).
valid_transport(part2,tr14).
valid_transport(part2,tr13).
valid_transport(part2,tr4).
part(part20).
partSize(part20,128).
valid_transport(part20,tr0).
valid_transport(part20,tr7).
valid_transport(part20,tr8).
valid_transport(part20,tr15).
valid_transport(part20,tr3).
valid_transport(part20,tr13).
part(part21).
partSize(part21,25).
valid_transport(part21,tr0).
valid_transport(part21,tr15).
valid_transport(part21,tr14).
valid_transport(part21,tr13).
valid_transport(part21,tr4).
part(part22).
partSize(part22,7).
valid_transport(part22,tr0).
valid_transport(part22,tr2).
valid_transport(part22,tr15).
valid_transport(part22,tr9).
valid_transport(part22,tr12).
valid_transport(part22,tr13).
valid_transport(part22,tr11).
part(part23).
partSize(part23,5).
valid_transport(part23,tr0).
valid_transport(part23,tr15).
valid_transport(part23,tr14).
valid_transport(part23,tr13).
valid_transport(part23,tr4).
part(part24).
partSize(part24,55).
valid_transport(part24,tr0).
valid_transport(part24,tr7).
valid_transport(part24,tr8).
valid_transport(part24,tr15).
valid_transport(part24,tr3).
valid_transport(part24,tr13).
part(part25).
partSize(part25,5).
valid_transport(part25,tr0).
valid_transport(part25,tr4).
valid_transport(part25,tr2).
valid_transport(part25,tr15).
valid_transport(part25,tr13).
part(part26).
partSize(part26,32).
valid_transport(part26,tr0).
valid_transport(part26,tr7).
valid_transport(part26,tr8).
valid_transport(part26,tr15).
valid_transport(part26,tr3).
valid_transport(part26,tr13).
part(part27).
partSize(part27,5).
valid_transport(part27,tr0).
valid_transport(part27,tr2).
valid_transport(part27,tr15).
valid_transport(part27,tr9).
valid_transport(part27,tr12).
valid_transport(part27,tr13).
valid_transport(part27,tr11).
part(part28).
partSize(part28,3).
valid_transport(part28,tr0).
valid_transport(part28,tr4).
valid_transport(part28,tr2).
valid_transport(part28,tr15).
valid_transport(part28,tr14).
valid_transport(part28,tr13).
part(part29).
partSize(part29,627).
part(part3).
partSize(part3,48).
valid_transport(part3,tr0).
valid_transport(part3,tr7).
valid_transport(part3,tr8).
valid_transport(part3,tr15).
valid_transport(part3,tr3).
valid_transport(part3,tr13).
part(part30).
partSize(part30,2).
valid_transport(part30,tr0).
valid_transport(part30,tr2).
valid_transport(part30,tr15).
valid_transport(part30,tr9).
valid_transport(part30,tr12).
valid_transport(part30,tr13).
valid_transport(part30,tr11).
part(part31).
partSize(part31,144).
valid_transport(part31,tr0).
valid_transport(part31,tr7).
valid_transport(part31,tr8).
valid_transport(part31,tr15).
valid_transport(part31,tr3).
valid_transport(part31,tr13).
part(part32).
partSize(part32,16).
valid_transport(part32,tr0).
valid_transport(part32,tr4).
valid_transport(part32,tr2).
valid_transport(part32,tr15).
valid_transport(part32,tr14).
valid_transport(part32,tr13).
part(part33).
partSize(part33,7).
valid_transport(part33,tr0).
valid_transport(part33,tr2).
valid_transport(part33,tr15).
valid_transport(part33,tr9).
valid_transport(part33,tr12).
valid_transport(part33,tr13).
valid_transport(part33,tr11).
part(part3345).
partSize(part3345,353).
valid_transport(part3345,tr0).
valid_transport(part3345,tr7).
valid_transport(part3345,tr8).
valid_transport(part3345,tr15).
valid_transport(part3345,tr3).
valid_transport(part3345,tr13).
part(part34).
partSize(part34,2).
valid_transport(part34,tr0).
valid_transport(part34,tr2).
valid_transport(part34,tr15).
valid_transport(part34,tr9).
valid_transport(part34,tr12).
valid_transport(part34,tr13).
valid_transport(part34,tr11).
part(part4).
partSize(part4,2).
valid_transport(part4,tr0).
valid_transport(part4,tr2).
valid_transport(part4,tr15).
valid_transport(part4,tr9).
valid_transport(part4,tr12).
valid_transport(part4,tr13).
valid_transport(part4,tr11).
part(part5).
partSize(part5,2).
valid_transport(part5,tr0).
valid_transport(part5,tr2).
valid_transport(part5,tr15).
valid_transport(part5,tr9).
valid_transport(part5,tr12).
valid_transport(part5,tr14).
valid_transport(part5,tr13).
valid_transport(part5,tr11).
part(part6).
partSize(part6,111).
valid_transport(part6,tr0).
valid_transport(part6,tr7).
valid_transport(part6,tr8).
valid_transport(part6,tr15).
valid_transport(part6,tr3).
valid_transport(part6,tr13).
part(part8).
partSize(part8,163).
valid_transport(part8,tr0).
valid_transport(part8,tr7).
valid_transport(part8,tr8).
valid_transport(part8,tr15).
valid_transport(part8,tr3).
valid_transport(part8,tr13).
part(part9).
partSize(part9,2).
valid_transport(part9,tr0).
valid_transport(part9,tr2).
valid_transport(part9,tr15).
valid_transport(part9,tr9).
valid_transport(part9,tr12).
valid_transport(part9,tr13).
valid_transport(part9,tr11).

% ---- demand ----
demandOffer(part0,prodloc9,40).
demandOffer(part0,prodloc4,40).
demandOffer(part0,prodloc11,-27).
demandOffer(part0,prodloc5,-53).
demandOffer(part1,prodloc12,20).
demandOffer(part1,prodloc11,20).
demandOffer(part1,prodloc13,-20).
demandOffer(part1,prodloc10,-20).
demandOffer(part10,prodloc14,20).
demandOffer(part10,prodloc8,20).
demandOffer(part10,prodloc0,-20).
demandOffer(part10,prodloc7,-20).
demandOffer(part12,prodloc12,10).
demandOffer(part12,prodloc3,20).
demandOffer(part12,prodloc10,-10).
demandOffer(part12,prodloc0,-10).
demandOffer(part12,prodloc2,-10).
demandOffer(part13,prodloc1,20).
demandOffer(part13,prodloc5,20).
demandOffer(part13,prodloc7,-20).
demandOffer(part13,prodloc3,-20).
demandOffer(part14,prodloc6,26).
demandOffer(part14,prodloc8,-26).
demandOffer(part15,prodloc1,53).
demandOffer(part15,prodloc9,27).
demandOffer(part15,prodloc3,-53).
demandOffer(part15,prodloc0,-27).
demandOffer(part16,prodloc11,53).
demandOffer(part16,prodloc3,27).
demandOffer(part16,prodloc6,-53).
demandOffer(part16,prodloc4,-27).
demandOffer(part17,prodloc2,20).
demandOffer(part17,prodloc13,-20).
demandOffer(part18,prodloc12,40).
demandOffer(part18,prodloc6,40).
demandOffer(part18,prodloc2,-27).
demandOffer(part18,prodloc1,-53).
demandOffer(part19,prodloc2,26).
demandOffer(part19,prodloc9,-26).
demandOffer(part2,prodloc9,40).
demandOffer(part2,prodloc7,40).
demandOffer(part2,prodloc2,-27).
demandOffer(part2,prodloc12,-53).
demandOffer(part20,prodloc0,53).
demandOffer(part20,prodloc13,27).
demandOffer(part20,prodloc14,-14).
demandOffer(part20,prodloc3,-46).
demandOffer(part20,prodloc11,-20).
demandOffer(part21,prodloc2,26).
demandOffer(part21,prodloc13,-26).
demandOffer(part22,prodloc2,53).
demandOffer(part22,prodloc4,27).
demandOffer(part22,prodloc5,-53).
demandOffer(part22,prodloc3,-27).
demandOffer(part23,prodloc8,20).
demandOffer(part23,prodloc10,20).
demandOffer(part23,prodloc13,-20).
demandOffer(part23,prodloc3,-20).
demandOffer(part25,prodloc2,20).
demandOffer(part25,prodloc11,-20).
demandOffer(part26,prodloc3,20).
demandOffer(part26,prodloc6,20).
demandOffer(part26,prodloc4,-14).
demandOffer(part26,prodloc0,-26).
demandOffer(part27,prodloc5,53).
demandOffer(part27,prodloc6,27).
demandOffer(part27,prodloc2,-53).
demandOffer(part27,prodloc12,-27).
demandOffer(part28,prodloc4,20).
demandOffer(part28,prodloc1,20).
demandOffer(part28,prodloc5,-20).
demandOffer(part28,prodloc14,-20).
demandOffer(part3,prodloc13,40).
demandOffer(part3,prodloc9,-14).
demandOffer(part3,prodloc14,-26).
demandOffer(part30,prodloc0,40).
demandOffer(part30,prodloc9,40).
demandOffer(part30,prodloc10,-27).
demandOffer(part30,prodloc11,-53).
demandOffer(part31,prodloc5,7).
demandOffer(part31,prodloc1,7).
demandOffer(part31,prodloc4,-14).
demandOffer(part32,prodloc5,53).
demandOffer(part32,prodloc13,27).
demandOffer(part32,prodloc4,-53).
demandOffer(part32,prodloc7,-27).
demandOffer(part33,prodloc11,53).
demandOffer(part33,prodloc5,27).
demandOffer(part33,prodloc2,-53).
demandOffer(part33,prodloc7,-27).
demandOffer(part34,prodloc7,20).
demandOffer(part34,prodloc11,-20).
demandOffer(part4,prodloc2,26).
demandOffer(part4,prodloc0,-26).
demandOffer(part5,prodloc4,20).
demandOffer(part5,prodloc0,-20).
demandOffer(part6,prodloc11,27).
demandOffer(part6,prodloc5,53).
demandOffer(part6,prodloc6,-24).
demandOffer(part6,prodloc0,-36).
demandOffer(part6,prodloc8,-10).
demandOffer(part6,prodloc12,-10).
demandOffer(part8,prodloc5,3).
demandOffer(part8,prodloc6,17).
demandOffer(part8,prodloc9,-10).
demandOffer(part8,prodloc0,-10).
demandOffer(part9,prodloc7,20).
demandOffer(part9,prodloc0,-20).

% ---- network (ASP-generated) ----
route(harbor0,harbor1,tr13,23221,139326).
route(harbor0,harbor1,tr2,23221,69663).
route(harbor0,harbor2,tr13,5958,35748).
route(harbor0,harbor2,tr2,5958,17874).
route(harbor0,harbor3,tr13,20467,122802).
route(harbor0,harbor3,tr2,20467,61401).
route(harbor0,harbor4,tr13,6469,38814).
route(harbor0,harbor4,tr2,6469,19407).
route(harbor0,harbor5,tr13,3930,23580).
route(harbor0,harbor5,tr2,3930,11790).
route(harbor0,prodloc0,tr0,24765,643890).
route(harbor0,prodloc0,tr13,24765,148590).
route(harbor0,prodloc1,tr0,8065,209690).
route(harbor0,prodloc1,tr13,8065,48390).
route(harbor0,prodloc2,tr0,26855,698230).
route(harbor0,prodloc2,tr13,26855,161130).
route(harbor0,prodloc3,tr0,15147,393822).
route(harbor0,prodloc3,tr13,15147,90882).
route(harbor0,prodloc4,tr0,11286,293436).
route(harbor0,prodloc4,tr13,11286,67716).
route(harbor0,prodloc5,tr0,16795,436670).
route(harbor0,prodloc5,tr13,16795,100770).
route(harbor0,prodloc6,tr0,11627,302302).
route(harbor0,prodloc6,tr13,11627,69762).
route(harbor0,prodloc7,tr0,17195,447070).
route(harbor0,prodloc7,tr13,17195,103170).
route(harbor0,prodloc8,tr0,8223,213798).
route(harbor0,prodloc8,tr13,8223,49338).
route(harbor0,prodloc9,tr0,25416,660816).
route(harbor0,prodloc9,tr13,25416,152496).
route(harbor0,prodloc10,tr0,15168,394368).
route(harbor0,prodloc10,tr13,15168,91008).
route(harbor0,prodloc11,tr0,3542,92092).
route(harbor0,prodloc11,tr13,3542,21252).
route(harbor0,prodloc12,tr0,19327,502502).
route(harbor0,prodloc12,tr13,19327,115962).
route(harbor0,prodloc13,tr0,24525,637650).
route(harbor0,prodloc13,tr13,24525,147150).
route(harbor0,prodloc14,tr0,25593,665418).
route(harbor0,prodloc14,tr13,25593,153558).
route(harbor1,harbor0,tr13,26153,156918).
route(harbor1,harbor0,tr2,26153,78459).
route(harbor1,harbor2,tr13,12065,72390).
route(harbor1,harbor2,tr2,12065,36195).
route(harbor1,harbor3,tr13,28200,169200).
route(harbor1,harbor3,tr2,28200,84600).
route(harbor1,harbor4,tr13,9724,58344).
route(harbor1,harbor4,tr2,9724,29172).
route(harbor1,harbor5,tr13,1230,7380).
route(harbor1,harbor5,tr2,1230,3690).
route(harbor1,prodloc0,tr0,14189,368914).
route(harbor1,prodloc0,tr13,14189,85134).
route(harbor1,prodloc1,tr0,2989,77714).
route(harbor1,prodloc1,tr13,2989,17934).
route(harbor1,prodloc2,tr0,6833,177658).
route(harbor1,prodloc2,tr13,6833,40998).
route(harbor1,prodloc3,tr0,11167,290342).
route(harbor1,prodloc3,tr13,11167,67002).
route(harbor1,prodloc4,tr0,16808,437008).
route(harbor1,prodloc4,tr13,16808,100848).
route(harbor1,prodloc5,tr0,20017,520442).
route(harbor1,prodloc5,tr13,20017,120102).
route(harbor1,prodloc6,tr0,11884,308984).
route(harbor1,prodloc6,tr13,11884,71304).
route(harbor1,prodloc7,tr0,4858,126308).
route(harbor1,prodloc7,tr13,4858,29148).
route(harbor1,prodloc8,tr0,11141,289666).
route(harbor1,prodloc8,tr13,11141,66846).
route(harbor1,prodloc9,tr0,9035,234910).
route(harbor1,prodloc9,tr13,9035,54210).
route(harbor1,prodloc10,tr0,23025,598650).
route(harbor1,prodloc10,tr13,23025,138150).
route(harbor1,prodloc11,tr0,17865,464490).
route(harbor1,prodloc11,tr13,17865,107190).
route(harbor1,prodloc12,tr0,3019,78494).
route(harbor1,prodloc12,tr13,3019,18114).
route(harbor1,prodloc13,tr0,10240,266240).
route(harbor1,prodloc13,tr13,10240,61440).
route(harbor1,prodloc14,tr0,22479,584454).
route(harbor1,prodloc14,tr13,22479,134874).
route(harbor2,harbor0,tr13,10410,62460).
route(harbor2,harbor0,tr2,10410,31230).
route(harbor2,harbor1,tr13,10062,60372).
route(harbor2,harbor1,tr2,10062,30186).
route(harbor2,harbor3,tr13,5845,35070).
route(harbor2,harbor3,tr2,5845,17535).
route(harbor2,harbor4,tr13,26204,157224).
route(harbor2,harbor4,tr2,26204,78612).
route(harbor2,harbor5,tr13,2592,15552).
route(harbor2,harbor5,tr2,2592,7776).
route(harbor2,prodloc0,tr0,20541,534066).
route(harbor2,prodloc0,tr13,20541,123246).
route(harbor2,prodloc1,tr0,4880,126880).
route(harbor2,prodloc1,tr13,4880,29280).
route(harbor2,prodloc2,tr0,23632,614432).
route(harbor2,prodloc2,tr13,23632,141792).
route(harbor2,prodloc3,tr0,22584,587184).
route(harbor2,prodloc3,tr13,22584,135504).
route(harbor2,prodloc4,tr0,10137,263562).
route(harbor2,prodloc4,tr13,10137,60822).
route(harbor2,prodloc5,tr0,15854,412204).
route(harbor2,prodloc5,tr13,15854,95124).
route(harbor2,prodloc6,tr0,5294,137644).
route(harbor2,prodloc6,tr13,5294,31764).
route(harbor2,prodloc7,tr0,23599,613574).
route(harbor2,prodloc7,tr13,23599,141594).
route(harbor2,prodloc8,tr0,1592,41392).
route(harbor2,prodloc8,tr13,1592,9552).
route(harbor2,prodloc9,tr0,2654,69004).
route(harbor2,prodloc9,tr13,2654,15924).
route(harbor2,prodloc10,tr0,19684,511784).
route(harbor2,prodloc10,tr13,19684,118104).
route(harbor2,prodloc11,tr0,17484,454584).
route(harbor2,prodloc11,tr13,17484,104904).
route(harbor2,prodloc12,tr0,13302,345852).
route(harbor2,prodloc12,tr13,13302,79812).
route(harbor2,prodloc13,tr0,1044,27144).
route(harbor2,prodloc13,tr13,1044,6264).
route(harbor2,prodloc14,tr0,7779,202254).
route(harbor2,prodloc14,tr13,7779,46674).
route(harbor3,harbor0,tr13,24296,145776).
route(harbor3,harbor0,tr2,24296,72888).
route(harbor3,harbor1,tr13,19492,116952).
route(harbor3,harbor1,tr2,19492,58476).
route(harbor3,harbor2,tr13,11296,67776).
route(harbor3,harbor2,tr2,11296,33888).
route(harbor3,harbor4,tr13,27106,162636).
route(harbor3,harbor4,tr2,27106,81318).
route(harbor3,harbor5,tr13,8228,49368).
route(harbor3,harbor5,tr2,8228,24684).
route(harbor3,prodloc0,tr0,14933,388258).
route(harbor3,prodloc0,tr13,14933,89598).
route(harbor3,prodloc1,tr0,21332,554632).
route(harbor3,prodloc1,tr13,21332,127992).
route(harbor3,prodloc2,tr0,13822,359372).
route(harbor3,prodloc2,tr13,13822,82932).
route(harbor3,prodloc3,tr0,4773,124098).
route(harbor3,prodloc3,tr13,4773,28638).
route(harbor3,prodloc4,tr0,1827,47502).
route(harbor3,prodloc4,tr13,1827,10962).
route(harbor3,prodloc5,tr0,20918,543868).
route(harbor3,prodloc5,tr13,20918,125508).
route(harbor3,prodloc6,tr0,1074,27924).
route(harbor3,prodloc6,tr13,1074,6444).
route(harbor3,prodloc7,tr0,26270,683020).
route(harbor3,prodloc7,tr13,26270,157620).
route(harbor3,prodloc8,tr0,16175,420550).
route(harbor3,prodloc8,tr13,16175,97050).
route(harbor3,prodloc9,tr0,10952,284752).
route(harbor3,prodloc9,tr13,10952,65712).
route(harbor3,prodloc10,tr0,27475,714350).
route(harbor3,prodloc10,tr13,27475,164850).
route(harbor3,prodloc11,tr0,6786,176436).
route(harbor3,prodloc11,tr13,6786,40716).
route(harbor3,prodloc12,tr0,4280,111280).
route(harbor3,prodloc12,tr13,4280,25680).
route(harbor3,prodloc13,tr0,23977,623402).
route(harbor3,prodloc13,tr13,23977,143862).
route(harbor3,prodloc14,tr0,18484,480584).
route(harbor3,prodloc14,tr13,18484,110904).
route(harbor4,harbor0,tr13,4380,26280).
route(harbor4,harbor0,tr2,4380,13140).
route(harbor4,harbor1,tr13,20686,124116).
route(harbor4,harbor1,tr2,20686,62058).
route(harbor4,harbor2,tr13,25851,155106).
route(harbor4,harbor2,tr2,25851,77553).
route(harbor4,harbor3,tr13,13590,81540).
route(harbor4,harbor3,tr2,13590,40770).
route(harbor4,harbor5,tr13,3524,21144).
route(harbor4,harbor5,tr2,3524,10572).
route(harbor4,prodloc0,tr0,5533,143858).
route(harbor4,prodloc0,tr13,5533,33198).
route(harbor4,prodloc1,tr0,14241,370266).
route(harbor4,prodloc1,tr13,14241,85446).
route(harbor4,prodloc2,tr0,12224,317824).
route(harbor4,prodloc2,tr13,12224,73344).
route(harbor4,prodloc3,tr0,4892,127192).
route(harbor4,prodloc3,tr13,4892,29352).
route(harbor4,prodloc4,tr0,1927,50102).
route(harbor4,prodloc4,tr13,1927,11562).
route(harbor4,prodloc5,tr0,27682,719732).
route(harbor4,prodloc5,tr13,27682,166092).
route(harbor4,prodloc6,tr0,13785,358410).
route(harbor4,prodloc6,tr13,13785,82710).
route(harbor4,prodloc7,tr0,9662,251212).
route(harbor4,prodloc7,tr13,9662,57972).
route(harbor4,prodloc8,tr0,4628,120328).
route(harbor4,prodloc8,tr13,4628,27768).
route(harbor4,prodloc9,tr0,14850,386100).
route(harbor4,prodloc9,tr13,14850,89100).
route(harbor4,prodloc10,tr0,20331,528606).
route(harbor4,prodloc10,tr13,20331,121986).
route(harbor4,prodloc11,tr0,27928,726128).
route(harbor4,prodloc11,tr13,27928,167568).
route(harbor4,prodloc12,tr0,5549,144274).
route(harbor4,prodloc12,tr13,5549,33294).
route(harbor4,prodloc13,tr0,17113,444938).
route(harbor4,prodloc13,tr13,17113,102678).
route(harbor4,prodloc14,tr0,14863,386438).
route(harbor4,prodloc14,tr13,14863,89178).
route(harbor5,harbor0,tr13,16025,96150).
route(harbor5,harbor0,tr2,16025,48075).
route(harbor5,harbor1,tr13,22601,135606).
route(harbor5,harbor1,tr2,22601,67803).
route(harbor5,harbor2,tr13,23934,143604).
route(harbor5,harbor2,tr2,23934,71802).
route(harbor5,harbor3,tr13,10440,62640).
route(harbor5,harbor3,tr2,10440,31320).
route(harbor5,harbor4,tr13,15727,94362).
route(harbor5,harbor4,tr2,15727,47181).
route(harbor5,prodloc0,tr0,8981,233506).
route(harbor5,prodloc0,tr13,8981,53886).
route(harbor5,prodloc1,tr0,9538,247988).
route(harbor5,prodloc1,tr13,9538,57228).
route(harbor5,prodloc2,tr0,15405,400530).
route(harbor5,prodloc2,tr13,15405,92430).
route(harbor5,prodloc3,tr0,13233,344058).
route(harbor5,prodloc3,tr13,13233,79398).
route(harbor5,prodloc4,tr0,4802,124852).
route(harbor5,prodloc4,tr13,4802,28812).
route(harbor5,prodloc5,tr0,3690,95940).
route(harbor5,prodloc5,tr13,3690,22140).
route(harbor5,prodloc6,tr0,12355,321230).
route(harbor5,prodloc6,tr13,12355,74130).
route(harbor5,prodloc7,tr0,26939,700414).
route(harbor5,prodloc7,tr13,26939,161634).
route(harbor5,prodloc8,tr0,17426,453076).
route(harbor5,prodloc8,tr13,17426,104556).
route(harbor5,prodloc9,tr0,5880,152880).
route(harbor5,prodloc9,tr13,5880,35280).
route(harbor5,prodloc10,tr0,20546,534196).
route(harbor5,prodloc10,tr13,20546,123276).
route(harbor5,prodloc11,tr0,16363,425438).
route(harbor5,prodloc11,tr13,16363,98178).
route(harbor5,prodloc12,tr0,28438,739388).
route(harbor5,prodloc12,tr13,28438,170628).
route(harbor5,prodloc13,tr0,11093,288418).
route(harbor5,prodloc13,tr13,11093,66558).
route(harbor5,prodloc14,tr0,5904,153504).
route(harbor5,prodloc14,tr13,5904,35424).
route(prodloc0,harbor0,tr0,2922,75972).
route(prodloc0,harbor0,tr13,2922,17532).
route(prodloc0,harbor1,tr0,16119,419094).
route(prodloc0,harbor1,tr13,16119,96714).
route(prodloc0,harbor2,tr0,8925,232050).
route(prodloc0,harbor2,tr13,8925,53550).
route(prodloc0,harbor3,tr0,16883,438958).
route(prodloc0,harbor3,tr13,16883,101298).
route(prodloc0,harbor4,tr0,25627,666302).
route(prodloc0,harbor4,tr13,25627,153762).
route(prodloc0,harbor5,tr0,17962,467012).
route(prodloc0,harbor5,tr13,17962,107772).
route(prodloc0,prodloc1,tr0,28424,739024).
route(prodloc0,prodloc1,tr13,28424,170544).
route(prodloc0,prodloc2,tr0,16478,428428).
route(prodloc0,prodloc2,tr13,16478,98868).
route(prodloc0,prodloc3,tr0,11841,307866).
route(prodloc0,prodloc3,tr13,11841,71046).
route(prodloc0,prodloc4,tr0,2069,53794).
route(prodloc0,prodloc4,tr13,2069,12414).
route(prodloc0,prodloc5,tr0,25758,669708).
route(prodloc0,prodloc5,tr13,25758,154548).
route(prodloc0,prodloc6,tr0,26057,677482).
route(prodloc0,prodloc6,tr13,26057,156342).
route(prodloc0,prodloc7,tr0,25393,660218).
route(prodloc0,prodloc7,tr13,25393,152358).
route(prodloc0,prodloc8,tr0,11657,303082).
route(prodloc0,prodloc8,tr13,11657,69942).
route(prodloc0,prodloc9,tr0,22762,591812).
route(prodloc0,prodloc9,tr13,22762,136572).
route(prodloc0,prodloc10,tr0,19252,500552).
route(prodloc0,prodloc10,tr13,19252,115512).
route(prodloc0,prodloc11,tr0,21760,565760).
route(prodloc0,prodloc11,tr13,21760,130560).
route(prodloc0,prodloc12,tr0,1126,29276).
route(prodloc0,prodloc12,tr13,1126,6756).
route(prodloc0,prodloc13,tr0,24893,647218).
route(prodloc0,prodloc13,tr13,24893,149358).
route(prodloc0,prodloc14,tr0,10019,260494).
route(prodloc0,prodloc14,tr13,10019,60114).
route(prodloc1,harbor0,tr0,11910,309660).
route(prodloc1,harbor0,tr13,11910,71460).
route(prodloc1,harbor1,tr0,18329,476554).
route(prodloc1,harbor1,tr13,18329,109974).
route(prodloc1,harbor2,tr0,23086,600236).
route(prodloc1,harbor2,tr13,23086,138516).
route(prodloc1,harbor3,tr0,21901,569426).
route(prodloc1,harbor3,tr13,21901,131406).
route(prodloc1,harbor4,tr0,9204,239304).
route(prodloc1,harbor4,tr13,9204,55224).
route(prodloc1,harbor5,tr0,27370,711620).
route(prodloc1,harbor5,tr13,27370,164220).
route(prodloc1,prodloc0,tr0,15916,413816).
route(prodloc1,prodloc0,tr13,15916,95496).
route(prodloc1,prodloc2,tr0,8680,225680).
route(prodloc1,prodloc2,tr13,8680,52080).
route(prodloc1,prodloc3,tr0,25225,655850).
route(prodloc1,prodloc3,tr15,25225,807200).
route(prodloc1,prodloc4,tr0,22640,588640).
route(prodloc1,prodloc4,tr13,22640,135840).
route(prodloc1,prodloc5,tr13,23463,140778).
route(prodloc1,prodloc5,tr15,23463,750816).
route(prodloc1,prodloc6,tr0,9630,250380).
route(prodloc1,prodloc6,tr13,9630,57780).
route(prodloc1,prodloc7,tr0,11145,289770).
route(prodloc1,prodloc7,tr13,11145,66870).
route(prodloc1,prodloc8,tr0,21291,553566).
route(prodloc1,prodloc8,tr13,21291,127746).
route(prodloc1,prodloc9,tr0,5855,152230).
route(prodloc1,prodloc9,tr13,5855,35130).
route(prodloc1,prodloc10,tr0,19029,494754).
route(prodloc1,prodloc10,tr13,19029,114174).
route(prodloc1,prodloc11,tr0,27914,725764).
route(prodloc1,prodloc11,tr13,27914,167484).
route(prodloc1,prodloc12,tr0,381,9906).
route(prodloc1,prodloc12,tr13,381,2286).
route(prodloc1,prodloc13,tr0,15543,404118).
route(prodloc1,prodloc13,tr13,15543,93258).
route(prodloc1,prodloc14,tr13,17925,107550).
route(prodloc1,prodloc14,tr15,17925,573600).
route(prodloc2,harbor0,tr0,25355,659230).
route(prodloc2,harbor0,tr13,25355,152130).
route(prodloc2,harbor1,tr0,8216,213616).
route(prodloc2,harbor1,tr13,8216,49296).
route(prodloc2,harbor2,tr0,10681,277706).
route(prodloc2,harbor2,tr13,10681,64086).
route(prodloc2,harbor3,tr0,22010,572260).
route(prodloc2,harbor3,tr13,22010,132060).
route(prodloc2,harbor4,tr0,8970,233220).
route(prodloc2,harbor4,tr13,8970,53820).
route(prodloc2,harbor5,tr0,15171,394446).
route(prodloc2,harbor5,tr13,15171,91026).
route(prodloc2,prodloc0,tr0,9466,246116).
route(prodloc2,prodloc0,tr13,9466,56796).
route(prodloc2,prodloc1,tr0,26762,695812).
route(prodloc2,prodloc1,tr13,26762,160572).
route(prodloc2,prodloc3,tr0,16397,426322).
route(prodloc2,prodloc3,tr15,16397,524704).
route(prodloc2,prodloc4,tr0,21217,551642).
route(prodloc2,prodloc4,tr13,21217,127302).
route(prodloc2,prodloc5,tr0,22075,573950).
route(prodloc2,prodloc5,tr13,22075,132450).
route(prodloc2,prodloc6,tr0,26138,679588).
route(prodloc2,prodloc6,tr13,26138,156828).
route(prodloc2,prodloc7,tr0,11686,303836).
route(prodloc2,prodloc7,tr13,11686,70116).
route(prodloc2,prodloc8,tr0,11401,296426).
route(prodloc2,prodloc8,tr13,11401,68406).
route(prodloc2,prodloc9,tr0,8976,233376).
route(prodloc2,prodloc9,tr13,8976,53856).
route(prodloc2,prodloc10,tr0,21106,548756).
route(prodloc2,prodloc10,tr13,21106,126636).
route(prodloc2,prodloc11,tr0,11326,294476).
route(prodloc2,prodloc11,tr13,11326,67956).
route(prodloc2,prodloc12,tr0,24179,628654).
route(prodloc2,prodloc12,tr13,24179,145074).
route(prodloc2,prodloc13,tr0,27140,705640).
route(prodloc2,prodloc13,tr15,27140,868480).
route(prodloc2,prodloc14,tr0,13386,348036).
route(prodloc2,prodloc14,tr13,13386,80316).
route(prodloc3,harbor0,tr0,11472,298272).
route(prodloc3,harbor0,tr13,11472,68832).
route(prodloc3,harbor1,tr0,27621,718146).
route(prodloc3,harbor1,tr13,27621,165726).
route(prodloc3,harbor2,tr0,5653,146978).
route(prodloc3,harbor2,tr13,5653,33918).
route(prodloc3,harbor3,tr0,28507,741182).
route(prodloc3,harbor3,tr13,28507,171042).
route(prodloc3,harbor4,tr0,28410,738660).
route(prodloc3,harbor4,tr13,28410,170460).
route(prodloc3,harbor5,tr0,22557,586482).
route(prodloc3,harbor5,tr13,22557,135342).
route(prodloc3,prodloc0,tr0,14740,383240).
route(prodloc3,prodloc0,tr13,14740,88440).
route(prodloc3,prodloc1,tr0,11938,310388).
route(prodloc3,prodloc1,tr13,11938,71628).
route(prodloc3,prodloc2,tr0,10957,284882).
route(prodloc3,prodloc2,tr13,10957,65742).
route(prodloc3,prodloc4,tr0,16980,441480).
route(prodloc3,prodloc4,tr13,16980,101880).
route(prodloc3,prodloc5,tr0,4650,120900).
route(prodloc3,prodloc5,tr13,4650,27900).
route(prodloc3,prodloc6,tr0,17347,451022).
route(prodloc3,prodloc6,tr15,17347,555104).
route(prodloc3,prodloc7,tr0,5447,141622).
route(prodloc3,prodloc7,tr13,5447,32682).
route(prodloc3,prodloc8,tr0,6511,169286).
route(prodloc3,prodloc8,tr13,6511,39066).
route(prodloc3,prodloc9,tr0,27416,712816).
route(prodloc3,prodloc9,tr13,27416,164496).
route(prodloc3,prodloc10,tr0,11864,308464).
route(prodloc3,prodloc10,tr13,11864,71184).
route(prodloc3,prodloc11,tr0,27981,727506).
route(prodloc3,prodloc11,tr13,27981,167886).
route(prodloc3,prodloc12,tr0,15640,406640).
route(prodloc3,prodloc12,tr13,15640,93840).
route(prodloc3,prodloc13,tr0,9270,241020).
route(prodloc3,prodloc13,tr13,9270,55620).
route(prodloc3,prodloc14,tr0,22658,589108).
route(prodloc3,prodloc14,tr13,22658,135948).
route(prodloc4,harbor0,tr0,2585,67210).
route(prodloc4,harbor0,tr13,2585,15510).
route(prodloc4,harbor1,tr0,23584,613184).
route(prodloc4,harbor1,tr13,23584,141504).
route(prodloc4,harbor2,tr0,21984,571584).
route(prodloc4,harbor2,tr13,21984,131904).
route(prodloc4,harbor3,tr0,23934,622284).
route(prodloc4,harbor3,tr13,23934,143604).
route(prodloc4,harbor4,tr0,13654,355004).
route(prodloc4,harbor4,tr13,13654,81924).
route(prodloc4,harbor5,tr0,5632,146432).
route(prodloc4,harbor5,tr13,5632,33792).
route(prodloc4,prodloc0,tr0,20212,525512).
route(prodloc4,prodloc0,tr13,20212,121272).
route(prodloc4,prodloc1,tr0,25573,664898).
route(prodloc4,prodloc1,tr13,25573,153438).
route(prodloc4,prodloc2,tr0,19035,494910).
route(prodloc4,prodloc2,tr13,19035,114210).
route(prodloc4,prodloc3,tr0,16925,440050).
route(prodloc4,prodloc3,tr13,16925,101550).
route(prodloc4,prodloc6,tr0,13790,358540).
route(prodloc4,prodloc6,tr13,13790,82740).
route(prodloc4,prodloc7,tr0,9919,257894).
route(prodloc4,prodloc7,tr13,9919,59514).
route(prodloc4,prodloc8,tr0,20440,531440).
route(prodloc4,prodloc8,tr13,20440,122640).
route(prodloc4,prodloc9,tr0,18129,471354).
route(prodloc4,prodloc9,tr13,18129,108774).
route(prodloc4,prodloc10,tr0,25387,660062).
route(prodloc4,prodloc10,tr13,25387,152322).
route(prodloc4,prodloc11,tr0,28416,738816).
route(prodloc4,prodloc11,tr13,28416,170496).
route(prodloc4,prodloc12,tr0,20870,542620).
route(prodloc4,prodloc12,tr13,20870,125220).
route(prodloc4,prodloc13,tr0,8872,230672).
route(prodloc4,prodloc13,tr13,8872,53232).
route(prodloc4,prodloc14,tr0,23608,613808).
route(prodloc4,prodloc14,tr13,23608,141648).
route(prodloc5,harbor0,tr0,907,23582).
route(prodloc5,harbor0,tr13,907,5442).
route(prodloc5,harbor1,tr0,6411,166686).
route(prodloc5,harbor1,tr13,6411,38466).
route(prodloc5,harbor2,tr0,5245,136370).
route(prodloc5,harbor2,tr13,5245,31470).
route(prodloc5,harbor3,tr0,19218,499668).
route(prodloc5,harbor3,tr13,19218,115308).
route(prodloc5,harbor4,tr0,14454,375804).
route(prodloc5,harbor4,tr13,14454,86724).
route(prodloc5,harbor5,tr0,20451,531726).
route(prodloc5,harbor5,tr13,20451,122706).
route(prodloc5,prodloc0,tr0,21305,553930).
route(prodloc5,prodloc0,tr13,21305,127830).
route(prodloc5,prodloc1,tr0,5924,154024).
route(prodloc5,prodloc1,tr13,5924,35544).
route(prodloc5,prodloc2,tr0,7179,186654).
route(prodloc5,prodloc2,tr15,7179,229728).
route(prodloc5,prodloc3,tr0,24872,646672).
route(prodloc5,prodloc3,tr13,24872,149232).
route(prodloc5,prodloc4,tr13,22479,134874).
route(prodloc5,prodloc4,tr15,22479,719328).
route(prodloc5,prodloc6,tr0,5917,153842).
route(prodloc5,prodloc6,tr13,5917,35502).
route(prodloc5,prodloc8,tr13,23544,141264).
route(prodloc5,prodloc8,tr15,23544,753408).
route(prodloc5,prodloc9,tr0,1373,35698).
route(prodloc5,prodloc9,tr15,1373,43936).
route(prodloc5,prodloc10,tr0,15454,401804).
route(prodloc5,prodloc10,tr13,15454,92724).
route(prodloc5,prodloc11,tr0,7415,192790).
route(prodloc5,prodloc11,tr13,7415,44490).
route(prodloc5,prodloc12,tr13,5433,32598).
route(prodloc5,prodloc12,tr15,5433,173856).
route(prodloc5,prodloc13,tr0,1776,46176).
route(prodloc5,prodloc13,tr13,1776,10656).
route(prodloc5,prodloc14,tr0,4377,113802).
route(prodloc5,prodloc14,tr13,4377,26262).
route(prodloc6,harbor0,tr0,3633,94458).
route(prodloc6,harbor0,tr13,3633,21798).
route(prodloc6,harbor1,tr0,10400,270400).
route(prodloc6,harbor1,tr13,10400,62400).
route(prodloc6,harbor2,tr0,5950,154700).
route(prodloc6,harbor2,tr13,5950,35700).
route(prodloc6,harbor3,tr0,15817,411242).
route(prodloc6,harbor3,tr13,15817,94902).
route(prodloc6,harbor4,tr0,6338,164788).
route(prodloc6,harbor4,tr13,6338,38028).
route(prodloc6,harbor5,tr0,17969,467194).
route(prodloc6,harbor5,tr13,17969,107814).
route(prodloc6,prodloc0,tr0,1170,30420).
route(prodloc6,prodloc0,tr13,1170,7020).
route(prodloc6,prodloc1,tr0,13616,354016).
route(prodloc6,prodloc1,tr13,13616,81696).
route(prodloc6,prodloc2,tr0,15249,396474).
route(prodloc6,prodloc2,tr13,15249,91494).
route(prodloc6,prodloc3,tr0,11506,299156).
route(prodloc6,prodloc3,tr13,11506,69036).
route(prodloc6,prodloc4,tr0,12463,324038).
route(prodloc6,prodloc4,tr13,12463,74778).
route(prodloc6,prodloc5,tr0,21711,564486).
route(prodloc6,prodloc5,tr13,21711,130266).
route(prodloc6,prodloc7,tr0,20049,521274).
route(prodloc6,prodloc7,tr13,20049,120294).
route(prodloc6,prodloc8,tr0,2360,61360).
route(prodloc6,prodloc8,tr13,2360,14160).
route(prodloc6,prodloc9,tr0,19340,502840).
route(prodloc6,prodloc9,tr15,19340,618880).
route(prodloc6,prodloc10,tr0,6698,174148).
route(prodloc6,prodloc10,tr13,6698,40188).
route(prodloc6,prodloc11,tr0,7795,202670).
route(prodloc6,prodloc11,tr13,7795,46770).
route(prodloc6,prodloc12,tr0,23529,611754).
route(prodloc6,prodloc12,tr15,23529,752928).
route(prodloc6,prodloc13,tr0,12257,318682).
route(prodloc6,prodloc13,tr13,12257,73542).
route(prodloc6,prodloc14,tr0,23,598).
route(prodloc6,prodloc14,tr13,23,138).
route(prodloc7,harbor0,tr0,11487,298662).
route(prodloc7,harbor0,tr13,11487,68922).
route(prodloc7,harbor1,tr0,13285,345410).
route(prodloc7,harbor1,tr13,13285,79710).
route(prodloc7,harbor2,tr0,9128,237328).
route(prodloc7,harbor2,tr13,9128,54768).
route(prodloc7,harbor3,tr0,28046,729196).
route(prodloc7,harbor3,tr13,28046,168276).
route(prodloc7,harbor4,tr0,13438,349388).
route(prodloc7,harbor4,tr13,13438,80628).
route(prodloc7,harbor5,tr0,28392,738192).
route(prodloc7,harbor5,tr13,28392,170352).
route(prodloc7,prodloc0,tr0,3772,98072).
route(prodloc7,prodloc0,tr13,3772,22632).
route(prodloc7,prodloc1,tr0,22574,586924).
route(prodloc7,prodloc1,tr13,22574,135444).
route(prodloc7,prodloc2,tr0,27244,708344).
route(prodloc7,prodloc2,tr15,27244,871808).
route(prodloc7,prodloc3,tr0,17934,466284).
route(prodloc7,prodloc3,tr13,17934,107604).
route(prodloc7,prodloc4,tr0,12253,318578).
route(prodloc7,prodloc4,tr13,12253,73518).
route(prodloc7,prodloc5,tr0,1183,30758).
route(prodloc7,prodloc5,tr13,1183,7098).
route(prodloc7,prodloc6,tr0,18022,468572).
route(prodloc7,prodloc6,tr13,18022,108132).
route(prodloc7,prodloc8,tr0,20107,522782).
route(prodloc7,prodloc8,tr13,20107,120642).
route(prodloc7,prodloc9,tr0,9877,256802).
route(prodloc7,prodloc9,tr13,9877,59262).
route(prodloc7,prodloc10,tr0,3109,80834).
route(prodloc7,prodloc10,tr13,3109,18654).
route(prodloc7,prodloc11,tr13,9677,58062).
route(prodloc7,prodloc11,tr15,9677,309664).
route(prodloc7,prodloc12,tr13,17867,107202).
route(prodloc7,prodloc12,tr15,17867,571744).
route(prodloc7,prodloc13,tr0,16800,436800).
route(prodloc7,prodloc13,tr13,16800,100800).
route(prodloc7,prodloc14,tr0,11122,289172).
route(prodloc7,prodloc14,tr13,11122,66732).
route(prodloc8,harbor0,tr0,19036,494936).
route(prodloc8,harbor0,tr13,19036,114216).
route(prodloc8,harbor1,tr0,9609,249834).
route(prodloc8,harbor1,tr13,9609,57654).
route(prodloc8,harbor2,tr0,11523,299598).
route(prodloc8,harbor2,tr13,11523,69138).
route(prodloc8,harbor3,tr0,26823,697398).
route(prodloc8,harbor3,tr13,26823,160938).
route(prodloc8,harbor4,tr0,4234,110084).
route(prodloc8,harbor4,tr13,4234,25404).
route(prodloc8,harbor5,tr0,13735,357110).
route(prodloc8,harbor5,tr13,13735,82410).
route(prodloc8,prodloc0,tr13,13412,80472).
route(prodloc8,prodloc0,tr15,13412,429184).
route(prodloc8,prodloc1,tr0,26642,692692).
route(prodloc8,prodloc1,tr13,26642,159852).
route(prodloc8,prodloc2,tr0,18480,480480).
route(prodloc8,prodloc2,tr13,18480,110880).
route(prodloc8,prodloc3,tr0,21048,547248).
route(prodloc8,prodloc3,tr13,21048,126288).
route(prodloc8,prodloc4,tr0,17643,458718).
route(prodloc8,prodloc4,tr13,17643,105858).
route(prodloc8,prodloc5,tr0,12107,314782).
route(prodloc8,prodloc5,tr13,12107,72642).
route(prodloc8,prodloc6,tr0,15320,398320).
route(prodloc8,prodloc6,tr13,15320,91920).
route(prodloc8,prodloc7,tr0,4658,121108).
route(prodloc8,prodloc7,tr13,4658,27948).
route(prodloc8,prodloc9,tr0,5139,133614).
route(prodloc8,prodloc9,tr13,5139,30834).
route(prodloc8,prodloc10,tr0,19529,507754).
route(prodloc8,prodloc10,tr13,19529,117174).
route(prodloc8,prodloc11,tr0,12543,326118).
route(prodloc8,prodloc11,tr13,12543,75258).
route(prodloc8,prodloc12,tr0,18478,480428).
route(prodloc8,prodloc12,tr13,18478,110868).
route(prodloc8,prodloc13,tr0,15633,406458).
route(prodloc8,prodloc13,tr13,15633,93798).
route(prodloc8,prodloc14,tr0,6527,169702).
route(prodloc8,prodloc14,tr13,6527,39162).
route(prodloc9,harbor0,tr0,4359,113334).
route(prodloc9,harbor0,tr13,4359,26154).
route(prodloc9,harbor1,tr0,19944,518544).
route(prodloc9,harbor1,tr13,19944,119664).
route(prodloc9,harbor2,tr0,2978,77428).
route(prodloc9,harbor2,tr13,2978,17868).
route(prodloc9,harbor3,tr0,11507,299182).
route(prodloc9,harbor3,tr13,11507,69042).
route(prodloc9,harbor4,tr0,26912,699712).
route(prodloc9,harbor4,tr13,26912,161472).
route(prodloc9,harbor5,tr0,21683,563758).
route(prodloc9,harbor5,tr13,21683,130098).
route(prodloc9,prodloc0,tr0,33,858).
route(prodloc9,prodloc0,tr13,33,198).
route(prodloc9,prodloc1,tr0,12514,325364).
route(prodloc9,prodloc1,tr13,12514,75084).
route(prodloc9,prodloc2,tr0,3538,91988).
route(prodloc9,prodloc2,tr13,3538,21228).
route(prodloc9,prodloc3,tr0,10685,277810).
route(prodloc9,prodloc3,tr13,10685,64110).
route(prodloc9,prodloc4,tr0,18542,482092).
route(prodloc9,prodloc4,tr13,18542,111252).
route(prodloc9,prodloc5,tr13,20159,120954).
route(prodloc9,prodloc5,tr15,20159,645088).
route(prodloc9,prodloc6,tr0,17677,459602).
route(prodloc9,prodloc6,tr13,17677,106062).
route(prodloc9,prodloc7,tr0,4612,119912).
route(prodloc9,prodloc7,tr13,4612,27672).
route(prodloc9,prodloc8,tr0,10666,277316).
route(prodloc9,prodloc8,tr13,10666,63996).
route(prodloc9,prodloc10,tr0,20628,536328).
route(prodloc9,prodloc10,tr13,20628,123768).
route(prodloc9,prodloc11,tr0,28723,746798).
route(prodloc9,prodloc11,tr13,28723,172338).
route(prodloc9,prodloc12,tr13,18492,110952).
route(prodloc9,prodloc12,tr15,18492,591744).
route(prodloc9,prodloc13,tr0,12317,320242).
route(prodloc9,prodloc13,tr13,12317,73902).
route(prodloc9,prodloc14,tr0,14066,365716).
route(prodloc9,prodloc14,tr13,14066,84396).
route(prodloc10,harbor0,tr0,14147,367822).
route(prodloc10,harbor0,tr13,14147,84882).
route(prodloc10,harbor1,tr0,7418,192868).
route(prodloc10,harbor1,tr13,7418,44508).
route(prodloc10,harbor2,tr0,16170,420420).
route(prodloc10,harbor2,tr13,16170,97020).
route(prodloc10,harbor3,tr0,9553,248378).
route(prodloc10,harbor3,tr13,9553,57318).
route(prodloc10,harbor4,tr0,15716,408616).
route(prodloc10,harbor4,tr13,15716,94296).
route(prodloc10,harbor5,tr0,23211,603486).
route(prodloc10,harbor5,tr13,23211,139266).
route(prodloc10,prodloc0,tr0,12446,323596).
route(prodloc10,prodloc0,tr13,12446,74676).
route(prodloc10,prodloc1,tr0,12581,327106).
route(prodloc10,prodloc1,tr13,12581,75486).
route(prodloc10,prodloc2,tr0,28017,728442).
route(prodloc10,prodloc2,tr13,28017,168102).
route(prodloc10,prodloc3,tr13,5213,31278).
route(prodloc10,prodloc3,tr15,5213,166816).
route(prodloc10,prodloc4,tr0,19525,507650).
route(prodloc10,prodloc4,tr13,19525,117150).
route(prodloc10,prodloc5,tr0,19464,506064).
route(prodloc10,prodloc5,tr13,19464,116784).
route(prodloc10,prodloc6,tr0,8515,221390).
route(prodloc10,prodloc6,tr13,8515,51090).
route(prodloc10,prodloc7,tr0,24283,631358).
route(prodloc10,prodloc7,tr13,24283,145698).
route(prodloc10,prodloc8,tr0,9858,256308).
route(prodloc10,prodloc8,tr13,9858,59148).
route(prodloc10,prodloc9,tr0,16264,422864).
route(prodloc10,prodloc9,tr13,16264,97584).
route(prodloc10,prodloc11,tr0,8229,213954).
route(prodloc10,prodloc11,tr13,8229,49374).
route(prodloc10,prodloc12,tr0,13616,354016).
route(prodloc10,prodloc12,tr13,13616,81696).
route(prodloc10,prodloc13,tr0,646,16796).
route(prodloc10,prodloc13,tr15,646,20672).
route(prodloc10,prodloc14,tr0,10459,271934).
route(prodloc10,prodloc14,tr13,10459,62754).
route(prodloc11,harbor0,tr0,10077,262002).
route(prodloc11,harbor0,tr13,10077,60462).
route(prodloc11,harbor1,tr0,16115,418990).
route(prodloc11,harbor1,tr13,16115,96690).
route(prodloc11,harbor2,tr0,9386,244036).
route(prodloc11,harbor2,tr13,9386,56316).
route(prodloc11,harbor3,tr0,4697,122122).
route(prodloc11,harbor3,tr13,4697,28182).
route(prodloc11,harbor4,tr0,15630,406380).
route(prodloc11,harbor4,tr13,15630,93780).
route(prodloc11,harbor5,tr0,781,20306).
route(prodloc11,harbor5,tr13,781,4686).
route(prodloc11,prodloc0,tr0,3995,103870).
route(prodloc11,prodloc0,tr13,3995,23970).
route(prodloc11,prodloc1,tr0,21630,562380).
route(prodloc11,prodloc1,tr13,21630,129780).
route(prodloc11,prodloc2,tr0,20373,529698).
route(prodloc11,prodloc2,tr15,20373,651936).
route(prodloc11,prodloc3,tr0,14533,377858).
route(prodloc11,prodloc3,tr13,14533,87198).
route(prodloc11,prodloc4,tr0,8046,209196).
route(prodloc11,prodloc4,tr13,8046,48276).
route(prodloc11,prodloc5,tr0,9606,249756).
route(prodloc11,prodloc5,tr13,9606,57636).
route(prodloc11,prodloc6,tr0,1311,34086).
route(prodloc11,prodloc6,tr13,1311,7866).
route(prodloc11,prodloc7,tr13,25616,153696).
route(prodloc11,prodloc7,tr15,25616,819712).
route(prodloc11,prodloc8,tr13,4472,26832).
route(prodloc11,prodloc8,tr15,4472,143104).
route(prodloc11,prodloc9,tr0,27094,704444).
route(prodloc11,prodloc9,tr13,27094,162564).
route(prodloc11,prodloc10,tr0,12859,334334).
route(prodloc11,prodloc10,tr13,12859,77154).
route(prodloc11,prodloc12,tr0,434,11284).
route(prodloc11,prodloc12,tr13,434,2604).
route(prodloc11,prodloc13,tr0,15740,409240).
route(prodloc11,prodloc13,tr15,15740,503680).
route(prodloc11,prodloc14,tr0,17453,453778).
route(prodloc11,prodloc14,tr13,17453,104718).
route(prodloc12,harbor0,tr0,18362,477412).
route(prodloc12,harbor0,tr13,18362,110172).
route(prodloc12,harbor1,tr0,8973,233298).
route(prodloc12,harbor1,tr13,8973,53838).
route(prodloc12,harbor2,tr0,7980,207480).
route(prodloc12,harbor2,tr13,7980,47880).
route(prodloc12,harbor3,tr0,15543,404118).
route(prodloc12,harbor3,tr13,15543,93258).
route(prodloc12,harbor4,tr0,25623,666198).
route(prodloc12,harbor4,tr13,25623,153738).
route(prodloc12,harbor5,tr0,1206,31356).
route(prodloc12,harbor5,tr13,1206,7236).
route(prodloc12,prodloc0,tr0,8051,209326).
route(prodloc12,prodloc0,tr13,8051,48306).
route(prodloc12,prodloc1,tr0,16062,417612).
route(prodloc12,prodloc1,tr13,16062,96372).
route(prodloc12,prodloc2,tr0,8773,228098).
route(prodloc12,prodloc2,tr13,8773,52638).
route(prodloc12,prodloc3,tr0,27655,719030).
route(prodloc12,prodloc3,tr13,27655,165930).
route(prodloc12,prodloc4,tr0,5073,131898).
route(prodloc12,prodloc4,tr13,5073,30438).
route(prodloc12,prodloc5,tr0,23642,614692).
route(prodloc12,prodloc5,tr13,23642,141852).
route(prodloc12,prodloc6,tr0,9364,243464).
route(prodloc12,prodloc6,tr13,9364,56184).
route(prodloc12,prodloc7,tr0,9609,249834).
route(prodloc12,prodloc7,tr13,9609,57654).
route(prodloc12,prodloc8,tr0,16132,419432).
route(prodloc12,prodloc8,tr13,16132,96792).
route(prodloc12,prodloc9,tr0,19926,518076).
route(prodloc12,prodloc9,tr13,19926,119556).
route(prodloc12,prodloc10,tr0,15554,404404).
route(prodloc12,prodloc10,tr13,15554,93324).
route(prodloc12,prodloc11,tr0,16983,441558).
route(prodloc12,prodloc11,tr13,16983,101898).
route(prodloc12,prodloc13,tr0,21133,549458).
route(prodloc12,prodloc13,tr15,21133,676256).
route(prodloc12,prodloc14,tr0,28296,735696).
route(prodloc12,prodloc14,tr13,28296,169776).
route(prodloc13,harbor0,tr0,19789,514514).
route(prodloc13,harbor0,tr13,19789,118734).
route(prodloc13,harbor1,tr0,28859,750334).
route(prodloc13,harbor1,tr13,28859,173154).
route(prodloc13,harbor2,tr0,24364,633464).
route(prodloc13,harbor2,tr13,24364,146184).
route(prodloc13,harbor3,tr0,3874,100724).
route(prodloc13,harbor3,tr13,3874,23244).
route(prodloc13,harbor4,tr0,531,13806).
route(prodloc13,harbor4,tr13,531,3186).
route(prodloc13,harbor5,tr0,24918,647868).
route(prodloc13,harbor5,tr13,24918,149508).
route(prodloc13,prodloc0,tr0,4131,107406).
route(prodloc13,prodloc0,tr13,4131,24786).
route(prodloc13,prodloc1,tr0,9855,256230).
route(prodloc13,prodloc1,tr13,9855,59130).
route(prodloc13,prodloc2,tr0,9253,240578).
route(prodloc13,prodloc2,tr13,9253,55518).
route(prodloc13,prodloc3,tr0,17483,454558).
route(prodloc13,prodloc3,tr13,17483,104898).
route(prodloc13,prodloc4,tr13,23202,139212).
route(prodloc13,prodloc4,tr15,23202,742464).
route(prodloc13,prodloc5,tr0,11016,286416).
route(prodloc13,prodloc5,tr13,11016,66096).
route(prodloc13,prodloc6,tr0,20107,522782).
route(prodloc13,prodloc6,tr13,20107,120642).
route(prodloc13,prodloc7,tr0,9728,252928).
route(prodloc13,prodloc7,tr15,9728,311296).
route(prodloc13,prodloc8,tr0,23964,623064).
route(prodloc13,prodloc8,tr13,23964,143784).
route(prodloc13,prodloc9,tr0,17364,451464).
route(prodloc13,prodloc9,tr13,17364,104184).
route(prodloc13,prodloc10,tr0,874,22724).
route(prodloc13,prodloc10,tr13,874,5244).
route(prodloc13,prodloc11,tr13,15217,91302).
route(prodloc13,prodloc11,tr15,15217,486944).
route(prodloc13,prodloc12,tr0,11463,298038).
route(prodloc13,prodloc12,tr13,11463,68778).
route(prodloc13,prodloc14,tr0,11832,307632).
route(prodloc13,prodloc14,tr13,11832,70992).
route(prodloc14,harbor0,tr0,22341,580866).
route(prodloc14,harbor0,tr13,22341,134046).
route(prodloc14,harbor1,tr0,24414,634764).
route(prodloc14,harbor1,tr13,24414,146484).
route(prodloc14,harbor2,tr0,26630,692380).
route(prodloc14,harbor2,tr13,26630,159780).
route(prodloc14,harbor3,tr0,19361,503386).
route(prodloc14,harbor3,tr13,19361,116166).
route(prodloc14,harbor4,tr0,4343,112918).
route(prodloc14,harbor4,tr13,4343,26058).
route(prodloc14,harbor5,tr0,1195,31070).
route(prodloc14,harbor5,tr13,1195,7170).
route(prodloc14,prodloc0,tr0,94,2444).
route(prodloc14,prodloc0,tr13,94,564).
route(prodloc14,prodloc1,tr0,8273,215098).
route(prodloc14,prodloc1,tr13,8273,49638).
route(prodloc14,prodloc2,tr0,18130,471380).
route(prodloc14,prodloc2,tr13,18130,108780).
route(prodloc14,prodloc3,tr0,14931,388206).
route(prodloc14,prodloc3,tr13,14931,89586).
route(prodloc14,prodloc4,tr0,22472,584272).
route(prodloc14,prodloc4,tr13,22472,134832).
route(prodloc14,prodloc5,tr0,3527,91702).
route(prodloc14,prodloc5,tr13,3527,21162).
route(prodloc14,prodloc6,tr0,22527,585702).
route(prodloc14,prodloc6,tr13,22527,135162).
route(prodloc14,prodloc7,tr0,17879,464854).
route(prodloc14,prodloc7,tr13,17879,107274).
route(prodloc14,prodloc8,tr0,6266,162916).
route(prodloc14,prodloc8,tr13,6266,37596).
route(prodloc14,prodloc9,tr0,479,12454).
route(prodloc14,prodloc9,tr13,479,2874).
route(prodloc14,prodloc10,tr0,14081,366106).
route(prodloc14,prodloc10,tr13,14081,84486).
route(prodloc14,prodloc11,tr0,25508,663208).
route(prodloc14,prodloc11,tr13,25508,153048).
route(prodloc14,prodloc12,tr0,26463,688038).
route(prodloc14,prodloc12,tr13,26463,158778).
route(prodloc14,prodloc13,tr0,14017,364442).
route(prodloc14,prodloc13,tr13,14017,84102).
hub(harbor2).
hub(harbor5).
hub(prodloc9).
hub(prodloc12).
