% Multibatching benchmark instance
% Source: instances.lp
% seed=6  harbors=6  prodlocs=15  hubs=4  disruptions=2

% ---- locations ----
location(harbor0).
location(harbor1).
location(harbor2).
location(harbor3).
location(harbor4).
location(harbor5).
location(prodloc0).
location(prodloc1).
location(prodloc2).
location(prodloc3).
location(prodloc4).
location(prodloc5).
location(prodloc6).
location(prodloc7).
location(prodloc8).
location(prodloc9).
location(prodloc10).
location(prodloc11).
location(prodloc12).
location(prodloc13).
location(prodloc14).

% ---- transport resources ----
transportCapacity(tr0,1800).
transportCO2(tr0,1680).
transportCost(tr0,26).
transportSpeed(tr0,12).
transportCapacity(tr1,65).
transportCO2(tr1,90).
transportCost(tr1,1).
transportSpeed(tr1,35).
transportCapacity(tr10,1).
transportCO2(tr10,700).
transportCost(tr10,4).
transportSpeed(tr10,40).
transportCapacity(tr11,65).
transportCO2(tr11,62).
transportCost(tr11,1).
transportSpeed(tr11,25).
transportCapacity(tr12,65).
transportCO2(tr12,709).
transportCost(tr12,3).
transportSpeed(tr12,55).
transportCapacity(tr13,68).
transportCO2(tr13,160).
transportCost(tr13,6).
transportSpeed(tr13,25).
transportCapacity(tr14,146).
transportCO2(tr14,780).
transportCost(tr14,4).
transportSpeed(tr14,50).
transportCapacity(tr15,2217).
transportCO2(tr15,49470).
transportCost(tr15,32).
transportSpeed(tr15,625).
transportCapacity(tr2,96).
transportCO2(tr2,709).
transportCost(tr2,3).
transportSpeed(tr2,55).
transportCapacity(tr3,1).
transportCO2(tr3,6250).
transportCost(tr3,108).
transportSpeed(tr3,25).
transportCapacity(tr4,148).
transportCO2(tr4,780).
transportCost(tr4,4).
transportSpeed(tr4,50).
transportCapacity(tr5,65).
transportCO2(tr5,780).
transportCost(tr5,3).
transportSpeed(tr5,50).
transportCapacity(tr6,1).
transportCO2(tr6,100).
transportCost(tr6,40).
transportSpeed(tr6,25).
transportCapacity(tr7,1).
transportCO2(tr7,18000).
transportCost(tr7,278).
transportSpeed(tr7,10).
transportCapacity(tr8,1).
transportCO2(tr8,14400).
transportCost(tr8,107).
transportSpeed(tr8,25).
transportCapacity(tr9,65).
transportCO2(tr9,708).
transportCost(tr9,2).
transportSpeed(tr9,60).

% ---- parts ----
part(part0).
partSize(part0,21).
valid_transport(part0,tr0).
valid_transport(part0,tr15).
valid_transport(part0,tr14).
valid_transport(part0,tr13).
valid_transport(part0,tr4).
part(part1).
partSize(part1,1).
valid_transport(part1,tr0).
valid_transport(part1,tr2).
valid_transport(part1,tr15).
valid_transport(part1,tr9).
valid_transport(part1,tr12).
valid_transport(part1,tr13).
valid_transport(part1,tr11).
part(part10).
partSize(part10,1).
valid_transport(part10,tr0).
valid_transport(part10,tr2).
valid_transport(part10,tr15).
valid_transport(part10,tr9).
valid_transport(part10,tr12).
valid_transport(part10,tr13).
valid_transport(part10,tr11).
part(part11).
partSize(part11,83).
valid_transport(part11,tr0).
valid_transport(part11,tr7).
valid_transport(part11,tr8).
valid_transport(part11,tr15).
valid_transport(part11,tr3).
valid_transport(part11,tr13).
part(part12).
partSize(part12,273).
valid_transport(part12,tr0).
valid_transport(part12,tr7).
valid_transport(part12,tr8).
valid_transport(part12,tr15).
valid_transport(part12,tr3).
valid_transport(part12,tr13).
part(part13).
partSize(part13,1).
valid_transport(part13,tr0).
valid_transport(part13,tr2).
valid_transport(part13,tr15).
valid_transport(part13,tr9).
valid_transport(part13,tr12).
valid_transport(part13,tr13).
valid_transport(part13,tr11).
part(part14).
partSize(part14,68).
valid_transport(part14,tr0).
valid_transport(part14,tr15).
valid_transport(part14,tr13).
part(part15).
partSize(part15,4).
valid_transport(part15,tr0).
valid_transport(part15,tr2).
valid_transport(part15,tr15).
valid_transport(part15,tr9).
valid_transport(part15,tr12).
valid_transport(part15,tr13).
valid_transport(part15,tr11).
part(part16).
partSize(part16,4).
valid_transport(part16,tr0).
valid_transport(part16,tr2).
valid_transport(part16,tr15).
valid_transport(part16,tr9).
valid_transport(part16,tr12).
valid_transport(part16,tr13).
valid_transport(part16,tr11).
part(part17).
partSize(part17,8).
valid_transport(part17,tr0).
valid_transport(part17,tr15).
valid_transport(part17,tr14).
valid_transport(part17,tr13).
valid_transport(part17,tr4).
part(part18).
partSize(part18,24).
valid_transport(part18,tr0).
valid_transport(part18,tr15).
valid_transport(part18,tr14).
valid_transport(part18,tr13).
valid_transport(part18,tr4).
part(part19).
partSize(part19,6).
valid_transport(part19,tr0).
valid_transport(part19,tr2).
valid_transport(part19,tr15).
valid_transport(part19,tr9).
valid_transport(part19,tr12).
valid_transport(part19,tr13).
valid_transport(part19,tr11).
part(part2).
partSize(part2,19).
valid_transport(part2,tr0).
valid_transport(part2,tr15).
valid_transport(part2,tr14).
valid_transport(part2,tr13).
valid_transport(part2,tr4).
part(part20).
partSize(part20,128).
valid_transport(part20,tr0).
valid_transport(part20,tr7).
valid_transport(part20,tr8).
valid_transport(part20,tr15).
valid_transport(part20,tr3).
valid_transport(part20,tr13).
part(part21).
partSize(part21,25).
valid_transport(part21,tr0).
valid_transport(part21,tr15).
valid_transport(part21,tr14).
valid_transport(part21,tr13).
valid_transport(part21,tr4).
part(part22).
partSize(part22,7).
valid_transport(part22,tr0).
valid_transport(part22,tr2).
valid_transport(part22,tr15).
valid_transport(part22,tr9).
valid_transport(part22,tr12).
valid_transport(part22,tr13).
valid_transport(part22,tr11).
part(part23).
partSize(part23,5).
valid_transport(part23,tr0).
valid_transport(part23,tr15).
valid_transport(part23,tr14).
valid_transport(part23,tr13).
valid_transport(part23,tr4).
part(part24).
partSize(part24,55).
valid_transport(part24,tr0).
valid_transport(part24,tr7).
valid_transport(part24,tr8).
valid_transport(part24,tr15).
valid_transport(part24,tr3).
valid_transport(part24,tr13).
part(part25).
partSize(part25,5).
valid_transport(part25,tr0).
valid_transport(part25,tr4).
valid_transport(part25,tr2).
valid_transport(part25,tr15).
valid_transport(part25,tr13).
part(part26).
partSize(part26,32).
valid_transport(part26,tr0).
valid_transport(part26,tr7).
valid_transport(part26,tr8).
valid_transport(part26,tr15).
valid_transport(part26,tr3).
valid_transport(part26,tr13).
part(part27).
partSize(part27,5).
valid_transport(part27,tr0).
valid_transport(part27,tr2).
valid_transport(part27,tr15).
valid_transport(part27,tr9).
valid_transport(part27,tr12).
valid_transport(part27,tr13).
valid_transport(part27,tr11).
part(part28).
partSize(part28,3).
valid_transport(part28,tr0).
valid_transport(part28,tr4).
valid_transport(part28,tr2).
valid_transport(part28,tr15).
valid_transport(part28,tr14).
valid_transport(part28,tr13).
part(part29).
partSize(part29,627).
part(part3).
partSize(part3,48).
valid_transport(part3,tr0).
valid_transport(part3,tr7).
valid_transport(part3,tr8).
valid_transport(part3,tr15).
valid_transport(part3,tr3).
valid_transport(part3,tr13).
part(part30).
partSize(part30,2).
valid_transport(part30,tr0).
valid_transport(part30,tr2).
valid_transport(part30,tr15).
valid_transport(part30,tr9).
valid_transport(part30,tr12).
valid_transport(part30,tr13).
valid_transport(part30,tr11).
part(part31).
partSize(part31,144).
valid_transport(part31,tr0).
valid_transport(part31,tr7).
valid_transport(part31,tr8).
valid_transport(part31,tr15).
valid_transport(part31,tr3).
valid_transport(part31,tr13).
part(part32).
partSize(part32,16).
valid_transport(part32,tr0).
valid_transport(part32,tr4).
valid_transport(part32,tr2).
valid_transport(part32,tr15).
valid_transport(part32,tr14).
valid_transport(part32,tr13).
part(part33).
partSize(part33,7).
valid_transport(part33,tr0).
valid_transport(part33,tr2).
valid_transport(part33,tr15).
valid_transport(part33,tr9).
valid_transport(part33,tr12).
valid_transport(part33,tr13).
valid_transport(part33,tr11).
part(part3345).
partSize(part3345,353).
valid_transport(part3345,tr0).
valid_transport(part3345,tr7).
valid_transport(part3345,tr8).
valid_transport(part3345,tr15).
valid_transport(part3345,tr3).
valid_transport(part3345,tr13).
part(part34).
partSize(part34,2).
valid_transport(part34,tr0).
valid_transport(part34,tr2).
valid_transport(part34,tr15).
valid_transport(part34,tr9).
valid_transport(part34,tr12).
valid_transport(part34,tr13).
valid_transport(part34,tr11).
part(part4).
partSize(part4,2).
valid_transport(part4,tr0).
valid_transport(part4,tr2).
valid_transport(part4,tr15).
valid_transport(part4,tr9).
valid_transport(part4,tr12).
valid_transport(part4,tr13).
valid_transport(part4,tr11).
part(part5).
partSize(part5,2).
valid_transport(part5,tr0).
valid_transport(part5,tr2).
valid_transport(part5,tr15).
valid_transport(part5,tr9).
valid_transport(part5,tr12).
valid_transport(part5,tr14).
valid_transport(part5,tr13).
valid_transport(part5,tr11).
part(part6).
partSize(part6,111).
valid_transport(part6,tr0).
valid_transport(part6,tr7).
valid_transport(part6,tr8).
valid_transport(part6,tr15).
valid_transport(part6,tr3).
valid_transport(part6,tr13).
part(part8).
partSize(part8,163).
valid_transport(part8,tr0).
valid_transport(part8,tr7).
valid_transport(part8,tr8).
valid_transport(part8,tr15).
valid_transport(part8,tr3).
valid_transport(part8,tr13).
part(part9).
partSize(part9,2).
valid_transport(part9,tr0).
valid_transport(part9,tr2).
valid_transport(part9,tr15).
valid_transport(part9,tr9).
valid_transport(part9,tr12).
valid_transport(part9,tr13).
valid_transport(part9,tr11).

% ---- demand ----
demandOffer(part0,prodloc12,40).
demandOffer(part0,prodloc9,40).
demandOffer(part0,prodloc1,-27).
demandOffer(part0,prodloc7,-53).
demandOffer(part1,prodloc12,20).
demandOffer(part1,prodloc4,20).
demandOffer(part1,prodloc0,-20).
demandOffer(part1,prodloc14,-20).
demandOffer(part10,prodloc2,20).
demandOffer(part10,prodloc10,20).
demandOffer(part10,prodloc9,-20).
demandOffer(part10,prodloc7,-20).
demandOffer(part12,prodloc12,10).
demandOffer(part12,prodloc11,20).
demandOffer(part12,prodloc5,-10).
demandOffer(part12,prodloc14,-10).
demandOffer(part12,prodloc0,-10).
demandOffer(part13,prodloc4,20).
demandOffer(part13,prodloc7,20).
demandOffer(part13,prodloc12,-20).
demandOffer(part13,prodloc3,-20).
demandOffer(part14,prodloc11,26).
demandOffer(part14,prodloc13,-26).
demandOffer(part15,prodloc6,53).
demandOffer(part15,prodloc8,27).
demandOffer(part15,prodloc13,-53).
demandOffer(part15,prodloc10,-27).
demandOffer(part16,prodloc1,53).
demandOffer(part16,prodloc3,27).
demandOffer(part16,prodloc9,-53).
demandOffer(part16,prodloc8,-27).
demandOffer(part17,prodloc11,20).
demandOffer(part17,prodloc12,-20).
demandOffer(part18,prodloc11,40).
demandOffer(part18,prodloc4,40).
demandOffer(part18,prodloc10,-27).
demandOffer(part18,prodloc9,-53).
demandOffer(part19,prodloc10,26).
demandOffer(part19,prodloc1,-26).
demandOffer(part2,prodloc13,40).
demandOffer(part2,prodloc6,40).
demandOffer(part2,prodloc5,-27).
demandOffer(part2,prodloc1,-53).
demandOffer(part20,prodloc5,53).
demandOffer(part20,prodloc12,27).
demandOffer(part20,prodloc6,-14).
demandOffer(part20,prodloc4,-46).
demandOffer(part20,prodloc7,-20).
demandOffer(part21,prodloc11,26).
demandOffer(part21,prodloc1,-26).
demandOffer(part22,prodloc12,53).
demandOffer(part22,prodloc3,27).
demandOffer(part22,prodloc11,-53).
demandOffer(part22,prodloc10,-27).
demandOffer(part23,prodloc12,20).
demandOffer(part23,prodloc4,20).
demandOffer(part23,prodloc1,-20).
demandOffer(part23,prodloc0,-20).
demandOffer(part25,prodloc9,20).
demandOffer(part25,prodloc3,-20).
demandOffer(part26,prodloc13,20).
demandOffer(part26,prodloc10,20).
demandOffer(part26,prodloc5,-14).
demandOffer(part26,prodloc7,-26).
demandOffer(part27,prodloc14,53).
demandOffer(part27,prodloc13,27).
demandOffer(part27,prodloc3,-53).
demandOffer(part27,prodloc8,-27).
demandOffer(part28,prodloc9,20).
demandOffer(part28,prodloc10,20).
demandOffer(part28,prodloc11,-20).
demandOffer(part28,prodloc8,-20).
demandOffer(part3,prodloc14,40).
demandOffer(part3,prodloc0,-14).
demandOffer(part3,prodloc10,-26).
demandOffer(part30,prodloc5,40).
demandOffer(part30,prodloc3,40).
demandOffer(part30,prodloc9,-27).
demandOffer(part30,prodloc6,-53).
demandOffer(part31,prodloc4,7).
demandOffer(part31,prodloc5,7).
demandOffer(part31,prodloc9,-14).
demandOffer(part32,prodloc1,53).
demandOffer(part32,prodloc14,27).
demandOffer(part32,prodloc8,-53).
demandOffer(part32,prodloc10,-27).
demandOffer(part33,prodloc8,53).
demandOffer(part33,prodloc3,27).
demandOffer(part33,prodloc1,-53).
demandOffer(part33,prodloc9,-27).
demandOffer(part34,prodloc10,20).
demandOffer(part34,prodloc4,-20).
demandOffer(part4,prodloc4,26).
demandOffer(part4,prodloc11,-26).
demandOffer(part5,prodloc3,20).
demandOffer(part5,prodloc6,-20).
demandOffer(part6,prodloc7,27).
demandOffer(part6,prodloc3,53).
demandOffer(part6,prodloc2,-24).
demandOffer(part6,prodloc9,-36).
demandOffer(part6,prodloc13,-10).
demandOffer(part6,prodloc8,-10).
demandOffer(part8,prodloc0,3).
demandOffer(part8,prodloc3,17).
demandOffer(part8,prodloc12,-10).
demandOffer(part8,prodloc2,-10).
demandOffer(part9,prodloc0,20).
demandOffer(part9,prodloc10,-20).

% ---- network (ASP-generated) ----
route(harbor0,harbor1,tr13,10938,65628).
route(harbor0,harbor1,tr2,10938,32814).
route(harbor0,harbor2,tr13,18306,109836).
route(harbor0,harbor2,tr2,18306,54918).
route(harbor0,harbor3,tr13,22028,132168).
route(harbor0,harbor3,tr2,22028,66084).
route(harbor0,harbor4,tr13,20354,122124).
route(harbor0,harbor4,tr2,20354,61062).
route(harbor0,harbor5,tr13,20300,121800).
route(harbor0,harbor5,tr2,20300,60900).
route(harbor0,prodloc0,tr0,10033,260858).
route(harbor0,prodloc0,tr13,10033,60198).
route(harbor0,prodloc1,tr0,12277,319202).
route(harbor0,prodloc1,tr13,12277,73662).
route(harbor0,prodloc2,tr0,12368,321568).
route(harbor0,prodloc2,tr13,12368,74208).
route(harbor0,prodloc3,tr0,17282,449332).
route(harbor0,prodloc3,tr13,17282,103692).
route(harbor0,prodloc4,tr0,12754,331604).
route(harbor0,prodloc4,tr13,12754,76524).
route(harbor0,prodloc5,tr0,9476,246376).
route(harbor0,prodloc5,tr13,9476,56856).
route(harbor0,prodloc6,tr0,4158,108108).
route(harbor0,prodloc6,tr13,4158,24948).
route(harbor0,prodloc7,tr0,22242,578292).
route(harbor0,prodloc7,tr13,22242,133452).
route(harbor0,prodloc8,tr0,16017,416442).
route(harbor0,prodloc8,tr13,16017,96102).
route(harbor0,prodloc9,tr0,1765,45890).
route(harbor0,prodloc9,tr13,1765,10590).
route(harbor0,prodloc10,tr0,6075,157950).
route(harbor0,prodloc10,tr13,6075,36450).
route(harbor0,prodloc11,tr0,13859,360334).
route(harbor0,prodloc11,tr13,13859,83154).
route(harbor0,prodloc12,tr0,19463,506038).
route(harbor0,prodloc12,tr13,19463,116778).
route(harbor0,prodloc13,tr0,24457,635882).
route(harbor0,prodloc13,tr13,24457,146742).
route(harbor0,prodloc14,tr0,13035,338910).
route(harbor0,prodloc14,tr13,13035,78210).
route(harbor1,harbor0,tr13,3175,19050).
route(harbor1,harbor0,tr2,3175,9525).
route(harbor1,harbor2,tr13,14488,86928).
route(harbor1,harbor2,tr2,14488,43464).
route(harbor1,harbor3,tr13,8068,48408).
route(harbor1,harbor3,tr2,8068,24204).
route(harbor1,harbor4,tr13,26430,158580).
route(harbor1,harbor4,tr2,26430,79290).
route(harbor1,harbor5,tr13,2948,17688).
route(harbor1,harbor5,tr2,2948,8844).
route(harbor1,prodloc0,tr0,19767,513942).
route(harbor1,prodloc0,tr13,19767,118602).
route(harbor1,prodloc1,tr0,21963,571038).
route(harbor1,prodloc1,tr13,21963,131778).
route(harbor1,prodloc2,tr0,28525,741650).
route(harbor1,prodloc2,tr13,28525,171150).
route(harbor1,prodloc3,tr0,14620,380120).
route(harbor1,prodloc3,tr13,14620,87720).
route(harbor1,prodloc4,tr0,14655,381030).
route(harbor1,prodloc4,tr13,14655,87930).
route(harbor1,prodloc5,tr0,25689,667914).
route(harbor1,prodloc5,tr13,25689,154134).
route(harbor1,prodloc6,tr0,27240,708240).
route(harbor1,prodloc6,tr13,27240,163440).
route(harbor1,prodloc7,tr0,12454,323804).
route(harbor1,prodloc7,tr13,12454,74724).
route(harbor1,prodloc8,tr0,26088,678288).
route(harbor1,prodloc8,tr13,26088,156528).
route(harbor1,prodloc9,tr0,2507,65182).
route(harbor1,prodloc9,tr13,2507,15042).
route(harbor1,prodloc10,tr0,16932,440232).
route(harbor1,prodloc10,tr13,16932,101592).
route(harbor1,prodloc11,tr0,13974,363324).
route(harbor1,prodloc11,tr13,13974,83844).
route(harbor1,prodloc12,tr0,15433,401258).
route(harbor1,prodloc12,tr13,15433,92598).
route(harbor1,prodloc13,tr0,9945,258570).
route(harbor1,prodloc13,tr13,9945,59670).
route(harbor1,prodloc14,tr0,23125,601250).
route(harbor1,prodloc14,tr13,23125,138750).
route(harbor2,harbor0,tr13,26786,160716).
route(harbor2,harbor0,tr2,26786,80358).
route(harbor2,harbor1,tr13,13434,80604).
route(harbor2,harbor1,tr2,13434,40302).
route(harbor2,harbor3,tr13,2845,17070).
route(harbor2,harbor3,tr2,2845,8535).
route(harbor2,harbor4,tr13,6326,37956).
route(harbor2,harbor4,tr2,6326,18978).
route(harbor2,harbor5,tr13,24491,146946).
route(harbor2,harbor5,tr2,24491,73473).
route(harbor2,prodloc0,tr0,22290,579540).
route(harbor2,prodloc0,tr13,22290,133740).
route(harbor2,prodloc1,tr0,8712,226512).
route(harbor2,prodloc1,tr13,8712,52272).
route(harbor2,prodloc2,tr0,14792,384592).
route(harbor2,prodloc2,tr13,14792,88752).
route(harbor2,prodloc3,tr0,15981,415506).
route(harbor2,prodloc3,tr13,15981,95886).
route(harbor2,prodloc4,tr0,23681,615706).
route(harbor2,prodloc4,tr13,23681,142086).
route(harbor2,prodloc5,tr0,25693,668018).
route(harbor2,prodloc5,tr13,25693,154158).
route(harbor2,prodloc6,tr0,5642,146692).
route(harbor2,prodloc6,tr13,5642,33852).
route(harbor2,prodloc7,tr0,609,15834).
route(harbor2,prodloc7,tr13,609,3654).
route(harbor2,prodloc8,tr0,718,18668).
route(harbor2,prodloc8,tr13,718,4308).
route(harbor2,prodloc9,tr0,17629,458354).
route(harbor2,prodloc9,tr13,17629,105774).
route(harbor2,prodloc10,tr0,4048,105248).
route(harbor2,prodloc10,tr13,4048,24288).
route(harbor2,prodloc11,tr0,8231,214006).
route(harbor2,prodloc11,tr13,8231,49386).
route(harbor2,prodloc12,tr0,19315,502190).
route(harbor2,prodloc12,tr13,19315,115890).
route(harbor2,prodloc13,tr0,26274,683124).
route(harbor2,prodloc13,tr13,26274,157644).
route(harbor2,prodloc14,tr0,11832,307632).
route(harbor2,prodloc14,tr13,11832,70992).
route(harbor3,harbor0,tr13,6175,37050).
route(harbor3,harbor0,tr2,6175,18525).
route(harbor3,harbor1,tr13,8428,50568).
route(harbor3,harbor1,tr2,8428,25284).
route(harbor3,harbor2,tr13,16503,99018).
route(harbor3,harbor2,tr2,16503,49509).
route(harbor3,harbor4,tr13,14825,88950).
route(harbor3,harbor4,tr2,14825,44475).
route(harbor3,harbor5,tr13,10825,64950).
route(harbor3,harbor5,tr2,10825,32475).
route(harbor3,prodloc0,tr0,16938,440388).
route(harbor3,prodloc0,tr13,16938,101628).
route(harbor3,prodloc1,tr0,8350,217100).
route(harbor3,prodloc1,tr13,8350,50100).
route(harbor3,prodloc2,tr0,13455,349830).
route(harbor3,prodloc2,tr13,13455,80730).
route(harbor3,prodloc3,tr0,28814,749164).
route(harbor3,prodloc3,tr13,28814,172884).
route(harbor3,prodloc4,tr0,13821,359346).
route(harbor3,prodloc4,tr13,13821,82926).
route(harbor3,prodloc5,tr0,20061,521586).
route(harbor3,prodloc5,tr13,20061,120366).
route(harbor3,prodloc6,tr0,15907,413582).
route(harbor3,prodloc6,tr13,15907,95442).
route(harbor3,prodloc7,tr0,8781,228306).
route(harbor3,prodloc7,tr13,8781,52686).
route(harbor3,prodloc8,tr0,19744,513344).
route(harbor3,prodloc8,tr13,19744,118464).
route(harbor3,prodloc9,tr0,15557,404482).
route(harbor3,prodloc9,tr13,15557,93342).
route(harbor3,prodloc10,tr0,21507,559182).
route(harbor3,prodloc10,tr13,21507,129042).
route(harbor3,prodloc11,tr0,15682,407732).
route(harbor3,prodloc11,tr13,15682,94092).
route(harbor3,prodloc12,tr0,16124,419224).
route(harbor3,prodloc12,tr13,16124,96744).
route(harbor3,prodloc13,tr0,4661,121186).
route(harbor3,prodloc13,tr13,4661,27966).
route(harbor3,prodloc14,tr0,23636,614536).
route(harbor3,prodloc14,tr13,23636,141816).
route(harbor4,harbor0,tr13,12399,74394).
route(harbor4,harbor0,tr2,12399,37197).
route(harbor4,harbor1,tr13,16304,97824).
route(harbor4,harbor1,tr2,16304,48912).
route(harbor4,harbor2,tr13,10046,60276).
route(harbor4,harbor2,tr2,10046,30138).
route(harbor4,harbor3,tr13,20820,124920).
route(harbor4,harbor3,tr2,20820,62460).
route(harbor4,harbor5,tr13,26399,158394).
route(harbor4,harbor5,tr2,26399,79197).
route(harbor4,prodloc0,tr0,15313,398138).
route(harbor4,prodloc0,tr13,15313,91878).
route(harbor4,prodloc1,tr0,10598,275548).
route(harbor4,prodloc1,tr13,10598,63588).
route(harbor4,prodloc2,tr0,12010,312260).
route(harbor4,prodloc2,tr13,12010,72060).
route(harbor4,prodloc3,tr0,21604,561704).
route(harbor4,prodloc3,tr13,21604,129624).
route(harbor4,prodloc4,tr0,5344,138944).
route(harbor4,prodloc4,tr13,5344,32064).
route(harbor4,prodloc5,tr0,20299,527774).
route(harbor4,prodloc5,tr13,20299,121794).
route(harbor4,prodloc6,tr0,12324,320424).
route(harbor4,prodloc6,tr13,12324,73944).
route(harbor4,prodloc7,tr0,22757,591682).
route(harbor4,prodloc7,tr13,22757,136542).
route(harbor4,prodloc8,tr0,19762,513812).
route(harbor4,prodloc8,tr13,19762,118572).
route(harbor4,prodloc9,tr0,8711,226486).
route(harbor4,prodloc9,tr13,8711,52266).
route(harbor4,prodloc10,tr0,10491,272766).
route(harbor4,prodloc10,tr13,10491,62946).
route(harbor4,prodloc11,tr0,21173,550498).
route(harbor4,prodloc11,tr13,21173,127038).
route(harbor4,prodloc12,tr0,13052,339352).
route(harbor4,prodloc12,tr13,13052,78312).
route(harbor4,prodloc13,tr0,15992,415792).
route(harbor4,prodloc13,tr13,15992,95952).
route(harbor4,prodloc14,tr0,23899,621374).
route(harbor4,prodloc14,tr13,23899,143394).
route(harbor5,harbor0,tr13,26029,156174).
route(harbor5,harbor0,tr2,26029,78087).
route(harbor5,harbor1,tr13,5213,31278).
route(harbor5,harbor1,tr2,5213,15639).
route(harbor5,harbor2,tr13,27151,162906).
route(harbor5,harbor2,tr2,27151,81453).
route(harbor5,harbor3,tr13,9558,57348).
route(harbor5,harbor3,tr2,9558,28674).
route(harbor5,harbor4,tr13,18375,110250).
route(harbor5,harbor4,tr2,18375,55125).
route(harbor5,prodloc0,tr0,204,5304).
route(harbor5,prodloc0,tr13,204,1224).
route(harbor5,prodloc1,tr0,20442,531492).
route(harbor5,prodloc1,tr13,20442,122652).
route(harbor5,prodloc2,tr0,14726,382876).
route(harbor5,prodloc2,tr13,14726,88356).
route(harbor5,prodloc3,tr0,1873,48698).
route(harbor5,prodloc3,tr13,1873,11238).
route(harbor5,prodloc4,tr0,5984,155584).
route(harbor5,prodloc4,tr13,5984,35904).
route(harbor5,prodloc5,tr0,988,25688).
route(harbor5,prodloc5,tr13,988,5928).
route(harbor5,prodloc6,tr0,19989,519714).
route(harbor5,prodloc6,tr13,19989,119934).
route(harbor5,prodloc7,tr0,25350,659100).
route(harbor5,prodloc7,tr13,25350,152100).
route(harbor5,prodloc8,tr0,18672,485472).
route(harbor5,prodloc8,tr13,18672,112032).
route(harbor5,prodloc9,tr0,3676,95576).
route(harbor5,prodloc9,tr13,3676,22056).
route(harbor5,prodloc10,tr0,22352,581152).
route(harbor5,prodloc10,tr13,22352,134112).
route(harbor5,prodloc11,tr0,23546,612196).
route(harbor5,prodloc11,tr13,23546,141276).
route(harbor5,prodloc12,tr0,12155,316030).
route(harbor5,prodloc12,tr13,12155,72930).
route(harbor5,prodloc13,tr0,11864,308464).
route(harbor5,prodloc13,tr13,11864,71184).
route(harbor5,prodloc14,tr0,16302,423852).
route(harbor5,prodloc14,tr13,16302,97812).
route(prodloc0,harbor0,tr0,27969,727194).
route(prodloc0,harbor0,tr13,27969,167814).
route(prodloc0,harbor1,tr0,19326,502476).
route(prodloc0,harbor1,tr13,19326,115956).
route(prodloc0,harbor2,tr0,2042,53092).
route(prodloc0,harbor2,tr13,2042,12252).
route(prodloc0,harbor3,tr0,6314,164164).
route(prodloc0,harbor3,tr13,6314,37884).
route(prodloc0,harbor4,tr0,5060,131560).
route(prodloc0,harbor4,tr13,5060,30360).
route(prodloc0,harbor5,tr0,8824,229424).
route(prodloc0,harbor5,tr13,8824,52944).
route(prodloc0,prodloc1,tr0,20102,522652).
route(prodloc0,prodloc1,tr13,20102,120612).
route(prodloc0,prodloc2,tr0,487,12662).
route(prodloc0,prodloc2,tr13,487,2922).
route(prodloc0,prodloc3,tr0,13833,359658).
route(prodloc0,prodloc3,tr13,13833,82998).
route(prodloc0,prodloc4,tr0,26420,686920).
route(prodloc0,prodloc4,tr13,26420,158520).
route(prodloc0,prodloc5,tr0,25636,666536).
route(prodloc0,prodloc5,tr13,25636,153816).
route(prodloc0,prodloc6,tr0,26221,681746).
route(prodloc0,prodloc6,tr13,26221,157326).
route(prodloc0,prodloc7,tr0,26659,693134).
route(prodloc0,prodloc7,tr13,26659,159954).
route(prodloc0,prodloc8,tr0,17200,447200).
route(prodloc0,prodloc8,tr13,17200,103200).
route(prodloc0,prodloc9,tr0,16113,418938).
route(prodloc0,prodloc9,tr13,16113,96678).
route(prodloc0,prodloc10,tr0,2486,64636).
route(prodloc0,prodloc10,tr13,2486,14916).
route(prodloc0,prodloc11,tr0,15366,399516).
route(prodloc0,prodloc11,tr13,15366,92196).
route(prodloc0,prodloc12,tr13,7606,45636).
route(prodloc0,prodloc12,tr15,7606,243392).
route(prodloc0,prodloc13,tr0,3283,85358).
route(prodloc0,prodloc13,tr13,3283,19698).
route(prodloc0,prodloc14,tr0,12156,316056).
route(prodloc0,prodloc14,tr13,12156,72936).
route(prodloc1,harbor0,tr0,11863,308438).
route(prodloc1,harbor0,tr13,11863,71178).
route(prodloc1,harbor1,tr0,4752,123552).
route(prodloc1,harbor1,tr13,4752,28512).
route(prodloc1,harbor2,tr0,22314,580164).
route(prodloc1,harbor2,tr13,22314,133884).
route(prodloc1,harbor3,tr0,20501,533026).
route(prodloc1,harbor3,tr13,20501,123006).
route(prodloc1,harbor4,tr0,7976,207376).
route(prodloc1,harbor4,tr13,7976,47856).
route(prodloc1,harbor5,tr0,19878,516828).
route(prodloc1,harbor5,tr13,19878,119268).
route(prodloc1,prodloc0,tr0,10432,271232).
route(prodloc1,prodloc0,tr13,10432,62592).
route(prodloc1,prodloc2,tr0,4729,122954).
route(prodloc1,prodloc2,tr13,4729,28374).
route(prodloc1,prodloc3,tr0,1236,32136).
route(prodloc1,prodloc3,tr13,1236,7416).
route(prodloc1,prodloc4,tr0,20580,535080).
route(prodloc1,prodloc4,tr13,20580,123480).
route(prodloc1,prodloc5,tr0,21896,569296).
route(prodloc1,prodloc5,tr13,21896,131376).
route(prodloc1,prodloc6,tr0,3191,82966).
route(prodloc1,prodloc6,tr13,3191,19146).
route(prodloc1,prodloc7,tr0,23396,608296).
route(prodloc1,prodloc7,tr13,23396,140376).
route(prodloc1,prodloc8,tr13,3456,20736).
route(prodloc1,prodloc8,tr15,3456,110592).
route(prodloc1,prodloc9,tr0,1485,38610).
route(prodloc1,prodloc9,tr13,1485,8910).
route(prodloc1,prodloc10,tr0,21156,550056).
route(prodloc1,prodloc10,tr13,21156,126936).
route(prodloc1,prodloc11,tr0,15661,407186).
route(prodloc1,prodloc11,tr13,15661,93966).
route(prodloc1,prodloc12,tr0,15164,394264).
route(prodloc1,prodloc12,tr13,15164,90984).
route(prodloc1,prodloc13,tr0,23729,616954).
route(prodloc1,prodloc13,tr13,23729,142374).
route(prodloc1,prodloc14,tr0,2262,58812).
route(prodloc1,prodloc14,tr13,2262,13572).
route(prodloc2,harbor0,tr0,20619,536094).
route(prodloc2,harbor0,tr13,20619,123714).
route(prodloc2,harbor1,tr0,1012,26312).
route(prodloc2,harbor1,tr13,1012,6072).
route(prodloc2,harbor2,tr0,22984,597584).
route(prodloc2,harbor2,tr13,22984,137904).
route(prodloc2,harbor3,tr0,18071,469846).
route(prodloc2,harbor3,tr13,18071,108426).
route(prodloc2,harbor4,tr0,4163,108238).
route(prodloc2,harbor4,tr13,4163,24978).
route(prodloc2,harbor5,tr0,20207,525382).
route(prodloc2,harbor5,tr13,20207,121242).
route(prodloc2,prodloc0,tr0,27286,709436).
route(prodloc2,prodloc0,tr13,27286,163716).
route(prodloc2,prodloc1,tr0,2739,71214).
route(prodloc2,prodloc1,tr13,2739,16434).
route(prodloc2,prodloc3,tr0,5279,137254).
route(prodloc2,prodloc3,tr13,5279,31674).
route(prodloc2,prodloc4,tr0,20256,526656).
route(prodloc2,prodloc4,tr13,20256,121536).
route(prodloc2,prodloc5,tr0,20684,537784).
route(prodloc2,prodloc5,tr13,20684,124104).
route(prodloc2,prodloc6,tr0,8691,225966).
route(prodloc2,prodloc6,tr13,8691,52146).
route(prodloc2,prodloc7,tr0,27474,714324).
route(prodloc2,prodloc7,tr13,27474,164844).
route(prodloc2,prodloc8,tr0,21441,557466).
route(prodloc2,prodloc8,tr13,21441,128646).
route(prodloc2,prodloc9,tr0,14812,385112).
route(prodloc2,prodloc9,tr13,14812,88872).
route(prodloc2,prodloc10,tr0,16375,425750).
route(prodloc2,prodloc10,tr13,16375,98250).
route(prodloc2,prodloc11,tr0,22736,591136).
route(prodloc2,prodloc11,tr13,22736,136416).
route(prodloc2,prodloc12,tr0,666,17316).
route(prodloc2,prodloc12,tr13,666,3996).
route(prodloc2,prodloc13,tr0,25932,674232).
route(prodloc2,prodloc13,tr13,25932,155592).
route(prodloc2,prodloc14,tr0,20889,543114).
route(prodloc2,prodloc14,tr13,20889,125334).
route(prodloc3,harbor0,tr0,4493,116818).
route(prodloc3,harbor0,tr13,4493,26958).
route(prodloc3,harbor1,tr0,26814,697164).
route(prodloc3,harbor1,tr13,26814,160884).
route(prodloc3,harbor2,tr0,6188,160888).
route(prodloc3,harbor2,tr13,6188,37128).
route(prodloc3,harbor3,tr0,14448,375648).
route(prodloc3,harbor3,tr13,14448,86688).
route(prodloc3,harbor4,tr0,15703,408278).
route(prodloc3,harbor4,tr13,15703,94218).
route(prodloc3,harbor5,tr0,25511,663286).
route(prodloc3,harbor5,tr13,25511,153066).
route(prodloc3,prodloc0,tr0,14402,374452).
route(prodloc3,prodloc0,tr13,14402,86412).
route(prodloc3,prodloc1,tr13,14651,87906).
route(prodloc3,prodloc1,tr15,14651,468832).
route(prodloc3,prodloc2,tr0,18305,475930).
route(prodloc3,prodloc2,tr15,18305,585760).
route(prodloc3,prodloc4,tr0,9059,235534).
route(prodloc3,prodloc4,tr13,9059,54354).
route(prodloc3,prodloc5,tr0,15646,406796).
route(prodloc3,prodloc5,tr13,15646,93876).
route(prodloc3,prodloc6,tr0,23348,607048).
route(prodloc3,prodloc6,tr15,23348,747136).
route(prodloc3,prodloc7,tr0,18985,493610).
route(prodloc3,prodloc7,tr13,18985,113910).
route(prodloc3,prodloc8,tr0,2088,54288).
route(prodloc3,prodloc8,tr13,2088,12528).
route(prodloc3,prodloc10,tr0,26222,681772).
route(prodloc3,prodloc10,tr13,26222,157332).
route(prodloc3,prodloc11,tr0,9562,248612).
route(prodloc3,prodloc11,tr13,9562,57372).
route(prodloc3,prodloc12,tr0,11911,309686).
route(prodloc3,prodloc12,tr13,11911,71466).
route(prodloc3,prodloc13,tr0,9375,243750).
route(prodloc3,prodloc13,tr15,9375,300000).
route(prodloc3,prodloc14,tr0,11803,306878).
route(prodloc3,prodloc14,tr13,11803,70818).
route(prodloc4,harbor0,tr0,1111,28886).
route(prodloc4,harbor0,tr13,1111,6666).
route(prodloc4,harbor1,tr0,2744,71344).
route(prodloc4,harbor1,tr13,2744,16464).
route(prodloc4,harbor2,tr0,16464,428064).
route(prodloc4,harbor2,tr13,16464,98784).
route(prodloc4,harbor3,tr0,28119,731094).
route(prodloc4,harbor3,tr13,28119,168714).
route(prodloc4,harbor4,tr0,9038,234988).
route(prodloc4,harbor4,tr13,9038,54228).
route(prodloc4,harbor5,tr0,9170,238420).
route(prodloc4,harbor5,tr13,9170,55020).
route(prodloc4,prodloc0,tr0,8984,233584).
route(prodloc4,prodloc0,tr13,8984,53904).
route(prodloc4,prodloc1,tr0,15504,403104).
route(prodloc4,prodloc1,tr13,15504,93024).
route(prodloc4,prodloc2,tr0,14115,366990).
route(prodloc4,prodloc2,tr13,14115,84690).
route(prodloc4,prodloc3,tr0,14558,378508).
route(prodloc4,prodloc3,tr13,14558,87348).
route(prodloc4,prodloc5,tr0,12173,316498).
route(prodloc4,prodloc5,tr13,12173,73038).
route(prodloc4,prodloc6,tr0,1047,27222).
route(prodloc4,prodloc6,tr13,1047,6282).
route(prodloc4,prodloc7,tr0,23391,608166).
route(prodloc4,prodloc7,tr13,23391,140346).
route(prodloc4,prodloc8,tr0,2808,73008).
route(prodloc4,prodloc8,tr13,2808,16848).
route(prodloc4,prodloc9,tr0,8180,212680).
route(prodloc4,prodloc9,tr15,8180,261760).
route(prodloc4,prodloc10,tr0,26752,695552).
route(prodloc4,prodloc10,tr13,26752,160512).
route(prodloc4,prodloc11,tr0,19815,515190).
route(prodloc4,prodloc11,tr13,19815,118890).
route(prodloc4,prodloc12,tr13,20926,125556).
route(prodloc4,prodloc12,tr15,20926,669632).
route(prodloc4,prodloc13,tr0,7815,203190).
route(prodloc4,prodloc13,tr13,7815,46890).
route(prodloc4,prodloc14,tr0,17549,456274).
route(prodloc4,prodloc14,tr13,17549,105294).
route(prodloc5,harbor0,tr0,24429,635154).
route(prodloc5,harbor0,tr13,24429,146574).
route(prodloc5,harbor1,tr0,1073,27898).
route(prodloc5,harbor1,tr13,1073,6438).
route(prodloc5,harbor2,tr0,24219,629694).
route(prodloc5,harbor2,tr13,24219,145314).
route(prodloc5,harbor3,tr0,5680,147680).
route(prodloc5,harbor3,tr13,5680,34080).
route(prodloc5,harbor4,tr0,11024,286624).
route(prodloc5,harbor4,tr13,11024,66144).
route(prodloc5,harbor5,tr0,12142,315692).
route(prodloc5,harbor5,tr13,12142,72852).
route(prodloc5,prodloc0,tr0,1049,27274).
route(prodloc5,prodloc0,tr13,1049,6294).
route(prodloc5,prodloc1,tr0,1708,44408).
route(prodloc5,prodloc1,tr13,1708,10248).
route(prodloc5,prodloc2,tr0,24245,630370).
route(prodloc5,prodloc2,tr13,24245,145470).
route(prodloc5,prodloc3,tr0,25075,651950).
route(prodloc5,prodloc3,tr13,25075,150450).
route(prodloc5,prodloc4,tr0,24618,640068).
route(prodloc5,prodloc4,tr13,24618,147708).
route(prodloc5,prodloc6,tr13,6856,41136).
route(prodloc5,prodloc6,tr15,6856,219392).
route(prodloc5,prodloc7,tr0,22962,597012).
route(prodloc5,prodloc7,tr13,22962,137772).
route(prodloc5,prodloc8,tr0,14191,368966).
route(prodloc5,prodloc8,tr13,14191,85146).
route(prodloc5,prodloc9,tr13,11257,67542).
route(prodloc5,prodloc9,tr15,11257,360224).
route(prodloc5,prodloc10,tr0,2544,66144).
route(prodloc5,prodloc10,tr13,2544,15264).
route(prodloc5,prodloc11,tr0,5167,134342).
route(prodloc5,prodloc11,tr13,5167,31002).
route(prodloc5,prodloc12,tr0,23972,623272).
route(prodloc5,prodloc12,tr13,23972,143832).
route(prodloc5,prodloc13,tr0,22147,575822).
route(prodloc5,prodloc13,tr13,22147,132882).
route(prodloc5,prodloc14,tr0,3738,97188).
route(prodloc5,prodloc14,tr13,3738,22428).
route(prodloc6,harbor0,tr0,13097,340522).
route(prodloc6,harbor0,tr13,13097,78582).
route(prodloc6,harbor1,tr0,17930,466180).
route(prodloc6,harbor1,tr13,17930,107580).
route(prodloc6,harbor2,tr0,4448,115648).
route(prodloc6,harbor2,tr13,4448,26688).
route(prodloc6,harbor3,tr0,15208,395408).
route(prodloc6,harbor3,tr13,15208,91248).
route(prodloc6,harbor4,tr0,24349,633074).
route(prodloc6,harbor4,tr13,24349,146094).
route(prodloc6,harbor5,tr0,16206,421356).
route(prodloc6,harbor5,tr13,16206,97236).
route(prodloc6,prodloc0,tr0,20953,544778).
route(prodloc6,prodloc0,tr13,20953,125718).
route(prodloc6,prodloc1,tr0,2465,64090).
route(prodloc6,prodloc1,tr13,2465,14790).
route(prodloc6,prodloc2,tr0,4197,109122).
route(prodloc6,prodloc2,tr13,4197,25182).
route(prodloc6,prodloc3,tr0,2425,63050).
route(prodloc6,prodloc3,tr13,2425,14550).
route(prodloc6,prodloc4,tr0,11483,298558).
route(prodloc6,prodloc4,tr13,11483,68898).
route(prodloc6,prodloc5,tr0,17050,443300).
route(prodloc6,prodloc5,tr15,17050,545600).
route(prodloc6,prodloc7,tr0,1000,26000).
route(prodloc6,prodloc7,tr13,1000,6000).
route(prodloc6,prodloc8,tr0,6086,158236).
route(prodloc6,prodloc8,tr13,6086,36516).
route(prodloc6,prodloc9,tr0,17219,447694).
route(prodloc6,prodloc9,tr13,17219,103314).
route(prodloc6,prodloc10,tr0,23204,603304).
route(prodloc6,prodloc10,tr15,23204,742528).
route(prodloc6,prodloc11,tr0,4927,128102).
route(prodloc6,prodloc11,tr13,4927,29562).
route(prodloc6,prodloc12,tr0,6021,156546).
route(prodloc6,prodloc12,tr13,6021,36126).
route(prodloc6,prodloc13,tr0,9232,240032).
route(prodloc6,prodloc13,tr15,9232,295424).
route(prodloc6,prodloc14,tr0,24217,629642).
route(prodloc6,prodloc14,tr13,24217,145302).
route(prodloc7,harbor0,tr0,4950,128700).
route(prodloc7,harbor0,tr13,4950,29700).
route(prodloc7,harbor1,tr0,16625,432250).
route(prodloc7,harbor1,tr13,16625,99750).
route(prodloc7,harbor2,tr0,18628,484328).
route(prodloc7,harbor2,tr13,18628,111768).
route(prodloc7,harbor3,tr0,27857,724282).
route(prodloc7,harbor3,tr13,27857,167142).
route(prodloc7,harbor4,tr0,12726,330876).
route(prodloc7,harbor4,tr13,12726,76356).
route(prodloc7,harbor5,tr0,26107,678782).
route(prodloc7,harbor5,tr13,26107,156642).
route(prodloc7,prodloc0,tr0,7311,190086).
route(prodloc7,prodloc0,tr13,7311,43866).
route(prodloc7,prodloc1,tr0,7263,188838).
route(prodloc7,prodloc1,tr13,7263,43578).
route(prodloc7,prodloc2,tr0,22794,592644).
route(prodloc7,prodloc2,tr13,22794,136764).
route(prodloc7,prodloc3,tr0,18485,480610).
route(prodloc7,prodloc3,tr13,18485,110910).
route(prodloc7,prodloc4,tr0,23438,609388).
route(prodloc7,prodloc4,tr13,23438,140628).
route(prodloc7,prodloc5,tr0,4125,107250).
route(prodloc7,prodloc5,tr13,4125,24750).
route(prodloc7,prodloc6,tr0,13736,357136).
route(prodloc7,prodloc6,tr13,13736,82416).
route(prodloc7,prodloc8,tr0,22639,588614).
route(prodloc7,prodloc8,tr13,22639,135834).
route(prodloc7,prodloc9,tr13,5349,32094).
route(prodloc7,prodloc9,tr15,5349,171168).
route(prodloc7,prodloc10,tr0,24816,645216).
route(prodloc7,prodloc10,tr13,24816,148896).
route(prodloc7,prodloc11,tr0,10373,269698).
route(prodloc7,prodloc11,tr13,10373,62238).
route(prodloc7,prodloc12,tr0,7877,204802).
route(prodloc7,prodloc12,tr13,7877,47262).
route(prodloc7,prodloc13,tr0,18385,478010).
route(prodloc7,prodloc13,tr15,18385,588320).
route(prodloc7,prodloc14,tr0,18757,487682).
route(prodloc7,prodloc14,tr13,18757,112542).
route(prodloc8,harbor0,tr0,158,4108).
route(prodloc8,harbor0,tr13,158,948).
route(prodloc8,harbor1,tr0,25771,670046).
route(prodloc8,harbor1,tr13,25771,154626).
route(prodloc8,harbor2,tr0,26383,685958).
route(prodloc8,harbor2,tr13,26383,158298).
route(prodloc8,harbor3,tr0,18644,484744).
route(prodloc8,harbor3,tr13,18644,111864).
route(prodloc8,harbor4,tr0,12672,329472).
route(prodloc8,harbor4,tr13,12672,76032).
route(prodloc8,harbor5,tr0,6167,160342).
route(prodloc8,harbor5,tr13,6167,37002).
route(prodloc8,prodloc0,tr0,24913,647738).
route(prodloc8,prodloc0,tr13,24913,149478).
route(prodloc8,prodloc1,tr0,10660,277160).
route(prodloc8,prodloc1,tr13,10660,63960).
route(prodloc8,prodloc2,tr0,28016,728416).
route(prodloc8,prodloc2,tr13,28016,168096).
route(prodloc8,prodloc3,tr0,12489,324714).
route(prodloc8,prodloc3,tr13,12489,74934).
route(prodloc8,prodloc4,tr0,17247,448422).
route(prodloc8,prodloc4,tr13,17247,103482).
route(prodloc8,prodloc5,tr0,14450,375700).
route(prodloc8,prodloc5,tr13,14450,86700).
route(prodloc8,prodloc6,tr0,319,8294).
route(prodloc8,prodloc6,tr13,319,1914).
route(prodloc8,prodloc7,tr0,13027,338702).
route(prodloc8,prodloc7,tr13,13027,78162).
route(prodloc8,prodloc9,tr13,27686,166116).
route(prodloc8,prodloc9,tr15,27686,885952).
route(prodloc8,prodloc10,tr0,17394,452244).
route(prodloc8,prodloc10,tr13,17394,104364).
route(prodloc8,prodloc11,tr0,18059,469534).
route(prodloc8,prodloc11,tr13,18059,108354).
route(prodloc8,prodloc12,tr0,27855,724230).
route(prodloc8,prodloc12,tr13,27855,167130).
route(prodloc8,prodloc13,tr0,21696,564096).
route(prodloc8,prodloc13,tr13,21696,130176).
route(prodloc8,prodloc14,tr0,4467,116142).
route(prodloc8,prodloc14,tr13,4467,26802).
route(prodloc9,harbor0,tr0,23476,610376).
route(prodloc9,harbor0,tr13,23476,140856).
route(prodloc9,harbor1,tr0,7659,199134).
route(prodloc9,harbor1,tr13,7659,45954).
route(prodloc9,harbor2,tr0,21142,549692).
route(prodloc9,harbor2,tr13,21142,126852).
route(prodloc9,harbor3,tr0,17825,463450).
route(prodloc9,harbor3,tr13,17825,106950).
route(prodloc9,harbor4,tr0,26388,686088).
route(prodloc9,harbor4,tr13,26388,158328).
route(prodloc9,harbor5,tr0,24344,632944).
route(prodloc9,harbor5,tr13,24344,146064).
route(prodloc9,prodloc0,tr0,12199,317174).
route(prodloc9,prodloc0,tr13,12199,73194).
route(prodloc9,prodloc1,tr0,8911,231686).
route(prodloc9,prodloc1,tr15,8911,285152).
route(prodloc9,prodloc2,tr0,21843,567918).
route(prodloc9,prodloc2,tr13,21843,131058).
route(prodloc9,prodloc3,tr0,6068,157768).
route(prodloc9,prodloc3,tr13,6068,36408).
route(prodloc9,prodloc4,tr0,4897,127322).
route(prodloc9,prodloc4,tr13,4897,29382).
route(prodloc9,prodloc5,tr0,5380,139880).
route(prodloc9,prodloc5,tr13,5380,32280).
route(prodloc9,prodloc6,tr0,22619,588094).
route(prodloc9,prodloc6,tr13,22619,135714).
route(prodloc9,prodloc7,tr13,20497,122982).
route(prodloc9,prodloc7,tr15,20497,655904).
route(prodloc9,prodloc8,tr13,4403,26418).
route(prodloc9,prodloc8,tr15,4403,140896).
route(prodloc9,prodloc10,tr0,12607,327782).
route(prodloc9,prodloc10,tr13,12607,75642).
route(prodloc9,prodloc11,tr0,2435,63310).
route(prodloc9,prodloc11,tr13,2435,14610).
route(prodloc9,prodloc12,tr0,2003,52078).
route(prodloc9,prodloc12,tr13,2003,12018).
route(prodloc9,prodloc13,tr0,403,10478).
route(prodloc9,prodloc13,tr13,403,2418).
route(prodloc9,prodloc14,tr0,1308,34008).
route(prodloc9,prodloc14,tr13,1308,7848).
route(prodloc10,harbor0,tr0,15475,402350).
route(prodloc10,harbor0,tr13,15475,92850).
route(prodloc10,harbor1,tr0,24871,646646).
route(prodloc10,harbor1,tr13,24871,149226).
route(prodloc10,harbor2,tr0,1942,50492).
route(prodloc10,harbor2,tr13,1942,11652).
route(prodloc10,harbor3,tr0,3756,97656).
route(prodloc10,harbor3,tr13,3756,22536).
route(prodloc10,harbor4,tr0,21329,554554).
route(prodloc10,harbor4,tr13,21329,127974).
route(prodloc10,harbor5,tr0,23301,605826).
route(prodloc10,harbor5,tr13,23301,139806).
route(prodloc10,prodloc0,tr0,17705,460330).
route(prodloc10,prodloc0,tr13,17705,106230).
route(prodloc10,prodloc1,tr0,3283,85358).
route(prodloc10,prodloc1,tr13,3283,19698).
route(prodloc10,prodloc2,tr0,22078,574028).
route(prodloc10,prodloc2,tr13,22078,132468).
route(prodloc10,prodloc3,tr0,12048,313248).
route(prodloc10,prodloc3,tr13,12048,72288).
route(prodloc10,prodloc4,tr0,19519,507494).
route(prodloc10,prodloc4,tr13,19519,117114).
route(prodloc10,prodloc5,tr0,1056,27456).
route(prodloc10,prodloc5,tr15,1056,33792).
route(prodloc10,prodloc6,tr0,1964,51064).
route(prodloc10,prodloc6,tr13,1964,11784).
route(prodloc10,prodloc7,tr0,17787,462462).
route(prodloc10,prodloc7,tr13,17787,106722).
route(prodloc10,prodloc8,tr13,7367,44202).
route(prodloc10,prodloc8,tr15,7367,235744).
route(prodloc10,prodloc9,tr0,25771,670046).
route(prodloc10,prodloc9,tr13,25771,154626).
route(prodloc10,prodloc11,tr0,13333,346658).
route(prodloc10,prodloc11,tr13,13333,79998).
route(prodloc10,prodloc12,tr0,7393,192218).
route(prodloc10,prodloc12,tr13,7393,44358).
route(prodloc10,prodloc13,tr0,25025,650650).
route(prodloc10,prodloc13,tr13,25025,150150).
route(prodloc10,prodloc14,tr0,18525,481650).
route(prodloc10,prodloc14,tr13,18525,111150).
route(prodloc11,harbor0,tr0,22535,585910).
route(prodloc11,harbor0,tr13,22535,135210).
route(prodloc11,harbor1,tr0,9619,250094).
route(prodloc11,harbor1,tr13,9619,57714).
route(prodloc11,harbor2,tr0,3040,79040).
route(prodloc11,harbor2,tr13,3040,18240).
route(prodloc11,harbor3,tr0,15437,401362).
route(prodloc11,harbor3,tr13,15437,92622).
route(prodloc11,harbor4,tr0,2534,65884).
route(prodloc11,harbor4,tr13,2534,15204).
route(prodloc11,harbor5,tr0,23730,616980).
route(prodloc11,harbor5,tr13,23730,142380).
route(prodloc11,prodloc0,tr0,18791,488566).
route(prodloc11,prodloc0,tr13,18791,112746).
route(prodloc11,prodloc1,tr0,28320,736320).
route(prodloc11,prodloc1,tr13,28320,169920).
route(prodloc11,prodloc2,tr0,1929,50154).
route(prodloc11,prodloc2,tr13,1929,11574).
route(prodloc11,prodloc3,tr0,5527,143702).
route(prodloc11,prodloc3,tr13,5527,33162).
route(prodloc11,prodloc4,tr0,21673,563498).
route(prodloc11,prodloc4,tr13,21673,130038).
route(prodloc11,prodloc5,tr13,14352,86112).
route(prodloc11,prodloc5,tr15,14352,459264).
route(prodloc11,prodloc6,tr0,3936,102336).
route(prodloc11,prodloc6,tr13,3936,23616).
route(prodloc11,prodloc7,tr0,3679,95654).
route(prodloc11,prodloc7,tr13,3679,22074).
route(prodloc11,prodloc8,tr0,23003,598078).
route(prodloc11,prodloc8,tr13,23003,138018).
route(prodloc11,prodloc9,tr0,5828,151528).
route(prodloc11,prodloc9,tr13,5828,34968).
route(prodloc11,prodloc10,tr0,1640,42640).
route(prodloc11,prodloc10,tr13,1640,9840).
route(prodloc11,prodloc12,tr0,22413,582738).
route(prodloc11,prodloc12,tr13,22413,134478).
route(prodloc11,prodloc13,tr0,997,25922).
route(prodloc11,prodloc13,tr15,997,31904).
route(prodloc11,prodloc14,tr0,24581,639106).
route(prodloc11,prodloc14,tr13,24581,147486).
route(prodloc12,harbor0,tr0,27552,716352).
route(prodloc12,harbor0,tr13,27552,165312).
route(prodloc12,harbor1,tr0,22151,575926).
route(prodloc12,harbor1,tr13,22151,132906).
route(prodloc12,harbor2,tr0,23904,621504).
route(prodloc12,harbor2,tr13,23904,143424).
route(prodloc12,harbor3,tr0,13939,362414).
route(prodloc12,harbor3,tr13,13939,83634).
route(prodloc12,harbor4,tr0,21332,554632).
route(prodloc12,harbor4,tr13,21332,127992).
route(prodloc12,harbor5,tr0,23212,603512).
route(prodloc12,harbor5,tr13,23212,139272).
route(prodloc12,prodloc1,tr0,8380,217880).
route(prodloc12,prodloc1,tr13,8380,50280).
route(prodloc12,prodloc2,tr0,14530,377780).
route(prodloc12,prodloc2,tr13,14530,87180).
route(prodloc12,prodloc3,tr0,7602,197652).
route(prodloc12,prodloc3,tr13,7602,45612).
route(prodloc12,prodloc4,tr0,6625,172250).
route(prodloc12,prodloc4,tr13,6625,39750).
route(prodloc12,prodloc5,tr13,26734,160404).
route(prodloc12,prodloc5,tr15,26734,855488).
route(prodloc12,prodloc6,tr0,28158,732108).
route(prodloc12,prodloc6,tr13,28158,168948).
route(prodloc12,prodloc7,tr0,21441,557466).
route(prodloc12,prodloc7,tr13,21441,128646).
route(prodloc12,prodloc8,tr0,25522,663572).
route(prodloc12,prodloc8,tr13,25522,153132).
route(prodloc12,prodloc9,tr0,17552,456352).
route(prodloc12,prodloc9,tr13,17552,105312).
route(prodloc12,prodloc10,tr0,25808,671008).
route(prodloc12,prodloc10,tr13,25808,154848).
route(prodloc12,prodloc11,tr13,21128,126768).
route(prodloc12,prodloc11,tr15,21128,676096).
route(prodloc12,prodloc13,tr0,7012,182312).
route(prodloc12,prodloc13,tr13,7012,42072).
route(prodloc12,prodloc14,tr0,9105,236730).
route(prodloc12,prodloc14,tr13,9105,54630).
route(prodloc13,harbor0,tr0,19407,504582).
route(prodloc13,harbor0,tr13,19407,116442).
route(prodloc13,harbor1,tr0,431,11206).
route(prodloc13,harbor1,tr13,431,2586).
route(prodloc13,harbor2,tr0,8355,217230).
route(prodloc13,harbor2,tr13,8355,50130).
route(prodloc13,harbor3,tr0,17272,449072).
route(prodloc13,harbor3,tr13,17272,103632).
route(prodloc13,harbor4,tr0,25906,673556).
route(prodloc13,harbor4,tr13,25906,155436).
route(prodloc13,harbor5,tr0,23982,623532).
route(prodloc13,harbor5,tr13,23982,143892).
route(prodloc13,prodloc0,tr0,24406,634556).
route(prodloc13,prodloc0,tr13,24406,146436).
route(prodloc13,prodloc1,tr13,23208,139248).
route(prodloc13,prodloc1,tr15,23208,742656).
route(prodloc13,prodloc2,tr0,28555,742430).
route(prodloc13,prodloc2,tr13,28555,171330).
route(prodloc13,prodloc3,tr0,22411,582686).
route(prodloc13,prodloc3,tr13,22411,134466).
route(prodloc13,prodloc4,tr0,10847,282022).
route(prodloc13,prodloc4,tr13,10847,65082).
route(prodloc13,prodloc5,tr13,25463,152778).
route(prodloc13,prodloc5,tr15,25463,814816).
route(prodloc13,prodloc6,tr0,16956,440856).
route(prodloc13,prodloc6,tr13,16956,101736).
route(prodloc13,prodloc7,tr0,3071,79846).
route(prodloc13,prodloc7,tr15,3071,98272).
route(prodloc13,prodloc8,tr13,19167,115002).
route(prodloc13,prodloc8,tr15,19167,613344).
route(prodloc13,prodloc9,tr0,19510,507260).
route(prodloc13,prodloc9,tr13,19510,117060).
route(prodloc13,prodloc10,tr0,21150,549900).
route(prodloc13,prodloc10,tr13,21150,126900).
route(prodloc13,prodloc11,tr0,1074,27924).
route(prodloc13,prodloc11,tr13,1074,6444).
route(prodloc13,prodloc12,tr0,11865,308490).
route(prodloc13,prodloc12,tr13,11865,71190).
route(prodloc13,prodloc14,tr0,12032,312832).
route(prodloc13,prodloc14,tr13,12032,72192).
route(prodloc14,harbor0,tr0,22654,589004).
route(prodloc14,harbor0,tr13,22654,135924).
route(prodloc14,harbor1,tr0,3839,99814).
route(prodloc14,harbor1,tr13,3839,23034).
route(prodloc14,harbor2,tr0,7415,192790).
route(prodloc14,harbor2,tr13,7415,44490).
route(prodloc14,harbor3,tr0,24998,649948).
route(prodloc14,harbor3,tr13,24998,149988).
route(prodloc14,harbor4,tr0,919,23894).
route(prodloc14,harbor4,tr13,919,5514).
route(prodloc14,harbor5,tr0,11810,307060).
route(prodloc14,harbor5,tr13,11810,70860).
route(prodloc14,prodloc0,tr0,22684,589784).
route(prodloc14,prodloc0,tr13,22684,136104).
route(prodloc14,prodloc1,tr0,11162,290212).
route(prodloc14,prodloc1,tr13,11162,66972).
route(prodloc14,prodloc2,tr0,14276,371176).
route(prodloc14,prodloc2,tr13,14276,85656).
route(prodloc14,prodloc3,tr0,22470,584220).
route(prodloc14,prodloc3,tr13,22470,134820).
route(prodloc14,prodloc4,tr0,27280,709280).
route(prodloc14,prodloc4,tr13,27280,163680).
route(prodloc14,prodloc5,tr0,1697,44122).
route(prodloc14,prodloc5,tr13,1697,10182).
route(prodloc14,prodloc6,tr0,11274,293124).
route(prodloc14,prodloc6,tr13,11274,67644).
route(prodloc14,prodloc7,tr0,4569,118794).
route(prodloc14,prodloc7,tr13,4569,27414).
route(prodloc14,prodloc8,tr13,998,5988).
route(prodloc14,prodloc8,tr15,998,31936).
route(prodloc14,prodloc9,tr0,324,8424).
route(prodloc14,prodloc9,tr13,324,1944).
route(prodloc14,prodloc10,tr0,11018,286468).
route(prodloc14,prodloc10,tr13,11018,66108).
route(prodloc14,prodloc11,tr0,2233,58058).
route(prodloc14,prodloc11,tr13,2233,13398).
route(prodloc14,prodloc12,tr0,15892,413192).
route(prodloc14,prodloc12,tr13,15892,95352).
route(prodloc14,prodloc13,tr0,86,2236).
route(prodloc14,prodloc13,tr13,86,516).
hub(harbor3).
hub(harbor4).
hub(prodloc10).
hub(prodloc14).
