% Multibatching benchmark instance
% Source: instances.lp
% seed=14  harbors=6  prodlocs=15  hubs=4  disruptions=2

% ---- locations ----
location(harbor0).
location(harbor1).
location(harbor2).
location(harbor3).
location(harbor4).
location(harbor5).
location(prodloc0).
location(prodloc1).
location(prodloc2).
location(prodloc3).
location(prodloc4).
location(prodloc5).
location(prodloc6).
location(prodloc7).
location(prodloc8).
location(prodloc9).
location(prodloc10).
location(prodloc11).
location(prodloc12).
location(prodloc13).
location(prodloc14).

% ---- transport resources ----
transportCapacity(tr0,1800).
transportCO2(tr0,1680).
transportCost(tr0,26).
transportSpeed(tr0,12).
transportCapacity(tr1,65).
transportCO2(tr1,90).
transportCost(tr1,1).
transportSpeed(tr1,35).
transportCapacity(tr10,1).
transportCO2(tr10,700).
transportCost(tr10,4).
transportSpeed(tr10,40).
transportCapacity(tr11,65).
transportCO2(tr11,62).
transportCost(tr11,1).
transportSpeed(tr11,25).
transportCapacity(tr12,65).
transportCO2(tr12,709).
transportCost(tr12,3).
transportSpeed(tr12,55).
transportCapacity(tr13,68).
transportCO2(tr13,160).
transportCost(tr13,6).
transportSpeed(tr13,25).
transportCapacity(tr14,146).
transportCO2(tr14,780).
transportCost(tr14,4).
transportSpeed(tr14,50).
transportCapacity(tr15,2217).
transportCO2(tr15,49470).
transportCost(tr15,32).
transportSpeed(tr15,625).
transportCapacity(tr2,96).
transportCO2(tr2,709).
transportCost(tr2,3).
transportSpeed(tr2,55).
transportCapacity(tr3,1).
transportCO2(tr3,6250).
transportCost(tr3,108).
transportSpeed(tr3,25).
transportCapacity(tr4,148).
transportCO2(tr4,780).
transportCost(tr4,4).
transportSpeed(tr4,50).
transportCapacity(tr5,65).
transportCO2(tr5,780).
transportCost(tr5,3).
transportSpeed(tr5,50).
transportCapacity(tr6,1).
transportCO2(tr6,100).
transportCost(tr6,40).
transportSpeed(tr6,25).
transportCapacity(tr7,1).
transportCO2(tr7,18000).
transportCost(tr7,278).
transportSpeed(tr7,10).
transportCapacity(tr8,1).
transportCO2(tr8,14400).
transportCost(tr8,107).
transportSpeed(tr8,25).
transportCapacity(tr9,65).
transportCO2(tr9,708).
transportCost(tr9,2).
transportSpeed(tr9,60).

% ---- parts ----
part(part0).
partSize(part0,21).
valid_transport(part0,tr0).
valid_transport(part0,tr15).
valid_transport(part0,tr14).
valid_transport(part0,tr13).
valid_transport(part0,tr4).
part(part1).
partSize(part1,1).
valid_transport(part1,tr0).
valid_transport(part1,tr2).
valid_transport(part1,tr15).
valid_transport(part1,tr9).
valid_transport(part1,tr12).
valid_transport(part1,tr13).
valid_transport(part1,tr11).
part(part10).
partSize(part10,1).
valid_transport(part10,tr0).
valid_transport(part10,tr2).
valid_transport(part10,tr15).
valid_transport(part10,tr9).
valid_transport(part10,tr12).
valid_transport(part10,tr13).
valid_transport(part10,tr11).
part(part11).
partSize(part11,83).
valid_transport(part11,tr0).
valid_transport(part11,tr7).
valid_transport(part11,tr8).
valid_transport(part11,tr15).
valid_transport(part11,tr3).
valid_transport(part11,tr13).
part(part12).
partSize(part12,273).
valid_transport(part12,tr0).
valid_transport(part12,tr7).
valid_transport(part12,tr8).
valid_transport(part12,tr15).
valid_transport(part12,tr3).
valid_transport(part12,tr13).
part(part13).
partSize(part13,1).
valid_transport(part13,tr0).
valid_transport(part13,tr2).
valid_transport(part13,tr15).
valid_transport(part13,tr9).
valid_transport(part13,tr12).
valid_transport(part13,tr13).
valid_transport(part13,tr11).
part(part14).
partSize(part14,68).
valid_transport(part14,tr0).
valid_transport(part14,tr15).
valid_transport(part14,tr13).
part(part15).
partSize(part15,4).
valid_transport(part15,tr0).
valid_transport(part15,tr2).
valid_transport(part15,tr15).
valid_transport(part15,tr9).
valid_transport(part15,tr12).
valid_transport(part15,tr13).
valid_transport(part15,tr11).
part(part16).
partSize(part16,4).
valid_transport(part16,tr0).
valid_transport(part16,tr2).
valid_transport(part16,tr15).
valid_transport(part16,tr9).
valid_transport(part16,tr12).
valid_transport(part16,tr13).
valid_transport(part16,tr11).
part(part17).
partSize(part17,8).
valid_transport(part17,tr0).
valid_transport(part17,tr15).
valid_transport(part17,tr14).
valid_transport(part17,tr13).
valid_transport(part17,tr4).
part(part18).
partSize(part18,24).
valid_transport(part18,tr0).
valid_transport(part18,tr15).
valid_transport(part18,tr14).
valid_transport(part18,tr13).
valid_transport(part18,tr4).
part(part19).
partSize(part19,6).
valid_transport(part19,tr0).
valid_transport(part19,tr2).
valid_transport(part19,tr15).
valid_transport(part19,tr9).
valid_transport(part19,tr12).
valid_transport(part19,tr13).
valid_transport(part19,tr11).
part(part2).
partSize(part2,19).
valid_transport(part2,tr0).
valid_transport(part2,tr15).
valid_transport(part2,tr14).
valid_transport(part2,tr13).
valid_transport(part2,tr4).
part(part20).
partSize(part20,128).
valid_transport(part20,tr0).
valid_transport(part20,tr7).
valid_transport(part20,tr8).
valid_transport(part20,tr15).
valid_transport(part20,tr3).
valid_transport(part20,tr13).
part(part21).
partSize(part21,25).
valid_transport(part21,tr0).
valid_transport(part21,tr15).
valid_transport(part21,tr14).
valid_transport(part21,tr13).
valid_transport(part21,tr4).
part(part22).
partSize(part22,7).
valid_transport(part22,tr0).
valid_transport(part22,tr2).
valid_transport(part22,tr15).
valid_transport(part22,tr9).
valid_transport(part22,tr12).
valid_transport(part22,tr13).
valid_transport(part22,tr11).
part(part23).
partSize(part23,5).
valid_transport(part23,tr0).
valid_transport(part23,tr15).
valid_transport(part23,tr14).
valid_transport(part23,tr13).
valid_transport(part23,tr4).
part(part24).
partSize(part24,55).
valid_transport(part24,tr0).
valid_transport(part24,tr7).
valid_transport(part24,tr8).
valid_transport(part24,tr15).
valid_transport(part24,tr3).
valid_transport(part24,tr13).
part(part25).
partSize(part25,5).
valid_transport(part25,tr0).
valid_transport(part25,tr4).
valid_transport(part25,tr2).
valid_transport(part25,tr15).
valid_transport(part25,tr13).
part(part26).
partSize(part26,32).
valid_transport(part26,tr0).
valid_transport(part26,tr7).
valid_transport(part26,tr8).
valid_transport(part26,tr15).
valid_transport(part26,tr3).
valid_transport(part26,tr13).
part(part27).
partSize(part27,5).
valid_transport(part27,tr0).
valid_transport(part27,tr2).
valid_transport(part27,tr15).
valid_transport(part27,tr9).
valid_transport(part27,tr12).
valid_transport(part27,tr13).
valid_transport(part27,tr11).
part(part28).
partSize(part28,3).
valid_transport(part28,tr0).
valid_transport(part28,tr4).
valid_transport(part28,tr2).
valid_transport(part28,tr15).
valid_transport(part28,tr14).
valid_transport(part28,tr13).
part(part29).
partSize(part29,627).
part(part3).
partSize(part3,48).
valid_transport(part3,tr0).
valid_transport(part3,tr7).
valid_transport(part3,tr8).
valid_transport(part3,tr15).
valid_transport(part3,tr3).
valid_transport(part3,tr13).
part(part30).
partSize(part30,2).
valid_transport(part30,tr0).
valid_transport(part30,tr2).
valid_transport(part30,tr15).
valid_transport(part30,tr9).
valid_transport(part30,tr12).
valid_transport(part30,tr13).
valid_transport(part30,tr11).
part(part31).
partSize(part31,144).
valid_transport(part31,tr0).
valid_transport(part31,tr7).
valid_transport(part31,tr8).
valid_transport(part31,tr15).
valid_transport(part31,tr3).
valid_transport(part31,tr13).
part(part32).
partSize(part32,16).
valid_transport(part32,tr0).
valid_transport(part32,tr4).
valid_transport(part32,tr2).
valid_transport(part32,tr15).
valid_transport(part32,tr14).
valid_transport(part32,tr13).
part(part33).
partSize(part33,7).
valid_transport(part33,tr0).
valid_transport(part33,tr2).
valid_transport(part33,tr15).
valid_transport(part33,tr9).
valid_transport(part33,tr12).
valid_transport(part33,tr13).
valid_transport(part33,tr11).
part(part3345).
partSize(part3345,353).
valid_transport(part3345,tr0).
valid_transport(part3345,tr7).
valid_transport(part3345,tr8).
valid_transport(part3345,tr15).
valid_transport(part3345,tr3).
valid_transport(part3345,tr13).
part(part34).
partSize(part34,2).
valid_transport(part34,tr0).
valid_transport(part34,tr2).
valid_transport(part34,tr15).
valid_transport(part34,tr9).
valid_transport(part34,tr12).
valid_transport(part34,tr13).
valid_transport(part34,tr11).
part(part4).
partSize(part4,2).
valid_transport(part4,tr0).
valid_transport(part4,tr2).
valid_transport(part4,tr15).
valid_transport(part4,tr9).
valid_transport(part4,tr12).
valid_transport(part4,tr13).
valid_transport(part4,tr11).
part(part5).
partSize(part5,2).
valid_transport(part5,tr0).
valid_transport(part5,tr2).
valid_transport(part5,tr15).
valid_transport(part5,tr9).
valid_transport(part5,tr12).
valid_transport(part5,tr14).
valid_transport(part5,tr13).
valid_transport(part5,tr11).
part(part6).
partSize(part6,111).
valid_transport(part6,tr0).
valid_transport(part6,tr7).
valid_transport(part6,tr8).
valid_transport(part6,tr15).
valid_transport(part6,tr3).
valid_transport(part6,tr13).
part(part8).
partSize(part8,163).
valid_transport(part8,tr0).
valid_transport(part8,tr7).
valid_transport(part8,tr8).
valid_transport(part8,tr15).
valid_transport(part8,tr3).
valid_transport(part8,tr13).
part(part9).
partSize(part9,2).
valid_transport(part9,tr0).
valid_transport(part9,tr2).
valid_transport(part9,tr15).
valid_transport(part9,tr9).
valid_transport(part9,tr12).
valid_transport(part9,tr13).
valid_transport(part9,tr11).

% ---- demand ----
demandOffer(part0,prodloc1,40).
demandOffer(part0,prodloc9,40).
demandOffer(part0,prodloc11,-27).
demandOffer(part0,prodloc10,-53).
demandOffer(part1,prodloc8,20).
demandOffer(part1,prodloc3,20).
demandOffer(part1,prodloc4,-20).
demandOffer(part1,prodloc11,-20).
demandOffer(part10,prodloc4,20).
demandOffer(part10,prodloc14,20).
demandOffer(part10,prodloc11,-20).
demandOffer(part10,prodloc1,-20).
demandOffer(part12,prodloc10,10).
demandOffer(part12,prodloc7,20).
demandOffer(part12,prodloc4,-10).
demandOffer(part12,prodloc13,-10).
demandOffer(part12,prodloc14,-10).
demandOffer(part13,prodloc13,20).
demandOffer(part13,prodloc6,20).
demandOffer(part13,prodloc14,-20).
demandOffer(part13,prodloc1,-20).
demandOffer(part14,prodloc4,26).
demandOffer(part14,prodloc3,-26).
demandOffer(part15,prodloc13,53).
demandOffer(part15,prodloc5,27).
demandOffer(part15,prodloc14,-53).
demandOffer(part15,prodloc4,-27).
demandOffer(part16,prodloc5,53).
demandOffer(part16,prodloc12,27).
demandOffer(part16,prodloc10,-53).
demandOffer(part16,prodloc13,-27).
demandOffer(part17,prodloc8,20).
demandOffer(part17,prodloc2,-20).
demandOffer(part18,prodloc2,40).
demandOffer(part18,prodloc8,40).
demandOffer(part18,prodloc10,-27).
demandOffer(part18,prodloc12,-53).
demandOffer(part19,prodloc4,26).
demandOffer(part19,prodloc2,-26).
demandOffer(part2,prodloc0,40).
demandOffer(part2,prodloc10,40).
demandOffer(part2,prodloc1,-27).
demandOffer(part2,prodloc12,-53).
demandOffer(part20,prodloc9,53).
demandOffer(part20,prodloc5,27).
demandOffer(part20,prodloc0,-14).
demandOffer(part20,prodloc1,-46).
demandOffer(part20,prodloc4,-20).
demandOffer(part21,prodloc3,26).
demandOffer(part21,prodloc13,-26).
demandOffer(part22,prodloc6,53).
demandOffer(part22,prodloc14,27).
demandOffer(part22,prodloc9,-53).
demandOffer(part22,prodloc7,-27).
demandOffer(part23,prodloc14,20).
demandOffer(part23,prodloc9,20).
demandOffer(part23,prodloc1,-20).
demandOffer(part23,prodloc10,-20).
demandOffer(part25,prodloc10,20).
demandOffer(part25,prodloc1,-20).
demandOffer(part26,prodloc9,20).
demandOffer(part26,prodloc14,20).
demandOffer(part26,prodloc10,-14).
demandOffer(part26,prodloc12,-26).
demandOffer(part27,prodloc5,53).
demandOffer(part27,prodloc2,27).
demandOffer(part27,prodloc1,-53).
demandOffer(part27,prodloc11,-27).
demandOffer(part28,prodloc13,20).
demandOffer(part28,prodloc7,20).
demandOffer(part28,prodloc8,-20).
demandOffer(part28,prodloc10,-20).
demandOffer(part3,prodloc3,40).
demandOffer(part3,prodloc4,-14).
demandOffer(part3,prodloc7,-26).
demandOffer(part30,prodloc9,40).
demandOffer(part30,prodloc3,40).
demandOffer(part30,prodloc7,-27).
demandOffer(part30,prodloc4,-53).
demandOffer(part31,prodloc8,7).
demandOffer(part31,prodloc4,7).
demandOffer(part31,prodloc1,-14).
demandOffer(part32,prodloc1,53).
demandOffer(part32,prodloc13,27).
demandOffer(part32,prodloc14,-53).
demandOffer(part32,prodloc4,-27).
demandOffer(part33,prodloc4,53).
demandOffer(part33,prodloc1,27).
demandOffer(part33,prodloc0,-53).
demandOffer(part33,prodloc2,-27).
demandOffer(part34,prodloc11,20).
demandOffer(part34,prodloc6,-20).
demandOffer(part4,prodloc1,26).
demandOffer(part4,prodloc10,-26).
demandOffer(part5,prodloc8,20).
demandOffer(part5,prodloc9,-20).
demandOffer(part6,prodloc1,27).
demandOffer(part6,prodloc6,53).
demandOffer(part6,prodloc7,-24).
demandOffer(part6,prodloc10,-36).
demandOffer(part6,prodloc2,-10).
demandOffer(part6,prodloc8,-10).
demandOffer(part8,prodloc6,3).
demandOffer(part8,prodloc7,17).
demandOffer(part8,prodloc4,-10).
demandOffer(part8,prodloc13,-10).
demandOffer(part9,prodloc7,20).
demandOffer(part9,prodloc6,-20).

% ---- network (ASP-generated) ----
route(harbor0,harbor1,tr13,13716,82296).
route(harbor0,harbor1,tr2,13716,41148).
route(harbor0,harbor2,tr13,19541,117246).
route(harbor0,harbor2,tr2,19541,58623).
route(harbor0,harbor3,tr13,27118,162708).
route(harbor0,harbor3,tr2,27118,81354).
route(harbor0,harbor4,tr13,3138,18828).
route(harbor0,harbor4,tr2,3138,9414).
route(harbor0,harbor5,tr13,8431,50586).
route(harbor0,harbor5,tr2,8431,25293).
route(harbor0,prodloc0,tr0,15551,404326).
route(harbor0,prodloc0,tr13,15551,93306).
route(harbor0,prodloc1,tr0,12915,335790).
route(harbor0,prodloc1,tr13,12915,77490).
route(harbor0,prodloc2,tr0,7743,201318).
route(harbor0,prodloc2,tr13,7743,46458).
route(harbor0,prodloc3,tr0,14722,382772).
route(harbor0,prodloc3,tr13,14722,88332).
route(harbor0,prodloc4,tr0,28361,737386).
route(harbor0,prodloc4,tr13,28361,170166).
route(harbor0,prodloc5,tr0,20166,524316).
route(harbor0,prodloc5,tr13,20166,120996).
route(harbor0,prodloc6,tr0,16027,416702).
route(harbor0,prodloc6,tr13,16027,96162).
route(harbor0,prodloc7,tr0,2179,56654).
route(harbor0,prodloc7,tr13,2179,13074).
route(harbor0,prodloc8,tr0,18650,484900).
route(harbor0,prodloc8,tr13,18650,111900).
route(harbor0,prodloc9,tr0,4697,122122).
route(harbor0,prodloc9,tr13,4697,28182).
route(harbor0,prodloc10,tr0,16027,416702).
route(harbor0,prodloc10,tr13,16027,96162).
route(harbor0,prodloc11,tr0,23053,599378).
route(harbor0,prodloc11,tr13,23053,138318).
route(harbor0,prodloc12,tr0,8744,227344).
route(harbor0,prodloc12,tr13,8744,52464).
route(harbor0,prodloc13,tr0,18727,486902).
route(harbor0,prodloc13,tr13,18727,112362).
route(harbor0,prodloc14,tr0,14465,376090).
route(harbor0,prodloc14,tr13,14465,86790).
route(harbor1,harbor0,tr13,656,3936).
route(harbor1,harbor0,tr2,656,1968).
route(harbor1,harbor2,tr13,27075,162450).
route(harbor1,harbor2,tr2,27075,81225).
route(harbor1,harbor3,tr13,23127,138762).
route(harbor1,harbor3,tr2,23127,69381).
route(harbor1,harbor4,tr13,13323,79938).
route(harbor1,harbor4,tr2,13323,39969).
route(harbor1,harbor5,tr13,13894,83364).
route(harbor1,harbor5,tr2,13894,41682).
route(harbor1,prodloc0,tr0,683,17758).
route(harbor1,prodloc0,tr13,683,4098).
route(harbor1,prodloc1,tr0,11388,296088).
route(harbor1,prodloc1,tr13,11388,68328).
route(harbor1,prodloc2,tr0,23258,604708).
route(harbor1,prodloc2,tr13,23258,139548).
route(harbor1,prodloc3,tr0,18660,485160).
route(harbor1,prodloc3,tr13,18660,111960).
route(harbor1,prodloc4,tr0,12059,313534).
route(harbor1,prodloc4,tr13,12059,72354).
route(harbor1,prodloc5,tr0,15437,401362).
route(harbor1,prodloc5,tr13,15437,92622).
route(harbor1,prodloc6,tr0,8637,224562).
route(harbor1,prodloc6,tr13,8637,51822).
route(harbor1,prodloc7,tr0,11654,303004).
route(harbor1,prodloc7,tr13,11654,69924).
route(harbor1,prodloc8,tr0,9907,257582).
route(harbor1,prodloc8,tr13,9907,59442).
route(harbor1,prodloc9,tr0,17371,451646).
route(harbor1,prodloc9,tr13,17371,104226).
route(harbor1,prodloc10,tr0,6185,160810).
route(harbor1,prodloc10,tr13,6185,37110).
route(harbor1,prodloc11,tr0,1404,36504).
route(harbor1,prodloc11,tr13,1404,8424).
route(harbor1,prodloc12,tr0,20593,535418).
route(harbor1,prodloc12,tr13,20593,123558).
route(harbor1,prodloc13,tr0,18348,477048).
route(harbor1,prodloc13,tr13,18348,110088).
route(harbor1,prodloc14,tr0,15378,399828).
route(harbor1,prodloc14,tr13,15378,92268).
route(harbor2,harbor0,tr13,26169,157014).
route(harbor2,harbor0,tr2,26169,78507).
route(harbor2,harbor1,tr13,8421,50526).
route(harbor2,harbor1,tr2,8421,25263).
route(harbor2,harbor3,tr13,3154,18924).
route(harbor2,harbor3,tr2,3154,9462).
route(harbor2,harbor4,tr13,12740,76440).
route(harbor2,harbor4,tr2,12740,38220).
route(harbor2,harbor5,tr13,3235,19410).
route(harbor2,harbor5,tr2,3235,9705).
route(harbor2,prodloc0,tr0,1141,29666).
route(harbor2,prodloc0,tr13,1141,6846).
route(harbor2,prodloc1,tr0,6306,163956).
route(harbor2,prodloc1,tr13,6306,37836).
route(harbor2,prodloc2,tr0,10240,266240).
route(harbor2,prodloc2,tr13,10240,61440).
route(harbor2,prodloc3,tr0,827,21502).
route(harbor2,prodloc3,tr13,827,4962).
route(harbor2,prodloc4,tr0,13,338).
route(harbor2,prodloc4,tr13,13,78).
route(harbor2,prodloc5,tr0,19205,499330).
route(harbor2,prodloc5,tr13,19205,115230).
route(harbor2,prodloc6,tr0,16604,431704).
route(harbor2,prodloc6,tr13,16604,99624).
route(harbor2,prodloc7,tr0,9261,240786).
route(harbor2,prodloc7,tr13,9261,55566).
route(harbor2,prodloc8,tr0,17092,444392).
route(harbor2,prodloc8,tr13,17092,102552).
route(harbor2,prodloc9,tr0,26367,685542).
route(harbor2,prodloc9,tr13,26367,158202).
route(harbor2,prodloc10,tr0,11741,305266).
route(harbor2,prodloc10,tr13,11741,70446).
route(harbor2,prodloc11,tr0,8244,214344).
route(harbor2,prodloc11,tr13,8244,49464).
route(harbor2,prodloc12,tr0,3730,96980).
route(harbor2,prodloc12,tr13,3730,22380).
route(harbor2,prodloc13,tr0,1153,29978).
route(harbor2,prodloc13,tr13,1153,6918).
route(harbor2,prodloc14,tr0,4792,124592).
route(harbor2,prodloc14,tr13,4792,28752).
route(harbor3,harbor0,tr13,25423,152538).
route(harbor3,harbor0,tr2,25423,76269).
route(harbor3,harbor1,tr13,6552,39312).
route(harbor3,harbor1,tr2,6552,19656).
route(harbor3,harbor2,tr13,88,528).
route(harbor3,harbor2,tr2,88,264).
route(harbor3,harbor4,tr13,7567,45402).
route(harbor3,harbor4,tr2,7567,22701).
route(harbor3,harbor5,tr13,8231,49386).
route(harbor3,harbor5,tr2,8231,24693).
route(harbor3,prodloc0,tr0,28607,743782).
route(harbor3,prodloc0,tr13,28607,171642).
route(harbor3,prodloc1,tr0,16407,426582).
route(harbor3,prodloc1,tr13,16407,98442).
route(harbor3,prodloc2,tr0,8670,225420).
route(harbor3,prodloc2,tr13,8670,52020).
route(harbor3,prodloc3,tr0,5978,155428).
route(harbor3,prodloc3,tr13,5978,35868).
route(harbor3,prodloc4,tr0,8148,211848).
route(harbor3,prodloc4,tr13,8148,48888).
route(harbor3,prodloc5,tr0,6812,177112).
route(harbor3,prodloc5,tr13,6812,40872).
route(harbor3,prodloc6,tr0,19791,514566).
route(harbor3,prodloc6,tr13,19791,118746).
route(harbor3,prodloc7,tr0,22288,579488).
route(harbor3,prodloc7,tr13,22288,133728).
route(harbor3,prodloc8,tr0,10881,282906).
route(harbor3,prodloc8,tr13,10881,65286).
route(harbor3,prodloc9,tr0,9549,248274).
route(harbor3,prodloc9,tr13,9549,57294).
route(harbor3,prodloc10,tr0,23641,614666).
route(harbor3,prodloc10,tr13,23641,141846).
route(harbor3,prodloc11,tr0,24957,648882).
route(harbor3,prodloc11,tr13,24957,149742).
route(harbor3,prodloc12,tr0,12084,314184).
route(harbor3,prodloc12,tr13,12084,72504).
route(harbor3,prodloc13,tr0,1035,26910).
route(harbor3,prodloc13,tr13,1035,6210).
route(harbor3,prodloc14,tr0,18388,478088).
route(harbor3,prodloc14,tr13,18388,110328).
route(harbor4,harbor0,tr13,19554,117324).
route(harbor4,harbor0,tr2,19554,58662).
route(harbor4,harbor1,tr13,24319,145914).
route(harbor4,harbor1,tr2,24319,72957).
route(harbor4,harbor2,tr13,25822,154932).
route(harbor4,harbor2,tr2,25822,77466).
route(harbor4,harbor3,tr13,24843,149058).
route(harbor4,harbor3,tr2,24843,74529).
route(harbor4,harbor5,tr13,5215,31290).
route(harbor4,harbor5,tr2,5215,15645).
route(harbor4,prodloc0,tr0,16653,432978).
route(harbor4,prodloc0,tr13,16653,99918).
route(harbor4,prodloc1,tr0,21123,549198).
route(harbor4,prodloc1,tr13,21123,126738).
route(harbor4,prodloc2,tr0,27572,716872).
route(harbor4,prodloc2,tr13,27572,165432).
route(harbor4,prodloc3,tr0,6468,168168).
route(harbor4,prodloc3,tr13,6468,38808).
route(harbor4,prodloc4,tr0,12010,312260).
route(harbor4,prodloc4,tr13,12010,72060).
route(harbor4,prodloc5,tr0,16066,417716).
route(harbor4,prodloc5,tr13,16066,96396).
route(harbor4,prodloc6,tr0,12588,327288).
route(harbor4,prodloc6,tr13,12588,75528).
route(harbor4,prodloc7,tr0,8025,208650).
route(harbor4,prodloc7,tr13,8025,48150).
route(harbor4,prodloc8,tr0,12717,330642).
route(harbor4,prodloc8,tr13,12717,76302).
route(harbor4,prodloc9,tr0,17891,465166).
route(harbor4,prodloc9,tr13,17891,107346).
route(harbor4,prodloc10,tr0,18143,471718).
route(harbor4,prodloc10,tr13,18143,108858).
route(harbor4,prodloc11,tr0,25346,658996).
route(harbor4,prodloc11,tr13,25346,152076).
route(harbor4,prodloc12,tr0,10305,267930).
route(harbor4,prodloc12,tr13,10305,61830).
route(harbor4,prodloc13,tr0,15991,415766).
route(harbor4,prodloc13,tr13,15991,95946).
route(harbor4,prodloc14,tr0,20080,522080).
route(harbor4,prodloc14,tr13,20080,120480).
route(harbor5,harbor0,tr13,1063,6378).
route(harbor5,harbor0,tr2,1063,3189).
route(harbor5,harbor1,tr13,8133,48798).
route(harbor5,harbor1,tr2,8133,24399).
route(harbor5,harbor2,tr13,21105,126630).
route(harbor5,harbor2,tr2,21105,63315).
route(harbor5,harbor3,tr13,14100,84600).
route(harbor5,harbor3,tr2,14100,42300).
route(harbor5,harbor4,tr13,15395,92370).
route(harbor5,harbor4,tr2,15395,46185).
route(harbor5,prodloc0,tr0,25349,659074).
route(harbor5,prodloc0,tr13,25349,152094).
route(harbor5,prodloc1,tr0,11124,289224).
route(harbor5,prodloc1,tr13,11124,66744).
route(harbor5,prodloc2,tr0,2938,76388).
route(harbor5,prodloc2,tr13,2938,17628).
route(harbor5,prodloc3,tr0,8611,223886).
route(harbor5,prodloc3,tr13,8611,51666).
route(harbor5,prodloc4,tr0,26450,687700).
route(harbor5,prodloc4,tr13,26450,158700).
route(harbor5,prodloc5,tr0,3385,88010).
route(harbor5,prodloc5,tr13,3385,20310).
route(harbor5,prodloc6,tr0,4258,110708).
route(harbor5,prodloc6,tr13,4258,25548).
route(harbor5,prodloc7,tr0,6576,170976).
route(harbor5,prodloc7,tr13,6576,39456).
route(harbor5,prodloc8,tr0,1789,46514).
route(harbor5,prodloc8,tr13,1789,10734).
route(harbor5,prodloc9,tr0,22685,589810).
route(harbor5,prodloc9,tr13,22685,136110).
route(harbor5,prodloc10,tr0,4610,119860).
route(harbor5,prodloc10,tr13,4610,27660).
route(harbor5,prodloc11,tr0,6934,180284).
route(harbor5,prodloc11,tr13,6934,41604).
route(harbor5,prodloc12,tr0,8479,220454).
route(harbor5,prodloc12,tr13,8479,50874).
route(harbor5,prodloc13,tr0,15960,414960).
route(harbor5,prodloc13,tr13,15960,95760).
route(harbor5,prodloc14,tr0,14661,381186).
route(harbor5,prodloc14,tr13,14661,87966).
route(prodloc0,harbor0,tr0,4120,107120).
route(prodloc0,harbor0,tr13,4120,24720).
route(prodloc0,harbor1,tr0,17850,464100).
route(prodloc0,harbor1,tr13,17850,107100).
route(prodloc0,harbor2,tr0,12470,324220).
route(prodloc0,harbor2,tr13,12470,74820).
route(prodloc0,harbor3,tr0,1666,43316).
route(prodloc0,harbor3,tr13,1666,9996).
route(prodloc0,harbor4,tr0,25727,668902).
route(prodloc0,harbor4,tr13,25727,154362).
route(prodloc0,harbor5,tr0,3487,90662).
route(prodloc0,harbor5,tr13,3487,20922).
route(prodloc0,prodloc1,tr0,8416,218816).
route(prodloc0,prodloc1,tr13,8416,50496).
route(prodloc0,prodloc2,tr0,23067,599742).
route(prodloc0,prodloc2,tr13,23067,138402).
route(prodloc0,prodloc3,tr0,12080,314080).
route(prodloc0,prodloc3,tr13,12080,72480).
route(prodloc0,prodloc4,tr0,17738,461188).
route(prodloc0,prodloc4,tr13,17738,106428).
route(prodloc0,prodloc5,tr0,13928,362128).
route(prodloc0,prodloc5,tr13,13928,83568).
route(prodloc0,prodloc6,tr0,13722,356772).
route(prodloc0,prodloc6,tr13,13722,82332).
route(prodloc0,prodloc7,tr0,4224,109824).
route(prodloc0,prodloc7,tr13,4224,25344).
route(prodloc0,prodloc8,tr0,14579,379054).
route(prodloc0,prodloc8,tr13,14579,87474).
route(prodloc0,prodloc9,tr0,7286,189436).
route(prodloc0,prodloc9,tr13,7286,43716).
route(prodloc0,prodloc10,tr0,2955,76830).
route(prodloc0,prodloc10,tr13,2955,17730).
route(prodloc0,prodloc11,tr0,4802,124852).
route(prodloc0,prodloc11,tr13,4802,28812).
route(prodloc0,prodloc12,tr13,26496,158976).
route(prodloc0,prodloc12,tr15,26496,847872).
route(prodloc0,prodloc13,tr0,23771,618046).
route(prodloc0,prodloc13,tr13,23771,142626).
route(prodloc0,prodloc14,tr0,5634,146484).
route(prodloc0,prodloc14,tr13,5634,33804).
route(prodloc1,harbor0,tr0,4804,124904).
route(prodloc1,harbor0,tr13,4804,28824).
route(prodloc1,harbor1,tr0,564,14664).
route(prodloc1,harbor1,tr13,564,3384).
route(prodloc1,harbor2,tr0,21893,569218).
route(prodloc1,harbor2,tr13,21893,131358).
route(prodloc1,harbor3,tr0,7277,189202).
route(prodloc1,harbor3,tr13,7277,43662).
route(prodloc1,harbor4,tr0,21201,551226).
route(prodloc1,harbor4,tr13,21201,127206).
route(prodloc1,harbor5,tr0,28186,732836).
route(prodloc1,harbor5,tr13,28186,169116).
route(prodloc1,prodloc0,tr0,21515,559390).
route(prodloc1,prodloc0,tr13,21515,129090).
route(prodloc1,prodloc2,tr0,26871,698646).
route(prodloc1,prodloc2,tr15,26871,859872).
route(prodloc1,prodloc3,tr0,11584,301184).
route(prodloc1,prodloc3,tr13,11584,69504).
route(prodloc1,prodloc4,tr0,19513,507338).
route(prodloc1,prodloc4,tr13,19513,117078).
route(prodloc1,prodloc5,tr0,21523,559598).
route(prodloc1,prodloc5,tr13,21523,129138).
route(prodloc1,prodloc6,tr0,26979,701454).
route(prodloc1,prodloc6,tr13,26979,161874).
route(prodloc1,prodloc7,tr0,18263,474838).
route(prodloc1,prodloc7,tr13,18263,109578).
route(prodloc1,prodloc8,tr13,23044,138264).
route(prodloc1,prodloc8,tr15,23044,737408).
route(prodloc1,prodloc9,tr0,1518,39468).
route(prodloc1,prodloc9,tr13,1518,9108).
route(prodloc1,prodloc11,tr13,13323,79938).
route(prodloc1,prodloc11,tr15,13323,426336).
route(prodloc1,prodloc12,tr0,15350,399100).
route(prodloc1,prodloc12,tr13,15350,92100).
route(prodloc1,prodloc13,tr0,8720,226720).
route(prodloc1,prodloc13,tr13,8720,52320).
route(prodloc1,prodloc14,tr13,15398,92388).
route(prodloc1,prodloc14,tr15,15398,492736).
route(prodloc2,harbor0,tr0,10577,275002).
route(prodloc2,harbor0,tr13,10577,63462).
route(prodloc2,harbor1,tr0,2515,65390).
route(prodloc2,harbor1,tr13,2515,15090).
route(prodloc2,harbor2,tr0,28312,736112).
route(prodloc2,harbor2,tr13,28312,169872).
route(prodloc2,harbor3,tr0,11978,311428).
route(prodloc2,harbor3,tr13,11978,71868).
route(prodloc2,harbor4,tr0,2030,52780).
route(prodloc2,harbor4,tr13,2030,12180).
route(prodloc2,harbor5,tr0,22288,579488).
route(prodloc2,harbor5,tr13,22288,133728).
route(prodloc2,prodloc0,tr0,21027,546702).
route(prodloc2,prodloc0,tr13,21027,126162).
route(prodloc2,prodloc1,tr0,21233,552058).
route(prodloc2,prodloc1,tr13,21233,127398).
route(prodloc2,prodloc3,tr0,17776,462176).
route(prodloc2,prodloc3,tr13,17776,106656).
route(prodloc2,prodloc4,tr0,26975,701350).
route(prodloc2,prodloc4,tr13,26975,161850).
route(prodloc2,prodloc5,tr0,3172,82472).
route(prodloc2,prodloc5,tr13,3172,19032).
route(prodloc2,prodloc6,tr0,28404,738504).
route(prodloc2,prodloc6,tr13,28404,170424).
route(prodloc2,prodloc7,tr0,2249,58474).
route(prodloc2,prodloc7,tr13,2249,13494).
route(prodloc2,prodloc8,tr0,13972,363272).
route(prodloc2,prodloc8,tr13,13972,83832).
route(prodloc2,prodloc9,tr0,27515,715390).
route(prodloc2,prodloc9,tr13,27515,165090).
route(prodloc2,prodloc10,tr0,3776,98176).
route(prodloc2,prodloc10,tr13,3776,22656).
route(prodloc2,prodloc11,tr0,28656,745056).
route(prodloc2,prodloc11,tr13,28656,171936).
route(prodloc2,prodloc12,tr0,1688,43888).
route(prodloc2,prodloc12,tr15,1688,54016).
route(prodloc2,prodloc13,tr0,27162,706212).
route(prodloc2,prodloc13,tr13,27162,162972).
route(prodloc2,prodloc14,tr0,21150,549900).
route(prodloc2,prodloc14,tr13,21150,126900).
route(prodloc3,harbor0,tr0,5600,145600).
route(prodloc3,harbor0,tr13,5600,33600).
route(prodloc3,harbor1,tr0,2234,58084).
route(prodloc3,harbor1,tr13,2234,13404).
route(prodloc3,harbor2,tr0,2,52).
route(prodloc3,harbor2,tr13,2,12).
route(prodloc3,harbor3,tr0,26012,676312).
route(prodloc3,harbor3,tr13,26012,156072).
route(prodloc3,harbor4,tr0,22177,576602).
route(prodloc3,harbor4,tr13,22177,133062).
route(prodloc3,harbor5,tr0,10002,260052).
route(prodloc3,harbor5,tr13,10002,60012).
route(prodloc3,prodloc0,tr0,1472,38272).
route(prodloc3,prodloc0,tr13,1472,8832).
route(prodloc3,prodloc1,tr0,4431,115206).
route(prodloc3,prodloc1,tr13,4431,26586).
route(prodloc3,prodloc2,tr0,12425,323050).
route(prodloc3,prodloc2,tr13,12425,74550).
route(prodloc3,prodloc5,tr0,4912,127712).
route(prodloc3,prodloc5,tr13,4912,29472).
route(prodloc3,prodloc6,tr0,161,4186).
route(prodloc3,prodloc6,tr13,161,966).
route(prodloc3,prodloc7,tr0,14736,383136).
route(prodloc3,prodloc7,tr13,14736,88416).
route(prodloc3,prodloc8,tr0,15360,399360).
route(prodloc3,prodloc8,tr13,15360,92160).
route(prodloc3,prodloc9,tr0,25700,668200).
route(prodloc3,prodloc9,tr13,25700,154200).
route(prodloc3,prodloc10,tr0,28328,736528).
route(prodloc3,prodloc10,tr13,28328,169968).
route(prodloc3,prodloc11,tr13,16231,97386).
route(prodloc3,prodloc11,tr15,16231,519392).
route(prodloc3,prodloc12,tr0,23538,611988).
route(prodloc3,prodloc12,tr13,23538,141228).
route(prodloc3,prodloc13,tr0,17308,450008).
route(prodloc3,prodloc13,tr15,17308,553856).
route(prodloc3,prodloc14,tr0,654,17004).
route(prodloc3,prodloc14,tr13,654,3924).
route(prodloc4,harbor0,tr0,9711,252486).
route(prodloc4,harbor0,tr13,9711,58266).
route(prodloc4,harbor1,tr0,2664,69264).
route(prodloc4,harbor1,tr13,2664,15984).
route(prodloc4,harbor2,tr0,8896,231296).
route(prodloc4,harbor2,tr13,8896,53376).
route(prodloc4,harbor3,tr0,8134,211484).
route(prodloc4,harbor3,tr13,8134,48804).
route(prodloc4,harbor4,tr0,9238,240188).
route(prodloc4,harbor4,tr13,9238,55428).
route(prodloc4,harbor5,tr0,22321,580346).
route(prodloc4,harbor5,tr13,22321,133926).
route(prodloc4,prodloc0,tr0,19445,505570).
route(prodloc4,prodloc0,tr13,19445,116670).
route(prodloc4,prodloc1,tr0,21164,550264).
route(prodloc4,prodloc1,tr13,21164,126984).
route(prodloc4,prodloc2,tr0,16651,432926).
route(prodloc4,prodloc2,tr13,16651,99906).
route(prodloc4,prodloc3,tr13,20,120).
route(prodloc4,prodloc3,tr15,20,640).
route(prodloc4,prodloc5,tr0,17971,467246).
route(prodloc4,prodloc5,tr13,17971,107826).
route(prodloc4,prodloc6,tr0,26098,678548).
route(prodloc4,prodloc6,tr13,26098,156588).
route(prodloc4,prodloc7,tr0,7717,200642).
route(prodloc4,prodloc7,tr13,7717,46302).
route(prodloc4,prodloc8,tr0,23755,617630).
route(prodloc4,prodloc8,tr13,23755,142530).
route(prodloc4,prodloc9,tr0,255,6630).
route(prodloc4,prodloc9,tr13,255,1530).
route(prodloc4,prodloc10,tr0,11742,305292).
route(prodloc4,prodloc10,tr13,11742,70452).
route(prodloc4,prodloc11,tr0,3658,95108).
route(prodloc4,prodloc11,tr13,3658,21948).
route(prodloc4,prodloc12,tr0,28027,728702).
route(prodloc4,prodloc12,tr13,28027,168162).
route(prodloc4,prodloc13,tr0,4046,105196).
route(prodloc4,prodloc13,tr13,4046,24276).
route(prodloc4,prodloc14,tr0,13035,338910).
route(prodloc4,prodloc14,tr13,13035,78210).
route(prodloc5,harbor0,tr0,12536,325936).
route(prodloc5,harbor0,tr13,12536,75216).
route(prodloc5,harbor1,tr0,14597,379522).
route(prodloc5,harbor1,tr13,14597,87582).
route(prodloc5,harbor2,tr0,9615,249990).
route(prodloc5,harbor2,tr13,9615,57690).
route(prodloc5,harbor3,tr0,11331,294606).
route(prodloc5,harbor3,tr13,11331,67986).
route(prodloc5,harbor4,tr0,23743,617318).
route(prodloc5,harbor4,tr13,23743,142458).
route(prodloc5,harbor5,tr0,10928,284128).
route(prodloc5,harbor5,tr13,10928,65568).
route(prodloc5,prodloc0,tr0,960,24960).
route(prodloc5,prodloc0,tr13,960,5760).
route(prodloc5,prodloc1,tr13,8270,49620).
route(prodloc5,prodloc1,tr15,8270,264640).
route(prodloc5,prodloc2,tr0,4486,116636).
route(prodloc5,prodloc2,tr13,4486,26916).
route(prodloc5,prodloc3,tr0,9242,240292).
route(prodloc5,prodloc3,tr13,9242,55452).
route(prodloc5,prodloc4,tr13,18567,111402).
route(prodloc5,prodloc4,tr15,18567,594144).
route(prodloc5,prodloc6,tr0,26428,687128).
route(prodloc5,prodloc6,tr13,26428,158568).
route(prodloc5,prodloc7,tr0,25186,654836).
route(prodloc5,prodloc7,tr13,25186,151116).
route(prodloc5,prodloc8,tr0,23137,601562).
route(prodloc5,prodloc8,tr13,23137,138822).
route(prodloc5,prodloc9,tr0,10188,264888).
route(prodloc5,prodloc9,tr13,10188,61128).
route(prodloc5,prodloc10,tr0,7088,184288).
route(prodloc5,prodloc10,tr13,7088,42528).
route(prodloc5,prodloc11,tr0,17160,446160).
route(prodloc5,prodloc11,tr13,17160,102960).
route(prodloc5,prodloc12,tr0,19145,497770).
route(prodloc5,prodloc12,tr13,19145,114870).
route(prodloc5,prodloc13,tr0,27371,711646).
route(prodloc5,prodloc13,tr15,27371,875872).
route(prodloc5,prodloc14,tr0,14513,377338).
route(prodloc5,prodloc14,tr13,14513,87078).
route(prodloc6,harbor0,tr0,838,21788).
route(prodloc6,harbor0,tr13,838,5028).
route(prodloc6,harbor1,tr0,21172,550472).
route(prodloc6,harbor1,tr13,21172,127032).
route(prodloc6,harbor2,tr0,2284,59384).
route(prodloc6,harbor2,tr13,2284,13704).
route(prodloc6,harbor3,tr0,14364,373464).
route(prodloc6,harbor3,tr13,14364,86184).
route(prodloc6,harbor4,tr0,11139,289614).
route(prodloc6,harbor4,tr13,11139,66834).
route(prodloc6,harbor5,tr0,18909,491634).
route(prodloc6,harbor5,tr13,18909,113454).
route(prodloc6,prodloc0,tr0,12604,327704).
route(prodloc6,prodloc0,tr13,12604,75624).
route(prodloc6,prodloc1,tr0,26030,676780).
route(prodloc6,prodloc1,tr13,26030,156180).
route(prodloc6,prodloc2,tr0,19712,512512).
route(prodloc6,prodloc2,tr13,19712,118272).
route(prodloc6,prodloc3,tr0,13846,359996).
route(prodloc6,prodloc3,tr13,13846,83076).
route(prodloc6,prodloc4,tr0,8197,213122).
route(prodloc6,prodloc4,tr13,8197,49182).
route(prodloc6,prodloc5,tr0,22303,579878).
route(prodloc6,prodloc5,tr13,22303,133818).
route(prodloc6,prodloc7,tr0,25016,650416).
route(prodloc6,prodloc7,tr13,25016,150096).
route(prodloc6,prodloc8,tr0,13726,356876).
route(prodloc6,prodloc8,tr13,13726,82356).
route(prodloc6,prodloc9,tr13,6540,39240).
route(prodloc6,prodloc9,tr15,6540,209280).
route(prodloc6,prodloc10,tr0,25629,666354).
route(prodloc6,prodloc10,tr15,25629,820128).
route(prodloc6,prodloc11,tr0,994,25844).
route(prodloc6,prodloc11,tr13,994,5964).
route(prodloc6,prodloc12,tr0,12342,320892).
route(prodloc6,prodloc12,tr13,12342,74052).
route(prodloc6,prodloc13,tr0,28241,734266).
route(prodloc6,prodloc13,tr13,28241,169446).
route(prodloc6,prodloc14,tr0,23447,609622).
route(prodloc6,prodloc14,tr13,23447,140682).
route(prodloc7,harbor0,tr0,15600,405600).
route(prodloc7,harbor0,tr13,15600,93600).
route(prodloc7,harbor1,tr0,8012,208312).
route(prodloc7,harbor1,tr13,8012,48072).
route(prodloc7,harbor2,tr0,12715,330590).
route(prodloc7,harbor2,tr13,12715,76290).
route(prodloc7,harbor3,tr0,26676,693576).
route(prodloc7,harbor3,tr13,26676,160056).
route(prodloc7,harbor4,tr0,17030,442780).
route(prodloc7,harbor4,tr13,17030,102180).
route(prodloc7,harbor5,tr0,3950,102700).
route(prodloc7,harbor5,tr13,3950,23700).
route(prodloc7,prodloc0,tr0,24912,647712).
route(prodloc7,prodloc0,tr13,24912,149472).
route(prodloc7,prodloc1,tr0,7278,189228).
route(prodloc7,prodloc1,tr13,7278,43668).
route(prodloc7,prodloc2,tr0,27124,705224).
route(prodloc7,prodloc2,tr13,27124,162744).
route(prodloc7,prodloc3,tr0,7728,200928).
route(prodloc7,prodloc3,tr13,7728,46368).
route(prodloc7,prodloc4,tr0,6396,166296).
route(prodloc7,prodloc4,tr15,6396,204672).
route(prodloc7,prodloc5,tr0,8361,217386).
route(prodloc7,prodloc5,tr13,8361,50166).
route(prodloc7,prodloc6,tr0,27850,724100).
route(prodloc7,prodloc6,tr13,27850,167100).
route(prodloc7,prodloc8,tr0,28168,732368).
route(prodloc7,prodloc8,tr13,28168,169008).
route(prodloc7,prodloc9,tr0,2458,63908).
route(prodloc7,prodloc9,tr13,2458,14748).
route(prodloc7,prodloc10,tr0,8083,210158).
route(prodloc7,prodloc10,tr13,8083,48498).
route(prodloc7,prodloc11,tr0,25933,674258).
route(prodloc7,prodloc11,tr13,25933,155598).
route(prodloc7,prodloc12,tr0,2966,77116).
route(prodloc7,prodloc12,tr13,2966,17796).
route(prodloc7,prodloc13,tr0,14859,386334).
route(prodloc7,prodloc13,tr15,14859,475488).
route(prodloc7,prodloc14,tr13,28402,170412).
route(prodloc7,prodloc14,tr15,28402,908864).
route(prodloc8,harbor0,tr0,21691,563966).
route(prodloc8,harbor0,tr13,21691,130146).
route(prodloc8,harbor1,tr0,18295,475670).
route(prodloc8,harbor1,tr13,18295,109770).
route(prodloc8,harbor2,tr0,1648,42848).
route(prodloc8,harbor2,tr13,1648,9888).
route(prodloc8,harbor3,tr0,919,23894).
route(prodloc8,harbor3,tr13,919,5514).
route(prodloc8,harbor4,tr0,6217,161642).
route(prodloc8,harbor4,tr13,6217,37302).
route(prodloc8,harbor5,tr0,22126,575276).
route(prodloc8,harbor5,tr13,22126,132756).
route(prodloc8,prodloc0,tr0,26612,691912).
route(prodloc8,prodloc0,tr13,26612,159672).
route(prodloc8,prodloc1,tr0,22488,584688).
route(prodloc8,prodloc1,tr13,22488,134928).
route(prodloc8,prodloc2,tr0,19787,514462).
route(prodloc8,prodloc2,tr13,19787,118722).
route(prodloc8,prodloc3,tr0,21288,553488).
route(prodloc8,prodloc3,tr13,21288,127728).
route(prodloc8,prodloc4,tr0,9277,241202).
route(prodloc8,prodloc4,tr13,9277,55662).
route(prodloc8,prodloc5,tr0,25383,659958).
route(prodloc8,prodloc5,tr13,25383,152298).
route(prodloc8,prodloc6,tr0,13893,361218).
route(prodloc8,prodloc6,tr13,13893,83358).
route(prodloc8,prodloc7,tr0,15061,391586).
route(prodloc8,prodloc7,tr13,15061,90366).
route(prodloc8,prodloc9,tr0,7371,191646).
route(prodloc8,prodloc9,tr13,7371,44226).
route(prodloc8,prodloc10,tr0,24390,634140).
route(prodloc8,prodloc10,tr13,24390,146340).
route(prodloc8,prodloc11,tr0,2239,58214).
route(prodloc8,prodloc11,tr13,2239,13434).
route(prodloc8,prodloc12,tr0,20484,532584).
route(prodloc8,prodloc12,tr13,20484,122904).
route(prodloc8,prodloc13,tr0,2439,63414).
route(prodloc8,prodloc13,tr13,2439,14634).
route(prodloc8,prodloc14,tr0,23062,599612).
route(prodloc8,prodloc14,tr13,23062,138372).
route(prodloc9,harbor0,tr0,23532,611832).
route(prodloc9,harbor0,tr13,23532,141192).
route(prodloc9,harbor1,tr0,6019,156494).
route(prodloc9,harbor1,tr13,6019,36114).
route(prodloc9,harbor2,tr0,23531,611806).
route(prodloc9,harbor2,tr13,23531,141186).
route(prodloc9,harbor3,tr0,12214,317564).
route(prodloc9,harbor3,tr13,12214,73284).
route(prodloc9,harbor4,tr0,15104,392704).
route(prodloc9,harbor4,tr13,15104,90624).
route(prodloc9,harbor5,tr0,22649,588874).
route(prodloc9,harbor5,tr13,22649,135894).
route(prodloc9,prodloc0,tr0,6638,172588).
route(prodloc9,prodloc0,tr13,6638,39828).
route(prodloc9,prodloc1,tr13,12603,75618).
route(prodloc9,prodloc1,tr15,12603,403296).
route(prodloc9,prodloc2,tr0,3517,91442).
route(prodloc9,prodloc2,tr13,3517,21102).
route(prodloc9,prodloc3,tr0,19743,513318).
route(prodloc9,prodloc3,tr13,19743,118458).
route(prodloc9,prodloc4,tr13,11923,71538).
route(prodloc9,prodloc4,tr15,11923,381536).
route(prodloc9,prodloc5,tr0,15500,403000).
route(prodloc9,prodloc5,tr13,15500,93000).
route(prodloc9,prodloc6,tr0,7147,185822).
route(prodloc9,prodloc6,tr13,7147,42882).
route(prodloc9,prodloc7,tr13,24727,148362).
route(prodloc9,prodloc7,tr15,24727,791264).
route(prodloc9,prodloc8,tr0,22332,580632).
route(prodloc9,prodloc8,tr13,22332,133992).
route(prodloc9,prodloc10,tr0,11417,296842).
route(prodloc9,prodloc10,tr13,11417,68502).
route(prodloc9,prodloc11,tr13,10945,65670).
route(prodloc9,prodloc11,tr15,10945,350240).
route(prodloc9,prodloc12,tr13,16316,97896).
route(prodloc9,prodloc12,tr15,16316,522112).
route(prodloc9,prodloc13,tr0,17506,455156).
route(prodloc9,prodloc13,tr13,17506,105036).
route(prodloc9,prodloc14,tr0,27150,705900).
route(prodloc9,prodloc14,tr13,27150,162900).
route(prodloc10,harbor0,tr0,10180,264680).
route(prodloc10,harbor0,tr13,10180,61080).
route(prodloc10,harbor1,tr0,1634,42484).
route(prodloc10,harbor1,tr13,1634,9804).
route(prodloc10,harbor2,tr0,5760,149760).
route(prodloc10,harbor2,tr13,5760,34560).
route(prodloc10,harbor3,tr0,19981,519506).
route(prodloc10,harbor3,tr13,19981,119886).
route(prodloc10,harbor4,tr0,20862,542412).
route(prodloc10,harbor4,tr13,20862,125172).
route(prodloc10,harbor5,tr0,15105,392730).
route(prodloc10,harbor5,tr13,15105,90630).
route(prodloc10,prodloc0,tr0,4364,113464).
route(prodloc10,prodloc0,tr13,4364,26184).
route(prodloc10,prodloc1,tr0,28084,730184).
route(prodloc10,prodloc1,tr13,28084,168504).
route(prodloc10,prodloc2,tr0,26866,698516).
route(prodloc10,prodloc2,tr13,26866,161196).
route(prodloc10,prodloc3,tr0,9012,234312).
route(prodloc10,prodloc3,tr13,9012,54072).
route(prodloc10,prodloc4,tr0,15581,405106).
route(prodloc10,prodloc4,tr13,15581,93486).
route(prodloc10,prodloc5,tr0,9992,259792).
route(prodloc10,prodloc5,tr13,9992,59952).
route(prodloc10,prodloc6,tr0,17492,454792).
route(prodloc10,prodloc6,tr13,17492,104952).
route(prodloc10,prodloc7,tr0,1563,40638).
route(prodloc10,prodloc7,tr13,1563,9378).
route(prodloc10,prodloc8,tr0,5053,131378).
route(prodloc10,prodloc8,tr13,5053,30318).
route(prodloc10,prodloc9,tr0,1824,47424).
route(prodloc10,prodloc9,tr13,1824,10944).
route(prodloc10,prodloc11,tr0,17074,443924).
route(prodloc10,prodloc11,tr13,17074,102444).
route(prodloc10,prodloc12,tr0,1000,26000).
route(prodloc10,prodloc12,tr13,1000,6000).
route(prodloc10,prodloc13,tr0,22366,581516).
route(prodloc10,prodloc13,tr13,22366,134196).
route(prodloc10,prodloc14,tr0,10053,261378).
route(prodloc10,prodloc14,tr13,10053,60318).
route(prodloc11,harbor0,tr0,15931,414206).
route(prodloc11,harbor0,tr13,15931,95586).
route(prodloc11,harbor1,tr0,11962,311012).
route(prodloc11,harbor1,tr13,11962,71772).
route(prodloc11,harbor2,tr0,20814,541164).
route(prodloc11,harbor2,tr13,20814,124884).
route(prodloc11,harbor3,tr0,9695,252070).
route(prodloc11,harbor3,tr13,9695,58170).
route(prodloc11,harbor4,tr0,12093,314418).
route(prodloc11,harbor4,tr13,12093,72558).
route(prodloc11,harbor5,tr0,21983,571558).
route(prodloc11,harbor5,tr13,21983,131898).
route(prodloc11,prodloc0,tr0,24226,629876).
route(prodloc11,prodloc0,tr13,24226,145356).
route(prodloc11,prodloc1,tr0,5718,148668).
route(prodloc11,prodloc1,tr13,5718,34308).
route(prodloc11,prodloc2,tr0,4307,111982).
route(prodloc11,prodloc2,tr13,4307,25842).
route(prodloc11,prodloc3,tr0,26142,679692).
route(prodloc11,prodloc3,tr13,26142,156852).
route(prodloc11,prodloc4,tr0,779,20254).
route(prodloc11,prodloc4,tr13,779,4674).
route(prodloc11,prodloc5,tr0,6862,178412).
route(prodloc11,prodloc5,tr13,6862,41172).
route(prodloc11,prodloc6,tr0,16620,432120).
route(prodloc11,prodloc6,tr13,16620,99720).
route(prodloc11,prodloc7,tr0,25227,655902).
route(prodloc11,prodloc7,tr13,25227,151362).
route(prodloc11,prodloc8,tr0,2180,56680).
route(prodloc11,prodloc8,tr13,2180,13080).
route(prodloc11,prodloc9,tr0,4319,112294).
route(prodloc11,prodloc9,tr13,4319,25914).
route(prodloc11,prodloc10,tr0,28706,746356).
route(prodloc11,prodloc10,tr13,28706,172236).
route(prodloc11,prodloc12,tr0,19285,501410).
route(prodloc11,prodloc12,tr13,19285,115710).
route(prodloc11,prodloc13,tr0,7476,194376).
route(prodloc11,prodloc13,tr13,7476,44856).
route(prodloc11,prodloc14,tr0,28311,736086).
route(prodloc11,prodloc14,tr13,28311,169866).
route(prodloc12,harbor0,tr0,10136,263536).
route(prodloc12,harbor0,tr13,10136,60816).
route(prodloc12,harbor1,tr0,27818,723268).
route(prodloc12,harbor1,tr13,27818,166908).
route(prodloc12,harbor2,tr0,13200,343200).
route(prodloc12,harbor2,tr13,13200,79200).
route(prodloc12,harbor3,tr0,19366,503516).
route(prodloc12,harbor3,tr13,19366,116196).
route(prodloc12,harbor4,tr0,15600,405600).
route(prodloc12,harbor4,tr13,15600,93600).
route(prodloc12,harbor5,tr0,26982,701532).
route(prodloc12,harbor5,tr13,26982,161892).
route(prodloc12,prodloc0,tr0,19828,515528).
route(prodloc12,prodloc0,tr13,19828,118968).
route(prodloc12,prodloc1,tr0,26618,692068).
route(prodloc12,prodloc1,tr13,26618,159708).
route(prodloc12,prodloc2,tr0,11480,298480).
route(prodloc12,prodloc2,tr13,11480,68880).
route(prodloc12,prodloc3,tr0,5817,151242).
route(prodloc12,prodloc3,tr13,5817,34902).
route(prodloc12,prodloc4,tr0,11517,299442).
route(prodloc12,prodloc4,tr13,11517,69102).
route(prodloc12,prodloc5,tr0,8081,210106).
route(prodloc12,prodloc5,tr13,8081,48486).
route(prodloc12,prodloc6,tr0,27968,727168).
route(prodloc12,prodloc6,tr13,27968,167808).
route(prodloc12,prodloc7,tr0,28286,735436).
route(prodloc12,prodloc7,tr13,28286,169716).
route(prodloc12,prodloc8,tr0,18208,473408).
route(prodloc12,prodloc8,tr13,18208,109248).
route(prodloc12,prodloc9,tr0,20807,540982).
route(prodloc12,prodloc9,tr13,20807,124842).
route(prodloc12,prodloc10,tr0,11551,300326).
route(prodloc12,prodloc10,tr13,11551,69306).
route(prodloc12,prodloc11,tr0,10989,285714).
route(prodloc12,prodloc11,tr13,10989,65934).
route(prodloc12,prodloc13,tr0,26808,697008).
route(prodloc12,prodloc13,tr15,26808,857856).
route(prodloc12,prodloc14,tr0,17103,444678).
route(prodloc12,prodloc14,tr13,17103,102618).
route(prodloc13,harbor0,tr0,14164,368264).
route(prodloc13,harbor0,tr13,14164,84984).
route(prodloc13,harbor1,tr0,3619,94094).
route(prodloc13,harbor1,tr13,3619,21714).
route(prodloc13,harbor2,tr0,500,13000).
route(prodloc13,harbor2,tr13,500,3000).
route(prodloc13,harbor3,tr0,1317,34242).
route(prodloc13,harbor3,tr13,1317,7902).
route(prodloc13,harbor4,tr0,10006,260156).
route(prodloc13,harbor4,tr13,10006,60036).
route(prodloc13,harbor5,tr0,28536,741936).
route(prodloc13,harbor5,tr13,28536,171216).
route(prodloc13,prodloc0,tr0,8926,232076).
route(prodloc13,prodloc0,tr13,8926,53556).
route(prodloc13,prodloc1,tr13,5633,33798).
route(prodloc13,prodloc1,tr15,5633,180256).
route(prodloc13,prodloc2,tr0,9849,256074).
route(prodloc13,prodloc2,tr13,9849,59094).
route(prodloc13,prodloc3,tr0,6513,169338).
route(prodloc13,prodloc3,tr13,6513,39078).
route(prodloc13,prodloc4,tr13,26466,158796).
route(prodloc13,prodloc4,tr15,26466,846912).
route(prodloc13,prodloc5,tr0,25965,675090).
route(prodloc13,prodloc5,tr13,25965,155790).
route(prodloc13,prodloc6,tr0,6539,170014).
route(prodloc13,prodloc6,tr13,6539,39234).
route(prodloc13,prodloc7,tr0,3748,97448).
route(prodloc13,prodloc7,tr13,3748,22488).
route(prodloc13,prodloc8,tr13,16784,100704).
route(prodloc13,prodloc8,tr15,16784,537088).
route(prodloc13,prodloc9,tr0,27836,723736).
route(prodloc13,prodloc9,tr13,27836,167016).
route(prodloc13,prodloc10,tr0,24212,629512).
route(prodloc13,prodloc10,tr13,24212,145272).
route(prodloc13,prodloc11,tr0,7415,192790).
route(prodloc13,prodloc11,tr13,7415,44490).
route(prodloc13,prodloc12,tr0,12712,330512).
route(prodloc13,prodloc12,tr13,12712,76272).
route(prodloc13,prodloc14,tr0,9219,239694).
route(prodloc13,prodloc14,tr13,9219,55314).
route(prodloc14,harbor0,tr0,19478,506428).
route(prodloc14,harbor0,tr13,19478,116868).
route(prodloc14,harbor1,tr0,14474,376324).
route(prodloc14,harbor1,tr13,14474,86844).
route(prodloc14,harbor2,tr0,3675,95550).
route(prodloc14,harbor2,tr13,3675,22050).
route(prodloc14,harbor3,tr0,12649,328874).
route(prodloc14,harbor3,tr13,12649,75894).
route(prodloc14,harbor4,tr0,25396,660296).
route(prodloc14,harbor4,tr13,25396,152376).
route(prodloc14,harbor5,tr0,3698,96148).
route(prodloc14,harbor5,tr13,3698,22188).
route(prodloc14,prodloc0,tr0,14369,373594).
route(prodloc14,prodloc0,tr13,14369,86214).
route(prodloc14,prodloc1,tr0,25242,656292).
route(prodloc14,prodloc1,tr13,25242,151452).
route(prodloc14,prodloc2,tr0,19784,514384).
route(prodloc14,prodloc2,tr13,19784,118704).
route(prodloc14,prodloc3,tr0,25038,650988).
route(prodloc14,prodloc3,tr13,25038,150228).
route(prodloc14,prodloc4,tr0,26555,690430).
route(prodloc14,prodloc4,tr13,26555,159330).
route(prodloc14,prodloc5,tr0,2518,65468).
route(prodloc14,prodloc5,tr13,2518,15108).
route(prodloc14,prodloc6,tr0,23095,600470).
route(prodloc14,prodloc6,tr13,23095,138570).
route(prodloc14,prodloc7,tr0,26954,700804).
route(prodloc14,prodloc7,tr13,26954,161724).
route(prodloc14,prodloc8,tr0,17870,464620).
route(prodloc14,prodloc8,tr13,17870,107220).
route(prodloc14,prodloc9,tr0,26899,699374).
route(prodloc14,prodloc9,tr13,26899,161394).
route(prodloc14,prodloc10,tr0,7923,205998).
route(prodloc14,prodloc10,tr13,7923,47538).
route(prodloc14,prodloc11,tr13,1943,11658).
route(prodloc14,prodloc11,tr15,1943,62176).
route(prodloc14,prodloc12,tr0,19377,503802).
route(prodloc14,prodloc12,tr15,19377,620064).
route(prodloc14,prodloc13,tr0,17806,462956).
route(prodloc14,prodloc13,tr13,17806,106836).
hub(harbor3).
hub(prodloc7).
hub(prodloc10).
hub(prodloc12).
