% Multibatching benchmark instance
% Source: instances.lp
% seed=2  harbors=6  prodlocs=15  hubs=4  disruptions=2

% ---- locations ----
location(harbor0).
location(harbor1).
location(harbor2).
location(harbor3).
location(harbor4).
location(harbor5).
location(prodloc0).
location(prodloc1).
location(prodloc2).
location(prodloc3).
location(prodloc4).
location(prodloc5).
location(prodloc6).
location(prodloc7).
location(prodloc8).
location(prodloc9).
location(prodloc10).
location(prodloc11).
location(prodloc12).
location(prodloc13).
location(prodloc14).

% ---- transport resources ----
transportCapacity(tr0,1800).
transportCO2(tr0,1680).
transportCost(tr0,26).
transportSpeed(tr0,12).
transportCapacity(tr1,65).
transportCO2(tr1,90).
transportCost(tr1,1).
transportSpeed(tr1,35).
transportCapacity(tr10,1).
transportCO2(tr10,700).
transportCost(tr10,4).
transportSpeed(tr10,40).
transportCapacity(tr11,65).
transportCO2(tr11,62).
transportCost(tr11,1).
transportSpeed(tr11,25).
transportCapacity(tr12,65).
transportCO2(tr12,709).
transportCost(tr12,3).
transportSpeed(tr12,55).
transportCapacity(tr13,68).
transportCO2(tr13,160).
transportCost(tr13,6).
transportSpeed(tr13,25).
transportCapacity(tr14,146).
transportCO2(tr14,780).
transportCost(tr14,4).
transportSpeed(tr14,50).
transportCapacity(tr15,2217).
transportCO2(tr15,49470).
transportCost(tr15,32).
transportSpeed(tr15,625).
transportCapacity(tr2,96).
transportCO2(tr2,709).
transportCost(tr2,3).
transportSpeed(tr2,55).
transportCapacity(tr3,1).
transportCO2(tr3,6250).
transportCost(tr3,108).
transportSpeed(tr3,25).
transportCapacity(tr4,148).
transportCO2(tr4,780).
transportCost(tr4,4).
transportSpeed(tr4,50).
transportCapacity(tr5,65).
transportCO2(tr5,780).
transportCost(tr5,3).
transportSpeed(tr5,50).
transportCapacity(tr6,1).
transportCO2(tr6,100).
transportCost(tr6,40).
transportSpeed(tr6,25).
transportCapacity(tr7,1).
transportCO2(tr7,18000).
transportCost(tr7,278).
transportSpeed(tr7,10).
transportCapacity(tr8,1).
transportCO2(tr8,14400).
transportCost(tr8,107).
transportSpeed(tr8,25).
transportCapacity(tr9,65).
transportCO2(tr9,708).
transportCost(tr9,2).
transportSpeed(tr9,60).

% ---- parts ----
part(part0).
partSize(part0,21).
valid_transport(part0,tr0).
valid_transport(part0,tr15).
valid_transport(part0,tr14).
valid_transport(part0,tr13).
valid_transport(part0,tr4).
part(part1).
partSize(part1,1).
valid_transport(part1,tr0).
valid_transport(part1,tr2).
valid_transport(part1,tr15).
valid_transport(part1,tr9).
valid_transport(part1,tr12).
valid_transport(part1,tr13).
valid_transport(part1,tr11).
part(part10).
partSize(part10,1).
valid_transport(part10,tr0).
valid_transport(part10,tr2).
valid_transport(part10,tr15).
valid_transport(part10,tr9).
valid_transport(part10,tr12).
valid_transport(part10,tr13).
valid_transport(part10,tr11).
part(part11).
partSize(part11,83).
valid_transport(part11,tr0).
valid_transport(part11,tr7).
valid_transport(part11,tr8).
valid_transport(part11,tr15).
valid_transport(part11,tr3).
valid_transport(part11,tr13).
part(part12).
partSize(part12,273).
valid_transport(part12,tr0).
valid_transport(part12,tr7).
valid_transport(part12,tr8).
valid_transport(part12,tr15).
valid_transport(part12,tr3).
valid_transport(part12,tr13).
part(part13).
partSize(part13,1).
valid_transport(part13,tr0).
valid_transport(part13,tr2).
valid_transport(part13,tr15).
valid_transport(part13,tr9).
valid_transport(part13,tr12).
valid_transport(part13,tr13).
valid_transport(part13,tr11).
part(part14).
partSize(part14,68).
valid_transport(part14,tr0).
valid_transport(part14,tr15).
valid_transport(part14,tr13).
part(part15).
partSize(part15,4).
valid_transport(part15,tr0).
valid_transport(part15,tr2).
valid_transport(part15,tr15).
valid_transport(part15,tr9).
valid_transport(part15,tr12).
valid_transport(part15,tr13).
valid_transport(part15,tr11).
part(part16).
partSize(part16,4).
valid_transport(part16,tr0).
valid_transport(part16,tr2).
valid_transport(part16,tr15).
valid_transport(part16,tr9).
valid_transport(part16,tr12).
valid_transport(part16,tr13).
valid_transport(part16,tr11).
part(part17).
partSize(part17,8).
valid_transport(part17,tr0).
valid_transport(part17,tr15).
valid_transport(part17,tr14).
valid_transport(part17,tr13).
valid_transport(part17,tr4).
part(part18).
partSize(part18,24).
valid_transport(part18,tr0).
valid_transport(part18,tr15).
valid_transport(part18,tr14).
valid_transport(part18,tr13).
valid_transport(part18,tr4).
part(part19).
partSize(part19,6).
valid_transport(part19,tr0).
valid_transport(part19,tr2).
valid_transport(part19,tr15).
valid_transport(part19,tr9).
valid_transport(part19,tr12).
valid_transport(part19,tr13).
valid_transport(part19,tr11).
part(part2).
partSize(part2,19).
valid_transport(part2,tr0).
valid_transport(part2,tr15).
valid_transport(part2,tr14).
valid_transport(part2,tr13).
valid_transport(part2,tr4).
part(part20).
partSize(part20,128).
valid_transport(part20,tr0).
valid_transport(part20,tr7).
valid_transport(part20,tr8).
valid_transport(part20,tr15).
valid_transport(part20,tr3).
valid_transport(part20,tr13).
part(part21).
partSize(part21,25).
valid_transport(part21,tr0).
valid_transport(part21,tr15).
valid_transport(part21,tr14).
valid_transport(part21,tr13).
valid_transport(part21,tr4).
part(part22).
partSize(part22,7).
valid_transport(part22,tr0).
valid_transport(part22,tr2).
valid_transport(part22,tr15).
valid_transport(part22,tr9).
valid_transport(part22,tr12).
valid_transport(part22,tr13).
valid_transport(part22,tr11).
part(part23).
partSize(part23,5).
valid_transport(part23,tr0).
valid_transport(part23,tr15).
valid_transport(part23,tr14).
valid_transport(part23,tr13).
valid_transport(part23,tr4).
part(part24).
partSize(part24,55).
valid_transport(part24,tr0).
valid_transport(part24,tr7).
valid_transport(part24,tr8).
valid_transport(part24,tr15).
valid_transport(part24,tr3).
valid_transport(part24,tr13).
part(part25).
partSize(part25,5).
valid_transport(part25,tr0).
valid_transport(part25,tr4).
valid_transport(part25,tr2).
valid_transport(part25,tr15).
valid_transport(part25,tr13).
part(part26).
partSize(part26,32).
valid_transport(part26,tr0).
valid_transport(part26,tr7).
valid_transport(part26,tr8).
valid_transport(part26,tr15).
valid_transport(part26,tr3).
valid_transport(part26,tr13).
part(part27).
partSize(part27,5).
valid_transport(part27,tr0).
valid_transport(part27,tr2).
valid_transport(part27,tr15).
valid_transport(part27,tr9).
valid_transport(part27,tr12).
valid_transport(part27,tr13).
valid_transport(part27,tr11).
part(part28).
partSize(part28,3).
valid_transport(part28,tr0).
valid_transport(part28,tr4).
valid_transport(part28,tr2).
valid_transport(part28,tr15).
valid_transport(part28,tr14).
valid_transport(part28,tr13).
part(part29).
partSize(part29,627).
part(part3).
partSize(part3,48).
valid_transport(part3,tr0).
valid_transport(part3,tr7).
valid_transport(part3,tr8).
valid_transport(part3,tr15).
valid_transport(part3,tr3).
valid_transport(part3,tr13).
part(part30).
partSize(part30,2).
valid_transport(part30,tr0).
valid_transport(part30,tr2).
valid_transport(part30,tr15).
valid_transport(part30,tr9).
valid_transport(part30,tr12).
valid_transport(part30,tr13).
valid_transport(part30,tr11).
part(part31).
partSize(part31,144).
valid_transport(part31,tr0).
valid_transport(part31,tr7).
valid_transport(part31,tr8).
valid_transport(part31,tr15).
valid_transport(part31,tr3).
valid_transport(part31,tr13).
part(part32).
partSize(part32,16).
valid_transport(part32,tr0).
valid_transport(part32,tr4).
valid_transport(part32,tr2).
valid_transport(part32,tr15).
valid_transport(part32,tr14).
valid_transport(part32,tr13).
part(part33).
partSize(part33,7).
valid_transport(part33,tr0).
valid_transport(part33,tr2).
valid_transport(part33,tr15).
valid_transport(part33,tr9).
valid_transport(part33,tr12).
valid_transport(part33,tr13).
valid_transport(part33,tr11).
part(part3345).
partSize(part3345,353).
valid_transport(part3345,tr0).
valid_transport(part3345,tr7).
valid_transport(part3345,tr8).
valid_transport(part3345,tr15).
valid_transport(part3345,tr3).
valid_transport(part3345,tr13).
part(part34).
partSize(part34,2).
valid_transport(part34,tr0).
valid_transport(part34,tr2).
valid_transport(part34,tr15).
valid_transport(part34,tr9).
valid_transport(part34,tr12).
valid_transport(part34,tr13).
valid_transport(part34,tr11).
part(part4).
partSize(part4,2).
valid_transport(part4,tr0).
valid_transport(part4,tr2).
valid_transport(part4,tr15).
valid_transport(part4,tr9).
valid_transport(part4,tr12).
valid_transport(part4,tr13).
valid_transport(part4,tr11).
part(part5).
partSize(part5,2).
valid_transport(part5,tr0).
valid_transport(part5,tr2).
valid_transport(part5,tr15).
valid_transport(part5,tr9).
valid_transport(part5,tr12).
valid_transport(part5,tr14).
valid_transport(part5,tr13).
valid_transport(part5,tr11).
part(part6).
partSize(part6,111).
valid_transport(part6,tr0).
valid_transport(part6,tr7).
valid_transport(part6,tr8).
valid_transport(part6,tr15).
valid_transport(part6,tr3).
valid_transport(part6,tr13).
part(part8).
partSize(part8,163).
valid_transport(part8,tr0).
valid_transport(part8,tr7).
valid_transport(part8,tr8).
valid_transport(part8,tr15).
valid_transport(part8,tr3).
valid_transport(part8,tr13).
part(part9).
partSize(part9,2).
valid_transport(part9,tr0).
valid_transport(part9,tr2).
valid_transport(part9,tr15).
valid_transport(part9,tr9).
valid_transport(part9,tr12).
valid_transport(part9,tr13).
valid_transport(part9,tr11).

% ---- demand ----
demandOffer(part0,prodloc13,40).
demandOffer(part0,prodloc14,40).
demandOffer(part0,prodloc0,-27).
demandOffer(part0,prodloc1,-53).
demandOffer(part1,prodloc1,20).
demandOffer(part1,prodloc5,20).
demandOffer(part1,prodloc2,-20).
demandOffer(part1,prodloc11,-20).
demandOffer(part10,prodloc12,20).
demandOffer(part10,prodloc10,20).
demandOffer(part10,prodloc4,-20).
demandOffer(part10,prodloc14,-20).
demandOffer(part12,prodloc9,10).
demandOffer(part12,prodloc3,20).
demandOffer(part12,prodloc14,-10).
demandOffer(part12,prodloc0,-10).
demandOffer(part12,prodloc12,-10).
demandOffer(part13,prodloc10,20).
demandOffer(part13,prodloc2,20).
demandOffer(part13,prodloc6,-20).
demandOffer(part13,prodloc14,-20).
demandOffer(part14,prodloc6,26).
demandOffer(part14,prodloc12,-26).
demandOffer(part15,prodloc11,53).
demandOffer(part15,prodloc13,27).
demandOffer(part15,prodloc8,-53).
demandOffer(part15,prodloc5,-27).
demandOffer(part16,prodloc8,53).
demandOffer(part16,prodloc7,27).
demandOffer(part16,prodloc14,-53).
demandOffer(part16,prodloc4,-27).
demandOffer(part17,prodloc14,20).
demandOffer(part17,prodloc0,-20).
demandOffer(part18,prodloc13,40).
demandOffer(part18,prodloc0,40).
demandOffer(part18,prodloc5,-27).
demandOffer(part18,prodloc7,-53).
demandOffer(part19,prodloc14,26).
demandOffer(part19,prodloc5,-26).
demandOffer(part2,prodloc14,40).
demandOffer(part2,prodloc6,40).
demandOffer(part2,prodloc13,-27).
demandOffer(part2,prodloc8,-53).
demandOffer(part20,prodloc2,53).
demandOffer(part20,prodloc8,27).
demandOffer(part20,prodloc14,-14).
demandOffer(part20,prodloc3,-46).
demandOffer(part20,prodloc11,-20).
demandOffer(part21,prodloc0,26).
demandOffer(part21,prodloc2,-26).
demandOffer(part22,prodloc5,53).
demandOffer(part22,prodloc2,27).
demandOffer(part22,prodloc13,-53).
demandOffer(part22,prodloc8,-27).
demandOffer(part23,prodloc8,20).
demandOffer(part23,prodloc5,20).
demandOffer(part23,prodloc14,-20).
demandOffer(part23,prodloc10,-20).
demandOffer(part25,prodloc8,20).
demandOffer(part25,prodloc2,-20).
demandOffer(part26,prodloc14,20).
demandOffer(part26,prodloc7,20).
demandOffer(part26,prodloc12,-14).
demandOffer(part26,prodloc6,-26).
demandOffer(part27,prodloc11,53).
demandOffer(part27,prodloc8,27).
demandOffer(part27,prodloc12,-53).
demandOffer(part27,prodloc5,-27).
demandOffer(part28,prodloc12,20).
demandOffer(part28,prodloc9,20).
demandOffer(part28,prodloc5,-20).
demandOffer(part28,prodloc14,-20).
demandOffer(part3,prodloc13,40).
demandOffer(part3,prodloc7,-14).
demandOffer(part3,prodloc2,-26).
demandOffer(part30,prodloc12,40).
demandOffer(part30,prodloc6,40).
demandOffer(part30,prodloc11,-27).
demandOffer(part30,prodloc14,-53).
demandOffer(part31,prodloc7,7).
demandOffer(part31,prodloc10,7).
demandOffer(part31,prodloc8,-14).
demandOffer(part32,prodloc3,53).
demandOffer(part32,prodloc7,27).
demandOffer(part32,prodloc4,-53).
demandOffer(part32,prodloc13,-27).
demandOffer(part33,prodloc8,53).
demandOffer(part33,prodloc14,27).
demandOffer(part33,prodloc12,-53).
demandOffer(part33,prodloc5,-27).
demandOffer(part34,prodloc10,20).
demandOffer(part34,prodloc7,-20).
demandOffer(part4,prodloc14,26).
demandOffer(part4,prodloc7,-26).
demandOffer(part5,prodloc5,20).
demandOffer(part5,prodloc9,-20).
demandOffer(part6,prodloc11,27).
demandOffer(part6,prodloc8,53).
demandOffer(part6,prodloc14,-24).
demandOffer(part6,prodloc7,-36).
demandOffer(part6,prodloc12,-10).
demandOffer(part6,prodloc3,-10).
demandOffer(part8,prodloc5,3).
demandOffer(part8,prodloc13,17).
demandOffer(part8,prodloc11,-10).
demandOffer(part8,prodloc2,-10).
demandOffer(part9,prodloc14,20).
demandOffer(part9,prodloc9,-20).

% ---- network (ASP-generated) ----
route(harbor0,harbor1,tr13,8816,52896).
route(harbor0,harbor1,tr2,8816,26448).
route(harbor0,harbor2,tr13,25359,152154).
route(harbor0,harbor2,tr2,25359,76077).
route(harbor0,harbor3,tr13,15750,94500).
route(harbor0,harbor3,tr2,15750,47250).
route(harbor0,harbor4,tr13,10173,61038).
route(harbor0,harbor4,tr2,10173,30519).
route(harbor0,harbor5,tr13,9968,59808).
route(harbor0,harbor5,tr2,9968,29904).
route(harbor0,prodloc0,tr0,26192,680992).
route(harbor0,prodloc0,tr13,26192,157152).
route(harbor0,prodloc1,tr0,23142,601692).
route(harbor0,prodloc1,tr13,23142,138852).
route(harbor0,prodloc2,tr0,27234,708084).
route(harbor0,prodloc2,tr13,27234,163404).
route(harbor0,prodloc3,tr0,16525,429650).
route(harbor0,prodloc3,tr13,16525,99150).
route(harbor0,prodloc4,tr0,18423,478998).
route(harbor0,prodloc4,tr13,18423,110538).
route(harbor0,prodloc5,tr0,16967,441142).
route(harbor0,prodloc5,tr13,16967,101802).
route(harbor0,prodloc6,tr0,16627,432302).
route(harbor0,prodloc6,tr13,16627,99762).
route(harbor0,prodloc7,tr0,21347,555022).
route(harbor0,prodloc7,tr13,21347,128082).
route(harbor0,prodloc8,tr0,20180,524680).
route(harbor0,prodloc8,tr13,20180,121080).
route(harbor0,prodloc9,tr0,19267,500942).
route(harbor0,prodloc9,tr13,19267,115602).
route(harbor0,prodloc10,tr0,13327,346502).
route(harbor0,prodloc10,tr13,13327,79962).
route(harbor0,prodloc11,tr0,10220,265720).
route(harbor0,prodloc11,tr13,10220,61320).
route(harbor0,prodloc12,tr0,23953,622778).
route(harbor0,prodloc12,tr13,23953,143718).
route(harbor0,prodloc13,tr0,6811,177086).
route(harbor0,prodloc13,tr13,6811,40866).
route(harbor0,prodloc14,tr0,16022,416572).
route(harbor0,prodloc14,tr13,16022,96132).
route(harbor1,harbor0,tr13,16803,100818).
route(harbor1,harbor0,tr2,16803,50409).
route(harbor1,harbor2,tr13,12042,72252).
route(harbor1,harbor2,tr2,12042,36126).
route(harbor1,harbor3,tr13,22450,134700).
route(harbor1,harbor3,tr2,22450,67350).
route(harbor1,harbor4,tr13,20453,122718).
route(harbor1,harbor4,tr2,20453,61359).
route(harbor1,harbor5,tr13,28933,173598).
route(harbor1,harbor5,tr2,28933,86799).
route(harbor1,prodloc0,tr0,2471,64246).
route(harbor1,prodloc0,tr13,2471,14826).
route(harbor1,prodloc1,tr0,25701,668226).
route(harbor1,prodloc1,tr13,25701,154206).
route(harbor1,prodloc2,tr0,26884,698984).
route(harbor1,prodloc2,tr13,26884,161304).
route(harbor1,prodloc3,tr0,11190,290940).
route(harbor1,prodloc3,tr13,11190,67140).
route(harbor1,prodloc4,tr0,23789,618514).
route(harbor1,prodloc4,tr13,23789,142734).
route(harbor1,prodloc5,tr0,277,7202).
route(harbor1,prodloc5,tr13,277,1662).
route(harbor1,prodloc6,tr0,26709,694434).
route(harbor1,prodloc6,tr13,26709,160254).
route(harbor1,prodloc7,tr0,6273,163098).
route(harbor1,prodloc7,tr13,6273,37638).
route(harbor1,prodloc8,tr0,24407,634582).
route(harbor1,prodloc8,tr13,24407,146442).
route(harbor1,prodloc9,tr0,3480,90480).
route(harbor1,prodloc9,tr13,3480,20880).
route(harbor1,prodloc10,tr0,1927,50102).
route(harbor1,prodloc10,tr13,1927,11562).
route(harbor1,prodloc11,tr0,18824,489424).
route(harbor1,prodloc11,tr13,18824,112944).
route(harbor1,prodloc12,tr0,21396,556296).
route(harbor1,prodloc12,tr13,21396,128376).
route(harbor1,prodloc13,tr0,1604,41704).
route(harbor1,prodloc13,tr13,1604,9624).
route(harbor1,prodloc14,tr0,8950,232700).
route(harbor1,prodloc14,tr13,8950,53700).
route(harbor2,harbor0,tr13,19418,116508).
route(harbor2,harbor0,tr2,19418,58254).
route(harbor2,harbor1,tr13,7455,44730).
route(harbor2,harbor1,tr2,7455,22365).
route(harbor2,harbor3,tr13,22393,134358).
route(harbor2,harbor3,tr2,22393,67179).
route(harbor2,harbor4,tr13,28718,172308).
route(harbor2,harbor4,tr2,28718,86154).
route(harbor2,harbor5,tr13,3512,21072).
route(harbor2,harbor5,tr2,3512,10536).
route(harbor2,prodloc0,tr0,24721,642746).
route(harbor2,prodloc0,tr13,24721,148326).
route(harbor2,prodloc1,tr0,17118,445068).
route(harbor2,prodloc1,tr13,17118,102708).
route(harbor2,prodloc2,tr0,4474,116324).
route(harbor2,prodloc2,tr13,4474,26844).
route(harbor2,prodloc3,tr0,27984,727584).
route(harbor2,prodloc3,tr13,27984,167904).
route(harbor2,prodloc4,tr0,8713,226538).
route(harbor2,prodloc4,tr13,8713,52278).
route(harbor2,prodloc5,tr0,8024,208624).
route(harbor2,prodloc5,tr13,8024,48144).
route(harbor2,prodloc6,tr0,27027,702702).
route(harbor2,prodloc6,tr13,27027,162162).
route(harbor2,prodloc7,tr0,6898,179348).
route(harbor2,prodloc7,tr13,6898,41388).
route(harbor2,prodloc8,tr0,28856,750256).
route(harbor2,prodloc8,tr13,28856,173136).
route(harbor2,prodloc9,tr0,1980,51480).
route(harbor2,prodloc9,tr13,1980,11880).
route(harbor2,prodloc10,tr0,13860,360360).
route(harbor2,prodloc10,tr13,13860,83160).
route(harbor2,prodloc11,tr0,23495,610870).
route(harbor2,prodloc11,tr13,23495,140970).
route(harbor2,prodloc12,tr0,24886,647036).
route(harbor2,prodloc12,tr13,24886,149316).
route(harbor2,prodloc13,tr0,1046,27196).
route(harbor2,prodloc13,tr13,1046,6276).
route(harbor2,prodloc14,tr0,1863,48438).
route(harbor2,prodloc14,tr13,1863,11178).
route(harbor3,harbor0,tr13,11903,71418).
route(harbor3,harbor0,tr2,11903,35709).
route(harbor3,harbor1,tr13,11833,70998).
route(harbor3,harbor1,tr2,11833,35499).
route(harbor3,harbor2,tr13,5662,33972).
route(harbor3,harbor2,tr2,5662,16986).
route(harbor3,harbor4,tr13,8205,49230).
route(harbor3,harbor4,tr2,8205,24615).
route(harbor3,harbor5,tr13,22075,132450).
route(harbor3,harbor5,tr2,22075,66225).
route(harbor3,prodloc0,tr0,770,20020).
route(harbor3,prodloc0,tr13,770,4620).
route(harbor3,prodloc1,tr0,2718,70668).
route(harbor3,prodloc1,tr13,2718,16308).
route(harbor3,prodloc2,tr0,3777,98202).
route(harbor3,prodloc2,tr13,3777,22662).
route(harbor3,prodloc3,tr0,2212,57512).
route(harbor3,prodloc3,tr13,2212,13272).
route(harbor3,prodloc4,tr0,832,21632).
route(harbor3,prodloc4,tr13,832,4992).
route(harbor3,prodloc5,tr0,1341,34866).
route(harbor3,prodloc5,tr13,1341,8046).
route(harbor3,prodloc6,tr0,23903,621478).
route(harbor3,prodloc6,tr13,23903,143418).
route(harbor3,prodloc7,tr0,694,18044).
route(harbor3,prodloc7,tr13,694,4164).
route(harbor3,prodloc8,tr0,12227,317902).
route(harbor3,prodloc8,tr13,12227,73362).
route(harbor3,prodloc9,tr0,8380,217880).
route(harbor3,prodloc9,tr13,8380,50280).
route(harbor3,prodloc10,tr0,4189,108914).
route(harbor3,prodloc10,tr13,4189,25134).
route(harbor3,prodloc11,tr0,26653,692978).
route(harbor3,prodloc11,tr13,26653,159918).
route(harbor3,prodloc12,tr0,5150,133900).
route(harbor3,prodloc12,tr13,5150,30900).
route(harbor3,prodloc13,tr0,24079,626054).
route(harbor3,prodloc13,tr13,24079,144474).
route(harbor3,prodloc14,tr0,6022,156572).
route(harbor3,prodloc14,tr13,6022,36132).
route(harbor4,harbor0,tr13,17170,103020).
route(harbor4,harbor0,tr2,17170,51510).
route(harbor4,harbor1,tr13,22688,136128).
route(harbor4,harbor1,tr2,22688,68064).
route(harbor4,harbor2,tr13,93,558).
route(harbor4,harbor2,tr2,93,279).
route(harbor4,harbor3,tr13,12664,75984).
route(harbor4,harbor3,tr2,12664,37992).
route(harbor4,harbor5,tr13,19345,116070).
route(harbor4,harbor5,tr2,19345,58035).
route(harbor4,prodloc0,tr0,1416,36816).
route(harbor4,prodloc0,tr13,1416,8496).
route(harbor4,prodloc1,tr0,26024,676624).
route(harbor4,prodloc1,tr13,26024,156144).
route(harbor4,prodloc2,tr0,8122,211172).
route(harbor4,prodloc2,tr13,8122,48732).
route(harbor4,prodloc3,tr0,4963,129038).
route(harbor4,prodloc3,tr13,4963,29778).
route(harbor4,prodloc4,tr0,1190,30940).
route(harbor4,prodloc4,tr13,1190,7140).
route(harbor4,prodloc5,tr0,139,3614).
route(harbor4,prodloc5,tr13,139,834).
route(harbor4,prodloc6,tr0,11280,293280).
route(harbor4,prodloc6,tr13,11280,67680).
route(harbor4,prodloc7,tr0,20162,524212).
route(harbor4,prodloc7,tr13,20162,120972).
route(harbor4,prodloc8,tr0,20572,534872).
route(harbor4,prodloc8,tr13,20572,123432).
route(harbor4,prodloc9,tr0,24330,632580).
route(harbor4,prodloc9,tr13,24330,145980).
route(harbor4,prodloc10,tr0,24501,637026).
route(harbor4,prodloc10,tr13,24501,147006).
route(harbor4,prodloc11,tr0,3708,96408).
route(harbor4,prodloc11,tr13,3708,22248).
route(harbor4,prodloc12,tr0,9374,243724).
route(harbor4,prodloc12,tr13,9374,56244).
route(harbor4,prodloc13,tr0,11051,287326).
route(harbor4,prodloc13,tr13,11051,66306).
route(harbor4,prodloc14,tr0,16017,416442).
route(harbor4,prodloc14,tr13,16017,96102).
route(harbor5,harbor0,tr13,1039,6234).
route(harbor5,harbor0,tr2,1039,3117).
route(harbor5,harbor1,tr13,10135,60810).
route(harbor5,harbor1,tr2,10135,30405).
route(harbor5,harbor2,tr13,14731,88386).
route(harbor5,harbor2,tr2,14731,44193).
route(harbor5,harbor3,tr13,18101,108606).
route(harbor5,harbor3,tr2,18101,54303).
route(harbor5,harbor4,tr13,25129,150774).
route(harbor5,harbor4,tr2,25129,75387).
route(harbor5,prodloc0,tr0,19831,515606).
route(harbor5,prodloc0,tr13,19831,118986).
route(harbor5,prodloc1,tr0,24248,630448).
route(harbor5,prodloc1,tr13,24248,145488).
route(harbor5,prodloc2,tr0,1501,39026).
route(harbor5,prodloc2,tr13,1501,9006).
route(harbor5,prodloc3,tr0,8650,224900).
route(harbor5,prodloc3,tr13,8650,51900).
route(harbor5,prodloc4,tr0,24763,643838).
route(harbor5,prodloc4,tr13,24763,148578).
route(harbor5,prodloc5,tr0,13169,342394).
route(harbor5,prodloc5,tr13,13169,79014).
route(harbor5,prodloc6,tr0,28262,734812).
route(harbor5,prodloc6,tr13,28262,169572).
route(harbor5,prodloc7,tr0,20370,529620).
route(harbor5,prodloc7,tr13,20370,122220).
route(harbor5,prodloc8,tr0,23114,600964).
route(harbor5,prodloc8,tr13,23114,138684).
route(harbor5,prodloc9,tr0,5030,130780).
route(harbor5,prodloc9,tr13,5030,30180).
route(harbor5,prodloc10,tr0,15494,402844).
route(harbor5,prodloc10,tr13,15494,92964).
route(harbor5,prodloc11,tr0,7392,192192).
route(harbor5,prodloc11,tr13,7392,44352).
route(harbor5,prodloc12,tr0,3064,79664).
route(harbor5,prodloc12,tr13,3064,18384).
route(harbor5,prodloc13,tr0,21656,563056).
route(harbor5,prodloc13,tr13,21656,129936).
route(harbor5,prodloc14,tr0,22526,585676).
route(harbor5,prodloc14,tr13,22526,135156).
route(prodloc0,harbor0,tr0,10366,269516).
route(prodloc0,harbor0,tr13,10366,62196).
route(prodloc0,harbor1,tr0,27474,714324).
route(prodloc0,harbor1,tr13,27474,164844).
route(prodloc0,harbor2,tr0,3345,86970).
route(prodloc0,harbor2,tr13,3345,20070).
route(prodloc0,harbor3,tr0,795,20670).
route(prodloc0,harbor3,tr13,795,4770).
route(prodloc0,harbor4,tr0,14676,381576).
route(prodloc0,harbor4,tr13,14676,88056).
route(prodloc0,harbor5,tr0,25836,671736).
route(prodloc0,harbor5,tr13,25836,155016).
route(prodloc0,prodloc1,tr0,28666,745316).
route(prodloc0,prodloc1,tr13,28666,171996).
route(prodloc0,prodloc2,tr0,4181,108706).
route(prodloc0,prodloc2,tr13,4181,25086).
route(prodloc0,prodloc3,tr0,16985,441610).
route(prodloc0,prodloc3,tr13,16985,101910).
route(prodloc0,prodloc4,tr0,19169,498394).
route(prodloc0,prodloc4,tr13,19169,115014).
route(prodloc0,prodloc5,tr0,25595,665470).
route(prodloc0,prodloc5,tr13,25595,153570).
route(prodloc0,prodloc6,tr0,12878,334828).
route(prodloc0,prodloc6,tr13,12878,77268).
route(prodloc0,prodloc7,tr0,15957,414882).
route(prodloc0,prodloc7,tr13,15957,95742).
route(prodloc0,prodloc8,tr0,16871,438646).
route(prodloc0,prodloc8,tr13,16871,101226).
route(prodloc0,prodloc9,tr0,10748,279448).
route(prodloc0,prodloc9,tr13,10748,64488).
route(prodloc0,prodloc10,tr0,4715,122590).
route(prodloc0,prodloc10,tr13,4715,28290).
route(prodloc0,prodloc11,tr0,28655,745030).
route(prodloc0,prodloc11,tr13,28655,171930).
route(prodloc0,prodloc12,tr0,11177,290602).
route(prodloc0,prodloc12,tr13,11177,67062).
route(prodloc0,prodloc13,tr0,8492,220792).
route(prodloc0,prodloc13,tr13,8492,50952).
route(prodloc0,prodloc14,tr0,8581,223106).
route(prodloc0,prodloc14,tr13,8581,51486).
route(prodloc1,harbor0,tr0,19861,516386).
route(prodloc1,harbor0,tr13,19861,119166).
route(prodloc1,harbor1,tr0,13756,357656).
route(prodloc1,harbor1,tr13,13756,82536).
route(prodloc1,harbor2,tr0,21409,556634).
route(prodloc1,harbor2,tr13,21409,128454).
route(prodloc1,harbor3,tr0,592,15392).
route(prodloc1,harbor3,tr13,592,3552).
route(prodloc1,harbor4,tr0,22922,595972).
route(prodloc1,harbor4,tr13,22922,137532).
route(prodloc1,harbor5,tr0,18284,475384).
route(prodloc1,harbor5,tr13,18284,109704).
route(prodloc1,prodloc0,tr0,4608,119808).
route(prodloc1,prodloc0,tr13,4608,27648).
route(prodloc1,prodloc2,tr0,21974,571324).
route(prodloc1,prodloc2,tr15,21974,703168).
route(prodloc1,prodloc3,tr0,1862,48412).
route(prodloc1,prodloc3,tr13,1862,11172).
route(prodloc1,prodloc4,tr0,8291,215566).
route(prodloc1,prodloc4,tr13,8291,49746).
route(prodloc1,prodloc5,tr0,1101,28626).
route(prodloc1,prodloc5,tr13,1101,6606).
route(prodloc1,prodloc6,tr0,4317,112242).
route(prodloc1,prodloc6,tr13,4317,25902).
route(prodloc1,prodloc7,tr0,5283,137358).
route(prodloc1,prodloc7,tr13,5283,31698).
route(prodloc1,prodloc8,tr0,5595,145470).
route(prodloc1,prodloc8,tr13,5595,33570).
route(prodloc1,prodloc9,tr0,3143,81718).
route(prodloc1,prodloc9,tr13,3143,18858).
route(prodloc1,prodloc10,tr0,14858,386308).
route(prodloc1,prodloc10,tr13,14858,89148).
route(prodloc1,prodloc11,tr0,20812,541112).
route(prodloc1,prodloc11,tr13,20812,124872).
route(prodloc1,prodloc12,tr0,7592,197392).
route(prodloc1,prodloc12,tr13,7592,45552).
route(prodloc1,prodloc13,tr0,16656,433056).
route(prodloc1,prodloc13,tr13,16656,99936).
route(prodloc1,prodloc14,tr0,23204,603304).
route(prodloc1,prodloc14,tr13,23204,139224).
route(prodloc2,harbor0,tr0,1030,26780).
route(prodloc2,harbor0,tr13,1030,6180).
route(prodloc2,harbor1,tr0,8087,210262).
route(prodloc2,harbor1,tr13,8087,48522).
route(prodloc2,harbor2,tr0,7619,198094).
route(prodloc2,harbor2,tr13,7619,45714).
route(prodloc2,harbor3,tr0,23394,608244).
route(prodloc2,harbor3,tr13,23394,140364).
route(prodloc2,harbor4,tr0,14573,378898).
route(prodloc2,harbor4,tr13,14573,87438).
route(prodloc2,harbor5,tr0,2412,62712).
route(prodloc2,harbor5,tr13,2412,14472).
route(prodloc2,prodloc0,tr0,8219,213694).
route(prodloc2,prodloc0,tr13,8219,49314).
route(prodloc2,prodloc1,tr0,2637,68562).
route(prodloc2,prodloc1,tr13,2637,15822).
route(prodloc2,prodloc3,tr0,19375,503750).
route(prodloc2,prodloc3,tr13,19375,116250).
route(prodloc2,prodloc4,tr0,7479,194454).
route(prodloc2,prodloc4,tr13,7479,44874).
route(prodloc2,prodloc5,tr0,20454,531804).
route(prodloc2,prodloc5,tr13,20454,122724).
route(prodloc2,prodloc6,tr0,25940,674440).
route(prodloc2,prodloc6,tr15,25940,830080).
route(prodloc2,prodloc7,tr0,26223,681798).
route(prodloc2,prodloc7,tr13,26223,157338).
route(prodloc2,prodloc8,tr0,20446,531596).
route(prodloc2,prodloc8,tr13,20446,122676).
route(prodloc2,prodloc9,tr0,23250,604500).
route(prodloc2,prodloc9,tr13,23250,139500).
route(prodloc2,prodloc10,tr0,11792,306592).
route(prodloc2,prodloc10,tr13,11792,70752).
route(prodloc2,prodloc11,tr0,8410,218660).
route(prodloc2,prodloc11,tr13,8410,50460).
route(prodloc2,prodloc12,tr0,22433,583258).
route(prodloc2,prodloc12,tr13,22433,134598).
route(prodloc2,prodloc13,tr0,13863,360438).
route(prodloc2,prodloc13,tr13,13863,83178).
route(prodloc2,prodloc14,tr0,9135,237510).
route(prodloc2,prodloc14,tr13,9135,54810).
route(prodloc3,harbor0,tr0,17244,448344).
route(prodloc3,harbor0,tr13,17244,103464).
route(prodloc3,harbor1,tr0,24600,639600).
route(prodloc3,harbor1,tr13,24600,147600).
route(prodloc3,harbor2,tr0,160,4160).
route(prodloc3,harbor2,tr13,160,960).
route(prodloc3,harbor3,tr0,4953,128778).
route(prodloc3,harbor3,tr13,4953,29718).
route(prodloc3,harbor4,tr0,1165,30290).
route(prodloc3,harbor4,tr13,1165,6990).
route(prodloc3,harbor5,tr0,12609,327834).
route(prodloc3,harbor5,tr13,12609,75654).
route(prodloc3,prodloc0,tr0,13395,348270).
route(prodloc3,prodloc0,tr13,13395,80370).
route(prodloc3,prodloc1,tr0,5252,136552).
route(prodloc3,prodloc1,tr13,5252,31512).
route(prodloc3,prodloc2,tr0,3644,94744).
route(prodloc3,prodloc2,tr13,3644,21864).
route(prodloc3,prodloc4,tr0,16781,436306).
route(prodloc3,prodloc4,tr13,16781,100686).
route(prodloc3,prodloc5,tr0,23718,616668).
route(prodloc3,prodloc5,tr13,23718,142308).
route(prodloc3,prodloc6,tr0,2879,74854).
route(prodloc3,prodloc6,tr13,2879,17274).
route(prodloc3,prodloc7,tr0,7894,205244).
route(prodloc3,prodloc7,tr13,7894,47364).
route(prodloc3,prodloc8,tr0,3341,86866).
route(prodloc3,prodloc8,tr13,3341,20046).
route(prodloc3,prodloc9,tr0,3271,85046).
route(prodloc3,prodloc9,tr13,3271,19626).
route(prodloc3,prodloc10,tr0,650,16900).
route(prodloc3,prodloc10,tr13,650,3900).
route(prodloc3,prodloc11,tr0,5957,154882).
route(prodloc3,prodloc11,tr13,5957,35742).
route(prodloc3,prodloc12,tr0,24597,639522).
route(prodloc3,prodloc12,tr13,24597,147582).
route(prodloc3,prodloc13,tr0,7588,197288).
route(prodloc3,prodloc13,tr15,7588,242816).
route(prodloc3,prodloc14,tr0,3449,89674).
route(prodloc3,prodloc14,tr13,3449,20694).
route(prodloc4,harbor0,tr0,7124,185224).
route(prodloc4,harbor0,tr13,7124,42744).
route(prodloc4,harbor1,tr0,802,20852).
route(prodloc4,harbor1,tr13,802,4812).
route(prodloc4,harbor2,tr0,17065,443690).
route(prodloc4,harbor2,tr13,17065,102390).
route(prodloc4,harbor3,tr0,21939,570414).
route(prodloc4,harbor3,tr13,21939,131634).
route(prodloc4,harbor4,tr0,15219,395694).
route(prodloc4,harbor4,tr13,15219,91314).
route(prodloc4,harbor5,tr0,14874,386724).
route(prodloc4,harbor5,tr13,14874,89244).
route(prodloc4,prodloc0,tr0,10151,263926).
route(prodloc4,prodloc0,tr13,10151,60906).
route(prodloc4,prodloc1,tr0,17550,456300).
route(prodloc4,prodloc1,tr13,17550,105300).
route(prodloc4,prodloc2,tr0,21031,546806).
route(prodloc4,prodloc2,tr13,21031,126186).
route(prodloc4,prodloc3,tr0,12453,323778).
route(prodloc4,prodloc3,tr13,12453,74718).
route(prodloc4,prodloc5,tr0,6963,181038).
route(prodloc4,prodloc5,tr13,6963,41778).
route(prodloc4,prodloc6,tr0,22437,583362).
route(prodloc4,prodloc6,tr13,22437,134622).
route(prodloc4,prodloc7,tr0,24922,647972).
route(prodloc4,prodloc7,tr13,24922,149532).
route(prodloc4,prodloc8,tr0,6887,179062).
route(prodloc4,prodloc8,tr13,6887,41322).
route(prodloc4,prodloc9,tr0,23887,621062).
route(prodloc4,prodloc9,tr13,23887,143322).
route(prodloc4,prodloc10,tr0,26415,686790).
route(prodloc4,prodloc10,tr13,26415,158490).
route(prodloc4,prodloc11,tr0,14214,369564).
route(prodloc4,prodloc11,tr13,14214,85284).
route(prodloc4,prodloc12,tr0,13948,362648).
route(prodloc4,prodloc12,tr13,13948,83688).
route(prodloc4,prodloc13,tr0,16762,435812).
route(prodloc4,prodloc13,tr13,16762,100572).
route(prodloc4,prodloc14,tr0,700,18200).
route(prodloc4,prodloc14,tr13,700,4200).
route(prodloc5,harbor0,tr0,19042,495092).
route(prodloc5,harbor0,tr13,19042,114252).
route(prodloc5,harbor1,tr0,19379,503854).
route(prodloc5,harbor1,tr13,19379,116274).
route(prodloc5,harbor2,tr0,1680,43680).
route(prodloc5,harbor2,tr13,1680,10080).
route(prodloc5,harbor3,tr0,28884,750984).
route(prodloc5,harbor3,tr13,28884,173304).
route(prodloc5,harbor4,tr0,13699,356174).
route(prodloc5,harbor4,tr13,13699,82194).
route(prodloc5,harbor5,tr0,17207,447382).
route(prodloc5,harbor5,tr13,17207,103242).
route(prodloc5,prodloc0,tr0,19051,495326).
route(prodloc5,prodloc0,tr13,19051,114306).
route(prodloc5,prodloc1,tr0,5940,154440).
route(prodloc5,prodloc1,tr13,5940,35640).
route(prodloc5,prodloc2,tr0,3075,79950).
route(prodloc5,prodloc2,tr15,3075,98400).
route(prodloc5,prodloc3,tr0,21736,565136).
route(prodloc5,prodloc3,tr13,21736,130416).
route(prodloc5,prodloc4,tr0,26303,683878).
route(prodloc5,prodloc4,tr13,26303,157818).
route(prodloc5,prodloc6,tr0,15724,408824).
route(prodloc5,prodloc6,tr13,15724,94344).
route(prodloc5,prodloc7,tr0,12001,312026).
route(prodloc5,prodloc7,tr13,12001,72006).
route(prodloc5,prodloc8,tr0,640,16640).
route(prodloc5,prodloc8,tr15,640,20480).
route(prodloc5,prodloc9,tr0,17015,442390).
route(prodloc5,prodloc9,tr13,17015,102090).
route(prodloc5,prodloc10,tr0,3887,101062).
route(prodloc5,prodloc10,tr13,3887,23322).
route(prodloc5,prodloc11,tr0,20007,520182).
route(prodloc5,prodloc11,tr13,20007,120042).
route(prodloc5,prodloc12,tr0,12010,312260).
route(prodloc5,prodloc12,tr13,12010,72060).
route(prodloc5,prodloc13,tr0,9490,246740).
route(prodloc5,prodloc13,tr15,9490,303680).
route(prodloc5,prodloc14,tr0,22624,588224).
route(prodloc5,prodloc14,tr13,22624,135744).
route(prodloc6,harbor0,tr0,12199,317174).
route(prodloc6,harbor0,tr13,12199,73194).
route(prodloc6,harbor1,tr0,10103,262678).
route(prodloc6,harbor1,tr13,10103,60618).
route(prodloc6,harbor2,tr0,626,16276).
route(prodloc6,harbor2,tr13,626,3756).
route(prodloc6,harbor3,tr0,28652,744952).
route(prodloc6,harbor3,tr13,28652,171912).
route(prodloc6,harbor4,tr0,22458,583908).
route(prodloc6,harbor4,tr13,22458,134748).
route(prodloc6,harbor5,tr0,13510,351260).
route(prodloc6,harbor5,tr13,13510,81060).
route(prodloc6,prodloc0,tr0,3316,86216).
route(prodloc6,prodloc0,tr13,3316,19896).
route(prodloc6,prodloc1,tr0,3443,89518).
route(prodloc6,prodloc1,tr13,3443,20658).
route(prodloc6,prodloc2,tr0,10026,260676).
route(prodloc6,prodloc2,tr13,10026,60156).
route(prodloc6,prodloc3,tr0,6502,169052).
route(prodloc6,prodloc3,tr13,6502,39012).
route(prodloc6,prodloc4,tr0,27547,716222).
route(prodloc6,prodloc4,tr13,27547,165282).
route(prodloc6,prodloc5,tr0,25408,660608).
route(prodloc6,prodloc5,tr13,25408,152448).
route(prodloc6,prodloc7,tr0,22040,573040).
route(prodloc6,prodloc7,tr13,22040,132240).
route(prodloc6,prodloc8,tr0,27048,703248).
route(prodloc6,prodloc8,tr13,27048,162288).
route(prodloc6,prodloc9,tr0,517,13442).
route(prodloc6,prodloc9,tr13,517,3102).
route(prodloc6,prodloc10,tr0,26611,691886).
route(prodloc6,prodloc10,tr13,26611,159666).
route(prodloc6,prodloc11,tr0,14794,384644).
route(prodloc6,prodloc11,tr13,14794,88764).
route(prodloc6,prodloc12,tr0,1967,51142).
route(prodloc6,prodloc12,tr13,1967,11802).
route(prodloc6,prodloc13,tr0,13458,349908).
route(prodloc6,prodloc13,tr13,13458,80748).
route(prodloc6,prodloc14,tr0,20884,542984).
route(prodloc6,prodloc14,tr13,20884,125304).
route(prodloc7,harbor0,tr0,15922,413972).
route(prodloc7,harbor0,tr13,15922,95532).
route(prodloc7,harbor1,tr0,15184,394784).
route(prodloc7,harbor1,tr13,15184,91104).
route(prodloc7,harbor2,tr0,6825,177450).
route(prodloc7,harbor2,tr13,6825,40950).
route(prodloc7,harbor3,tr0,19293,501618).
route(prodloc7,harbor3,tr13,19293,115758).
route(prodloc7,harbor4,tr0,20107,522782).
route(prodloc7,harbor4,tr13,20107,120642).
route(prodloc7,harbor5,tr0,2419,62894).
route(prodloc7,harbor5,tr13,2419,14514).
route(prodloc7,prodloc0,tr0,176,4576).
route(prodloc7,prodloc0,tr13,176,1056).
route(prodloc7,prodloc1,tr0,9319,242294).
route(prodloc7,prodloc1,tr13,9319,55914).
route(prodloc7,prodloc2,tr0,793,20618).
route(prodloc7,prodloc2,tr13,793,4758).
route(prodloc7,prodloc3,tr0,12221,317746).
route(prodloc7,prodloc3,tr13,12221,73326).
route(prodloc7,prodloc4,tr0,10023,260598).
route(prodloc7,prodloc4,tr15,10023,320736).
route(prodloc7,prodloc5,tr0,23711,616486).
route(prodloc7,prodloc5,tr13,23711,142266).
route(prodloc7,prodloc6,tr0,2510,65260).
route(prodloc7,prodloc6,tr13,2510,15060).
route(prodloc7,prodloc8,tr0,7183,186758).
route(prodloc7,prodloc8,tr13,7183,43098).
route(prodloc7,prodloc9,tr0,24741,643266).
route(prodloc7,prodloc9,tr13,24741,148446).
route(prodloc7,prodloc10,tr0,16072,417872).
route(prodloc7,prodloc10,tr13,16072,96432).
route(prodloc7,prodloc11,tr0,6305,163930).
route(prodloc7,prodloc11,tr13,6305,37830).
route(prodloc7,prodloc12,tr0,3795,98670).
route(prodloc7,prodloc12,tr13,3795,22770).
route(prodloc7,prodloc13,tr0,18730,486980).
route(prodloc7,prodloc13,tr15,18730,599360).
route(prodloc7,prodloc14,tr0,12237,318162).
route(prodloc7,prodloc14,tr13,12237,73422).
route(prodloc8,harbor0,tr0,12839,333814).
route(prodloc8,harbor0,tr13,12839,77034).
route(prodloc8,harbor1,tr0,23461,609986).
route(prodloc8,harbor1,tr13,23461,140766).
route(prodloc8,harbor2,tr0,15180,394680).
route(prodloc8,harbor2,tr13,15180,91080).
route(prodloc8,harbor3,tr0,4578,119028).
route(prodloc8,harbor3,tr13,4578,27468).
route(prodloc8,harbor4,tr0,24695,642070).
route(prodloc8,harbor4,tr13,24695,148170).
route(prodloc8,harbor5,tr0,11304,293904).
route(prodloc8,harbor5,tr13,11304,67824).
route(prodloc8,prodloc0,tr0,12946,336596).
route(prodloc8,prodloc0,tr13,12946,77676).
route(prodloc8,prodloc1,tr0,3990,103740).
route(prodloc8,prodloc1,tr13,3990,23940).
route(prodloc8,prodloc2,tr0,8330,216580).
route(prodloc8,prodloc2,tr13,8330,49980).
route(prodloc8,prodloc3,tr0,3992,103792).
route(prodloc8,prodloc3,tr13,3992,23952).
route(prodloc8,prodloc4,tr0,4031,104806).
route(prodloc8,prodloc4,tr13,4031,24186).
route(prodloc8,prodloc5,tr0,2640,68640).
route(prodloc8,prodloc5,tr13,2640,15840).
route(prodloc8,prodloc6,tr0,20204,525304).
route(prodloc8,prodloc6,tr13,20204,121224).
route(prodloc8,prodloc7,tr0,27857,724282).
route(prodloc8,prodloc7,tr13,27857,167142).
route(prodloc8,prodloc9,tr0,10962,285012).
route(prodloc8,prodloc9,tr13,10962,65772).
route(prodloc8,prodloc10,tr0,21006,546156).
route(prodloc8,prodloc10,tr13,21006,126036).
route(prodloc8,prodloc11,tr0,12817,333242).
route(prodloc8,prodloc11,tr13,12817,76902).
route(prodloc8,prodloc12,tr0,6949,180674).
route(prodloc8,prodloc12,tr15,6949,222368).
route(prodloc8,prodloc13,tr0,22698,590148).
route(prodloc8,prodloc13,tr13,22698,136188).
route(prodloc9,harbor0,tr0,810,21060).
route(prodloc9,harbor0,tr13,810,4860).
route(prodloc9,harbor1,tr0,20258,526708).
route(prodloc9,harbor1,tr13,20258,121548).
route(prodloc9,harbor2,tr0,21601,561626).
route(prodloc9,harbor2,tr13,21601,129606).
route(prodloc9,harbor3,tr0,15415,400790).
route(prodloc9,harbor3,tr13,15415,92490).
route(prodloc9,harbor4,tr0,25469,662194).
route(prodloc9,harbor4,tr13,25469,152814).
route(prodloc9,harbor5,tr0,1416,36816).
route(prodloc9,harbor5,tr13,1416,8496).
route(prodloc9,prodloc0,tr0,23710,616460).
route(prodloc9,prodloc0,tr13,23710,142260).
route(prodloc9,prodloc1,tr0,23129,601354).
route(prodloc9,prodloc1,tr13,23129,138774).
route(prodloc9,prodloc2,tr0,16318,424268).
route(prodloc9,prodloc2,tr13,16318,97908).
route(prodloc9,prodloc3,tr0,9529,247754).
route(prodloc9,prodloc3,tr13,9529,57174).
route(prodloc9,prodloc4,tr0,11719,304694).
route(prodloc9,prodloc4,tr13,11719,70314).
route(prodloc9,prodloc5,tr13,14978,89868).
route(prodloc9,prodloc5,tr15,14978,479296).
route(prodloc9,prodloc6,tr0,4637,120562).
route(prodloc9,prodloc6,tr13,4637,27822).
route(prodloc9,prodloc7,tr0,26174,680524).
route(prodloc9,prodloc7,tr13,26174,157044).
route(prodloc9,prodloc8,tr0,12287,319462).
route(prodloc9,prodloc8,tr13,12287,73722).
route(prodloc9,prodloc10,tr0,8814,229164).
route(prodloc9,prodloc10,tr13,8814,52884).
route(prodloc9,prodloc11,tr0,15868,412568).
route(prodloc9,prodloc11,tr13,15868,95208).
route(prodloc9,prodloc12,tr13,17247,103482).
route(prodloc9,prodloc12,tr15,17247,551904).
route(prodloc9,prodloc13,tr0,28372,737672).
route(prodloc9,prodloc13,tr13,28372,170232).
route(prodloc9,prodloc14,tr13,15650,93900).
route(prodloc9,prodloc14,tr15,15650,500800).
route(prodloc10,harbor0,tr0,23580,613080).
route(prodloc10,harbor0,tr13,23580,141480).
route(prodloc10,harbor1,tr0,23854,620204).
route(prodloc10,harbor1,tr13,23854,143124).
route(prodloc10,harbor2,tr0,26358,685308).
route(prodloc10,harbor2,tr13,26358,158148).
route(prodloc10,harbor3,tr0,13730,356980).
route(prodloc10,harbor3,tr13,13730,82380).
route(prodloc10,harbor4,tr0,16127,419302).
route(prodloc10,harbor4,tr13,16127,96762).
route(prodloc10,harbor5,tr0,27396,712296).
route(prodloc10,harbor5,tr13,27396,164376).
route(prodloc10,prodloc0,tr0,22291,579566).
route(prodloc10,prodloc0,tr13,22291,133746).
route(prodloc10,prodloc1,tr0,9726,252876).
route(prodloc10,prodloc1,tr13,9726,58356).
route(prodloc10,prodloc2,tr0,12934,336284).
route(prodloc10,prodloc2,tr13,12934,77604).
route(prodloc10,prodloc3,tr0,7591,197366).
route(prodloc10,prodloc3,tr13,7591,45546).
route(prodloc10,prodloc4,tr0,5126,133276).
route(prodloc10,prodloc4,tr13,5126,30756).
route(prodloc10,prodloc5,tr0,16018,416468).
route(prodloc10,prodloc5,tr13,16018,96108).
route(prodloc10,prodloc6,tr0,19549,508274).
route(prodloc10,prodloc6,tr13,19549,117294).
route(prodloc10,prodloc7,tr0,8502,221052).
route(prodloc10,prodloc7,tr13,8502,51012).
route(prodloc10,prodloc8,tr0,17977,467402).
route(prodloc10,prodloc8,tr13,17977,107862).
route(prodloc10,prodloc9,tr0,14015,364390).
route(prodloc10,prodloc9,tr13,14015,84090).
route(prodloc10,prodloc11,tr0,22796,592696).
route(prodloc10,prodloc11,tr13,22796,136776).
route(prodloc10,prodloc12,tr0,22256,578656).
route(prodloc10,prodloc12,tr13,22256,133536).
route(prodloc10,prodloc13,tr0,22913,595738).
route(prodloc10,prodloc13,tr13,22913,137478).
route(prodloc10,prodloc14,tr0,2764,71864).
route(prodloc10,prodloc14,tr13,2764,16584).
route(prodloc11,harbor0,tr0,19200,499200).
route(prodloc11,harbor0,tr13,19200,115200).
route(prodloc11,harbor1,tr0,23850,620100).
route(prodloc11,harbor1,tr13,23850,143100).
route(prodloc11,harbor2,tr0,26801,696826).
route(prodloc11,harbor2,tr13,26801,160806).
route(prodloc11,harbor3,tr0,18868,490568).
route(prodloc11,harbor3,tr13,18868,113208).
route(prodloc11,harbor4,tr0,3146,81796).
route(prodloc11,harbor4,tr13,3146,18876).
route(prodloc11,harbor5,tr0,2333,60658).
route(prodloc11,harbor5,tr13,2333,13998).
route(prodloc11,prodloc0,tr0,11669,303394).
route(prodloc11,prodloc0,tr13,11669,70014).
route(prodloc11,prodloc1,tr0,5773,150098).
route(prodloc11,prodloc1,tr13,5773,34638).
route(prodloc11,prodloc2,tr0,17869,464594).
route(prodloc11,prodloc2,tr13,17869,107214).
route(prodloc11,prodloc3,tr0,4802,124852).
route(prodloc11,prodloc3,tr13,4802,28812).
route(prodloc11,prodloc4,tr0,26422,686972).
route(prodloc11,prodloc4,tr13,26422,158532).
route(prodloc11,prodloc5,tr13,13658,81948).
route(prodloc11,prodloc5,tr15,13658,437056).
route(prodloc11,prodloc6,tr0,2192,56992).
route(prodloc11,prodloc6,tr13,2192,13152).
route(prodloc11,prodloc7,tr0,26169,680394).
route(prodloc11,prodloc7,tr13,26169,157014).
route(prodloc11,prodloc8,tr13,2824,16944).
route(prodloc11,prodloc8,tr15,2824,90368).
route(prodloc11,prodloc9,tr0,22328,580528).
route(prodloc11,prodloc9,tr13,22328,133968).
route(prodloc11,prodloc10,tr0,26537,689962).
route(prodloc11,prodloc10,tr13,26537,159222).
route(prodloc11,prodloc12,tr13,21238,127428).
route(prodloc11,prodloc12,tr15,21238,679616).
route(prodloc11,prodloc13,tr0,1233,32058).
route(prodloc11,prodloc13,tr13,1233,7398).
route(prodloc11,prodloc14,tr0,4213,109538).
route(prodloc11,prodloc14,tr13,4213,25278).
route(prodloc12,harbor0,tr0,9713,252538).
route(prodloc12,harbor0,tr13,9713,58278).
route(prodloc12,harbor1,tr0,12800,332800).
route(prodloc12,harbor1,tr13,12800,76800).
route(prodloc12,harbor2,tr0,7594,197444).
route(prodloc12,harbor2,tr13,7594,45564).
route(prodloc12,harbor3,tr0,23214,603564).
route(prodloc12,harbor3,tr13,23214,139284).
route(prodloc12,harbor4,tr0,21980,571480).
route(prodloc12,harbor4,tr13,21980,131880).
route(prodloc12,harbor5,tr0,22320,580320).
route(prodloc12,harbor5,tr13,22320,133920).
route(prodloc12,prodloc0,tr0,10796,280696).
route(prodloc12,prodloc0,tr13,10796,64776).
route(prodloc12,prodloc1,tr0,14382,373932).
route(prodloc12,prodloc1,tr13,14382,86292).
route(prodloc12,prodloc2,tr0,5655,147030).
route(prodloc12,prodloc2,tr13,5655,33930).
route(prodloc12,prodloc3,tr0,17172,446472).
route(prodloc12,prodloc3,tr13,17172,103032).
route(prodloc12,prodloc4,tr0,9406,244556).
route(prodloc12,prodloc4,tr13,9406,56436).
route(prodloc12,prodloc5,tr13,3674,22044).
route(prodloc12,prodloc5,tr15,3674,117568).
route(prodloc12,prodloc6,tr0,5114,132964).
route(prodloc12,prodloc6,tr13,5114,30684).
route(prodloc12,prodloc7,tr0,17725,460850).
route(prodloc12,prodloc7,tr13,17725,106350).
route(prodloc12,prodloc8,tr0,24767,643942).
route(prodloc12,prodloc8,tr13,24767,148602).
route(prodloc12,prodloc9,tr0,13886,361036).
route(prodloc12,prodloc9,tr13,13886,83316).
route(prodloc12,prodloc10,tr0,3152,81952).
route(prodloc12,prodloc10,tr13,3152,18912).
route(prodloc12,prodloc11,tr13,10777,64662).
route(prodloc12,prodloc11,tr15,10777,344864).
route(prodloc12,prodloc13,tr0,16926,440076).
route(prodloc12,prodloc13,tr13,16926,101556).
route(prodloc13,harbor0,tr0,23443,609518).
route(prodloc13,harbor0,tr13,23443,140658).
route(prodloc13,harbor1,tr0,16850,438100).
route(prodloc13,harbor1,tr13,16850,101100).
route(prodloc13,harbor2,tr0,8431,219206).
route(prodloc13,harbor2,tr13,8431,50586).
route(prodloc13,harbor3,tr0,5558,144508).
route(prodloc13,harbor3,tr13,5558,33348).
route(prodloc13,harbor4,tr0,5163,134238).
route(prodloc13,harbor4,tr13,5163,30978).
route(prodloc13,harbor5,tr0,15106,392756).
route(prodloc13,harbor5,tr13,15106,90636).
route(prodloc13,prodloc0,tr0,23045,599170).
route(prodloc13,prodloc0,tr13,23045,138270).
route(prodloc13,prodloc1,tr0,7684,199784).
route(prodloc13,prodloc1,tr15,7684,245888).
route(prodloc13,prodloc2,tr0,13245,344370).
route(prodloc13,prodloc2,tr15,13245,423840).
route(prodloc13,prodloc3,tr0,28656,745056).
route(prodloc13,prodloc3,tr13,28656,171936).
route(prodloc13,prodloc4,tr0,11751,305526).
route(prodloc13,prodloc4,tr13,11751,70506).
route(prodloc13,prodloc5,tr13,25653,153918).
route(prodloc13,prodloc5,tr15,25653,820896).
route(prodloc13,prodloc6,tr0,25047,651222).
route(prodloc13,prodloc6,tr13,25047,150282).
route(prodloc13,prodloc7,tr0,18792,488592).
route(prodloc13,prodloc7,tr15,18792,601344).
route(prodloc13,prodloc8,tr0,23887,621062).
route(prodloc13,prodloc8,tr13,23887,143322).
route(prodloc13,prodloc9,tr0,4745,123370).
route(prodloc13,prodloc9,tr13,4745,28470).
route(prodloc13,prodloc10,tr0,15293,397618).
route(prodloc13,prodloc10,tr13,15293,91758).
route(prodloc13,prodloc11,tr13,14458,86748).
route(prodloc13,prodloc11,tr15,14458,462656).
route(prodloc13,prodloc12,tr0,23557,612482).
route(prodloc13,prodloc12,tr13,23557,141342).
route(prodloc13,prodloc14,tr0,964,25064).
route(prodloc13,prodloc14,tr13,964,5784).
route(prodloc14,harbor0,tr0,26535,689910).
route(prodloc14,harbor0,tr13,26535,159210).
route(prodloc14,harbor1,tr0,19504,507104).
route(prodloc14,harbor1,tr13,19504,117024).
route(prodloc14,harbor2,tr0,12560,326560).
route(prodloc14,harbor2,tr13,12560,75360).
route(prodloc14,harbor3,tr0,28897,751322).
route(prodloc14,harbor3,tr13,28897,173382).
route(prodloc14,harbor4,tr0,24143,627718).
route(prodloc14,harbor4,tr13,24143,144858).
route(prodloc14,harbor5,tr0,5914,153764).
route(prodloc14,harbor5,tr13,5914,35484).
route(prodloc14,prodloc0,tr0,12875,334750).
route(prodloc14,prodloc0,tr13,12875,77250).
route(prodloc14,prodloc1,tr0,16719,434694).
route(prodloc14,prodloc1,tr13,16719,100314).
route(prodloc14,prodloc2,tr0,1757,45682).
route(prodloc14,prodloc2,tr13,1757,10542).
route(prodloc14,prodloc3,tr0,15811,411086).
route(prodloc14,prodloc3,tr13,15811,94866).
route(prodloc14,prodloc4,tr0,8978,233428).
route(prodloc14,prodloc4,tr13,8978,53868).
route(prodloc14,prodloc5,tr0,13270,345020).
route(prodloc14,prodloc5,tr15,13270,424640).
route(prodloc14,prodloc6,tr0,8315,216190).
route(prodloc14,prodloc6,tr13,8315,49890).
route(prodloc14,prodloc7,tr0,23282,605332).
route(prodloc14,prodloc7,tr13,23282,139692).
route(prodloc14,prodloc8,tr0,23963,623038).
route(prodloc14,prodloc8,tr13,23963,143778).
route(prodloc14,prodloc9,tr0,13507,351182).
route(prodloc14,prodloc9,tr13,13507,81042).
route(prodloc14,prodloc10,tr0,23116,601016).
route(prodloc14,prodloc10,tr13,23116,138696).
route(prodloc14,prodloc11,tr0,21233,552058).
route(prodloc14,prodloc11,tr13,21233,127398).
route(prodloc14,prodloc12,tr0,15484,402584).
route(prodloc14,prodloc12,tr15,15484,495488).
route(prodloc14,prodloc13,tr0,11801,306826).
route(prodloc14,prodloc13,tr13,11801,70806).
hub(harbor4).
hub(prodloc3).
hub(prodloc7).
hub(prodloc14).
