% ── Series F: L=12, P=2, TR=2  seed=3 ──────────────────────────
% locations=12  active_products=2  transport_types=2  routes=132
% max_supply=36  max_pack=5

% Domain bounds (computed from this instance)
numFlow(0..36).
numParts(0..5).
numFreq(0..36).

% Parts
part(p1).
part(p2).

partSize(p1,3).
partSize(p2,3).

% Locations
location(l1).
location(l2).
location(l3).
location(l4).
location(l5).
location(l6).
location(l7).
location(l8).
location(l9).
location(l10).
location(l11).
location(l12).

% Transport resources
transportCapacity(tr1,15).
transportCapacity(tr2,15).

% Routes
route(l1,l2,tr1,6,40).
route(l1,l3,tr1,6,40).
route(l1,l4,tr1,7,40).
route(l1,l5,tr2,9,87).
route(l1,l6,tr2,7,87).
route(l1,l7,tr1,10,40).
route(l1,l8,tr2,7,87).
route(l1,l9,tr2,7,87).
route(l1,l10,tr1,4,40).
route(l1,l11,tr2,5,87).
route(l1,l12,tr1,2,40).
route(l2,l1,tr2,5,87).
route(l2,l3,tr2,1,87).
route(l2,l4,tr1,8,40).
route(l2,l5,tr2,1,87).
route(l2,l6,tr2,4,87).
route(l2,l7,tr1,6,40).
route(l2,l8,tr1,6,40).
route(l2,l9,tr2,4,87).
route(l2,l10,tr2,2,87).
route(l2,l11,tr2,10,87).
route(l2,l12,tr1,4,40).
route(l3,l1,tr1,2,40).
route(l3,l2,tr2,10,87).
route(l3,l4,tr1,4,40).
route(l3,l5,tr2,9,87).
route(l3,l6,tr1,4,40).
route(l3,l7,tr1,7,40).
route(l3,l8,tr2,7,87).
route(l3,l9,tr1,5,40).
route(l3,l10,tr2,9,87).
route(l3,l11,tr1,10,40).
route(l3,l12,tr1,6,40).
route(l4,l1,tr2,8,87).
route(l4,l2,tr1,1,40).
route(l4,l3,tr2,2,87).
route(l4,l5,tr1,5,40).
route(l4,l6,tr1,6,40).
route(l4,l7,tr1,8,40).
route(l4,l8,tr2,6,87).
route(l4,l9,tr2,10,87).
route(l4,l10,tr1,7,40).
route(l4,l11,tr1,6,40).
route(l4,l12,tr1,3,40).
route(l5,l1,tr2,4,87).
route(l5,l2,tr1,9,40).
route(l5,l3,tr1,4,40).
route(l5,l4,tr1,2,40).
route(l5,l6,tr2,10,87).
route(l5,l7,tr2,4,87).
route(l5,l8,tr2,7,87).
route(l5,l9,tr1,3,40).
route(l5,l10,tr2,7,87).
route(l5,l11,tr2,2,87).
route(l5,l12,tr1,10,40).
route(l6,l1,tr2,5,87).
route(l6,l2,tr2,2,87).
route(l6,l3,tr2,9,87).
route(l6,l4,tr1,3,40).
route(l6,l5,tr2,1,87).
route(l6,l7,tr2,4,87).
route(l6,l8,tr2,9,87).
route(l6,l9,tr1,8,40).
route(l6,l10,tr2,8,87).
route(l6,l11,tr1,6,40).
route(l6,l12,tr1,4,40).
route(l7,l1,tr1,5,40).
route(l7,l2,tr1,4,40).
route(l7,l3,tr1,1,40).
route(l7,l4,tr1,2,40).
route(l7,l5,tr2,5,87).
route(l7,l6,tr1,6,40).
route(l7,l8,tr2,1,87).
route(l7,l9,tr1,8,40).
route(l7,l10,tr1,6,40).
route(l7,l11,tr2,9,87).
route(l7,l12,tr1,2,40).
route(l8,l1,tr2,1,87).
route(l8,l2,tr2,9,87).
route(l8,l3,tr1,6,40).
route(l8,l4,tr2,5,87).
route(l8,l5,tr2,2,87).
route(l8,l6,tr1,3,40).
route(l8,l7,tr2,6,87).
route(l8,l9,tr1,2,40).
route(l8,l10,tr2,4,87).
route(l8,l11,tr1,10,40).
route(l8,l12,tr1,8,40).
route(l9,l1,tr2,4,87).
route(l9,l2,tr2,2,87).
route(l9,l3,tr2,2,87).
route(l9,l4,tr1,9,40).
route(l9,l5,tr2,8,87).
route(l9,l6,tr2,5,87).
route(l9,l7,tr1,1,40).
route(l9,l8,tr1,3,40).
route(l9,l10,tr1,2,40).
route(l9,l11,tr1,8,40).
route(l9,l12,tr2,9,87).
route(l10,l1,tr2,1,87).
route(l10,l2,tr2,2,87).
route(l10,l3,tr2,9,87).
route(l10,l4,tr2,6,87).
route(l10,l5,tr1,4,40).
route(l10,l6,tr1,2,40).
route(l10,l7,tr1,7,40).
route(l10,l8,tr1,4,40).
route(l10,l9,tr2,10,87).
route(l10,l11,tr1,2,40).
route(l10,l12,tr2,7,87).
route(l11,l1,tr1,8,40).
route(l11,l2,tr2,1,87).
route(l11,l3,tr1,6,40).
route(l11,l4,tr1,7,40).
route(l11,l5,tr2,7,87).
route(l11,l6,tr1,2,40).
route(l11,l7,tr1,8,40).
route(l11,l8,tr1,5,40).
route(l11,l9,tr1,5,40).
route(l11,l10,tr2,3,87).
route(l11,l12,tr1,7,40).
route(l12,l1,tr2,8,87).
route(l12,l2,tr2,5,87).
route(l12,l3,tr2,9,87).
route(l12,l4,tr1,10,40).
route(l12,l5,tr1,2,40).
route(l12,l6,tr2,10,87).
route(l12,l7,tr1,7,40).
route(l12,l8,tr1,6,40).
route(l12,l9,tr2,8,87).
route(l12,l10,tr2,5,87).
route(l12,l11,tr2,8,87).

% Demand / supply  (non-zero entries only)
demandOffer(p2,l1,10).
demandOffer(p2,l2,-6).
demandOffer(p2,l3,-10).
demandOffer(p2,l4,8).
demandOffer(p1,l5,-10).
demandOffer(p1,l6,9).
demandOffer(p2,l8,8).
demandOffer(p1,l9,-6).
demandOffer(p1,l10,-6).
demandOffer(p2,l10,-2).
demandOffer(p2,l11,10).
demandOffer(p1,l12,13).
demandOffer(p2,l12,-18).
