% ── Series F: L=15, P=2, TR=2  seed=2 ──────────────────────────
% locations=15  active_products=2  transport_types=2  routes=210
% max_supply=27  max_pack=5

% Domain bounds (computed from this instance)
numFlow(0..27).
numParts(0..5).
numFreq(0..27).

% Parts
part(p1).
part(p2).

partSize(p1,3).
partSize(p2,3).

% Locations
location(l1).
location(l2).
location(l3).
location(l4).
location(l5).
location(l6).
location(l7).
location(l8).
location(l9).
location(l10).
location(l11).
location(l12).
location(l13).
location(l14).
location(l15).

% Transport resources
transportCapacity(tr1,15).
transportCapacity(tr2,15).

% Routes
route(l1,l2,tr2,9,95).
route(l1,l3,tr1,8,17).
route(l1,l4,tr1,4,17).
route(l1,l5,tr1,4,17).
route(l1,l6,tr2,5,95).
route(l1,l7,tr1,9,17).
route(l1,l8,tr2,8,95).
route(l1,l9,tr1,8,17).
route(l1,l10,tr2,10,95).
route(l1,l11,tr2,2,95).
route(l1,l12,tr2,4,95).
route(l1,l13,tr2,7,95).
route(l1,l14,tr2,8,95).
route(l1,l15,tr2,9,95).
route(l2,l1,tr2,8,95).
route(l2,l3,tr2,5,95).
route(l2,l4,tr2,2,95).
route(l2,l5,tr1,2,17).
route(l2,l6,tr2,2,95).
route(l2,l7,tr2,1,95).
route(l2,l8,tr2,4,95).
route(l2,l9,tr2,8,95).
route(l2,l10,tr2,8,95).
route(l2,l11,tr2,4,95).
route(l2,l12,tr2,8,95).
route(l2,l13,tr2,2,95).
route(l2,l14,tr2,1,95).
route(l2,l15,tr2,4,95).
route(l3,l1,tr1,1,17).
route(l3,l2,tr1,6,17).
route(l3,l4,tr2,9,95).
route(l3,l5,tr1,9,17).
route(l3,l6,tr2,5,95).
route(l3,l7,tr2,2,95).
route(l3,l8,tr1,8,17).
route(l3,l9,tr2,5,95).
route(l3,l10,tr2,6,95).
route(l3,l11,tr1,5,17).
route(l3,l12,tr1,2,17).
route(l3,l13,tr1,3,17).
route(l3,l14,tr1,7,17).
route(l3,l15,tr2,7,95).
route(l4,l1,tr1,1,17).
route(l4,l2,tr2,2,95).
route(l4,l3,tr1,7,17).
route(l4,l5,tr2,10,95).
route(l4,l6,tr2,7,95).
route(l4,l7,tr2,3,95).
route(l4,l8,tr2,7,95).
route(l4,l9,tr1,3,17).
route(l4,l10,tr1,4,17).
route(l4,l11,tr2,2,95).
route(l4,l12,tr1,5,17).
route(l4,l13,tr2,6,95).
route(l4,l14,tr2,3,95).
route(l4,l15,tr2,1,95).
route(l5,l1,tr2,2,95).
route(l5,l2,tr2,6,95).
route(l5,l3,tr1,5,17).
route(l5,l4,tr1,3,17).
route(l5,l6,tr2,8,95).
route(l5,l7,tr1,5,17).
route(l5,l8,tr2,6,95).
route(l5,l9,tr2,9,95).
route(l5,l10,tr2,9,95).
route(l5,l11,tr1,4,17).
route(l5,l12,tr2,6,95).
route(l5,l13,tr1,7,17).
route(l5,l14,tr1,4,17).
route(l5,l15,tr1,2,17).
route(l6,l1,tr1,3,17).
route(l6,l2,tr2,8,95).
route(l6,l3,tr2,5,95).
route(l6,l4,tr1,5,17).
route(l6,l5,tr2,1,95).
route(l6,l7,tr2,4,95).
route(l6,l8,tr2,3,95).
route(l6,l9,tr1,3,17).
route(l6,l10,tr1,4,17).
route(l6,l11,tr1,2,17).
route(l6,l12,tr1,5,17).
route(l6,l13,tr2,3,95).
route(l6,l14,tr2,2,95).
route(l6,l15,tr1,7,17).
route(l7,l1,tr2,7,95).
route(l7,l2,tr2,7,95).
route(l7,l3,tr1,8,17).
route(l7,l4,tr1,4,17).
route(l7,l5,tr1,2,17).
route(l7,l6,tr1,3,17).
route(l7,l8,tr1,8,17).
route(l7,l9,tr1,9,17).
route(l7,l10,tr1,5,17).
route(l7,l11,tr2,5,95).
route(l7,l12,tr1,6,17).
route(l7,l13,tr2,6,95).
route(l7,l14,tr2,2,95).
route(l7,l15,tr2,10,95).
route(l8,l1,tr2,8,95).
route(l8,l2,tr2,8,95).
route(l8,l3,tr2,2,95).
route(l8,l4,tr1,4,17).
route(l8,l5,tr1,5,17).
route(l8,l6,tr1,2,17).
route(l8,l7,tr1,2,17).
route(l8,l9,tr2,7,95).
route(l8,l10,tr1,2,17).
route(l8,l11,tr2,5,95).
route(l8,l12,tr2,5,95).
route(l8,l13,tr1,8,17).
route(l8,l14,tr2,5,95).
route(l8,l15,tr2,8,95).
route(l9,l1,tr1,9,17).
route(l9,l2,tr2,4,95).
route(l9,l3,tr2,5,95).
route(l9,l4,tr1,3,17).
route(l9,l5,tr1,7,17).
route(l9,l6,tr1,4,17).
route(l9,l7,tr1,7,17).
route(l9,l8,tr2,8,95).
route(l9,l10,tr2,6,95).
route(l9,l11,tr2,5,95).
route(l9,l12,tr1,10,17).
route(l9,l13,tr2,4,95).
route(l9,l14,tr1,7,17).
route(l9,l15,tr2,1,95).
route(l10,l1,tr2,8,95).
route(l10,l2,tr1,9,17).
route(l10,l3,tr2,4,95).
route(l10,l4,tr2,4,95).
route(l10,l5,tr2,5,95).
route(l10,l6,tr2,1,95).
route(l10,l7,tr1,5,17).
route(l10,l8,tr2,5,95).
route(l10,l9,tr2,10,95).
route(l10,l11,tr2,4,95).
route(l10,l12,tr1,6,17).
route(l10,l13,tr2,8,95).
route(l10,l14,tr1,9,17).
route(l10,l15,tr1,5,17).
route(l11,l1,tr1,1,17).
route(l11,l2,tr2,6,95).
route(l11,l3,tr1,3,17).
route(l11,l4,tr1,3,17).
route(l11,l5,tr2,2,95).
route(l11,l6,tr1,4,17).
route(l11,l7,tr1,7,17).
route(l11,l8,tr2,1,95).
route(l11,l9,tr1,10,17).
route(l11,l10,tr1,1,17).
route(l11,l12,tr1,6,17).
route(l11,l13,tr2,9,95).
route(l11,l14,tr1,6,17).
route(l11,l15,tr2,5,95).
route(l12,l1,tr1,2,17).
route(l12,l2,tr1,4,17).
route(l12,l3,tr1,7,17).
route(l12,l4,tr1,6,17).
route(l12,l5,tr2,6,95).
route(l12,l6,tr2,4,95).
route(l12,l7,tr2,8,95).
route(l12,l8,tr2,4,95).
route(l12,l9,tr2,10,95).
route(l12,l10,tr2,6,95).
route(l12,l11,tr2,10,95).
route(l12,l13,tr2,7,95).
route(l12,l14,tr1,9,17).
route(l12,l15,tr2,4,95).
route(l13,l1,tr2,4,95).
route(l13,l2,tr1,2,17).
route(l13,l3,tr1,9,17).
route(l13,l4,tr1,9,17).
route(l13,l5,tr1,10,17).
route(l13,l6,tr2,9,95).
route(l13,l7,tr1,2,17).
route(l13,l8,tr2,5,95).
route(l13,l9,tr1,3,17).
route(l13,l10,tr2,8,95).
route(l13,l11,tr2,3,95).
route(l13,l12,tr1,5,17).
route(l13,l14,tr1,4,17).
route(l13,l15,tr1,8,17).
route(l14,l1,tr1,6,17).
route(l14,l2,tr2,4,95).
route(l14,l3,tr1,5,17).
route(l14,l4,tr1,10,17).
route(l14,l5,tr1,5,17).
route(l14,l6,tr2,9,95).
route(l14,l7,tr2,4,95).
route(l14,l8,tr1,2,17).
route(l14,l9,tr2,2,95).
route(l14,l10,tr2,4,95).
route(l14,l11,tr1,1,17).
route(l14,l12,tr1,3,17).
route(l14,l13,tr1,6,17).
route(l14,l15,tr1,7,17).
route(l15,l1,tr2,4,95).
route(l15,l2,tr2,9,95).
route(l15,l3,tr2,10,95).
route(l15,l4,tr2,4,95).
route(l15,l5,tr2,5,95).
route(l15,l6,tr1,2,17).
route(l15,l7,tr2,3,95).
route(l15,l8,tr2,8,95).
route(l15,l9,tr2,4,95).
route(l15,l10,tr1,7,17).
route(l15,l11,tr2,9,95).
route(l15,l12,tr2,9,95).
route(l15,l13,tr1,5,17).
route(l15,l14,tr1,2,17).

% Demand / supply  (non-zero entries only)
demandOffer(p2,l2,6).
demandOffer(p1,l3,-5).
demandOffer(p2,l3,-10).
demandOffer(p1,l4,-5).
demandOffer(p2,l4,6).
demandOffer(p1,l5,6).
demandOffer(p1,l6,4).
demandOffer(p1,l9,4).
demandOffer(p2,l9,2).
demandOffer(p2,l10,6).
demandOffer(p1,l11,-2).
demandOffer(p1,l12,1).
demandOffer(p1,l13,4).
demandOffer(p2,l13,7).
demandOffer(p2,l14,-3).
demandOffer(p1,l15,-7).
demandOffer(p2,l15,-14).
